********************************************************************************
Field Output Report, written Thu Feb 22 21:47:42 2024

Source 1
---------

   ODB: C:/Users/Isabel Haycock/OneDrive - Imperial College London/Fourth Year/FYP/Isabel Haycock/06 - FE models/Specimen_2/Plate_hole_1.odb
   Step: load
   Frame: Increment      9: Step Time =   0.9000

Loc 1 : Nodal values at shell < composite > < elset = ASSEMBLY_PLATE_1-1_COMPOSITELAYUP-1-1 > from source 1 : SNEG, (fraction = -1.0), Layer = 1
Loc 2 : Nodal values at shell < composite > < elset = ASSEMBLY_PLATE_1-1_COMPOSITELAYUP-1-1 > from source 1 : SPOS, (fraction = 1.0), Layer = 8

Output sorted by column "Node Label".

Field Output reported at nodes for part: PLATE_1-1
   Computation algorithm: EXTRAPOLATE_COMPUTE_AVERAGE
   Averaged at nodes
   Averaging regions: ODB_REGIONS

      Node Label           S.S11           S.S11           S.S22           S.S22           S.S12           S.S12
                          @Loc 1          @Loc 2          @Loc 1          @Loc 2          @Loc 1          @Loc 2
-----------------------------------------------------------------------------------------------------------------
               1     1.54725E+03     1.54725E+03        -71.5564        -71.5564        -32.4172        -32.4172
               2     1.47224E+03     1.47224E+03         1.95968         1.95968    -90.1187E-03    -90.1187E-03
               3     1.47248E+03     1.47248E+03     10.1228E-03     10.1228E-03    -10.1120E-03    -10.1120E-03
               4     1.48908E+03     1.48908E+03    -90.7075E-03    -90.7075E-03         3.08699         3.08699
               5     1.54789E+03     1.54789E+03        -71.3076        -71.3076         31.2712         31.2712
               6     1.47224E+03     1.47224E+03         1.95996         1.95996     90.1101E-03     90.1101E-03
               7     1.18707E+03     1.18707E+03         32.7130         32.7130        -4.53820        -4.53820
               8     1.48375E+03     1.48375E+03    -110.857E-03    -110.857E-03        -2.60200        -2.60200
               9     1.55038E+03     1.55038E+03        -74.5033        -74.5033         35.4468         35.4468
              10     1.57582E+03     1.57582E+03         154.353         154.353         1.73920         1.73920
              11     1.48937E+03     1.48937E+03    -94.6180E-03    -94.6180E-03        -3.08645        -3.08645
              12     1.47248E+03     1.47248E+03     10.1251E-03     10.1251E-03     10.1143E-03     10.1143E-03
              13     1.38429E+03     1.38429E+03         420.877         420.877        -91.6573        -91.6573
              14     2.24862E+03     2.24862E+03         310.169         310.169        -362.932        -362.932
              15     1.54869E+03     1.54869E+03        -74.9656        -74.9656        -37.4961        -37.4961
              16     1.48393E+03     1.48393E+03    -115.836E-03    -115.836E-03         2.60436         2.60436
              17     1.57524E+03     1.57524E+03         156.300         156.300        -4.43704        -4.43704
              18     1.38429E+03     1.38429E+03         420.865         420.865         91.6360         91.6360
              19     1.19143E+03     1.19143E+03         28.5009         28.5009        -4.53192        -4.53192
              20     2.24862E+03     2.24862E+03         310.169         310.169         362.931         362.931
              21        -24.3868        -24.3868    -1.03235E+03    -1.03235E+03     820.734E-03     820.734E-03
              22     1.22318E+03     1.22318E+03         285.312         285.312        -602.804        -602.804
              23     3.75007E+03     3.75007E+03         234.410         234.410     413.879E-03     413.879E-03
              24     1.24206E+03     1.24206E+03         293.456         293.456         611.163         611.163
              25     1.24427E+03     1.24427E+03         293.805         293.805         612.357         612.357
              26     1.20106E+03     1.20106E+03         281.515         281.515        -596.473        -596.473
              27     3.75739E+03     3.75739E+03         231.806         231.806         17.5994         17.5994
              28        -24.5594        -24.5594    -1.03679E+03    -1.03679E+03     897.424E-03     897.424E-03
              29     1.51847E+03     1.51847E+03        -57.3470        -57.3470        -37.6276        -37.6276
              30     1.50175E+03     1.50175E+03        -48.1871        -48.1871        -41.0841        -41.0841
              31     1.48853E+03     1.48853E+03        -38.5946        -38.5946        -41.1254        -41.1254
              32     1.47872E+03     1.47872E+03        -29.8127        -29.8127        -39.1449        -39.1449
              33     1.47175E+03     1.47175E+03        -22.2606        -22.2606        -36.1760        -36.1760
              34     1.46700E+03     1.46700E+03        -15.9830        -15.9830        -32.8780        -32.8780
              35     1.46388E+03     1.46388E+03        -10.8497        -10.8497        -29.6172        -29.6172
              36     1.46195E+03     1.46195E+03        -6.69677        -6.69677        -26.5739        -26.5739
              37     1.46088E+03     1.46088E+03        -3.36189        -3.36189        -23.8228        -23.8228
              38     1.46042E+03     1.46042E+03    -705.049E-03    -705.049E-03        -21.3784        -21.3784
              39     1.46038E+03     1.46038E+03         1.39177         1.39177        -19.2261        -19.2261
              40     1.46065E+03     1.46065E+03         3.02550         3.02550        -17.3370        -17.3370
              41     1.46111E+03     1.46111E+03         4.27604         4.27604        -15.6779        -15.6779
              42     1.46170E+03     1.46170E+03         5.20930         5.20930        -14.2160        -14.2160
              43     1.46237E+03     1.46237E+03         5.88005         5.88005        -12.9213        -12.9213
              44     1.46309E+03     1.46309E+03         6.33417         6.33417        -11.7677        -11.7677
              45     1.46382E+03     1.46382E+03         6.61032         6.61032        -10.7331        -10.7331
              46     1.46455E+03     1.46455E+03         6.74124         6.74124        -9.79902        -9.79902
              47     1.46526E+03     1.46526E+03         6.75475         6.75475        -8.95061        -8.95061
              48     1.46594E+03     1.46594E+03         6.67456         6.67456        -8.17577        -8.17577
              49     1.46659E+03     1.46659E+03         6.52082         6.52082        -7.46483        -7.46483
              50     1.46720E+03     1.46720E+03         6.31069         6.31069        -6.81005        -6.81005
              51     1.46777E+03     1.46777E+03         6.05871         6.05871        -6.20524        -6.20524
              52     1.46830E+03     1.46830E+03         5.77716         5.77716        -5.64541        -5.64541
              53     1.46878E+03     1.46878E+03         5.47637         5.47637        -5.12648        -5.12648
              54     1.46923E+03     1.46923E+03         5.16499         5.16499        -4.64502        -4.64502
              55     1.46964E+03     1.46964E+03         4.85019         4.85019        -4.19814        -4.19814
              56     1.47000E+03     1.47000E+03         4.53789         4.53789        -3.78327        -3.78327
              57     1.47034E+03     1.47034E+03         4.23295         4.23295        -3.39810        -3.39810
              58     1.47063E+03     1.47063E+03         3.93929         3.93929        -3.04047        -3.04047
              59     1.47090E+03     1.47090E+03         3.66006         3.66006        -2.70834        -2.70834
              60     1.47114E+03     1.47114E+03         3.39777         3.39777        -2.39973        -2.39973
              61     1.47134E+03     1.47134E+03         3.15438         3.15438        -2.11268        -2.11268
              62     1.47153E+03     1.47153E+03         2.93140         2.93140        -1.84525        -1.84525
              63     1.47169E+03     1.47169E+03         2.72998         2.72998        -1.59551        -1.59551
              64     1.47182E+03     1.47182E+03         2.55097         2.55097        -1.36152        -1.36152
              65     1.47194E+03     1.47194E+03         2.39500         2.39500        -1.14133        -1.14133
              66     1.47203E+03     1.47203E+03         2.26249         2.26249    -932.985E-03    -932.985E-03
              67     1.47211E+03     1.47211E+03         2.15377         2.15377    -734.522E-03    -734.522E-03
              68     1.47216E+03     1.47216E+03         2.06902         2.06902    -543.971E-03    -543.971E-03
              69     1.47220E+03     1.47220E+03         2.00839         2.00839    -359.362E-03    -359.362E-03
              70     1.47223E+03     1.47223E+03         1.97189         1.97189    -179.207E-03    -179.207E-03
              71     1.47241E+03     1.47241E+03         1.76452         1.76452    -97.6625E-03    -97.6625E-03
              72     1.47257E+03     1.47257E+03         1.56887         1.56887    -102.255E-03    -102.255E-03
              73     1.47272E+03     1.47272E+03         1.36653         1.36653    -104.474E-03    -104.474E-03
              74     1.47286E+03     1.47286E+03         1.16228         1.16228    -104.201E-03    -104.201E-03
              75     1.47298E+03     1.47298E+03     961.008E-03     961.008E-03    -101.392E-03    -101.392E-03
              76     1.47307E+03     1.47307E+03     767.696E-03     767.696E-03    -96.0435E-03    -96.0435E-03
              77     1.47312E+03     1.47312E+03     587.236E-03     587.236E-03    -88.2262E-03    -88.2262E-03
              78     1.47313E+03     1.47313E+03     424.344E-03     424.344E-03    -78.0533E-03    -78.0533E-03
              79     1.47309E+03     1.47309E+03     283.416E-03     283.416E-03    -65.7407E-03    -65.7407E-03
              80     1.47300E+03     1.47300E+03     168.416E-03     168.416E-03    -51.5111E-03    -51.5111E-03
              81     1.47284E+03     1.47284E+03     82.6720E-03     82.6720E-03    -35.7974E-03    -35.7974E-03
              82     1.47261E+03     1.47261E+03     28.8000E-03     28.8000E-03    -18.8879E-03    -18.8879E-03
              83     1.47250E+03     1.47250E+03     10.3270E-03     10.3270E-03    -18.5408E-03    -18.5408E-03
              84     1.47256E+03     1.47256E+03     10.6181E-03     10.6181E-03    -36.3234E-03    -36.3234E-03
              85     1.47265E+03     1.47265E+03     10.9100E-03     10.9100E-03    -55.3315E-03    -55.3315E-03
              86     1.47278E+03     1.47278E+03     11.4049E-03     11.4049E-03    -75.1570E-03    -75.1570E-03
              87     1.47295E+03     1.47295E+03     12.0415E-03     12.0415E-03    -96.1564E-03    -96.1564E-03
              88     1.47316E+03     1.47316E+03     12.8168E-03     12.8168E-03    -118.623E-03    -118.623E-03
              89     1.47342E+03     1.47342E+03     13.7337E-03     13.7337E-03    -142.857E-03    -142.857E-03
              90     1.47373E+03     1.47373E+03     14.7831E-03     14.7831E-03    -169.156E-03    -169.156E-03
              91     1.47409E+03     1.47409E+03     15.9647E-03     15.9647E-03    -197.816E-03    -197.816E-03
              92     1.47452E+03     1.47452E+03     17.2681E-03     17.2681E-03    -229.125E-03    -229.125E-03
              93     1.47500E+03     1.47500E+03     18.6852E-03     18.6852E-03    -263.363E-03    -263.363E-03
              94     1.47556E+03     1.47556E+03     20.2001E-03     20.2001E-03    -300.795E-03    -300.795E-03
              95     1.47620E+03     1.47620E+03     21.7938E-03     21.7938E-03    -341.658E-03    -341.658E-03
              96     1.47692E+03     1.47692E+03     23.4390E-03     23.4390E-03    -386.159E-03    -386.159E-03
              97     1.47774E+03     1.47774E+03     25.1000E-03     25.1000E-03    -434.451E-03    -434.451E-03
              98     1.47865E+03     1.47865E+03     26.7302E-03     26.7302E-03    -486.622E-03    -486.622E-03
              99     1.47967E+03     1.47967E+03     28.2672E-03     28.2672E-03    -542.664E-03    -542.664E-03
             100     1.48081E+03     1.48081E+03     29.6343E-03     29.6343E-03    -602.451E-03    -602.451E-03
             101     1.48207E+03     1.48207E+03     30.7278E-03     30.7278E-03    -665.692E-03    -665.692E-03
             102     1.48345E+03     1.48345E+03     31.4268E-03     31.4268E-03    -731.895E-03    -731.895E-03
             103     1.48497E+03     1.48497E+03     31.5660E-03     31.5660E-03    -800.302E-03    -800.302E-03
             104     1.48663E+03     1.48663E+03     30.9637E-03     30.9637E-03    -869.826E-03    -869.826E-03
             105     1.48843E+03     1.48843E+03     29.3685E-03     29.3685E-03    -938.972E-03    -938.972E-03
             106     1.49036E+03     1.49036E+03     26.5232E-03     26.5232E-03        -1.00575        -1.00575
             107     1.49241E+03     1.49241E+03     22.0694E-03     22.0694E-03        -1.06758        -1.06758
             108     1.49459E+03     1.49459E+03     15.6743E-03     15.6743E-03        -1.12117        -1.12117
             109     1.49685E+03     1.49685E+03     6.87419E-03     6.87419E-03        -1.16246        -1.16246
             110     1.49919E+03     1.49919E+03    -4.69849E-03    -4.69849E-03        -1.18653        -1.18653
             111     1.50154E+03     1.50154E+03    -19.5443E-03    -19.5443E-03        -1.18756        -1.18756
             112     1.50387E+03     1.50387E+03    -37.9418E-03    -37.9418E-03        -1.15885        -1.15885
             113     1.50611E+03     1.50611E+03    -60.2194E-03    -60.2194E-03        -1.09306        -1.09306
             114     1.50817E+03     1.50817E+03    -86.3055E-03    -86.3055E-03    -982.382E-03    -982.382E-03
             115     1.50996E+03     1.50996E+03    -115.928E-03    -115.928E-03    -819.229E-03    -819.229E-03
             116     1.51136E+03     1.51136E+03    -148.239E-03    -148.239E-03    -596.835E-03    -596.835E-03
             117     1.51226E+03     1.51226E+03    -181.728E-03    -181.728E-03    -310.542E-03    -310.542E-03
             118     1.51253E+03     1.51253E+03    -214.271E-03    -214.271E-03     41.0611E-03     41.0611E-03
             119     1.51204E+03     1.51204E+03    -242.575E-03    -242.575E-03     454.317E-03     454.317E-03
             120     1.51067E+03     1.51067E+03    -263.032E-03    -263.032E-03     919.069E-03     919.069E-03
             121     1.50835E+03     1.50835E+03    -270.878E-03    -270.878E-03         1.41716         1.41716
             122     1.50503E+03     1.50503E+03    -261.857E-03    -261.857E-03         1.92164         1.92164
             123     1.50074E+03     1.50074E+03    -232.053E-03    -232.053E-03         2.39755         2.39755
             124     1.49557E+03     1.49557E+03    -178.792E-03    -178.792E-03         2.80080         2.80080
             125     1.49035E+03     1.49035E+03    -266.130E-03    -266.130E-03         5.69287         5.69287
             126     1.49316E+03     1.49316E+03    -780.342E-03    -780.342E-03         10.2374         10.2374
             127     1.49647E+03     1.49647E+03        -1.62965        -1.62965         13.6025         13.6025
             128     1.50022E+03     1.50022E+03        -2.86851        -2.86851         16.0613         16.0613
             129     1.50443E+03     1.50443E+03        -4.62235        -4.62235         17.7896         17.7896
             130     1.50917E+03     1.50917E+03        -7.08171        -7.08171         18.8417         18.8417
             131     1.51449E+03     1.51449E+03        -10.5021        -10.5021         19.1368         19.1368
             132     1.52044E+03     1.52044E+03        -15.1985        -15.1985         18.4290         18.4290
             133     1.52694E+03     1.52694E+03        -21.5232        -21.5232         16.2453         16.2453
             134     1.53363E+03     1.53363E+03        -29.7718        -29.7718         11.8315         11.8315
             135     1.53958E+03     1.53958E+03        -39.9984        -39.9984         4.11911         4.11911
             136     1.54297E+03     1.54297E+03        -51.5907        -51.5907        -8.01627        -8.01627
             137     1.51925E+03     1.51925E+03        -57.1975        -57.1975         36.4799         36.4799
             138     1.50266E+03     1.50266E+03        -48.2411        -48.2411         40.1460         40.1460
             139     1.48947E+03     1.48947E+03        -38.7973        -38.7973         40.4270         40.4270
             140     1.47960E+03     1.47960E+03        -30.0898        -30.0898         38.6732         38.6732
             141     1.47253E+03     1.47253E+03        -22.5518        -22.5518         35.8854         35.8854
             142     1.46765E+03     1.46765E+03        -16.2527        -16.2527         32.7177         32.7177
             143     1.46441E+03     1.46441E+03        -11.0834        -11.0834         29.5433         29.5433
             144     1.46239E+03     1.46239E+03        -6.89223        -6.89223         26.5556         26.5556
             145     1.46123E+03     1.46123E+03        -3.52180        -3.52180         23.8384         23.8384
             146     1.46070E+03     1.46070E+03    -834.489E-03    -834.489E-03         21.4140         21.4140
             147     1.46062E+03     1.46062E+03         1.28761         1.28761         19.2724         19.2724
             148     1.46083E+03     1.46083E+03         2.94174         2.94174         17.3880         17.3880
             149     1.46126E+03     1.46126E+03         4.20855         4.20855         15.7301         15.7301
             150     1.46183E+03     1.46183E+03         5.15465         5.15465         14.2670         14.2670
             151     1.46248E+03     1.46248E+03         5.83551         5.83551         12.9699         12.9699
             152     1.46317E+03     1.46317E+03         6.29759         6.29759         11.8131         11.8131
             153     1.46389E+03     1.46389E+03         6.58001         6.58001         10.7748         10.7748
             154     1.46461E+03     1.46461E+03         6.71590         6.71590         9.83702         9.83702
             155     1.46531E+03     1.46531E+03         6.73339         6.73339         8.98489         8.98489
             156     1.46598E+03     1.46598E+03         6.65641         6.65641         8.20646         8.20646
             157     1.46662E+03     1.46662E+03         6.50530         6.50530         7.49210         7.49210
             158     1.46723E+03     1.46723E+03         6.29735         6.29735         6.83414         6.83414
             159     1.46779E+03     1.46779E+03         6.04719         6.04719         6.22639         6.22639
             160     1.46832E+03     1.46832E+03         5.76720         5.76720         5.66387         5.66387
             161     1.46880E+03     1.46880E+03         5.46775         5.46775         5.14248         5.14248
             162     1.46924E+03     1.46924E+03         5.15753         5.15753         4.65881         4.65881
             163     1.46965E+03     1.46965E+03         4.84375         4.84375         4.20994         4.20994
             164     1.47001E+03     1.47001E+03         4.53236         4.53236         3.79330         3.79330
             165     1.47034E+03     1.47034E+03         4.22821         4.22821         3.40656         3.40656
             166     1.47064E+03     1.47064E+03         3.93525         3.93525         3.04756         3.04756
             167     1.47091E+03     1.47091E+03         3.65664         3.65664         2.71422         2.71422
             168     1.47114E+03     1.47114E+03         3.39491         3.39491         2.40456         2.40456
             169     1.47135E+03     1.47135E+03         3.15200         3.15200         2.11659         2.11659
             170     1.47153E+03     1.47153E+03         2.92946         2.92946         1.84838         1.84838
             171     1.47169E+03     1.47169E+03         2.72842         2.72842         1.59798         1.59798
             172     1.47182E+03     1.47182E+03         2.54975         2.54975         1.36342         1.36342
             173     1.47194E+03     1.47194E+03         2.39408         2.39408         1.14276         1.14276
             174     1.47203E+03     1.47203E+03         2.26185         2.26185     934.031E-03     934.031E-03
             175     1.47211E+03     1.47211E+03         2.15338         2.15338     735.250E-03     735.250E-03
             176     1.47216E+03     1.47216E+03         2.06886         2.06886     544.441E-03     544.441E-03
             177     1.47220E+03     1.47220E+03         2.00844         2.00844     359.620E-03     359.620E-03
             178     1.47223E+03     1.47223E+03         1.97212         1.97212     179.284E-03     179.284E-03
             179     1.47206E+03     1.47206E+03         2.15778         2.15778     78.8918E-03     78.8918E-03
             180     1.47189E+03     1.47189E+03         2.33627         2.33627     64.4682E-03     64.4682E-03
             181     1.47176E+03     1.47176E+03         2.47596         2.47596     47.7750E-03     47.7750E-03
             182     1.47166E+03     1.47166E+03         2.57191         2.57191     29.3988E-03     29.3988E-03
             183     1.47161E+03     1.47161E+03         2.62073         2.62073     9.98201E-03     9.98201E-03
             184     1.47161E+03     1.47161E+03         2.62069         2.62069    -9.79618E-03    -9.79618E-03
             185     1.47166E+03     1.47166E+03         2.57181         2.57181    -29.2403E-03    -29.2403E-03
             186     1.47176E+03     1.47176E+03         2.47582         2.47582    -47.6750E-03    -47.6750E-03
             187     1.47189E+03     1.47189E+03         2.33607         2.33607    -64.4321E-03    -64.4321E-03
             188     1.47206E+03     1.47206E+03         2.15752         2.15752    -78.8770E-03    -78.8770E-03
             189     1.21945E+03     1.21945E+03         17.0694         17.0694         80.2540         80.2540
             190     1.30649E+03     1.30649E+03        -22.4734        -22.4734         126.319         126.319
             191     1.40283E+03     1.40283E+03        -59.8350        -59.8350         128.896         128.896
             192     1.47757E+03     1.47757E+03        -79.7478        -79.7478         102.881         102.881
             193     1.52213E+03     1.52213E+03        -81.5481        -81.5481         67.9148         67.9148
             194     1.51399E+03     1.51399E+03        -81.3871        -81.3871        -74.8610        -74.8610
             195     1.44986E+03     1.44986E+03        -72.8891        -72.8891        -114.025        -114.025
             196     1.34675E+03     1.34675E+03        -38.4527        -38.4527        -129.184        -129.184
             197     1.23860E+03     1.23860E+03         8.26029         8.26029        -90.4871        -90.4871
             198     1.48513E+03     1.48513E+03    -325.012E-03    -325.012E-03        -4.75041        -4.75041
             199     1.48824E+03     1.48824E+03    -950.961E-03    -950.961E-03        -8.41051        -8.41051
             200     1.49198E+03     1.49198E+03        -1.97526        -1.97526        -10.9651        -10.9651
             201     1.49627E+03     1.49627E+03        -3.44132        -3.44132        -12.7079        -12.7079
             202     1.50110E+03     1.50110E+03        -5.46372        -5.46372        -13.8271        -13.8271
             203     1.50651E+03     1.50651E+03        -8.22248        -8.22248        -14.3864        -14.3864
             204     1.51255E+03     1.51255E+03        -11.9633        -11.9633        -14.3104        -14.3104
             205     1.51925E+03     1.51925E+03        -16.9917        -16.9917        -13.3559        -13.3559
             206     1.52648E+03     1.52648E+03        -23.6513        -23.6513        -11.0495        -11.0495
             207     1.53389E+03     1.53389E+03        -32.2297        -32.2297        -6.63194        -6.63194
             208     1.54053E+03     1.54053E+03        -42.7728        -42.7728     973.288E-03     973.288E-03
             209     1.54454E+03     1.54454E+03        -54.6692        -54.6692         12.9164         12.9164
             210     1.58257E+03     1.58257E+03        -65.3515        -65.3515         4.04213         4.04213
             211     1.60317E+03     1.60317E+03        -30.2813        -30.2813        -30.4267        -30.4267
             212     1.60336E+03     1.60336E+03         38.7708         38.7708        -55.2703        -55.2703
             213     1.58660E+03     1.58660E+03         117.788         117.788        -45.2280        -45.2280
             214     1.58621E+03     1.58621E+03         118.459         118.459         48.7370         48.7370
             215     1.60256E+03     1.60256E+03         40.1321         40.1321         58.8869         58.8869
             216     1.60195E+03     1.60195E+03        -28.2388        -28.2388         34.2486         34.2486
             217     1.58090E+03     1.58090E+03        -62.6740        -62.6740     67.9818E-03     67.9818E-03
             218     1.48097E+03     1.48097E+03     41.1224E-03     41.1224E-03         3.16830         3.16830
             219     1.47251E+03     1.47251E+03     196.040E-03     196.040E-03         2.91278         2.91278
             220     1.46530E+03     1.46530E+03     339.414E-03     339.414E-03         2.27051         2.27051
             221     1.46032E+03     1.46032E+03     440.665E-03     440.665E-03         1.30979         1.30979
             222     1.45827E+03     1.45827E+03     476.043E-03     476.043E-03     170.852E-03     170.852E-03
             223     1.45937E+03     1.45937E+03     436.470E-03     436.470E-03    -962.158E-03    -962.158E-03
             224     1.46336E+03     1.46336E+03     331.043E-03     331.043E-03        -1.90509        -1.90509
             225     1.46951E+03     1.46951E+03     183.592E-03     183.592E-03        -2.51775        -2.51775
             226     1.47681E+03     1.47681E+03     24.6264E-03     24.6264E-03        -2.73177        -2.73177
             227     1.54272E+03     1.54272E+03        -51.6965        -51.6965         8.18291         8.18291
             228     1.53940E+03     1.53940E+03        -40.1086        -40.1086        -3.99837        -3.99837
             229     1.53349E+03     1.53349E+03        -29.8899        -29.8899        -11.7277        -11.7277
             230     1.52684E+03     1.52684E+03        -21.6499        -21.6499        -16.1530        -16.1530
             231     1.52038E+03     1.52038E+03        -15.3288        -15.3288        -18.3503        -18.3503
             232     1.51446E+03     1.51446E+03        -10.6273        -10.6273        -19.0743        -19.0743
             233     1.50917E+03     1.50917E+03        -7.19283        -7.19283        -18.7954        -18.7954
             234     1.50447E+03     1.50447E+03        -4.71250        -4.71250        -17.7564        -17.7564
             235     1.50029E+03     1.50029E+03        -2.93454        -2.93454        -16.0373        -16.0373
             236     1.49658E+03     1.49658E+03        -1.67168        -1.67168        -13.5842        -13.5842
             237     1.49333E+03     1.49333E+03    -802.544E-03    -802.544E-03        -10.2237        -10.2237
             238     1.49060E+03     1.49060E+03    -274.992E-03    -274.992E-03        -5.68698        -5.68698
             239     1.49565E+03     1.49565E+03    -178.571E-03    -178.571E-03        -2.79765        -2.79765
             240     1.50081E+03     1.50081E+03    -232.268E-03    -232.268E-03        -2.39361        -2.39361
             241     1.50510E+03     1.50510E+03    -261.894E-03    -261.894E-03        -1.91762        -1.91762
             242     1.50841E+03     1.50841E+03    -270.964E-03    -270.964E-03        -1.41314        -1.41314
             243     1.51072E+03     1.51072E+03    -262.960E-03    -262.960E-03    -915.157E-03    -915.157E-03
             244     1.51208E+03     1.51208E+03    -242.492E-03    -242.492E-03    -450.658E-03    -450.658E-03
             245     1.51257E+03     1.51257E+03    -214.115E-03    -214.115E-03    -37.7217E-03    -37.7217E-03
             246     1.51229E+03     1.51229E+03    -181.558E-03    -181.558E-03     313.487E-03     313.487E-03
             247     1.51139E+03     1.51139E+03    -148.059E-03    -148.059E-03     599.381E-03     599.381E-03
             248     1.50998E+03     1.50998E+03    -115.750E-03    -115.750E-03     821.375E-03     821.375E-03
             249     1.50819E+03     1.50819E+03    -86.1506E-03    -86.1506E-03     984.167E-03     984.167E-03
             250     1.50612E+03     1.50612E+03    -60.0770E-03    -60.0770E-03         1.09452         1.09452
             251     1.50388E+03     1.50388E+03    -37.8304E-03    -37.8304E-03         1.16005         1.16005
             252     1.50155E+03     1.50155E+03    -19.4463E-03    -19.4463E-03         1.18853         1.18853
             253     1.49919E+03     1.49919E+03    -4.62652E-03    -4.62652E-03         1.18733         1.18733
             254     1.49686E+03     1.49686E+03     6.93700E-03     6.93700E-03         1.16312         1.16312
             255     1.49459E+03     1.49459E+03     15.7190E-03     15.7190E-03         1.12171         1.12171
             256     1.49242E+03     1.49242E+03     22.1091E-03     22.1091E-03         1.06803         1.06803
             257     1.49036E+03     1.49036E+03     26.5514E-03     26.5514E-03         1.00613         1.00613
             258     1.48843E+03     1.48843E+03     29.3946E-03     29.3946E-03     939.295E-03     939.295E-03
             259     1.48663E+03     1.48663E+03     30.9825E-03     30.9825E-03     870.102E-03     870.102E-03
             260     1.48497E+03     1.48497E+03     31.5841E-03     31.5841E-03     800.540E-03     800.540E-03
             261     1.48345E+03     1.48345E+03     31.4402E-03     31.4402E-03     732.101E-03     732.101E-03
             262     1.48207E+03     1.48207E+03     30.7409E-03     30.7409E-03     665.871E-03     665.871E-03
             263     1.48081E+03     1.48081E+03     29.6444E-03     29.6444E-03     602.606E-03     602.606E-03
             264     1.47967E+03     1.47967E+03     28.2771E-03     28.2771E-03     542.799E-03     542.799E-03
             265     1.47865E+03     1.47865E+03     26.7382E-03     26.7382E-03     486.740E-03     486.740E-03
             266     1.47774E+03     1.47774E+03     25.1078E-03     25.1078E-03     434.554E-03     434.554E-03
             267     1.47692E+03     1.47692E+03     23.4454E-03     23.4454E-03     386.248E-03     386.248E-03
             268     1.47620E+03     1.47620E+03     21.7999E-03     21.7999E-03     341.736E-03     341.736E-03
             269     1.47556E+03     1.47556E+03     20.2051E-03     20.2051E-03     300.862E-03     300.862E-03
             270     1.47500E+03     1.47500E+03     18.6900E-03     18.6900E-03     263.421E-03     263.421E-03
             271     1.47451E+03     1.47451E+03     17.2722E-03     17.2722E-03     229.175E-03     229.175E-03
             272     1.47409E+03     1.47409E+03     15.9687E-03     15.9687E-03     197.859E-03     197.859E-03
             273     1.47373E+03     1.47373E+03     14.7865E-03     14.7865E-03     169.193E-03     169.193E-03
             274     1.47342E+03     1.47342E+03     13.7370E-03     13.7370E-03     142.887E-03     142.887E-03
             275     1.47316E+03     1.47316E+03     12.8198E-03     12.8198E-03     118.648E-03     118.648E-03
             276     1.47294E+03     1.47294E+03     12.0444E-03     12.0444E-03     96.1767E-03     96.1767E-03
             277     1.47277E+03     1.47277E+03     11.4075E-03     11.4075E-03     75.1729E-03     75.1729E-03
             278     1.47265E+03     1.47265E+03     10.9126E-03     10.9126E-03     55.3432E-03     55.3432E-03
             279     1.47255E+03     1.47255E+03     10.6206E-03     10.6206E-03     36.3310E-03     36.3310E-03
             280      1.4725E+03      1.4725E+03     10.3294E-03     10.3294E-03     18.5448E-03     18.5448E-03
             281     1.47261E+03     1.47261E+03     28.8066E-03     28.8066E-03     18.8921E-03     18.8921E-03
             282     1.47284E+03     1.47284E+03     82.6904E-03     82.6904E-03     35.8051E-03     35.8051E-03
             283     1.47299E+03     1.47299E+03     168.453E-03     168.453E-03     51.5220E-03     51.5220E-03
             284     1.47309E+03     1.47309E+03     283.477E-03     283.477E-03     65.7545E-03     65.7545E-03
             285     1.47313E+03     1.47313E+03     424.435E-03     424.435E-03     78.0695E-03     78.0695E-03
             286     1.47312E+03     1.47312E+03     587.360E-03     587.360E-03     88.2440E-03     88.2440E-03
             287     1.47307E+03     1.47307E+03     767.857E-03     767.857E-03     96.0626E-03     96.0626E-03
             288     1.47298E+03     1.47298E+03     961.206E-03     961.206E-03     101.411E-03     101.411E-03
             289     1.47286E+03     1.47286E+03         1.16251         1.16251     104.221E-03     104.221E-03
             290     1.47272E+03     1.47272E+03         1.36681         1.36681     104.490E-03     104.490E-03
             291     1.47256E+03     1.47256E+03         1.56917         1.56917     102.269E-03     102.269E-03
             292     1.47241E+03     1.47241E+03         1.76482         1.76482     97.6477E-03     97.6477E-03
             293     1.39155E+03     1.39155E+03         403.632         403.632        -92.2361        -92.2361
             294     1.40608E+03     1.40608E+03         368.911         368.911        -91.6943        -91.6943
             295     1.42019E+03     1.42019E+03         334.154         334.154        -88.7288        -88.7288
             296     1.43356E+03     1.43356E+03         300.078         300.078        -84.3276        -84.3276
             297     1.44585E+03     1.44585E+03         267.238         267.238        -78.6039        -78.6039
             298     1.45685E+03     1.45685E+03         236.110         236.110        -71.8342        -71.8342
             299     1.46643E+03     1.46643E+03         207.045         207.045        -64.2807        -64.2807
             300     1.47450E+03     1.47450E+03         180.303         180.303        -56.2775        -56.2775
             301     1.48113E+03     1.48113E+03         155.992         155.992        -48.1154        -48.1154
             302     1.48634E+03     1.48634E+03         134.142         134.142        -40.0572        -40.0572
             303     1.49031E+03     1.49031E+03         114.683         114.683        -32.3213        -32.3213
             304     1.49315E+03     1.49315E+03         97.4955         97.4955        -25.0520        -25.0520
             305     1.49502E+03     1.49502E+03         82.4253         82.4253        -18.3641        -18.3641
             306     1.49607E+03     1.49607E+03         69.2904         69.2904        -12.3006        -12.3006
             307     1.49643E+03     1.49643E+03         57.9154         57.9154        -6.89117        -6.89117
             308     1.49623E+03     1.49623E+03         48.1123         48.1123        -2.11564        -2.11564
             309     1.49557E+03     1.49557E+03         39.7158         39.7158         2.04887         2.04887
             310     1.49454E+03     1.49454E+03         32.5566         32.5566         5.65328         5.65328
             311     1.49323E+03     1.49323E+03         26.4894         26.4894         8.74580         8.74580
             312     1.49169E+03     1.49169E+03         21.3696         21.3696         11.3877         11.3877
             313     1.48998E+03     1.48998E+03         17.0729         17.0729         13.6352         13.6352
             314     1.48814E+03     1.48814E+03         13.4773         13.4773         15.5494         15.5494
             315     1.48621E+03     1.48621E+03         10.4758         10.4758         17.1862         17.1862
             316     1.48423E+03     1.48423E+03         7.96420         7.96420         18.6023         18.6023
             317     1.48223E+03     1.48223E+03         5.84856         5.84856         19.8501         19.8501
             318     1.48023E+03     1.48023E+03         4.03668         4.03668         20.9821         20.9821
             319     1.47825E+03     1.47825E+03         2.44234         2.44234         22.0480         22.0480
             320     1.47635E+03     1.47635E+03     979.343E-03     979.343E-03         23.0976         23.0976
             321     1.47454E+03     1.47454E+03    -436.777E-03    -436.777E-03         24.1802         24.1802
             322     1.47287E+03     1.47287E+03        -1.89331        -1.89331         25.3455         25.3455
             323     1.47140E+03     1.47140E+03        -3.48067        -3.48067         26.6432         26.6432
             324     1.47020E+03     1.47020E+03        -5.29649        -5.29649         28.1228         28.1228
             325     1.46936E+03     1.46936E+03        -7.44798        -7.44798         29.8303         29.8303
             326     1.46904E+03     1.46904E+03        -10.0556        -10.0556         31.8043         31.8043
             327     1.46939E+03     1.46939E+03        -13.2570        -13.2570         34.0655         34.0655
             328     1.47068E+03     1.47068E+03        -17.2069        -17.2069         36.6006         36.6006
             329     1.47323E+03     1.47323E+03        -22.0770        -22.0770         39.3330         39.3330
             330     1.47748E+03     1.47748E+03        -28.0307        -28.0307         42.0752         42.0752
             331     1.48398E+03     1.48398E+03        -35.1874        -35.1874         44.4586         44.4586
             332     1.49331E+03     1.49331E+03        -43.4841        -43.4841         45.8319         45.8319
             333     1.50602E+03     1.50602E+03        -52.4929        -52.4929         45.1961         45.1961
             334     1.52216E+03     1.52216E+03        -60.9863        -60.9863         41.2010         41.2010
             335     1.48913E+03     1.48913E+03    -201.997E-03    -201.997E-03        -2.26694        -2.26694
             336     1.49319E+03     1.49319E+03    -257.881E-03    -257.881E-03        -1.81227        -1.81227
             337     1.49626E+03     1.49626E+03    -290.440E-03    -290.440E-03        -1.27874        -1.27874
             338     1.49824E+03     1.49824E+03    -301.905E-03    -301.905E-03    -710.461E-03    -710.461E-03
             339     1.49909E+03     1.49909E+03    -296.756E-03    -296.756E-03    -142.318E-03    -142.318E-03
             340     1.49884E+03     1.49884E+03    -278.520E-03    -278.520E-03     398.781E-03     398.781E-03
             341     1.49756E+03     1.49756E+03    -252.770E-03    -252.770E-03     894.644E-03     894.644E-03
             342     1.49535E+03     1.49535E+03    -222.031E-03    -222.031E-03         1.33507         1.33507
             343     1.49232E+03     1.49232E+03    -190.819E-03    -190.819E-03         1.71621         1.71621
             344     1.48859E+03     1.48859E+03    -159.544E-03    -159.544E-03         2.03922         2.03922
             345     1.48427E+03     1.48427E+03    -131.728E-03    -131.728E-03         2.30833         2.30833
             346     1.47947E+03     1.47947E+03    -105.383E-03    -105.383E-03         2.52973         2.52973
             347     1.47427E+03     1.47427E+03    -84.2047E-03    -84.2047E-03         2.71023         2.71023
             348     1.46875E+03     1.46875E+03    -63.4966E-03    -63.4966E-03         2.85662         2.85662
             349     1.46296E+03     1.46296E+03    -48.7922E-03    -48.7922E-03         2.97501         2.97501
             350     1.45696E+03     1.45696E+03    -31.7636E-03    -31.7636E-03         3.07049         3.07049
             351     1.45078E+03     1.45078E+03    -21.9278E-03    -21.9278E-03         3.14696         3.14696
             352     1.44448E+03     1.44448E+03    -5.31213E-03    -5.31213E-03         3.20697         3.20697
             353     1.43807E+03     1.43807E+03     1.46119E-03     1.46119E-03         3.25175         3.25175
             354     1.43158E+03     1.43158E+03     21.7514E-03     21.7514E-03         3.28107         3.28107
             355     1.42505E+03     1.42505E+03     26.7964E-03     26.7964E-03         3.29342         3.29342
             356     1.41852E+03     1.41852E+03     55.9108E-03     55.9108E-03         3.28562         3.28562
             357     1.41203E+03     1.41203E+03     59.6831E-03     59.6831E-03         3.25329         3.25329
             358     1.40563E+03     1.40563E+03     104.768E-03     104.768E-03         3.18974         3.18974
             359     1.39940E+03     1.39940E+03     106.427E-03     106.427E-03         3.08729         3.08729
             360     1.39341E+03     1.39341E+03     178.540E-03     178.540E-03         2.93420         2.93420
             361     1.38780E+03     1.38780E+03     175.249E-03     175.249E-03         2.71861         2.71861
             362     1.38268E+03     1.38268E+03     293.217E-03     293.217E-03         2.41991         2.41991
             363     1.37826E+03     1.37826E+03     278.678E-03     278.678E-03         2.02069         2.02069
             364     1.37477E+03     1.37477E+03     477.602E-03     477.602E-03         1.48186         1.48186
             365     1.37251E+03     1.37251E+03     438.522E-03     438.522E-03     779.289E-03     779.289E-03
             366     1.37187E+03     1.37187E+03     791.015E-03     791.015E-03    -170.682E-03    -170.682E-03
             367     1.37340E+03     1.37340E+03     697.006E-03     697.006E-03        -1.39593        -1.39593
             368     1.37781E+03     1.37781E+03         1.37442         1.37442        -3.10300        -3.10300
             369     1.38612E+03     1.38612E+03         1.14475         1.14475        -5.29960        -5.29960
             370     1.39979E+03     1.39979E+03         2.62565         2.62565        -8.58150        -8.58150
             371     1.42102E+03     1.42102E+03         2.00563         2.00563        -12.8212        -12.8212
             372     1.45350E+03     1.45350E+03         5.96167         5.96167        -20.0970        -20.0970
             373     1.50297E+03     1.50297E+03         3.99348         3.99348        -29.6236        -29.6236
             374     1.58294E+03     1.58294E+03         18.7911         18.7911        -51.3283        -51.3283
             375     1.71555E+03     1.71555E+03         11.0259         11.0259        -81.3594        -81.3594
             376     2.02332E+03     2.02332E+03         144.353         144.353        -228.490        -228.490
             377     1.96925E+03     1.96925E+03         377.906         377.906        -386.166        -386.166
             378     1.64490E+03     1.64490E+03         436.423         436.423        -361.327        -361.327
             379     1.55556E+03     1.55556E+03         428.759         428.759        -304.031        -304.031
             380     1.49445E+03     1.49445E+03         428.389         428.389        -273.325        -273.325
             381     1.46175E+03     1.46175E+03         425.435         425.435        -241.665        -241.665
             382     1.43783E+03     1.43783E+03         423.975         423.975        -217.742        -217.742
             383     1.42240E+03     1.42240E+03         422.775         422.775        -194.702        -194.702
             384     1.41064E+03     1.41064E+03         421.966         421.966        -174.960        -174.960
             385     1.40236E+03     1.40236E+03           421.5           421.5        -156.137        -156.137
             386     1.39588E+03     1.39588E+03         421.140         421.140        -139.050        -139.050
             387     1.39109E+03     1.39109E+03         420.995         420.995        -122.700        -122.700
             388     1.38729E+03     1.38729E+03         420.867         420.867        -107.380        -107.380
             389     1.54391E+03     1.54391E+03        -54.9125        -54.9125        -13.7011        -13.7011
             390     1.54015E+03     1.54015E+03        -43.1940        -43.1940        -1.71589        -1.71589
             391     1.53373E+03     1.53373E+03        -32.7485        -32.7485         6.02219         6.02219
             392     1.52648E+03     1.52648E+03        -24.1795        -24.1795         10.6032         10.6032
             393     1.51932E+03     1.51932E+03        -17.4672        -17.4672         13.0589         13.0589
             394     1.51267E+03     1.51267E+03        -12.3562        -12.3562         14.1296         14.1296
             395     1.50663E+03     1.50663E+03        -8.52699        -8.52699         14.2875         14.2875
             396     1.50121E+03     1.50121E+03        -5.68592        -5.68592         13.7826         13.7826
             397     1.49638E+03     1.49638E+03        -3.59233        -3.59233         12.6967         12.6967
             398     1.49209E+03     1.49209E+03        -2.06741        -2.06741         10.9719         10.9719
             399     1.48836E+03     1.48836E+03    -997.101E-03    -997.101E-03         8.42274         8.42274
             400     1.48529E+03     1.48529E+03    -340.678E-03    -340.678E-03         4.75766         4.75766
             401     1.47749E+03     1.47749E+03     7.89383E-03     7.89383E-03         2.75561         2.75561
             402     1.47069E+03     1.47069E+03     152.012E-03     152.012E-03         2.61637         2.61637
             403     1.46469E+03     1.46469E+03     293.415E-03     293.415E-03         2.13864         2.13864
             404     1.46028E+03     1.46028E+03     405.527E-03     405.527E-03         1.35954         1.35954
             405     1.45813E+03     1.45813E+03     475.001E-03     475.001E-03     364.505E-03     364.505E-03
             406     1.45860E+03     1.45860E+03     473.232E-03     473.232E-03    -708.810E-03    -708.810E-03
             407     1.46169E+03     1.46169E+03     410.060E-03     410.060E-03        -1.70285        -1.70285
             408     1.46702E+03     1.46702E+03     306.905E-03     306.905E-03        -2.49881        -2.49881
             409     1.47400E+03     1.47400E+03     168.496E-03     168.496E-03        -3.00891        -3.00891
             410     1.48184E+03     1.48184E+03     26.5475E-03     26.5475E-03        -3.18991        -3.18991
             411     1.58290E+03     1.58290E+03         131.774         131.774         40.9906         40.9906
             412     1.59936E+03     1.59936E+03         67.2150         67.2150         58.9267         58.9267
             413     1.60737E+03     1.60737E+03    -385.545E-03    -385.545E-03         47.0657         47.0657
             414     1.59922E+03     1.59922E+03        -47.3351        -47.3351         19.0368         19.0368
             415     1.57843E+03     1.57843E+03        -69.2065        -69.2065        -9.61369        -9.61369
             416     1.58069E+03     1.58069E+03        -62.9255        -62.9255     170.435E-03     170.435E-03
             417     1.60185E+03     1.60185E+03        -28.7198        -28.7198        -33.9989        -33.9989
             418     1.60265E+03     1.60265E+03         39.3848         39.3848        -58.7614        -58.7614
             419     1.58650E+03     1.58650E+03         117.555         117.555        -48.9390        -48.9390
             420     1.39155E+03     1.39155E+03         403.623         403.623         92.2100         92.2100
             421     1.40608E+03     1.40608E+03         368.910         368.910         91.6565         91.6565
             422     1.42019E+03     1.42019E+03         334.162         334.162         88.6781         88.6781
             423     1.43355E+03     1.43355E+03         300.099         300.099         84.2654         84.2654
             424     1.44583E+03     1.44583E+03         267.272         267.272         78.5324         78.5324
             425     1.45683E+03     1.45683E+03         236.158         236.158         71.7573         71.7573
             426     1.46641E+03     1.46641E+03         207.107         207.107         64.2018         64.2018
             427     1.47448E+03     1.47448E+03         180.377         180.377         56.2009         56.2009
             428     1.48110E+03     1.48110E+03         156.075         156.075         48.0439         48.0439
             429     1.48632E+03     1.48632E+03         134.232         134.232         39.9938         39.9938
             430     1.49030E+03     1.49030E+03         114.778         114.778         32.2680         32.2680
             431     1.49314E+03     1.49314E+03         97.5925         97.5925         25.0099         25.0099
             432     1.49502E+03     1.49502E+03         82.5219         82.5219         18.3342         18.3342
             433     1.49607E+03     1.49607E+03         69.3846         69.3846         12.2829         12.2829
             434     1.49644E+03     1.49644E+03         58.0055         58.0055         6.88589         6.88589
             435     1.49625E+03     1.49625E+03         48.1970         48.1970         2.12213         2.12213
             436     1.49560E+03     1.49560E+03         39.7944         39.7944        -2.03085        -2.03085
             437     1.49458E+03     1.49458E+03         32.6285         32.6285        -5.62464        -5.62464
             438     1.49327E+03     1.49327E+03         26.5548         26.5548        -8.70699        -8.70699
             439     1.49173E+03     1.49173E+03         21.4285         21.4285        -11.3396        -11.3396
             440     1.49002E+03     1.49002E+03         17.1259         17.1259        -13.5784        -13.5784
             441     1.48818E+03     1.48818E+03         13.5250         13.5250        -15.4847        -15.4847
             442     1.48625E+03     1.48625E+03         10.5194         10.5194        -17.1140        -17.1140
             443     1.48426E+03     1.48426E+03         8.00468         8.00468        -18.5233        -18.5233
             444     1.48225E+03     1.48225E+03         5.88754         5.88754        -19.7649        -19.7649
             445     1.48024E+03     1.48024E+03         4.07579         4.07579        -20.8913        -20.8913
             446     1.47825E+03     1.47825E+03         2.48374         2.48374        -21.9523        -21.9523
             447     1.47632E+03     1.47632E+03         1.02540         1.02540        -22.9979        -22.9979
             448     1.47449E+03     1.47449E+03    -383.033E-03    -383.033E-03        -24.0776        -24.0776
             449     1.47279E+03     1.47279E+03        -1.82844        -1.82844        -25.2417        -25.2417
             450     1.47128E+03     1.47128E+03        -3.40039        -3.40039        -26.5407        -26.5407
             451     1.47003E+03     1.47003E+03        -5.19600        -5.19600        -28.0255        -28.0255
             452     1.46914E+03     1.46914E+03        -7.32153        -7.32153        -29.7442        -29.7442
             453     1.46874E+03     1.46874E+03        -9.89733        -9.89733        -31.7385        -31.7385
             454     1.46900E+03     1.46900E+03        -13.0610        -13.0610        -34.0341        -34.0341
             455     1.47018E+03     1.47018E+03        -16.9698        -16.9698        -36.6251        -36.6251
             456     1.47261E+03     1.47261E+03        -21.7999        -21.7999        -39.4443        -39.4443
             457     1.47674E+03     1.47674E+03        -27.7276        -27.7276        -42.3170        -42.3170
             458     1.48312E+03     1.48312E+03        -34.8922        -34.8922        -44.8808        -44.8808
             459     1.49239E+03     1.49239E+03        -43.2565        -43.2565        -46.4788        -46.4788
             460     1.50512E+03     1.50512E+03        -52.4055        -52.4055        -46.0758        -46.0758
             461     1.52139E+03     1.52139E+03        -61.0950        -61.0950        -42.2744        -42.2744
             462     1.51725E+03     1.51725E+03        -85.0209        -85.0209        -78.4464        -78.4464
             463     1.45366E+03     1.45366E+03        -76.7942        -76.7942        -116.875        -116.875
             464     1.35088E+03     1.35088E+03        -42.5385        -42.5385        -131.180        -131.180
             465     1.24290E+03     1.24290E+03         4.08538         4.08538        -91.5054        -91.5054
             466     1.22382E+03     1.22382E+03         12.8502         12.8502         81.1949         81.1949
             467     1.31079E+03     1.31079E+03        -26.6493        -26.6493         128.077         128.077
             468     1.40691E+03     1.40691E+03        -63.8954        -63.8954         131.382         131.382
             469     1.48129E+03     1.48129E+03        -83.6148        -83.6148         106.018         106.018
             470     1.52535E+03     1.52535E+03        -85.1601        -85.1601         71.6328         71.6328
             471     1.38168E+03     1.38168E+03         420.870         420.870        -74.7777        -74.7777
             472     1.37967E+03     1.37967E+03         420.902         420.902        -57.4979        -57.4979
             473     1.37829E+03     1.37829E+03         420.933         420.933        -40.7592        -40.7592
             474     1.37742E+03     1.37742E+03         420.967         420.967        -24.3393        -24.3393
             475     1.37700E+03     1.37700E+03         420.978         420.978        -8.14710        -8.14710
             476     1.37701E+03     1.37701E+03         420.972         420.972         8.00874         8.00874
             477     1.37743E+03     1.37743E+03         420.950         420.950         24.2177         24.2177
             478     1.37830E+03     1.37830E+03         420.910         420.910         40.6627         40.6627
             479     1.37969E+03     1.37969E+03         420.878         420.878         57.4301         57.4301
             480     1.38169E+03     1.38169E+03         420.851         420.851         74.7370         74.7370
             481     1.38729E+03     1.38729E+03         420.860         420.860         107.367         107.367
             482     1.39109E+03     1.39109E+03         420.993         420.993         122.691         122.691
             483     1.39588E+03     1.39588E+03         421.139         421.139         139.044         139.044
             484     1.40236E+03     1.40236E+03         421.499         421.499         156.132         156.132
             485     1.41064E+03     1.41064E+03         421.965         421.965         174.956         174.956
             486     1.42240E+03     1.42240E+03         422.775         422.775         194.699         194.699
             487     1.43783E+03     1.43783E+03         423.975         423.975         217.739         217.739
             488     1.46175E+03     1.46175E+03         425.435         425.435         241.662         241.662
             489     1.49445E+03     1.49445E+03         428.390         428.390         273.322         273.322
             490     1.55556E+03     1.55556E+03         428.759         428.759         304.029         304.029
             491     1.64490E+03     1.64490E+03         436.423         436.423         361.325         361.325
             492     1.96925E+03     1.96925E+03         377.906         377.906         386.164         386.164
             493     2.02332E+03     2.02332E+03         144.353         144.353         228.489         228.489
             494     1.71556E+03     1.71556E+03         11.0259         11.0259         81.3589         81.3589
             495     1.58295E+03     1.58295E+03         18.7911         18.7911         51.3279         51.3279
             496     1.50297E+03     1.50297E+03         3.99342         3.99342         29.6233         29.6233
             497     1.45351E+03     1.45351E+03         5.96162         5.96162         20.0968         20.0968
             498     1.42103E+03     1.42103E+03         2.00557         2.00557         12.8211         12.8211
             499     1.39980E+03     1.39980E+03         2.62561         2.62561         8.58149         8.58149
             500     1.38612E+03     1.38612E+03         1.14471         1.14471         5.29967         5.29967
             501     1.37781E+03     1.37781E+03         1.37439         1.37439         3.10314         3.10314
             502     1.37340E+03     1.37340E+03     696.979E-03     696.979E-03         1.39613         1.39613
             503     1.37187E+03     1.37187E+03     790.994E-03     790.994E-03     170.922E-03     170.922E-03
             504     1.37251E+03     1.37251E+03     438.508E-03     438.508E-03    -779.017E-03    -779.017E-03
             505     1.37477E+03     1.37477E+03     477.592E-03     477.592E-03        -1.48157        -1.48157
             506     1.37827E+03     1.37827E+03     278.672E-03     278.672E-03        -2.02038        -2.02038
             507     1.38269E+03     1.38269E+03     293.214E-03     293.214E-03        -2.41960        -2.41960
             508     1.38780E+03     1.38780E+03     175.249E-03     175.249E-03        -2.71829        -2.71829
             509     1.39341E+03     1.39341E+03     178.541E-03     178.541E-03        -2.93388        -2.93388
             510     1.39940E+03     1.39940E+03     106.429E-03     106.429E-03        -3.08697        -3.08697
             511     1.40563E+03     1.40563E+03     104.772E-03     104.772E-03        -3.18942        -3.18942
             512     1.41203E+03     1.41203E+03     59.6851E-03     59.6851E-03        -3.25298        -3.25298
             513     1.41852E+03     1.41852E+03     55.9165E-03     55.9165E-03        -3.28531        -3.28531
             514     1.42505E+03     1.42505E+03     26.7975E-03     26.7975E-03        -3.29312        -3.29312
             515     1.43158E+03     1.43158E+03     21.7586E-03     21.7586E-03        -3.28077        -3.28077
             516     1.43806E+03     1.43806E+03     1.46066E-03     1.46066E-03        -3.25145        -3.25145
             517     1.44447E+03     1.44447E+03    -5.30315E-03    -5.30315E-03        -3.20667        -3.20667
             518     1.45078E+03     1.45078E+03    -21.9304E-03    -21.9304E-03        -3.14665        -3.14665
             519     1.45695E+03     1.45695E+03    -31.7519E-03    -31.7519E-03        -3.07018        -3.07018
             520     1.46295E+03     1.46295E+03    -48.7955E-03    -48.7955E-03        -2.97469        -2.97469
             521     1.46874E+03     1.46874E+03    -63.4787E-03    -63.4787E-03        -2.85630        -2.85630
             522     1.47426E+03     1.47426E+03    -84.1997E-03    -84.1997E-03        -2.70990        -2.70990
             523     1.47946E+03     1.47946E+03    -105.345E-03    -105.345E-03        -2.52942        -2.52942
             524     1.48427E+03     1.48427E+03    -131.686E-03    -131.686E-03        -2.30808        -2.30808
             525     1.48858E+03     1.48858E+03    -159.452E-03    -159.452E-03        -2.03906        -2.03906
             526     1.49231E+03     1.49231E+03    -190.679E-03    -190.679E-03        -1.71625        -1.71625
             527     1.49534E+03     1.49534E+03    -221.830E-03    -221.830E-03        -1.33540        -1.33540
             528     1.49755E+03     1.49755E+03    -252.469E-03    -252.469E-03    -895.434E-03    -895.434E-03
             529     1.49883E+03     1.49883E+03    -278.203E-03    -278.203E-03    -400.140E-03    -400.140E-03
             530     1.49909E+03     1.49909E+03    -296.356E-03    -296.356E-03     140.279E-03     140.279E-03
             531     1.49824E+03     1.49824E+03    -301.663E-03    -301.663E-03     707.801E-03     707.801E-03
             532     1.49627E+03     1.49627E+03    -290.309E-03    -290.309E-03         1.27571         1.27571
             533     1.49320E+03     1.49320E+03    -258.099E-03    -258.099E-03         1.80930         1.80930
             534     1.48915E+03     1.48915E+03    -202.783E-03    -202.783E-03         2.26573         2.26573
             535         24.0129         24.0129        -728.431        -728.431        -3.50286        -3.50286
             536         203.669         203.669        -268.318        -268.318        -9.27835        -9.27835
             537         490.416         490.416        -49.9390        -49.9390        -10.5130        -10.5130
             538         784.849         784.849         27.0998         27.0998        -9.12810        -9.12810
             539     1.02857E+03     1.02857E+03         39.3488         39.3488        -6.56257        -6.56257
             540     1.58926E+03     1.58926E+03        -114.122        -114.122        -60.3127        -60.3127
             541     1.64682E+03     1.64682E+03        -171.440        -171.440        -107.894        -107.894
             542     1.70108E+03     1.70108E+03        -223.785        -223.785        -184.536        -184.536
             543     1.68797E+03     1.68797E+03        -205.580        -205.580        -304.102        -304.102
             544     1.43778E+03     1.43778E+03         59.4443         59.4443        -489.690        -489.690
             545         726.394         726.394         60.2859         60.2859        -389.839        -389.839
             546         339.587         339.587        -266.588        -266.588        -182.146        -182.146
             547         110.876         110.876        -626.820        -626.820        -34.9584        -34.9584
             548         4.23293         4.23293        -913.183        -913.183         17.8890         17.8890
             549     1.64471E+03     1.64471E+03         238.183         238.183         1.52952         1.52952
             550     1.78610E+03     1.78610E+03         353.458         353.458         1.31086         1.31086
             551     2.05175E+03     2.05175E+03         458.681         458.681         1.14467         1.14467
             552     2.52273E+03     2.52273E+03         488.447         488.447     968.548E-03     968.548E-03
             553     3.28552E+03     3.28552E+03         354.238         354.238     639.149E-03     639.149E-03
             554     3.57396E+03     3.57396E+03         276.145         276.145        -417.155        -417.155
             555     3.10125E+03     3.10125E+03         369.892         369.892        -713.316        -713.316
             556     2.46281E+03     2.46281E+03         436.747         436.747        -827.222        -827.222
             557     1.80313E+03     1.80313E+03         409.519         409.519        -769.996        -769.996
             558     1.45433E+03     1.45433E+03         64.2928         64.2928         492.632         492.632
             559     1.69925E+03     1.69925E+03        -204.445        -204.445         300.519         300.519
             560     1.70744E+03     1.70744E+03        -223.148        -223.148         180.234         180.234
             561     1.65007E+03     1.65007E+03        -170.863        -170.863         104.568         104.568
             562     1.59081E+03     1.59081E+03        -113.608        -113.608         58.0781         58.0781
             563        -5.89071        -5.89071        -962.222        -962.222        -21.2293        -21.2293
             564         60.5054         60.5054        -746.773        -746.773         2.18667         2.18667
             565         201.455         201.455        -452.925        -452.925         93.1779         93.1779
             566         442.380         442.380        -148.380        -148.380         244.529         244.529
             567         795.433         795.433         110.170         110.170         425.509         425.509
             568     1.59334E+03     1.59334E+03        -116.357        -116.357         61.2102         61.2102
             569     1.65248E+03     1.65248E+03        -173.110        -173.110         106.726         106.726
             570     1.70977E+03     1.70977E+03        -224.969        -224.969         181.671         181.671
             571     1.70165E+03     1.70165E+03        -205.784        -205.784         301.493         301.493
             572     1.45667E+03     1.45667E+03         63.9481         63.9481         493.635         493.635
             573     1.80548E+03     1.80548E+03         408.920         408.920         771.200         771.200
             574     2.46539E+03     2.46539E+03         437.350         437.350         828.527         828.527
             575     3.10355E+03     3.10355E+03         370.437         370.437         714.508         714.508
             576     3.57532E+03     3.57532E+03         276.448         276.448         418.101         418.101
             577     1.42209E+03     1.42209E+03         53.8231         53.8231        -487.801        -487.801
             578     1.68114E+03     1.68114E+03        -212.036        -212.036        -307.967        -307.967
             579     1.69790E+03     1.69790E+03        -228.465        -228.465        -189.660        -189.660
             580     1.64577E+03     1.64577E+03        -175.023        -175.023        -112.827        -112.827
             581     1.58965E+03     1.58965E+03        -117.407        -117.407        -65.2161        -65.2161
             582     1.64424E+03     1.64424E+03         240.575         240.575        -4.78556        -4.78556
             583     1.78620E+03     1.78620E+03         355.954         355.954        -5.03192        -5.03192
             584     2.05309E+03     2.05309E+03         460.545         460.545        -3.43008        -3.43008
             585     2.52592E+03     2.52592E+03         489.081         489.081         1.43896         1.43896
             586     3.29130E+03     3.29130E+03         352.917         352.917         11.2283         11.2283
             587     3.64411E+03     3.64411E+03         260.390         260.390        -358.509        -358.509
             588     3.29811E+03     3.29811E+03         336.873         336.873        -642.152        -642.152
             589     2.80159E+03     2.80159E+03         415.091         415.091        -803.370        -803.370
             590     2.24176E+03     2.24176E+03         446.504         446.504        -833.613        -833.613
             591     1.69797E+03     1.69797E+03         401.918         401.918        -754.342        -754.342
             592     1.80249E+03     1.80249E+03         408.138         408.138         769.751         769.751
             593     2.46165E+03     2.46165E+03         436.586         436.586         826.975         826.975
             594     3.09922E+03     3.09922E+03         369.610         369.610         713.292         713.292
             595     3.57093E+03     3.57093E+03         276.496         276.496         417.087         417.087
             596     1.03179E+03     1.03179E+03         35.9042         35.9042        -6.52316        -6.52316
             597         786.904         786.904         24.3256         24.3256        -9.04912        -9.04912
             598         491.498         491.498        -52.4124        -52.4124        -10.3991        -10.3991
             599         203.970         203.970        -271.007        -271.007        -9.15274        -9.15274
             600         23.9119         23.9119        -732.128        -732.128        -3.40285        -3.40285
             601        -5.98960        -5.98960        -966.313        -966.313        -21.3431        -21.3431
             602         60.5641         60.5641        -750.026        -750.026         2.05118         2.05118
             603         201.837         201.837        -455.095        -455.095         93.2155         93.2155
             604         443.222         443.222        -149.492        -149.492         244.928         244.928
             605         796.941         796.941         109.962         109.962         426.281         426.281
             606         727.421         727.421         59.3456         59.3456        -389.981        -389.981
             607         339.893         339.893        -268.660        -268.660        -182.000        -182.000
             608         110.859         110.859        -630.060        -630.060        -34.6157        -34.6157
             609         4.07888         4.07888        -917.318        -917.318         18.1834         18.1834
             610     1.52711E+03     1.52711E+03        -50.3370        -50.3370        -19.4334        -19.4334
             611     1.51349E+03     1.51349E+03        -45.1935        -45.1935        -25.6874        -25.6874
             612     1.50151E+03     1.50151E+03        -38.4817        -38.4817        -28.9939        -28.9939
             613     1.49162E+03     1.49162E+03        -31.4101        -31.4101        -30.0318        -30.0318
             614     1.48386E+03     1.48386E+03        -24.7278        -24.7278        -29.5810        -29.5810
             615     1.47797E+03     1.47797E+03        -18.7764        -18.7764        -28.2544        -28.2544
             616     1.47365E+03     1.47365E+03        -13.6631        -13.6631        -26.4898        -26.4898
             617     1.47055E+03     1.47055E+03        -9.36584        -9.36584        -24.5601        -24.5601
             618     1.46842E+03     1.46842E+03        -5.81395        -5.81395        -22.6274        -22.6274
             619     1.46702E+03     1.46702E+03        -2.91700        -2.91700        -20.7784        -20.7784
             620     1.46617E+03     1.46617E+03    -585.546E-03    -585.546E-03        -19.0543        -19.0543
             621     1.46572E+03     1.46572E+03         1.26423         1.26423        -17.4687        -17.4687
             622     1.46557E+03     1.46557E+03         2.70652         2.70652        -16.0204        -16.0204
             623     1.46564E+03     1.46564E+03         3.80654         3.80654        -14.7002        -14.7002
             624     1.46586E+03     1.46586E+03         4.62059         4.62059        -13.4958        -13.4958
             625     1.46618E+03     1.46618E+03         5.19727         5.19727        -12.3943        -12.3943
             626     1.46657E+03     1.46657E+03         5.57824         5.57824        -11.3835        -11.3835
             627     1.46700E+03     1.46700E+03         5.79924         5.79924        -10.4526        -10.4526
             628     1.46745E+03     1.46745E+03         5.89077         5.89077        -9.59241        -9.59241
             629     1.46789E+03     1.46789E+03         5.87884         5.87884        -8.79520        -8.79520
             630     1.46834E+03     1.46834E+03         5.78551         5.78551        -8.05462        -8.05462
             631     1.46876E+03     1.46876E+03         5.62950         5.62950        -7.36549        -7.36549
             632     1.46916E+03     1.46916E+03         5.42653         5.42653        -6.72356        -6.72356
             633     1.46954E+03     1.46954E+03         5.18983         5.18983        -6.12530        -6.12530
             634     1.46989E+03     1.46989E+03         4.93041         4.93041        -5.56771        -5.56771
             635     1.47022E+03     1.47022E+03         4.65740         4.65740        -5.04819        -5.04819
             636     1.47051E+03     1.47051E+03         4.37833         4.37833        -4.56439        -4.56439
             637     1.47078E+03     1.47078E+03         4.09937         4.09937        -4.11417        -4.11417
             638     1.47103E+03     1.47103E+03         3.82551         3.82551        -3.69545        -3.69545
             639     1.47124E+03     1.47124E+03         3.56078         3.56078        -3.30622        -3.30622
             640     1.47144E+03     1.47144E+03         3.30837         3.30837        -2.94449        -2.94449
             641     1.47161E+03     1.47161E+03         3.07081         3.07081        -2.60827        -2.60827
             642     1.47176E+03     1.47176E+03         2.85007         2.85007        -2.29553        -2.29553
             643     1.47189E+03     1.47189E+03         2.64763         2.64763        -2.00425        -2.00425
             644     1.47201E+03     1.47201E+03         2.46465         2.46465        -1.73235        -1.73235
             645     1.47211E+03     1.47211E+03         2.30196         2.30196        -1.47775        -1.47775
             646     1.47219E+03     1.47219E+03         2.16016         2.16016        -1.23833        -1.23833
             647     1.47226E+03     1.47226E+03         2.03969         2.03969        -1.01195        -1.01195
             648     1.47231E+03     1.47231E+03         1.94084         1.94084    -796.457E-03    -796.457E-03
             649     1.47235E+03     1.47235E+03         1.86380         1.86380    -589.698E-03    -589.698E-03
             650     1.47238E+03     1.47238E+03         1.80871         1.80871    -389.502E-03    -389.502E-03
             651     1.47240E+03     1.47240E+03         1.77559         1.77559    -194.218E-03    -194.218E-03
             652     1.52842E+03     1.52842E+03        -42.2680        -42.2680        -6.97689        -6.97689
             653     1.51779E+03     1.51779E+03        -39.9212        -39.9212        -14.0999        -14.0999
             654     1.50784E+03     1.50784E+03        -35.6150        -35.6150        -18.8689        -18.8689
             655     1.49903E+03     1.49903E+03        -30.3379        -30.3379        -21.6674        -21.6674
             656     1.49161E+03     1.49161E+03        -24.8553        -24.8553        -22.9390        -22.9390
             657     1.48560E+03     1.48560E+03        -19.6352        -19.6352        -23.1466        -23.1466
             658     1.48087E+03     1.48087E+03        -14.9199        -14.9199        -22.6628        -22.6628
             659     1.47725E+03     1.47725E+03        -10.8064        -10.8064        -21.7674        -21.7674
             660     1.47454E+03     1.47454E+03        -7.30484        -7.30484        -20.6492        -20.6492
             661     1.47256E+03     1.47256E+03        -4.38255        -4.38255        -19.4316        -19.4316
             662     1.47116E+03     1.47116E+03        -1.98517        -1.98517        -18.1900        -18.1900
             663     1.47022E+03     1.47022E+03    -51.7231E-03    -51.7231E-03        -16.9688        -16.9688
             664     1.46961E+03     1.46961E+03         1.47942         1.47942        -15.7915        -15.7915
             665     1.46927E+03     1.46927E+03         2.66613         2.66613        -14.6697        -14.6697
             666     1.46912E+03     1.46912E+03         3.56146         3.56146        -13.6073        -13.6073
             667     1.46912E+03     1.46912E+03         4.21264         4.21264        -12.6043        -12.6043
             668     1.46921E+03     1.46921E+03         4.66134         4.66134        -11.6587        -11.6587
             669     1.46938E+03     1.46938E+03         4.94381         4.94381        -10.7677        -10.7677
             670     1.46958E+03     1.46958E+03         5.09138         5.09138        -9.92831        -9.92831
             671     1.46982E+03     1.46982E+03         5.13088         5.13088        -9.13777        -9.13777
             672     1.47006E+03     1.47006E+03         5.08517         5.08517        -8.39358        -8.39358
             673     1.47031E+03     1.47031E+03         4.97358         4.97358        -7.69354        -7.69354
             674     1.47055E+03     1.47055E+03         4.81234         4.81234        -7.03570        -7.03570
             675     1.47078E+03     1.47078E+03         4.61505         4.61505        -6.41830        -6.41830
             676     1.47100E+03     1.47100E+03         4.39298         4.39298        -5.83969        -5.83969
             677     1.47120E+03     1.47120E+03         4.15542         4.15542        -5.29827        -5.29827
             678     1.47139E+03     1.47139E+03         3.90999         3.90999        -4.79245        -4.79245
             679     1.47156E+03     1.47156E+03         3.66288         3.66288        -4.32060        -4.32060
             680     1.47171E+03     1.47171E+03         3.41909         3.41909        -3.88101        -3.88101
             681     1.47185E+03     1.47185E+03         3.18260         3.18260        -3.47192        -3.47192
             682     1.47197E+03     1.47197E+03         2.95658         2.95658        -3.09148        -3.09148
             683     1.47208E+03     1.47208E+03         2.74350         2.74350        -2.73777        -2.73777
             684     1.47217E+03     1.47217E+03         2.54527         2.54527        -2.40877        -2.40877
             685     1.47226E+03     1.47226E+03         2.36334         2.36334        -2.10241        -2.10241
             686     1.47233E+03     1.47233E+03         2.19880         2.19880        -1.81657        -1.81657
             687     1.47239E+03     1.47239E+03         2.05246         2.05246        -1.54906        -1.54906
             688     1.47244E+03     1.47244E+03         1.92489         1.92489        -1.29767        -1.29767
             689     1.47248E+03     1.47248E+03         1.81649         1.81649        -1.06013        -1.06013
             690     1.47251E+03     1.47251E+03         1.72754         1.72754    -834.166E-03    -834.166E-03
             691     1.47253E+03     1.47253E+03         1.65823         1.65823    -617.489E-03    -617.489E-03
             692     1.47255E+03     1.47255E+03         1.60865         1.60865    -407.788E-03    -407.788E-03
             693     1.47256E+03     1.47256E+03         1.57884         1.57884    -203.324E-03    -203.324E-03
             694     1.52649E+03     1.52649E+03        -34.1068        -34.1068         2.15963         2.15963
             695     1.51869E+03     1.51869E+03        -33.8923        -33.8923        -4.98211        -4.98211
             696     1.51084E+03     1.51084E+03        -31.4879        -31.4879        -10.3685        -10.3685
             697     1.50346E+03     1.50346E+03        -27.8279        -27.8279        -14.1644        -14.1644
             698     1.49688E+03     1.49688E+03        -23.5820        -23.5820        -16.6056        -16.6056
             699     1.49125E+03     1.49125E+03        -19.2436        -19.2436        -17.9753        -17.9753
             700     1.48658E+03     1.48658E+03        -15.1197        -15.1197        -18.5544        -18.5544
             701     1.48281E+03     1.48281E+03        -11.3809        -11.3809        -18.5764        -18.5764
             702     1.47983E+03     1.47983E+03        -8.10318        -8.10318        -18.2237        -18.2237
             703     1.47752E+03     1.47752E+03        -5.30290        -5.30290        -17.6283        -17.6283
             704     1.47576E+03     1.47576E+03        -2.96216        -2.96216        -16.8834        -16.8834
             705     1.47445E+03     1.47445E+03        -1.04409        -1.04409        -16.0520        -16.0520
             706      1.4735E+03      1.4735E+03     496.361E-03     496.361E-03        -15.1766        -15.1766
             707     1.47282E+03     1.47282E+03         1.70692         1.70692        -14.2849        -14.2849
             708     1.47236E+03     1.47236E+03         2.63403         2.63403        -13.3953        -13.3953
             709     1.47207E+03     1.47207E+03         3.32119         3.32119        -12.5195        -12.5195
             710     1.47189E+03     1.47189E+03         3.80781         3.80781        -11.6653        -11.6653
             711     1.47180E+03     1.47180E+03         4.12897         4.12897        -10.8380        -10.8380
             712     1.47178E+03     1.47178E+03         4.31533         4.31533        -10.0410        -10.0410
             713     1.47180E+03     1.47180E+03         4.39342         4.39342        -9.27667        -9.27667
             714     1.47185E+03     1.47185E+03         4.38590         4.38590        -8.54659        -8.54659
             715     1.47191E+03     1.47191E+03         4.31199         4.31199        -7.85178        -7.85178
             716     1.47199E+03     1.47199E+03         4.18784         4.18784        -7.19282        -7.19282
             717     1.47207E+03     1.47207E+03         4.02692         4.02692        -6.56989        -6.56989
             718     1.47215E+03     1.47215E+03         3.84036         3.84036        -5.98283        -5.98283
             719     1.47223E+03     1.47223E+03         3.63732         3.63732        -5.43116        -5.43116
             720     1.47230E+03     1.47230E+03         3.42527         3.42527        -4.91413        -4.91413
             721     1.47237E+03     1.47237E+03         3.21023         3.21023        -4.43072        -4.43072
             722     1.47242E+03     1.47242E+03         2.99705         2.99705        -3.97966        -3.97966
             723     1.47248E+03     1.47248E+03         2.78957         2.78957        -3.55949        -3.55949
             724     1.47252E+03     1.47252E+03         2.59083         2.59083        -3.16855        -3.16855
             725     1.47256E+03     1.47256E+03         2.40317         2.40317        -2.80502        -2.80502
             726     1.47259E+03     1.47259E+03         2.22841         2.22841        -2.46696        -2.46696
             727     1.47262E+03     1.47262E+03         2.06791         2.06791        -2.15230        -2.15230
             728     1.47265E+03     1.47265E+03         1.92270         1.92270        -1.85888        -1.85888
             729     1.47267E+03     1.47267E+03         1.79351         1.79351        -1.58449        -1.58449
             730     1.47268E+03     1.47268E+03         1.68087         1.68087        -1.32683        -1.32683
             731     1.47269E+03     1.47269E+03         1.58517         1.58517        -1.08357        -1.08357
             732     1.47270E+03     1.47270E+03         1.50663         1.50663    -852.353E-03    -852.353E-03
             733     1.47271E+03     1.47271E+03         1.44543         1.44543    -630.795E-03    -630.795E-03
             734     1.47272E+03     1.47272E+03         1.40166         1.40166    -416.497E-03    -416.497E-03
             735     1.47272E+03     1.47272E+03         1.37534         1.37534    -207.668E-03    -207.668E-03
             736     1.52276E+03     1.52276E+03        -26.6350        -26.6350         8.36473         8.36473
             737     1.51742E+03     1.51742E+03        -27.7856        -27.7856         1.83218         1.83218
             738     1.51155E+03     1.51155E+03        -26.8128        -26.8128        -3.59904        -3.59904
             739     1.50569E+03     1.50569E+03        -24.4634        -24.4634        -7.84169        -7.84169
             740     1.50018E+03     1.50018E+03        -21.3411        -21.3411        -10.9749        -10.9749
             741     1.49523E+03     1.49523E+03        -17.8934        -17.8934        -13.1445        -13.1445
             742     1.49093E+03     1.49093E+03        -14.4428        -14.4428        -14.5266        -14.5266
             743     1.48730E+03     1.48730E+03        -11.1929        -11.1929        -15.2956        -15.2956
             744     1.48431E+03     1.48431E+03        -8.25987        -8.25987        -15.6016        -15.6016
             745     1.48187E+03     1.48187E+03        -5.69676        -5.69676        -15.5677        -15.5677
             746     1.47993E+03     1.47993E+03        -3.51500        -3.51500        -15.2886        -15.2886
             747     1.47839E+03     1.47839E+03        -1.70044        -1.70044        -14.8361        -14.8361
             748     1.47718E+03     1.47718E+03    -224.203E-03    -224.203E-03        -14.2636        -14.2636
             749     1.47625E+03     1.47625E+03     949.707E-03     949.707E-03        -13.6106        -13.6106
             750     1.47553E+03     1.47553E+03         1.85979         1.85979        -12.9062        -12.9062
             751     1.47498E+03     1.47498E+03         2.54392         2.54392        -12.1723        -12.1723
             752     1.47456E+03     1.47456E+03         3.03772         3.03772        -11.4252        -11.4252
             753     1.47424E+03     1.47424E+03         3.37357         3.37357        -10.6775        -10.6775
             754     1.47400E+03     1.47400E+03         3.58024         3.58024        -9.93848        -9.93848
             755     1.47381E+03     1.47381E+03         3.68285         3.68285        -9.21556        -9.21556
             756     1.47367E+03     1.47367E+03         3.70299         3.70299        -8.51424        -8.51424
             757     1.47355E+03     1.47355E+03         3.65903         3.65903        -7.83873        -7.83873
             758     1.47346E+03     1.47346E+03         3.56638         3.56638        -7.19206        -7.19206
             759     1.47339E+03     1.47339E+03         3.43792         3.43792        -6.57636        -6.57636
             760     1.47333E+03     1.47333E+03         3.28426         3.28426        -5.99296        -5.99296
             761     1.47327E+03     1.47327E+03         3.11408         3.11408        -5.44253        -5.44253
             762     1.47323E+03     1.47323E+03         2.93445         2.93445        -4.92515        -4.92515
             763     1.47318E+03     1.47318E+03         2.75106         2.75106        -4.44042        -4.44042
             764     1.47314E+03     1.47314E+03         2.56843         2.56843        -3.98756        -3.98756
             765     1.47311E+03     1.47311E+03         2.39016         2.39016        -3.56539        -3.56539
             766     1.47307E+03     1.47307E+03         2.21905         2.21905        -3.17249        -3.17249
             767     1.47304E+03     1.47304E+03         2.05728         2.05728        -2.80719        -2.80719
             768     1.47301E+03     1.47301E+03         1.90650         1.90650        -2.46761        -2.46761
             769     1.47298E+03     1.47298E+03         1.76795         1.76795        -2.15174        -2.15174
             770     1.47296E+03     1.47296E+03         1.64256         1.64256        -1.85743        -1.85743
             771     1.47294E+03     1.47294E+03         1.53099         1.53099        -1.58246        -1.58246
             772     1.47292E+03     1.47292E+03         1.43372         1.43372        -1.32451        -1.32451
             773     1.47290E+03     1.47290E+03         1.35106         1.35106        -1.08122        -1.08122
             774     1.47288E+03     1.47288E+03         1.28324         1.28324    -850.205E-03    -850.205E-03
             775     1.47287E+03     1.47287E+03         1.23039         1.23039    -629.023E-03    -629.023E-03
             776     1.47287E+03     1.47287E+03         1.19260         1.19260    -415.238E-03    -415.238E-03
             777     1.47286E+03     1.47286E+03         1.16987         1.16987    -207.046E-03    -207.046E-03
             778     1.51831E+03     1.51831E+03        -20.2504        -20.2504         12.2557         12.2557
             779     1.51492E+03     1.51492E+03        -22.0828        -22.0828         6.60048         6.60048
             780     1.51081E+03     1.51081E+03        -22.0531        -22.0531         1.51223         1.51223
             781     1.50641E+03     1.50641E+03        -20.7006        -20.7006        -2.79170        -2.79170
             782     1.50203E+03     1.50203E+03        -18.5102        -18.5102        -6.24899        -6.24899
             783     1.49791E+03     1.49791E+03        -15.8785        -15.8785        -8.89990        -8.89990
             784     1.49418E+03     1.49418E+03        -13.1012        -13.1012        -10.8325        -10.8325
             785     1.49089E+03     1.49089E+03        -10.3878        -10.3878        -12.1570        -12.1570
             786     1.48806E+03     1.48806E+03        -7.87031        -7.87031        -12.9849        -12.9849
             787     1.48567E+03     1.48567E+03        -5.62306        -5.62306        -13.4171        -13.4171
             788     1.48367E+03     1.48367E+03        -3.67772        -3.67772        -13.5407        -13.5407
             789     1.48201E+03     1.48201E+03        -2.03757        -2.03757        -13.4270        -13.4270
             790     1.48064E+03     1.48064E+03    -687.907E-03    -687.907E-03        -13.1339        -13.1339
             791     1.47952E+03     1.47952E+03     396.355E-03     396.355E-03        -12.7075        -12.7075
             792     1.47859E+03     1.47859E+03         1.24525         1.24525        -12.1846        -12.1846
             793     1.47783E+03     1.47783E+03         1.89032         1.89032        -11.5944        -11.5944
             794     1.47719E+03     1.47719E+03         2.36231         2.36231        -10.9601        -10.9601
             795     1.47666E+03     1.47666E+03         2.68988         2.68988        -10.3001        -10.3001
             796     1.47621E+03     1.47621E+03         2.89888         2.89888        -9.62916        -9.62916
             797     1.47582E+03     1.47582E+03         3.01212         3.01212        -8.95873        -8.95873
             798     1.47549E+03     1.47549E+03         3.04933         3.04933        -8.29791        -8.29791
             799     1.47520E+03     1.47520E+03         3.02733         3.02733        -7.65372        -7.65372
             800     1.47494E+03     1.47494E+03         2.96028         2.96028        -7.03144        -7.03144
             801     1.47471E+03     1.47471E+03         2.85996         2.85996        -6.43494        -6.43494
             802     1.47450E+03     1.47450E+03         2.73610         2.73610        -5.86692        -5.86692
             803     1.47431E+03     1.47431E+03         2.59662         2.59662        -5.32907        -5.32907
             804     1.47415E+03     1.47415E+03         2.44795         2.44795        -4.82225        -4.82225
             805     1.47399E+03     1.47399E+03         2.29524         2.29524        -4.34664        -4.34664
             806     1.47385E+03     1.47385E+03         2.14257         2.14257        -3.90187        -3.90187
             807     1.47372E+03     1.47372E+03         1.99317         1.99317        -3.48709        -3.48709
             808     1.47361E+03     1.47361E+03         1.84954         1.84954        -3.10108        -3.10108
             809     1.47350E+03     1.47350E+03         1.71361         1.71361        -2.74232        -2.74232
             810     1.47341E+03     1.47341E+03         1.58685         1.58685        -2.40906        -2.40906
             811     1.47332E+03     1.47332E+03         1.47033         1.47033        -2.09933        -2.09933
             812     1.47325E+03     1.47325E+03         1.36487         1.36487        -1.81105        -1.81105
             813     1.47319E+03     1.47319E+03         1.27103         1.27103        -1.54202        -1.54202
             814     1.47313E+03     1.47313E+03         1.18922         1.18922        -1.28995        -1.28995
             815     1.47308E+03     1.47308E+03         1.11972         1.11972        -1.05250        -1.05250
             816     1.47305E+03     1.47305E+03         1.06269         1.06269    -827.270E-03    -827.270E-03
             817     1.47302E+03     1.47302E+03         1.01826         1.01826    -611.848E-03    -611.848E-03
             818     1.47300E+03     1.47300E+03     986.489E-03     986.489E-03    -403.801E-03    -403.801E-03
             819     1.47298E+03     1.47298E+03     967.391E-03     967.391E-03    -201.354E-03    -201.354E-03
             820     1.51379E+03     1.51379E+03        -15.0102        -15.0102         14.4140         14.4140
             821     1.51191E+03     1.51191E+03        -17.0300        -17.0300         9.68024         9.68024
             822     1.50927E+03     1.50927E+03        -17.5243        -17.5243         5.12173         5.12173
             823     1.50618E+03     1.50618E+03        -16.8579        -16.8579         1.01598         1.01598
             824     1.50292E+03     1.50292E+03        -15.3960        -15.3960        -2.49679        -2.49679
             825     1.49967E+03     1.49967E+03        -13.4593        -13.4593        -5.37146        -5.37146
             826     1.49660E+03     1.49660E+03        -11.3063        -11.3063        -7.62793        -7.62793
             827     1.49377E+03     1.49377E+03        -9.12746        -9.12746        -9.32067        -9.32067
             828     1.49124E+03     1.49124E+03        -7.05447        -7.05447        -10.5215        -10.5215
             829     1.48900E+03     1.48900E+03        -5.16786        -5.16786        -11.3064        -11.3064
             830     1.48705E+03     1.48705E+03        -3.51008        -3.51008        -11.7482        -11.7482
             831     1.48536E+03     1.48536E+03        -2.09554        -2.09554        -11.9124        -11.9124
             832     1.48390E+03     1.48390E+03    -920.027E-03    -920.027E-03        -11.8561        -11.8561
             833     1.48264E+03     1.48264E+03     32.3194E-03     32.3194E-03        -11.6282        -11.6282
             834     1.48155E+03     1.48155E+03     783.807E-03     783.807E-03        -11.2694        -11.2694
             835     1.48060E+03     1.48060E+03         1.35951         1.35951        -10.8138        -10.8138
             836     1.47977E+03     1.47977E+03         1.78486         1.78486        -10.2893        -10.2893
             837     1.47904E+03     1.47904E+03         2.08414         2.08414        -9.71888        -9.71888
             838     1.47839E+03     1.47839E+03         2.27959         2.27959        -9.12097        -9.12097
             839     1.47781E+03     1.47781E+03         2.39099         2.39099        -8.51055        -8.51055
             840     1.47729E+03     1.47729E+03         2.43558         2.43558        -7.89945        -7.89945
             841     1.47682E+03     1.47682E+03         2.42809         2.42809        -7.29691        -7.29691
             842     1.47639E+03     1.47639E+03         2.38094         2.38094        -6.71003        -6.71003
             843     1.47601E+03     1.47601E+03         2.30444         2.30444        -6.14408        -6.14408
             844     1.47565E+03     1.47565E+03         2.20711         2.20711        -5.60284        -5.60284
             845     1.47533E+03     1.47533E+03         2.09587         2.09587        -5.08883        -5.08883
             846     1.47504E+03     1.47504E+03         1.97628         1.97628        -4.60355        -4.60355
             847     1.47477E+03     1.47477E+03         1.85283         1.85283        -4.14765        -4.14765
             848     1.47453E+03     1.47453E+03         1.72903         1.72903        -3.72110        -3.72110
             849     1.47431E+03     1.47431E+03         1.60765         1.60765        -3.32332        -3.32332
             850     1.47411E+03     1.47411E+03         1.49083         1.49083        -2.95328        -2.95328
             851     1.47394E+03     1.47394E+03         1.38020         1.38020        -2.60962        -2.60962
             852     1.47378E+03     1.47378E+03         1.27700         1.27700        -2.29069        -2.29069
             853     1.47364E+03     1.47364E+03         1.18213         1.18213        -1.99463        -1.99463
             854     1.47351E+03     1.47351E+03         1.09628         1.09628        -1.71945        -1.71945
             855     1.47341E+03     1.47341E+03         1.01990         1.01990        -1.46299        -1.46299
             856     1.47331E+03     1.47331E+03     953.323E-03     953.323E-03        -1.22305        -1.22305
             857     1.47324E+03     1.47324E+03     896.773E-03     896.773E-03    -997.336E-03    -997.336E-03
             858     1.47318E+03     1.47318E+03     850.385E-03     850.385E-03    -783.530E-03    -783.530E-03
             859     1.47313E+03     1.47313E+03     814.247E-03     814.247E-03    -579.271E-03    -579.271E-03
             860     1.47310E+03     1.47310E+03     788.408E-03     788.408E-03    -382.193E-03    -382.193E-03
             861     1.47308E+03     1.47308E+03     772.882E-03     772.882E-03    -190.598E-03    -190.598E-03
             862     1.50951E+03     1.50951E+03        -10.8131        -10.8131         15.2755         15.2755
             863     1.50881E+03     1.50881E+03        -12.6964        -12.6964         11.3918         11.3918
             864     1.50740E+03     1.50740E+03        -13.4006        -13.4006         7.42760         7.42760
             865     1.50548E+03     1.50548E+03        -13.1580        -13.1580         3.66678         3.66678
             866     1.50325E+03     1.50325E+03        -12.2282        -12.2282     290.333E-03     290.333E-03
             867     1.50088E+03     1.50088E+03        -10.8566        -10.8566        -2.60733        -2.60733
             868     1.49850E+03     1.49850E+03        -9.25099        -9.25099        -4.99399        -4.99399
             869     1.49619E+03     1.49619E+03        -7.57411        -7.57411        -6.88150        -6.88150
             870     1.49402E+03     1.49402E+03        -5.94232        -5.94232        -8.30749        -8.30749
             871     1.49201E+03     1.49201E+03        -4.43256        -4.43256        -9.32379        -9.32379
             872     1.49017E+03     1.49017E+03        -3.08882        -3.08882        -9.98753        -9.98753
             873     1.48851E+03     1.48851E+03        -1.93080        -1.93080        -10.3554        -10.3554
             874     1.48700E+03     1.48700E+03    -960.725E-03    -960.725E-03        -10.4807        -10.4807
             875     1.48564E+03     1.48564E+03    -169.577E-03    -169.577E-03        -10.4113        -10.4113
             876     1.48441E+03     1.48441E+03     458.403E-03     458.403E-03        -10.1894        -10.1894
             877     1.48329E+03     1.48329E+03     942.304E-03     942.304E-03        -9.85115        -9.85115
             878     1.48228E+03     1.48228E+03         1.30222         1.30222        -9.42714        -9.42714
             879     1.48136E+03     1.48136E+03         1.55777         1.55777        -8.94294        -8.94294
             880     1.48052E+03     1.48052E+03         1.72715         1.72715        -8.41958        -8.41958
             881     1.47975E+03     1.47975E+03         1.82670         1.82670        -7.87411        -7.87411
             882     1.47904E+03     1.47904E+03         1.87070         1.87070        -7.32019        -7.32019
             883     1.47839E+03     1.47839E+03         1.87141         1.87141        -6.76854        -6.76854
             884     1.47780E+03     1.47780E+03         1.83913         1.83913        -6.22743        -6.22743
             885     1.47725E+03     1.47725E+03         1.78246         1.78246        -5.70307        -5.70307
             886     1.47676E+03     1.47676E+03         1.70844         1.70844        -5.19994        -5.19994
             887     1.47630E+03     1.47630E+03         1.62280         1.62280        -4.72112        -4.72112
             888     1.47588E+03     1.47588E+03         1.53013         1.53013        -4.26852        -4.26852
             889     1.47551E+03     1.47551E+03         1.43410         1.43410        -3.84311        -3.84311
             890     1.47516E+03     1.47516E+03         1.33760         1.33760        -3.44511        -3.44511
             891     1.47485E+03     1.47485E+03         1.24287         1.24287        -3.07414        -3.07414
             892     1.47457E+03     1.47457E+03         1.15164         1.15164        -2.72933        -2.72933
             893     1.47432E+03     1.47432E+03         1.06523         1.06523        -2.40946        -2.40946
             894     1.47410E+03     1.47410E+03     984.621E-03     984.621E-03        -2.11300        -2.11300
             895     1.47391E+03     1.47391E+03     910.542E-03     910.542E-03        -1.83822        -1.83822
             896     1.47373E+03     1.47373E+03     843.513E-03     843.513E-03        -1.58321        -1.58321
             897     1.47359E+03     1.47359E+03     783.904E-03     783.904E-03        -1.34597        -1.34597
             898     1.47346E+03     1.47346E+03     731.964E-03     731.964E-03        -1.12437        -1.12437
             899     1.47335E+03     1.47335E+03     687.858E-03     687.858E-03    -916.261E-03    -916.261E-03
             900     1.47327E+03     1.47327E+03     651.688E-03     651.688E-03    -719.430E-03    -719.430E-03
             901     1.47321E+03     1.47321E+03     623.513E-03     623.513E-03    -531.644E-03    -531.644E-03
             902     1.47316E+03     1.47316E+03     603.371E-03     603.371E-03    -350.654E-03    -350.654E-03
             903     1.47313E+03     1.47313E+03     591.274E-03     591.274E-03    -174.902E-03    -174.902E-03
             904     1.50564E+03     1.50564E+03        -7.49715        -7.49715         15.1168         15.1168
             905     1.50592E+03     1.50592E+03        -9.06008        -9.06008         11.9727         11.9727
             906     1.50557E+03     1.50557E+03        -9.76123        -9.76123         8.60115         8.60115
             907     1.50469E+03     1.50469E+03        -9.74300        -9.74300         5.26651         5.26651
             908     1.50341E+03     1.50341E+03        -9.18032        -9.18032         2.15807         2.15807
             909     1.50187E+03     1.50187E+03        -8.24949        -8.24949    -603.560E-03    -603.560E-03
             910     1.50017E+03     1.50017E+03        -7.10739        -7.10739        -2.95626        -2.95626
             911     1.49839E+03     1.49839E+03        -5.88096        -5.88096        -4.88117        -4.88117
             912     1.49660E+03     1.49660E+03        -4.66533        -4.66533        -6.39065        -6.39065
             913     1.49484E+03     1.49484E+03        -3.52520        -3.52520        -7.51633        -7.51633
             914     1.49315E+03     1.49315E+03        -2.50024        -2.50024        -8.30089        -8.30089
             915     1.49153E+03     1.49153E+03        -1.61003        -1.61003        -8.79150        -8.79150
             916     1.48999E+03     1.48999E+03    -859.848E-03    -859.848E-03        -9.03555        -9.03555
             917     1.48854E+03     1.48854E+03    -245.078E-03    -245.078E-03        -9.07797        -9.07797
             918     1.48718E+03     1.48718E+03     244.873E-03     244.873E-03        -8.95961        -8.95961
             919     1.48591E+03     1.48591E+03     623.847E-03     623.847E-03        -8.71657        -8.71657
             920     1.48472E+03     1.48472E+03     906.898E-03     906.898E-03        -8.37996        -8.37996
             921     1.48361E+03     1.48361E+03         1.10898         1.10898        -7.97612        -7.97612
             922     1.48257E+03     1.48257E+03         1.24413         1.24413        -7.52690        -7.52690
             923     1.48161E+03     1.48161E+03         1.32502         1.32502        -7.05016        -7.05016
             924     1.48072E+03     1.48072E+03         1.36276         1.36276        -6.56024        -6.56024
             925     1.47989E+03     1.47989E+03         1.36690         1.36690        -6.06843        -6.06843
             926     1.47913E+03     1.47913E+03         1.34546         1.34546        -5.58346        -5.58346
             927     1.47843E+03     1.47843E+03         1.30513         1.30513        -5.11188        -5.11188
             928     1.47779E+03     1.47779E+03         1.25137         1.25137        -4.65845        -4.65845
             929     1.47720E+03     1.47720E+03         1.18861         1.18861        -4.22645        -4.22645
             930     1.47666E+03     1.47666E+03         1.12040         1.12040        -3.81797        -3.81797
             931     1.47617E+03     1.47617E+03         1.04955         1.04955        -3.43412        -3.43412
             932     1.47573E+03     1.47573E+03     978.267E-03     978.267E-03        -3.07524        -3.07524
             933     1.47533E+03     1.47533E+03     908.255E-03     908.255E-03        -2.74107        -2.74107
             934     1.47497E+03     1.47497E+03     840.827E-03     840.827E-03        -2.43088        -2.43088
             935     1.47465E+03     1.47465E+03     776.972E-03     776.972E-03        -2.14356        -2.14356
             936     1.47437E+03     1.47437E+03     717.426E-03     717.426E-03        -1.87772        -1.87772
             937     1.47412E+03     1.47412E+03     662.725E-03     662.725E-03        -1.63178        -1.63178
             938     1.47390E+03     1.47390E+03     613.255E-03     613.255E-03        -1.40397        -1.40397
             939     1.47371E+03     1.47371E+03     569.280E-03     569.280E-03        -1.19244        -1.19244
             940     1.47356E+03     1.47356E+03     530.982E-03     530.982E-03    -995.256E-03    -995.256E-03
             941     1.47342E+03     1.47342E+03     498.472E-03     498.472E-03    -810.427E-03    -810.427E-03
             942     1.47332E+03     1.47332E+03     471.819E-03     471.819E-03    -635.922E-03    -635.922E-03
             943     1.47324E+03     1.47324E+03     451.062E-03     451.062E-03    -469.692E-03    -469.692E-03
             944     1.47318E+03     1.47318E+03     436.220E-03     436.220E-03    -309.682E-03    -309.682E-03
             945     1.47314E+03     1.47314E+03     427.311E-03     427.311E-03    -154.514E-03    -154.514E-03
             946     1.50225E+03     1.50225E+03        -4.90419        -4.90419         14.0701         14.0701
             947     1.50344E+03     1.50344E+03        -6.06409        -6.06409         11.5623         11.5623
             948     1.50405E+03     1.50405E+03        -6.63770        -6.63770         8.76377         8.76377
             949     1.50412E+03     1.50412E+03        -6.70766        -6.70766         5.90596         5.90596
             950     1.50373E+03     1.50373E+03        -6.38557        -6.38557         3.16778         3.16778
             951     1.50296E+03     1.50296E+03        -5.78933        -5.78933     674.088E-03     674.088E-03
             952     1.50189E+03     1.50189E+03        -5.02777        -5.02777        -1.49913        -1.49913
             953     1.50062E+03     1.50062E+03        -4.19193        -4.19193        -3.31696        -3.31696
             954     1.49919E+03     1.49919E+03        -3.35138        -3.35138        -4.77502        -4.77502
             955     1.49767E+03     1.49767E+03        -2.55522        -2.55522        -5.89068        -5.89068
             956     1.49610E+03     1.49610E+03        -1.83416        -1.83416        -6.69476        -6.69476
             957     1.49452E+03     1.49452E+03        -1.20459        -1.20459        -7.22538        -7.22538
             958     1.49294E+03     1.49294E+03    -671.900E-03    -671.900E-03        -7.52328        -7.52328
             959     1.49140E+03     1.49140E+03    -234.077E-03    -234.077E-03        -7.62859        -7.62859
             960     1.48990E+03     1.48990E+03     115.678E-03     115.678E-03        -7.57884        -7.57884
             961     1.48846E+03     1.48846E+03     386.754E-03     386.754E-03        -7.40778        -7.40778
             962     1.48708E+03     1.48708E+03     589.651E-03     589.651E-03        -7.14491        -7.14491
             963     1.48577E+03     1.48577E+03     734.926E-03     734.926E-03        -6.81536        -6.81536
             964     1.48454E+03     1.48454E+03     832.558E-03     832.558E-03        -6.44014        -6.44014
             965     1.48338E+03     1.48338E+03     891.592E-03     891.592E-03        -6.03641        -6.03641
             966     1.48230E+03     1.48230E+03     919.969E-03     919.969E-03        -5.61799        -5.61799
             967     1.48129E+03     1.48129E+03     924.505E-03     924.505E-03        -5.19574        -5.19574
             968     1.48036E+03     1.48036E+03     910.936E-03     910.936E-03        -4.77805        -4.77805
             969     1.47951E+03     1.47951E+03     884.016E-03     884.016E-03        -4.37118        -4.37118
             970     1.47872E+03     1.47872E+03     847.626E-03     847.626E-03        -3.97969        -3.97969
             971     1.47800E+03     1.47800E+03     804.902E-03     804.902E-03        -3.60671        -3.60671
             972     1.47734E+03     1.47734E+03     758.348E-03     758.348E-03        -3.25424        -3.25424
             973     1.47674E+03     1.47674E+03     709.937E-03     709.937E-03        -2.92336        -2.92336
             974     1.47621E+03     1.47621E+03     661.213E-03     661.213E-03        -2.61442        -2.61442
             975     1.47572E+03     1.47572E+03     613.364E-03     613.364E-03        -2.32720        -2.32720
             976     1.47529E+03     1.47529E+03     567.297E-03     567.297E-03        -2.06107        -2.06107
             977     1.47491E+03     1.47491E+03     523.692E-03     523.692E-03        -1.81504        -1.81504
             978     1.47457E+03     1.47457E+03     483.052E-03     483.052E-03        -1.58788        -1.58788
             979     1.47427E+03     1.47427E+03     445.742E-03     445.742E-03        -1.37818        -1.37818
             980     1.47401E+03     1.47401E+03     412.019E-03     412.019E-03        -1.18438        -1.18438
             981     1.47378E+03     1.47378E+03     382.060E-03     382.060E-03        -1.00484        -1.00484
             982     1.47359E+03     1.47359E+03     355.981E-03     355.981E-03    -837.846E-03    -837.846E-03
             983     1.47344E+03     1.47344E+03     333.857E-03     333.857E-03    -681.653E-03    -681.653E-03
             984     1.47331E+03     1.47331E+03     315.725E-03     315.725E-03    -534.488E-03    -534.488E-03
             985     1.47321E+03     1.47321E+03     301.598E-03     301.598E-03    -394.548E-03    -394.548E-03
             986     1.47315E+03     1.47315E+03     291.496E-03     291.496E-03    -260.029E-03    -260.029E-03
             987     1.47311E+03     1.47311E+03     285.434E-03     285.434E-03    -129.821E-03    -129.821E-03
             988     1.49942E+03     1.49942E+03        -2.90942        -2.90942         12.1443         12.1443
             989     1.50154E+03     1.50154E+03        -3.66004        -3.66004         10.2044         10.2044
             990     1.50310E+03     1.50310E+03        -4.05195        -4.05195         7.97598         7.97598
             991     1.50408E+03     1.50408E+03        -4.13032        -4.13032         5.64985         5.64985
             992     1.50452E+03     1.50452E+03        -3.95994        -3.95994         3.38018         3.38018
             993     1.50446E+03     1.50446E+03        -3.61201        -3.61201         1.28071         1.28071
             994     1.50397E+03     1.50397E+03        -3.15389        -3.15389    -574.702E-03    -574.702E-03
             995     1.50313E+03     1.50313E+03        -2.64303        -2.64303        -2.14659        -2.14659
             996     1.50201E+03     1.50201E+03        -2.12430        -2.12430        -3.42334        -3.42334
             997     1.50067E+03     1.50067E+03        -1.62962        -1.62962        -4.41343        -4.41343
             998     1.49918E+03     1.49918E+03        -1.17962        -1.17962        -5.13894        -5.13894
             999     1.49758E+03     1.49758E+03    -785.414E-03    -785.414E-03        -5.62975        -5.62975
            1000     1.49593E+03     1.49593E+03    -451.168E-03    -451.168E-03        -5.91930        -5.91930
            1001     1.49425E+03     1.49425E+03    -176.027E-03    -176.027E-03        -6.04137        -6.04137
            1002     1.49258E+03     1.49258E+03     43.9798E-03     43.9798E-03        -6.02809        -6.02809
            1003     1.49094E+03     1.49094E+03     214.633E-03     214.633E-03        -5.90865        -5.90865
            1004     1.48936E+03     1.48936E+03     342.474E-03     342.474E-03        -5.70870        -5.70870
            1005     1.48784E+03     1.48784E+03     434.133E-03     434.133E-03        -5.45018        -5.45018
            1006     1.48639E+03     1.48639E+03     495.902E-03     495.902E-03        -5.15142        -5.15142
            1007     1.48503E+03     1.48503E+03     533.485E-03     533.485E-03        -4.82741        -4.82741
            1008     1.48375E+03     1.48375E+03     551.892E-03     551.892E-03        -4.49016        -4.49016
            1009     1.48256E+03     1.48256E+03     555.416E-03     555.416E-03        -4.14907        -4.14907
            1010     1.48146E+03     1.48146E+03     547.663E-03     547.663E-03        -3.81139        -3.81139
            1011     1.48045E+03     1.48045E+03     531.613E-03     531.613E-03        -3.48249        -3.48249
            1012     1.47952E+03     1.47952E+03     509.694E-03     509.694E-03        -3.16626        -3.16626
            1013     1.47867E+03     1.47867E+03     483.860E-03     483.860E-03        -2.86534        -2.86534
            1014     1.47790E+03     1.47790E+03     455.665E-03     455.665E-03        -2.58139        -2.58139
            1015     1.47721E+03     1.47721E+03     426.329E-03     426.329E-03        -2.31531        -2.31531
            1016     1.47658E+03     1.47658E+03     396.804E-03     396.804E-03        -2.06736        -2.06736
            1017     1.47602E+03     1.47602E+03     367.818E-03     367.818E-03        -1.83735        -1.83735
            1018     1.47551E+03     1.47551E+03     339.924E-03     339.924E-03        -1.62470        -1.62470
            1019     1.47507E+03     1.47507E+03     313.536E-03     313.536E-03        -1.42857        -1.42857
            1020     1.47468E+03     1.47468E+03     288.956E-03     288.956E-03        -1.24793        -1.24793
            1021     1.47433E+03     1.47433E+03     266.403E-03     266.403E-03        -1.08160        -1.08160
            1022     1.47404E+03     1.47404E+03     246.030E-03     246.030E-03    -928.267E-03    -928.267E-03
            1023     1.47378E+03     1.47378E+03     227.940E-03     227.940E-03    -786.583E-03    -786.583E-03
            1024     1.47356E+03     1.47356E+03     212.201E-03     212.201E-03    -655.134E-03    -655.134E-03
            1025     1.47339E+03     1.47339E+03     198.855E-03     198.855E-03    -532.481E-03    -532.481E-03
            1026     1.47324E+03     1.47324E+03     187.929E-03     187.929E-03    -417.170E-03    -417.170E-03
            1027     1.47313E+03     1.47313E+03     179.417E-03     179.417E-03    -307.754E-03    -307.754E-03
            1028     1.47306E+03     1.47306E+03     173.300E-03     173.300E-03    -202.750E-03    -202.750E-03
            1029     1.47301E+03     1.47301E+03     169.629E-03     169.629E-03    -101.336E-03    -101.336E-03
            1030     1.49726E+03     1.49726E+03        -1.44280        -1.44280         9.23556         9.23556
            1031     1.50044E+03     1.50044E+03        -1.83772        -1.83772         7.85428         7.85428
            1032     1.50301E+03     1.50301E+03        -2.05049        -2.05049         6.23986         6.23986
            1033     1.50490E+03     1.50490E+03        -2.10239        -2.10239         4.53445         4.53445
            1034     1.50612E+03     1.50612E+03        -2.02532        -2.02532         2.85490         2.85490
            1035     1.50670E+03     1.50670E+03        -1.85496        -1.85496         1.28945         1.28945
            1036     1.50670E+03     1.50670E+03        -1.62577        -1.62577    -102.631E-03    -102.631E-03
            1037     1.50620E+03     1.50620E+03        -1.36753        -1.36753        -1.28829        -1.28829
            1038     1.50528E+03     1.50528E+03        -1.10362        -1.10362        -2.25580        -2.25580
            1039     1.50402E+03     1.50402E+03    -850.984E-03    -850.984E-03        -3.00957        -3.00957
            1040     1.50251E+03     1.50251E+03    -620.504E-03    -620.504E-03        -3.56485        -3.56485
            1041     1.50081E+03     1.50081E+03    -418.268E-03    -418.268E-03        -3.94351        -3.94351
            1042     1.49900E+03     1.49900E+03    -246.566E-03    -246.566E-03        -4.17044        -4.17044
            1043     1.49713E+03     1.49713E+03    -105.119E-03    -105.119E-03        -4.27114        -4.27114
            1044     1.49524E+03     1.49524E+03     8.07044E-03     8.07044E-03        -4.26993        -4.26993
            1045     1.49336E+03     1.49336E+03     95.9344E-03     95.9344E-03        -4.18897        -4.18897
            1046     1.49154E+03     1.49154E+03     161.833E-03     161.833E-03        -4.04775        -4.04775
            1047     1.48978E+03     1.48978E+03     209.180E-03     209.180E-03        -3.86288        -3.86288
            1048     1.48810E+03     1.48810E+03     241.214E-03     241.214E-03        -3.64821        -3.64821
            1049     1.48653E+03     1.48653E+03     260.875E-03     260.875E-03        -3.41502        -3.41502
            1050     1.48505E+03     1.48505E+03     270.737E-03     270.737E-03        -3.17228        -3.17228
            1051     1.48367E+03     1.48367E+03     273.005E-03     273.005E-03        -2.92700        -2.92700
            1052     1.48240E+03     1.48240E+03     269.527E-03     269.527E-03        -2.68452        -2.68452
            1053     1.48124E+03     1.48124E+03     261.826E-03     261.826E-03        -2.44877        -2.44877
            1054     1.48017E+03     1.48017E+03     251.139E-03     251.139E-03        -2.22256        -2.22256
            1055     1.47920E+03     1.47920E+03     238.460E-03     238.460E-03        -2.00778        -2.00778
            1056     1.47832E+03     1.47832E+03     224.577E-03     224.577E-03        -1.80559        -1.80559
            1057     1.47753E+03     1.47753E+03     210.109E-03     210.109E-03        -1.61657        -1.61657
            1058     1.47682E+03     1.47682E+03     195.533E-03     195.533E-03        -1.44088        -1.44088
            1059     1.47619E+03     1.47619E+03     181.216E-03     181.216E-03        -1.27832        -1.27832
            1060     1.47562E+03     1.47562E+03     167.437E-03     167.437E-03        -1.12842        -1.12842
            1061     1.47513E+03     1.47513E+03     154.401E-03     154.401E-03    -990.542E-03    -990.542E-03
            1062     1.47469E+03     1.47469E+03     142.260E-03     142.260E-03    -863.897E-03    -863.897E-03
            1063     1.47431E+03     1.47431E+03     131.121E-03     131.121E-03    -747.599E-03    -747.599E-03
            1064     1.47398E+03     1.47398E+03     121.060E-03     121.060E-03    -640.694E-03    -640.694E-03
            1065     1.47370E+03     1.47370E+03     112.128E-03     112.128E-03    -542.182E-03    -542.182E-03
            1066     1.47346E+03     1.47346E+03     104.359E-03     104.359E-03    -451.032E-03    -451.032E-03
            1067     1.47326E+03     1.47326E+03     97.7731E-03     97.7731E-03    -366.203E-03    -366.203E-03
            1068     1.47311E+03     1.47311E+03     92.3829E-03     92.3829E-03    -286.636E-03    -286.636E-03
            1069     1.47299E+03     1.47299E+03     88.2086E-03     88.2086E-03    -211.284E-03    -211.284E-03
            1070     1.47290E+03     1.47290E+03     85.1903E-03     85.1903E-03    -139.144E-03    -139.144E-03
            1071     1.47285E+03     1.47285E+03     83.3126E-03     83.3126E-03    -69.7755E-03    -69.7755E-03
            1072     1.49597E+03     1.49597E+03    -507.744E-03    -507.744E-03         5.15828         5.15828
            1073     1.50043E+03     1.50043E+03    -653.071E-03    -653.071E-03         4.40886         4.40886
            1074     1.50412E+03     1.50412E+03    -732.961E-03    -732.961E-03         3.52659         3.52659
            1075     1.50696E+03     1.50696E+03    -754.944E-03    -754.944E-03         2.59100         2.59100
            1076     1.50892E+03     1.50892E+03    -730.044E-03    -730.044E-03         1.66716         1.66716
            1077     1.51004E+03     1.51004E+03    -670.935E-03    -670.935E-03     804.569E-03     804.569E-03
            1078     1.51040E+03     1.51040E+03    -590.087E-03    -590.087E-03     36.7304E-03     36.7304E-03
            1079     1.51008E+03     1.51008E+03    -498.222E-03    -498.222E-03    -617.419E-03    -617.419E-03
            1080     1.50921E+03     1.50921E+03    -403.939E-03    -403.939E-03        -1.15111        -1.15111
            1081     1.50788E+03     1.50788E+03    -313.376E-03    -313.376E-03        -1.56656        -1.56656
            1082     1.50621E+03     1.50621E+03    -230.594E-03    -230.594E-03        -1.87230        -1.87230
            1083     1.50430E+03     1.50430E+03    -157.817E-03    -157.817E-03        -2.08049        -2.08049
            1084     1.50222E+03     1.50222E+03    -95.9393E-03    -95.9393E-03        -2.20510        -2.20510
            1085     1.50006E+03     1.50006E+03    -44.8818E-03    -44.8818E-03        -2.26036        -2.26036
            1086     1.49787E+03     1.49787E+03    -3.94857E-03    -3.94857E-03        -2.25985        -2.25985
            1087     1.49571E+03     1.49571E+03     27.9033E-03     27.9033E-03        -2.21591        -2.21591
            1088     1.49359E+03     1.49359E+03     51.8792E-03     51.8792E-03        -2.13934        -2.13934
            1089     1.49156E+03     1.49156E+03     69.1992E-03     69.1992E-03        -2.03932        -2.03932
            1090     1.48964E+03     1.48964E+03     81.0284E-03     81.0284E-03        -1.92345        -1.92345
            1091     1.48783E+03     1.48783E+03     88.4174E-03     88.4174E-03        -1.79789        -1.79789
            1092     1.48614E+03     1.48614E+03     92.2915E-03     92.2915E-03        -1.66753        -1.66753
            1093     1.48458E+03     1.48458E+03     93.4381E-03     93.4381E-03        -1.53613        -1.53613
            1094     1.48314E+03     1.48314E+03     92.5187E-03     92.5187E-03        -1.40656        -1.40656
            1095     1.48182E+03     1.48182E+03     90.0769E-03     90.0769E-03        -1.28091        -1.28091
            1096     1.48063E+03     1.48063E+03     86.5548E-03     86.5548E-03        -1.16063        -1.16063
            1097     1.47955E+03     1.47955E+03     82.3064E-03     82.3064E-03        -1.04672        -1.04672
            1098     1.47857E+03     1.47857E+03     77.6126E-03     77.6126E-03    -939.740E-03    -939.740E-03
            1099     1.47770E+03     1.47770E+03     72.6932E-03     72.6932E-03    -839.977E-03    -839.977E-03
            1100     1.47692E+03     1.47692E+03     67.7190E-03     67.7190E-03    -747.469E-03    -747.469E-03
            1101     1.47622E+03     1.47622E+03     62.8205E-03     62.8205E-03    -662.077E-03    -662.077E-03
            1102     1.47561E+03     1.47561E+03     58.0965E-03     58.0965E-03    -583.529E-03    -583.529E-03
            1103     1.47507E+03     1.47507E+03     53.6209E-03     53.6209E-03    -511.456E-03    -511.456E-03
            1104     1.47459E+03     1.47459E+03     49.4473E-03     49.4473E-03    -445.418E-03    -445.418E-03
            1105     1.47418E+03     1.47418E+03     45.6152E-03     45.6152E-03    -384.925E-03    -384.925E-03
            1106     1.47383E+03     1.47383E+03     42.1508E-03     42.1508E-03    -329.456E-03    -329.456E-03
            1107     1.47353E+03     1.47353E+03     39.0746E-03     39.0746E-03    -278.467E-03    -278.467E-03
            1108     1.47327E+03     1.47327E+03     36.3957E-03     36.3957E-03    -231.403E-03    -231.403E-03
            1109     1.47307E+03     1.47307E+03     34.1274E-03     34.1274E-03    -187.701E-03    -187.701E-03
            1110     1.47290E+03     1.47290E+03     32.2662E-03     32.2662E-03    -146.799E-03    -146.799E-03
            1111     1.47277E+03     1.47277E+03     30.8361E-03     30.8361E-03    -108.120E-03    -108.120E-03
            1112     1.47268E+03     1.47268E+03     29.8423E-03     29.8423E-03    -71.1251E-03    -71.1251E-03
            1113     1.47263E+03     1.47263E+03     29.1225E-03     29.1225E-03    -35.9386E-03    -35.9386E-03
            1114     1.50025E+03     1.50025E+03        -60.4361        -60.4361         58.5720         58.5720
            1115     1.48213E+03     1.48213E+03        -46.9743        -46.9743         56.7916         56.7916
            1116     1.46972E+03     1.46972E+03        -35.1466        -35.1466         52.2239         52.2239
            1117     1.46171E+03     1.46171E+03        -25.4375        -25.4375         46.6421         46.6421
            1118     1.45685E+03     1.45685E+03        -17.7303        -17.7303         41.0271         41.0271
            1119     1.45414E+03     1.45414E+03        -11.6757        -11.6757         35.8398         35.8398
            1120     1.45287E+03     1.45287E+03        -6.93840        -6.93840         31.2516         31.2516
            1121     1.45255E+03     1.45255E+03        -3.23105        -3.23105         27.2865         27.2865
            1122     1.45284E+03     1.45284E+03    -333.711E-03    -333.711E-03         23.9011         23.9011
            1123     1.45353E+03     1.45353E+03         1.92374         1.92374         21.0263         21.0263
            1124     1.45445E+03     1.45445E+03         3.66929         3.66929         18.5873         18.5873
            1125     1.45552E+03     1.45552E+03         5.00179         5.00179         16.5136         16.5136
            1126     1.45665E+03     1.45665E+03         5.99767         5.99767         14.7422         14.7422
            1127     1.45780E+03     1.45780E+03         6.71765         6.71765         13.2198         13.2198
            1128     1.45895E+03     1.45895E+03         7.21057         7.21057         11.9015         11.9015
            1129     1.46007E+03     1.46007E+03         7.51655         7.51655         10.7505         10.7505
            1130     1.46115E+03     1.46115E+03         7.66898         7.66898         9.73718         9.73718
            1131     1.46218E+03     1.46218E+03         7.69601         7.69601         8.83747         8.83747
            1132     1.46315E+03     1.46315E+03         7.62159         7.62159         8.03229         8.03229
            1133     1.46406E+03     1.46406E+03         7.46619         7.46619         7.30651         7.30651
            1134     1.46491E+03     1.46491E+03         7.24738         7.24738         6.64812         6.64812
            1135     1.46570E+03     1.46570E+03         6.98021         6.98021         6.04766         6.04766
            1136     1.46643E+03     1.46643E+03         6.67760         6.67760         5.49763         5.49763
            1137     1.46710E+03     1.46710E+03         6.35058         6.35058         4.99205         4.99205
            1138     1.46771E+03     1.46771E+03         6.00854         6.00854         4.52612         4.52612
            1139     1.46827E+03     1.46827E+03         5.65939         5.65939         4.09589         4.09589
            1140     1.46878E+03     1.46878E+03         5.30981         5.30981         3.69811         3.69811
            1141     1.46925E+03     1.46925E+03         4.96536         4.96536         3.32998         3.32998
            1142     1.46966E+03     1.46966E+03         4.63063         4.63063         2.98905         2.98905
            1143     1.47004E+03     1.47004E+03         4.30938         4.30938         2.67312         2.67312
            1144     1.47037E+03     1.47037E+03         4.00467         4.00467         2.38017         2.38017
            1145     1.47067E+03     1.47067E+03         3.71894         3.71894         2.10827         2.10827
            1146     1.47093E+03     1.47093E+03         3.45412         3.45412         1.85559         1.85559
            1147     1.47116E+03     1.47116E+03         3.21172         3.21172         1.62035         1.62035
            1148     1.47136E+03     1.47136E+03         2.99289         2.99289         1.40077         1.40077
            1149     1.47153E+03     1.47153E+03         2.79850         2.79850         1.19512         1.19512
            1150     1.47167E+03     1.47167E+03         2.62920         2.62920         1.00166         1.00166
            1151     1.47179E+03     1.47179E+03         2.48544         2.48544     818.651E-03     818.651E-03
            1152     1.47189E+03     1.47189E+03         2.36754         2.36754     644.377E-03     644.377E-03
            1153     1.47196E+03     1.47196E+03         2.27574         2.27574     477.102E-03     477.102E-03
            1154     1.47202E+03     1.47202E+03         2.21018         2.21018     315.102E-03     315.102E-03
            1155     1.47205E+03     1.47205E+03         2.17088         2.17088     157.048E-03     157.048E-03
            1156     1.46400E+03     1.46400E+03        -55.1642        -55.1642         81.5959         81.5959
            1157     1.44934E+03     1.44934E+03        -38.6214        -38.6214         71.2467         71.2467
            1158     1.44170E+03     1.44170E+03        -26.1646        -26.1646         60.6366         60.6366
            1159     1.43843E+03     1.43843E+03        -17.0188        -17.0188         51.0425         51.0425
            1160     1.43773E+03     1.43773E+03        -10.2982        -10.2982         42.8689         42.8689
            1161     1.43849E+03     1.43849E+03        -5.31875        -5.31875         36.0881         36.0881
            1162     1.44003E+03     1.44003E+03        -1.58221        -1.58221         30.5294         30.5294
            1163     1.44197E+03     1.44197E+03         1.24726         1.24726         25.9906         25.9906
            1164     1.44407E+03     1.44407E+03         3.40327         3.40327         22.2839         22.2839
            1165     1.44620E+03     1.44620E+03         5.04523         5.04523         19.2474         19.2474
            1166     1.44828E+03     1.44828E+03         6.28650         6.28650         16.7475         16.7475
            1167     1.45028E+03     1.45028E+03         7.20820         7.20820         14.6761         14.6761
            1168     1.45218E+03     1.45218E+03         7.87095         7.87095         12.9466         12.9466
            1169     1.45396E+03     1.45396E+03         8.32104         8.32104         11.4902         11.4902
            1170     1.45562E+03     1.45562E+03         8.59525         8.59525         10.2522         10.2522
            1171     1.45717E+03     1.45717E+03         8.72351         8.72351         9.18953         9.18953
            1172     1.45861E+03     1.45861E+03         8.73090         8.73090         8.26838         8.26838
            1173     1.45994E+03     1.45994E+03         8.63879         8.63879         7.46205         7.46205
            1174     1.46117E+03     1.46117E+03         8.46566         8.46566         6.74965         6.74965
            1175     1.46231E+03     1.46231E+03         8.22763         8.22763         6.11482         6.11482
            1176     1.46335E+03     1.46335E+03         7.93881         7.93881         5.54476         5.54476
            1177     1.46431E+03     1.46431E+03         7.61157         7.61157         5.02944         5.02944
            1178     1.46519E+03     1.46519E+03         7.25671         7.25671         4.56101         4.56101
            1179     1.46600E+03     1.46600E+03         6.88367         6.88367         4.13323         4.13323
            1180     1.46673E+03     1.46673E+03         6.50058         6.50058         3.74116         3.74116
            1181     1.46740E+03     1.46740E+03         6.11447         6.11447         3.38081         3.38081
            1182     1.46801E+03     1.46801E+03         5.73132         5.73132         3.04890         3.04890
            1183     1.46855E+03     1.46855E+03         5.35619         5.35619         2.74270         2.74270
            1184     1.46905E+03     1.46905E+03         4.99333         4.99333         2.45986         2.45986
            1185     1.46949E+03     1.46949E+03         4.64625         4.64625         2.19831         2.19831
            1186     1.46988E+03     1.46988E+03         4.31783         4.31783         1.95620         1.95620
            1187     1.47024E+03     1.47024E+03         4.01042         4.01042         1.73181         1.73181
            1188     1.47055E+03     1.47055E+03         3.72586         3.72586         1.52351         1.52351
            1189     1.47082E+03     1.47082E+03         3.46563         3.46563         1.32977         1.32977
            1190     1.47106E+03     1.47106E+03         3.23086         3.23086         1.14908         1.14908
            1191     1.47126E+03     1.47126E+03         3.02241         3.02241     979.972E-03     979.972E-03
            1192     1.47143E+03     1.47143E+03         2.84092         2.84092     820.990E-03     820.990E-03
            1193     1.47158E+03     1.47158E+03         2.68687         2.68687     670.702E-03     670.702E-03
            1194     1.47169E+03     1.47169E+03         2.56057         2.56057     527.683E-03     527.683E-03
            1195     1.47178E+03     1.47178E+03         2.46228         2.46228     390.513E-03     390.513E-03
            1196     1.47184E+03     1.47184E+03         2.39215         2.39215     257.782E-03     257.782E-03
            1197     1.47188E+03     1.47188E+03         2.35020         2.35020     128.409E-03     128.409E-03
            1198     1.40892E+03     1.40892E+03        -37.6468        -37.6468         95.7907         95.7907
            1199     1.40600E+03     1.40600E+03        -22.3941        -22.3941         76.5434         76.5434
            1200     1.40819E+03     1.40819E+03        -12.4357        -12.4357         61.0151         61.0151
            1201     1.41257E+03     1.41257E+03        -5.83509        -5.83509         48.9043         48.9043
            1202     1.41765E+03     1.41765E+03        -1.32701        -1.32701         39.5441         39.5441
            1203     1.42276E+03     1.42276E+03         1.85326         1.85326         32.3003         32.3003
            1204     1.42758E+03     1.42758E+03         4.15487         4.15487         26.6596         26.6596
            1205     1.43200E+03     1.43200E+03         5.85520         5.85520         22.2348         22.2348
            1206     1.43600E+03     1.43600E+03         7.12368         7.12368         18.7341         18.7341
            1207     1.43960E+03     1.43960E+03         8.06933         8.06933         15.9406         15.9406
            1208     1.44283E+03     1.44283E+03         8.76297         8.76297         13.6907         13.6907
            1209     1.44573E+03     1.44573E+03         9.25338         9.25338         11.8617         11.8617
            1210     1.44835E+03     1.44835E+03         9.57536         9.57536         10.3599         10.3599
            1211     1.45070E+03     1.45070E+03         9.75544         9.75544         9.11428         9.11428
            1212     1.45283E+03     1.45283E+03         9.81481         9.81481         8.06998         8.06998
            1213     1.45476E+03     1.45476E+03         9.77135         9.77135         7.18500         7.18500
            1214     1.45652E+03     1.45652E+03         9.64066         9.64066         6.42683         6.42683
            1215     1.45811E+03     1.45811E+03         9.43672         9.43672         5.77036         5.77036
            1216     1.45957E+03     1.45957E+03         9.17222         9.17222         5.19614         5.19614
            1217     1.46089E+03     1.46089E+03         8.85876         8.85876         4.68909         4.68909
            1218     1.46210E+03     1.46210E+03         8.50694         8.50694         4.23752         4.23752
            1219     1.46321E+03     1.46321E+03         8.12639         8.12639         3.83231         3.83231
            1220     1.46421E+03     1.46421E+03         7.72584         7.72584         3.46636         3.46636
            1221     1.46512E+03     1.46512E+03         7.31309         7.31309         3.13408         3.13408
            1222     1.46595E+03     1.46595E+03         6.89507         6.89507         2.83106         2.83106
            1223     1.46671E+03     1.46671E+03         6.47787         6.47787         2.55377         2.55377
            1224     1.46739E+03     1.46739E+03         6.06680         6.06680         2.29933         2.29933
            1225     1.46801E+03     1.46801E+03         5.66640         5.66640         2.06537         2.06537
            1226     1.46856E+03     1.46856E+03         5.28056         5.28056         1.84988         1.84988
            1227     1.46906E+03     1.46906E+03         4.91253         4.91253         1.65112         1.65112
            1228     1.46950E+03     1.46950E+03         4.56500         4.56500         1.46754         1.46754
            1229     1.46990E+03     1.46990E+03         4.24019         4.24019         1.29774         1.29774
            1230     1.47024E+03     1.47024E+03         3.93985         3.93985         1.14042         1.14042
            1231     1.47055E+03     1.47055E+03         3.66542         3.66542     994.339E-03     994.339E-03
            1232     1.47082E+03     1.47082E+03         3.41797         3.41797     858.330E-03     858.330E-03
            1233     1.47105E+03     1.47105E+03         3.19836         3.19836     731.247E-03     731.247E-03
            1234     1.47124E+03     1.47124E+03         3.00721         3.00721     611.976E-03     611.976E-03
            1235     1.47140E+03     1.47140E+03         2.84498         2.84498     499.421E-03     499.421E-03
            1236     1.47153E+03     1.47153E+03         2.71202         2.71202     392.505E-03     392.505E-03
            1237     1.47163E+03     1.47163E+03         2.60855         2.60855     290.160E-03     290.160E-03
            1238     1.47170E+03     1.47170E+03         2.53474         2.53474     191.334E-03     191.334E-03
            1239     1.47174E+03     1.47174E+03         2.49061         2.49061     95.2225E-03     95.2225E-03
            1240     1.34312E+03     1.34312E+03        -10.2343        -10.2343         89.1666         89.1666
            1241     1.35967E+03     1.35967E+03        -1.67943        -1.67943         66.1920         66.1920
            1242     1.37512E+03     1.37512E+03         2.97458         2.97458         50.0824         50.0824
            1243     1.38848E+03     1.38848E+03         5.67382         5.67382         38.6350         38.6350
            1244     1.39976E+03     1.39976E+03         7.35809         7.35809         30.3366         30.3366
            1245     1.40921E+03     1.40921E+03         8.47912         8.47912         24.2033         24.2033
            1246     1.41714E+03     1.41714E+03         9.26857         9.26857         19.5952         19.5952
            1247     1.42384E+03     1.42384E+03         9.84435         9.84435         16.0789         16.0789
            1248     1.42952E+03     1.42952E+03         10.2689         10.2689         13.3596         13.3596
            1249     1.43439E+03     1.43439E+03         10.5746         10.5746         11.2294         11.2294
            1250     1.43859E+03     1.43859E+03         10.7791         10.7791         9.54114         9.54114
            1251     1.44224E+03     1.44224E+03         10.8927         10.8927         8.18731         8.18731
            1252     1.44543E+03     1.44543E+03         10.9226         10.9226         7.08937         7.08937
            1253     1.44825E+03     1.44825E+03         10.8747         10.8747         6.18865         6.18865
            1254     1.45075E+03     1.45075E+03         10.7551         10.7551         5.44122         5.44122
            1255     1.45298E+03     1.45298E+03         10.5703         10.5703         4.81377         4.81377
            1256     1.45498E+03     1.45498E+03         10.3271         10.3271         4.28101         4.28101
            1257     1.45678E+03     1.45678E+03         10.0330         10.0330         3.82355         3.82355
            1258     1.45840E+03     1.45840E+03         9.69552         9.69552         3.42654         3.42654
            1259     1.45987E+03     1.45987E+03         9.32239         9.32239         3.07856         3.07856
            1260     1.46120E+03     1.46120E+03         8.92122         8.92122         2.77079         2.77079
            1261     1.46241E+03     1.46241E+03         8.49933         8.49933         2.49639         2.49639
            1262     1.46351E+03     1.46351E+03         8.06368         8.06368         2.25005         2.25005
            1263     1.46450E+03     1.46450E+03         7.62073         7.62073         2.02762         2.02762
            1264     1.46540E+03     1.46540E+03         7.17639         7.17639         1.82582         1.82582
            1265     1.46622E+03     1.46622E+03         6.73599         6.73599         1.64204         1.64204
            1266     1.46695E+03     1.46695E+03         6.30424         6.30424         1.47417         1.47417
            1267     1.46762E+03     1.46762E+03         5.88528         5.88528         1.32046         1.32046
            1268     1.46822E+03     1.46822E+03         5.48267         5.48267         1.17946         1.17946
            1269     1.46875E+03     1.46875E+03         5.09943         5.09943         1.04991         1.04991
            1270     1.46923E+03     1.46923E+03         4.73811         4.73811     930.710E-03     930.710E-03
            1271     1.46966E+03     1.46966E+03         4.40078         4.40078     820.867E-03     820.867E-03
            1272     1.47003E+03     1.47003E+03         4.08914         4.08914     719.471E-03     719.471E-03
            1273     1.47036E+03     1.47036E+03         3.80455         3.80455     625.677E-03     625.677E-03
            1274     1.47065E+03     1.47065E+03         3.54807         3.54807     538.681E-03     538.681E-03
            1275     1.47090E+03     1.47090E+03         3.32051         3.32051     457.717E-03     457.717E-03
            1276     1.47111E+03     1.47111E+03         3.12247         3.12247     382.043E-03     382.043E-03
            1277     1.47128E+03     1.47128E+03         2.95442         2.95442     310.943E-03     310.943E-03
            1278     1.47142E+03     1.47142E+03         2.81667         2.81667     243.716E-03     243.716E-03
            1279     1.47153E+03     1.47153E+03         2.70946         2.70946     179.680E-03     179.680E-03
            1280     1.47160E+03     1.47160E+03         2.63294         2.63294     118.173E-03     118.173E-03
            1281     1.47165E+03     1.47165E+03         2.58714         2.58714     58.6841E-03     58.6841E-03
            1282     1.28682E+03     1.28682E+03         16.4054         16.4054         54.4436         54.4436
            1283     1.32345E+03     1.32345E+03         16.0370         16.0370         38.1330         38.1330
            1284     1.35075E+03     1.35075E+03         15.1286         15.1286         27.7556         27.7556
            1285     1.37146E+03     1.37146E+03         14.2655         14.2655         20.7999         20.7999
            1286     1.38751E+03     1.38751E+03         13.5802         13.5802         15.9535         15.9535
            1287     1.40017E+03     1.40017E+03         13.0786         13.0786         12.4812         12.4812
            1288     1.41033E+03     1.41033E+03         12.7284         12.7284         9.93219         9.93219
            1289     1.41860E+03     1.41860E+03         12.4872         12.4872         8.02583         8.02583
            1290     1.42544E+03     1.42544E+03         12.3155         12.3155         6.57492         6.57492
            1291     1.43115E+03     1.43115E+03         12.1796         12.1796         5.45468         5.45468
            1292     1.43598E+03     1.43598E+03         12.0529         12.0529         4.57750         4.57750
            1293     1.44011E+03     1.44011E+03         11.9154         11.9154         3.88200         3.88200
            1294     1.44368E+03     1.44368E+03         11.7532         11.7532         3.32356         3.32356
            1295     1.44679E+03     1.44679E+03         11.5572         11.5572         2.86977         2.86977
            1296     1.44952E+03     1.44952E+03         11.3226         11.3226         2.49652         2.49652
            1297     1.45194E+03     1.45194E+03         11.0477         11.0477         2.18588         2.18588
            1298     1.45409E+03     1.45409E+03         10.7334         10.7334         1.92431         1.92431
            1299     1.45601E+03     1.45601E+03         10.3827         10.3827         1.70160         1.70160
            1300     1.45774E+03     1.45774E+03         9.99976         9.99976         1.50993         1.50993
            1301     1.45929E+03     1.45929E+03         9.58973         9.58973         1.34337         1.34337
            1302     1.46070E+03     1.46070E+03         9.15825         9.15825         1.19733         1.19733
            1303     1.46196E+03     1.46196E+03         8.71114         8.71114         1.06829         1.06829
            1304     1.46311E+03     1.46311E+03         8.25424         8.25424     953.506E-03     953.506E-03
            1305     1.46415E+03     1.46415E+03         7.79312         7.79312     850.847E-03     850.847E-03
            1306     1.46510E+03     1.46510E+03         7.33306         7.33306     758.618E-03     758.618E-03
            1307     1.46595E+03     1.46595E+03         6.87889         6.87889     675.469E-03     675.469E-03
            1308     1.46671E+03     1.46671E+03         6.43496         6.43496     600.305E-03     600.305E-03
            1309     1.46741E+03     1.46741E+03         6.00513         6.00513     532.221E-03     532.221E-03
            1310     1.46803E+03     1.46803E+03         5.59276         5.59276     470.459E-03     470.459E-03
            1311     1.46859E+03     1.46859E+03         5.20073         5.20073     414.368E-03     414.368E-03
            1312     1.46909E+03     1.46909E+03         4.83146         4.83146     363.379E-03     363.379E-03
            1313     1.46953E+03     1.46953E+03         4.48697         4.48697     316.985E-03     316.985E-03
            1314     1.46992E+03     1.46992E+03         4.16888         4.16888     274.728E-03     274.728E-03
            1315     1.47026E+03     1.47026E+03         3.87852         3.87852     236.188E-03     236.188E-03
            1316     1.47056E+03     1.47056E+03         3.61690         3.61690     200.978E-03     200.978E-03
            1317     1.47082E+03     1.47082E+03         3.38482         3.38482     168.735E-03     168.735E-03
            1318     1.47104E+03     1.47104E+03         3.18287         3.18287     139.120E-03     139.120E-03
            1319     1.47122E+03     1.47122E+03         3.01148         3.01148     111.815E-03     111.815E-03
            1320     1.47136E+03     1.47136E+03         2.87097         2.87097     86.5208E-03     86.5208E-03
            1321     1.47147E+03     1.47147E+03         2.76154         2.76154     62.9596E-03     62.9596E-03
            1322     1.47155E+03     1.47155E+03         2.68335         2.68335     40.8734E-03     40.8734E-03
            1323     1.47160E+03     1.47160E+03         2.63641         2.63641     20.0750E-03     20.0750E-03
            1324     1.26721E+03     1.26721E+03         26.1819         26.1819        -3.70472        -3.70472
            1325     1.31189E+03     1.31189E+03         21.9120         21.9120        -3.23138        -3.23138
            1326     1.34336E+03     1.34336E+03         18.9173         18.9173        -2.74504        -2.74504
            1327     1.36652E+03     1.36652E+03         16.8212         16.8212        -2.34133        -2.34133
            1328     1.38408E+03     1.38408E+03         15.3566         15.3566        -2.01106        -2.01106
            1329     1.39772E+03     1.39772E+03         14.3463         14.3463        -1.74367        -1.74367
            1330     1.40854E+03     1.40854E+03         13.6500         13.6500        -1.52474        -1.52474
            1331     1.41727E+03     1.41727E+03         13.1693         13.1693        -1.34523        -1.34523
            1332     1.42442E+03     1.42442E+03         12.8271         12.8271        -1.19652        -1.19652
            1333     1.43037E+03     1.43037E+03         12.5686         12.5686        -1.07282        -1.07282
            1334     1.43537E+03     1.43537E+03         12.3519         12.3519    -969.048E-03    -969.048E-03
            1335     1.43963E+03     1.43963E+03         12.1481         12.1481    -881.493E-03    -881.493E-03
            1336     1.44330E+03     1.44330E+03         11.9361         11.9361    -806.990E-03    -806.990E-03
            1337     1.44648E+03     1.44648E+03         11.7026         11.7026    -743.081E-03    -743.081E-03
            1338     1.44927E+03     1.44927E+03         11.4394         11.4394    -687.702E-03    -687.702E-03
            1339     1.45173E+03     1.45173E+03         11.1425         11.1425    -639.202E-03    -639.202E-03
            1340     1.45392E+03     1.45392E+03         10.8113         10.8113    -596.213E-03    -596.213E-03
            1341     1.45587E+03     1.45587E+03         10.4473         10.4473    -557.633E-03    -557.633E-03
            1342     1.45762E+03     1.45762E+03         10.0538         10.0538    -522.564E-03    -522.564E-03
            1343     1.45919E+03     1.45919E+03         9.63537         9.63537    -490.292E-03    -490.292E-03
            1344     1.46061E+03     1.46061E+03         9.19706         9.19706    -460.251E-03    -460.251E-03
            1345     1.46189E+03     1.46189E+03         8.74436         8.74436    -431.998E-03    -431.998E-03
            1346     1.46305E+03     1.46305E+03         8.28280         8.28280    -405.195E-03    -405.195E-03
            1347     1.46410E+03     1.46410E+03         7.81776         7.81776    -379.585E-03    -379.585E-03
            1348     1.46505E+03     1.46505E+03         7.35436         7.35436    -354.981E-03    -354.981E-03
            1349     1.46591E+03     1.46591E+03         6.89731         6.89731    -331.244E-03    -331.244E-03
            1350     1.46669E+03     1.46669E+03         6.45088         6.45088    -308.277E-03    -308.277E-03
            1351     1.46738E+03     1.46738E+03         6.01887         6.01887    -286.011E-03    -286.011E-03
            1352     1.46801E+03     1.46801E+03         5.60459         5.60459    -264.395E-03    -264.395E-03
            1353     1.46857E+03     1.46857E+03         5.21088         5.21088    -243.389E-03    -243.389E-03
            1354     1.46907E+03     1.46907E+03         4.84013         4.84013    -222.958E-03    -222.958E-03
            1355     1.46952E+03     1.46952E+03         4.49433         4.49433    -203.067E-03    -203.067E-03
            1356     1.46991E+03     1.46991E+03         4.17509         4.17509    -183.675E-03    -183.675E-03
            1357     1.47026E+03     1.47026E+03         3.88372         3.88372    -164.733E-03    -164.733E-03
            1358     1.47056E+03     1.47056E+03         3.62121         3.62121    -146.184E-03    -146.184E-03
            1359     1.47081E+03     1.47081E+03         3.38835         3.38835    -127.953E-03    -127.953E-03
            1360     1.47103E+03     1.47103E+03         3.18571         3.18571    -109.955E-03    -109.955E-03
            1361     1.47121E+03     1.47121E+03         3.01371         3.01371    -92.0860E-03    -92.0860E-03
            1362     1.47136E+03     1.47136E+03         2.87264         2.87264    -74.2273E-03    -74.2273E-03
            1363     1.47147E+03     1.47147E+03         2.76271         2.76271    -56.2399E-03    -56.2399E-03
            1364     1.47155E+03     1.47155E+03         2.68404         2.68404    -37.9650E-03    -37.9650E-03
            1365     1.47160E+03     1.47160E+03         2.63661         2.63661    -19.2653E-03    -19.2653E-03
            1366     1.30034E+03     1.30034E+03         9.97667         9.97667        -62.6305        -62.6305
            1367     1.33301E+03     1.33301E+03         11.3698         11.3698        -45.3537        -45.3537
            1368     1.35764E+03     1.35764E+03         11.6966         11.6966        -33.9950        -33.9950
            1369     1.37656E+03     1.37656E+03         11.6934         11.6934        -26.1566        -26.1566
            1370     1.39137E+03     1.39137E+03         11.6170         11.6170        -20.5662        -20.5662
            1371     1.40316E+03     1.40316E+03         11.5542         11.5542        -16.4722        -16.4722
            1372     1.41269E+03     1.41269E+03         11.5275         11.5275        -13.4106        -13.4106
            1373     1.42050E+03     1.42050E+03         11.5281         11.5281        -11.0792        -11.0792
            1374     1.42698E+03     1.42698E+03         11.5404         11.5404        -9.27639        -9.27639
            1375     1.43242E+03     1.43242E+03         11.5460         11.5460        -7.86272        -7.86272
            1376     1.43705E+03     1.43705E+03         11.5296         11.5296        -6.74009        -6.74009
            1377     1.44101E+03     1.44101E+03         11.4786         11.4786        -5.83767        -5.83767
            1378     1.44445E+03     1.44445E+03         11.3849         11.3849        -5.10370        -5.10370
            1379     1.44746E+03     1.44746E+03         11.2433         11.2433        -4.49963        -4.49963
            1380     1.45010E+03     1.45010E+03         11.0522         11.0522        -3.99656        -3.99656
            1381     1.45245E+03     1.45245E+03         10.8122         10.8122        -3.57252        -3.57252
            1382     1.45454E+03     1.45454E+03         10.5262         10.5262        -3.21078        -3.21078
            1383     1.45641E+03     1.45641E+03         10.1985         10.1985        -2.89850        -2.89850
            1384     1.45810E+03     1.45810E+03         9.83437         9.83437        -2.62580        -2.62580
            1385     1.45961E+03     1.45961E+03         9.43986         9.43986        -2.38506        -2.38506
            1386     1.46099E+03     1.46099E+03         9.02132         9.02132        -2.17039        -2.17039
            1387     1.46223E+03     1.46223E+03         8.58513         8.58513        -1.97725        -1.97725
            1388     1.46335E+03     1.46335E+03         8.13755         8.13755        -1.80211        -1.80211
            1389     1.46437E+03     1.46437E+03         7.68453         7.68453        -1.64222        -1.64222
            1390     1.46529E+03     1.46529E+03         7.23159         7.23159        -1.49546        -1.49546
            1391     1.46613E+03     1.46613E+03         6.78377         6.78377        -1.36013        -1.36013
            1392     1.46688E+03     1.46688E+03         6.34557         6.34557        -1.23489        -1.23489
            1393     1.46756E+03     1.46756E+03         5.92097         5.92097        -1.11865        -1.11865
            1394     1.46816E+03     1.46816E+03         5.51340         5.51340        -1.01051        -1.01051
            1395     1.46871E+03     1.46871E+03         5.12580         5.12580    -909.701E-03    -909.701E-03
            1396     1.46920E+03     1.46920E+03         4.76063         4.76063    -815.540E-03    -815.540E-03
            1397     1.46963E+03     1.46963E+03         4.41991         4.41991    -727.417E-03    -727.417E-03
            1398     1.47001E+03     1.47001E+03         4.10529         4.10529    -644.764E-03    -644.764E-03
            1399     1.47035E+03     1.47035E+03         3.81807         3.81807    -567.034E-03    -567.034E-03
            1400     1.47064E+03     1.47064E+03         3.55927         3.55927    -493.693E-03    -493.693E-03
            1401     1.47089E+03     1.47089E+03         3.32968         3.32968    -424.211E-03    -424.211E-03
            1402     1.47110E+03     1.47110E+03         3.12985         3.12985    -358.055E-03    -358.055E-03
            1403     1.47127E+03     1.47127E+03         2.96020         2.96020    -294.685E-03    -294.685E-03
            1404     1.47142E+03     1.47142E+03         2.82102         2.82102    -233.550E-03    -233.550E-03
            1405     1.47152E+03     1.47152E+03         2.71249         2.71249    -174.085E-03    -174.085E-03
            1406     1.47160E+03     1.47160E+03         2.63472         2.63472    -115.712E-03    -115.712E-03
            1407     1.47165E+03     1.47165E+03         2.58767         2.58767    -57.9830E-03    -57.9830E-03
            1408     1.37098E+03     1.37098E+03        -21.9759        -21.9759        -93.0178        -93.0178
            1409     1.37984E+03     1.37984E+03        -10.7023        -10.7023        -71.2365        -71.2365
            1410     1.39001E+03     1.39001E+03        -3.94740        -3.94740        -55.3194        -55.3194
            1411     1.39968E+03     1.39968E+03     337.521E-03     337.521E-03        -43.6297        -43.6297
            1412     1.40833E+03     1.40833E+03         3.20466         3.20466        -34.9183        -34.9183
            1413     1.41589E+03     1.41589E+03         5.21565         5.21565        -28.3367        -28.3367
            1414     1.42243E+03     1.42243E+03         6.67679         6.67679        -23.2963        -23.2963
            1415     1.42809E+03     1.42809E+03         7.76614         7.76614        -19.3883        -19.3883
            1416     1.43299E+03     1.43299E+03         8.58587         8.58587        -16.3228        -16.3228
            1417     1.43725E+03     1.43725E+03         9.19880         9.19880        -13.8918        -13.8918
            1418     1.44097E+03     1.44097E+03         9.64360         9.64360        -11.9431        -11.9431
            1419     1.44425E+03     1.44425E+03         9.94651         9.94651        -10.3645        -10.3645
            1420     1.44715E+03     1.44715E+03         10.1262         10.1262        -9.07196        -9.07196
            1421     1.44973E+03     1.44973E+03         10.1975         10.1975        -8.00200        -8.00200
            1422     1.45203E+03     1.45203E+03         10.1732         10.1732        -7.10632        -7.10632
            1423     1.45410E+03     1.45410E+03         10.0649         10.0649        -6.34795        -6.34795
            1424     1.45597E+03     1.45597E+03         9.88355         9.88355        -5.69846        -5.69846
            1425     1.45765E+03     1.45765E+03         9.63960         9.63960        -5.13593        -5.13593
            1426     1.45918E+03     1.45918E+03         9.34319         9.34319        -4.64343        -4.64343
            1427     1.46057E+03     1.46057E+03         9.00399         9.00399        -4.20787        -4.20787
            1428     1.46183E+03     1.46183E+03         8.63114         8.63114        -3.81910        -3.81910
            1429     1.46298E+03     1.46298E+03         8.23318         8.23318        -3.46925        -3.46925
            1430     1.46402E+03     1.46402E+03         7.81804         7.81804        -3.15220        -3.15220
            1431     1.46496E+03     1.46496E+03         7.39289         7.39289        -2.86318        -2.86318
            1432     1.46582E+03     1.46582E+03         6.96424         6.96424        -2.59844        -2.59844
            1433     1.46659E+03     1.46659E+03         6.53784         6.53784        -2.35500        -2.35500
            1434     1.46729E+03     1.46729E+03         6.11873         6.11873        -2.13044        -2.13044
            1435     1.46793E+03     1.46793E+03         5.71128         5.71128        -1.92282        -1.92282
            1436     1.46849E+03     1.46849E+03         5.31923         5.31923        -1.73047        -1.73047
            1437     1.46900E+03     1.46900E+03         4.94572         4.94572        -1.55197        -1.55197
            1438     1.46946E+03     1.46946E+03         4.59336         4.59336        -1.38607        -1.38607
            1439     1.46986E+03     1.46986E+03         4.26427         4.26427        -1.23161        -1.23161
            1440     1.47022E+03     1.47022E+03         3.96018         3.96018        -1.08753        -1.08753
            1441     1.47053E+03     1.47053E+03         3.68243         3.68243    -952.800E-03    -952.800E-03
            1442     1.47080E+03     1.47080E+03         3.43207         3.43207    -826.437E-03    -826.437E-03
            1443     1.47103E+03     1.47103E+03         3.20989         3.20989    -707.463E-03    -707.463E-03
            1444     1.47123E+03     1.47123E+03         3.01647         3.01647    -594.912E-03    -594.912E-03
            1445     1.47140E+03     1.47140E+03         2.85224         2.85224    -487.816E-03    -487.816E-03
            1446     1.47153E+03     1.47153E+03         2.71746         2.71746    -385.204E-03    -385.204E-03
            1447     1.47163E+03     1.47163E+03         2.61232         2.61232    -286.099E-03    -286.099E-03
            1448     1.47170E+03     1.47170E+03         2.53693         2.53693    -189.517E-03    -189.517E-03
            1449     1.47174E+03     1.47174E+03         2.49125         2.49125    -94.7040E-03    -94.7040E-03
            1450     1.44346E+03     1.44346E+03        -48.8706        -48.8706        -87.8463        -87.8463
            1451     1.43316E+03     1.43316E+03        -32.6116        -32.6116        -73.7768        -73.7768
            1452     1.42939E+03     1.42939E+03        -21.0951        -21.0951        -61.0844        -61.0844
            1453     1.42916E+03     1.42916E+03        -12.9740        -12.9740        -50.4550        -50.4550
            1454     1.43073E+03     1.43073E+03        -7.13885        -7.13885        -41.8220        -41.8220
            1455     1.43316E+03     1.43316E+03        -2.86710        -2.86710        -34.8806        -34.8806
            1456     1.43594E+03     1.43594E+03     318.486E-03     318.486E-03        -29.3115        -29.3115
            1457     1.43879E+03     1.43879E+03         2.72492         2.72492        -24.8344        -24.8344
            1458     1.44158E+03     1.44158E+03         4.55703         4.55703        -21.2199        -21.2199
            1459     1.44423E+03     1.44423E+03         5.95130         5.95130        -18.2847        -18.2847
            1460     1.44671E+03     1.44671E+03         7.00278         7.00278        -15.8849        -15.8849
            1461     1.44901E+03     1.44901E+03         7.77871         7.77871        -13.9073        -13.9073
            1462     1.45115E+03     1.45115E+03         8.32911         8.32911        -12.2636        -12.2636
            1463     1.45311E+03     1.45311E+03         8.69225         8.69225        -10.8845        -10.8845
            1464     1.45492E+03     1.45492E+03         8.89883         8.89883        -9.71587        -9.71587
            1465     1.45659E+03     1.45659E+03         8.97416         8.97416        -8.71523        -8.71523
            1466     1.45812E+03     1.45812E+03         8.93980         8.93980        -7.84946        -7.84946
            1467     1.45954E+03     1.45954E+03         8.81448         8.81448        -7.09265        -7.09265
            1468     1.46083E+03     1.46083E+03         8.61464         8.61464        -6.42457        -6.42457
            1469     1.46202E+03     1.46202E+03         8.35488         8.35488        -5.82945        -5.82945
            1470     1.46311E+03     1.46311E+03         8.04817         8.04817        -5.29497        -5.29497
            1471     1.46411E+03     1.46411E+03         7.70600         7.70600        -4.81153        -4.81153
            1472     1.46502E+03     1.46502E+03         7.33853         7.33853        -4.37164        -4.37164
            1473     1.46585E+03     1.46585E+03         6.95471         6.95471        -3.96938        -3.96938
            1474     1.46661E+03     1.46661E+03         6.56231         6.56231        -3.60008        -3.60008
            1475     1.46730E+03     1.46730E+03         6.16808         6.16808        -3.26001        -3.26001
            1476     1.46792E+03     1.46792E+03         5.77781         5.77781        -2.94610        -2.94610
            1477     1.46848E+03     1.46848E+03         5.39642         5.39642        -2.65582        -2.65582
            1478     1.46899E+03     1.46899E+03         5.02801         5.02801        -2.38701        -2.38701
            1479     1.46944E+03     1.46944E+03         4.67603         4.67603        -2.13777        -2.13777
            1480     1.46985E+03     1.46985E+03         4.34328         4.34328        -1.90641        -1.90641
            1481     1.47020E+03     1.47020E+03         4.03203         4.03203        -1.69136        -1.69136
            1482     1.47052E+03     1.47052E+03         3.74409         3.74409        -1.49114        -1.49114
            1483     1.47080E+03     1.47080E+03         3.48087         3.48087        -1.30431        -1.30431
            1484     1.47104E+03     1.47104E+03         3.24348         3.24348        -1.12949        -1.12949
            1485     1.47125E+03     1.47125E+03         3.03271         3.03271    -965.320E-03    -965.320E-03
            1486     1.47142E+03     1.47142E+03         2.84918         2.84918    -810.431E-03    -810.431E-03
            1487     1.47157E+03     1.47157E+03         2.69331         2.69331    -663.469E-03    -663.469E-03
            1488     1.47169E+03     1.47169E+03         2.56538         2.56538    -523.079E-03    -523.079E-03
            1489     1.47178E+03     1.47178E+03         2.46559         2.46559    -387.900E-03    -387.900E-03
            1490     1.47184E+03     1.47184E+03         2.39404         2.39404    -256.578E-03    -256.578E-03
            1491     1.47188E+03     1.47188E+03         2.35070         2.35070    -128.072E-03    -128.072E-03
            1492     1.49349E+03     1.49349E+03        -59.5100        -59.5100        -63.2466        -63.2466
            1493     1.47592E+03     1.47592E+03        -45.3593        -45.3593        -59.7597        -59.7597
            1494     1.46443E+03     1.46443E+03        -33.3715        -33.3715        -53.9221        -53.9221
            1495     1.45739E+03     1.45739E+03        -23.7899        -23.7899        -47.4876        -47.4876
            1496     1.45340E+03     1.45340E+03        -16.3166        -16.3166        -41.3475        -41.3475
            1497     1.45141E+03     1.45141E+03        -10.5096        -10.5096        -35.8535        -35.8535
            1498     1.45072E+03     1.45072E+03        -5.99443        -5.99443        -31.0940        -31.0940
            1499     1.45084E+03     1.45084E+03        -2.47441        -2.47441        -27.0396        -27.0396
            1500     1.45148E+03     1.45148E+03     270.824E-03     270.824E-03        -23.6139        -23.6139
            1501     1.45244E+03     1.45244E+03         2.40675         2.40675        -20.7273        -20.7273
            1502     1.45357E+03     1.45357E+03         4.05635         4.05635        -18.2931        -18.2931
            1503     1.45480E+03     1.45480E+03         5.31343         5.31343        -16.2330        -16.2330
            1504     1.45606E+03     1.45606E+03         6.25019         6.25019        -14.4802        -14.4802
            1505     1.45732E+03     1.45732E+03         6.92381         6.92381        -12.9783        -12.9783
            1506     1.45855E+03     1.45855E+03         7.38028         7.38028        -11.6811        -11.6811
            1507     1.45974E+03     1.45974E+03         7.65749         7.65749        -10.5509        -10.5509
            1508     1.46087E+03     1.46087E+03         7.78707         7.78707        -9.55751        -9.55751
            1509     1.46194E+03     1.46194E+03         7.79580         7.79580        -8.67662        -8.67662
            1510     1.46295E+03     1.46295E+03         7.70657         7.70657        -7.88901        -7.88901
            1511     1.46389E+03     1.46389E+03         7.53905         7.53905        -7.17949        -7.17949
            1512     1.46477E+03     1.46477E+03         7.31019         7.31019        -6.53607        -6.53607
            1513     1.46558E+03     1.46558E+03         7.03460         7.03460        -5.94930        -5.94930
            1514     1.46633E+03     1.46633E+03         6.72484         6.72484        -5.41172        -5.41172
            1515     1.46701E+03     1.46701E+03         6.39167         6.39167        -4.91742        -4.91742
            1516     1.46764E+03     1.46764E+03         6.04429         6.04429        -4.46165        -4.46165
            1517     1.46821E+03     1.46821E+03         5.69047         5.69047        -4.04054        -4.04054
            1518     1.46873E+03     1.46873E+03         5.33679         5.33679        -3.65090        -3.65090
            1519     1.46920E+03     1.46920E+03         4.98870         4.98870        -3.28999        -3.28999
            1520     1.46963E+03     1.46963E+03         4.65075         4.65075        -2.95546        -2.95546
            1521     1.47001E+03     1.47001E+03         4.32664         4.32664        -2.64515        -2.64515
            1522     1.47035E+03     1.47035E+03         4.01940         4.01940        -2.35712        -2.35712
            1523     1.47065E+03     1.47065E+03         3.73143         3.73143        -2.08950        -2.08950
            1524     1.47091E+03     1.47091E+03         3.46464         3.46464        -1.84052        -1.84052
            1525     1.47115E+03     1.47115E+03         3.22049         3.22049        -1.60844        -1.60844
            1526     1.47135E+03     1.47135E+03         3.00012         3.00012        -1.39156        -1.39156
            1527     1.47152E+03     1.47152E+03         2.80438         2.80438        -1.18817        -1.18817
            1528     1.47167E+03     1.47167E+03         2.63387         2.63387    -996.585E-03    -996.585E-03
            1529     1.47179E+03     1.47179E+03         2.48904         2.48904    -815.111E-03    -815.111E-03
            1530     1.47189E+03     1.47189E+03         2.37018         2.37018    -642.053E-03    -642.053E-03
            1531     1.47196E+03     1.47196E+03         2.27750         2.27750    -475.714E-03    -475.714E-03
            1532     1.47202E+03     1.47202E+03         2.21111         2.21111    -314.399E-03    -314.399E-03
            1533     1.47205E+03     1.47205E+03         2.17101         2.17101    -156.832E-03    -156.832E-03
            1534     1.47923E+03     1.47923E+03     48.6513E-03     48.6513E-03        -4.99844        -4.99844
            1535     1.48407E+03     1.48407E+03     81.2217E-03     81.2217E-03        -8.90631        -8.90631
            1536     1.48896E+03     1.48896E+03     42.7614E-03     42.7614E-03        -11.7717        -11.7717
            1537     1.49401E+03     1.49401E+03    -169.713E-03    -169.713E-03        -13.9653        -13.9653
            1538     1.49938E+03     1.49938E+03    -707.100E-03    -707.100E-03        -15.7514        -15.7514
            1539     1.50526E+03     1.50526E+03        -1.77934        -1.77934        -17.2801        -17.2801
            1540     1.51187E+03     1.51187E+03        -3.67819        -3.67819        -18.5865        -18.5865
            1541     1.51947E+03     1.51947E+03        -6.81195        -6.81195        -19.5595        -19.5595
            1542     1.52831E+03     1.52831E+03        -11.7463        -11.7463        -19.8696        -19.8696
            1543     1.53854E+03     1.53854E+03        -19.2326        -19.2326        -18.8230        -18.8230
            1544     1.54994E+03     1.54994E+03        -30.1301        -30.1301        -15.1438        -15.1438
            1545     1.56122E+03     1.56122E+03        -45.0436        -45.0436        -6.72376        -6.72376
            1546     1.47300E+03     1.47300E+03     488.955E-03     488.955E-03        -4.61172        -4.61172
            1547     1.47957E+03     1.47957E+03         1.30386         1.30386        -8.24983        -8.24983
            1548     1.48551E+03     1.48551E+03         2.45236         2.45236        -11.0089        -11.0089
            1549     1.49113E+03     1.49113E+03         3.78885         3.78885        -13.2862        -13.2862
            1550     1.49674E+03     1.49674E+03         5.16731         5.16731        -15.3877        -15.3877
            1551     1.50266E+03     1.50266E+03         6.41921         6.41921        -17.5367        -17.5367
            1552     1.50924E+03     1.50924E+03         7.31809         7.31809        -19.8911        -19.8911
            1553     1.51691E+03     1.51691E+03         7.52513         7.52513        -22.5384        -22.5384
            1554     1.52621E+03     1.52621E+03         6.50015         6.50015        -25.4536        -25.4536
            1555     1.53784E+03     1.53784E+03         3.35585         3.35585        -28.3840        -28.3840
            1556     1.55260E+03     1.55260E+03        -3.35799        -3.35799        -30.5444        -30.5444
            1557     1.57109E+03     1.57109E+03        -15.8261        -15.8261        -29.9870        -29.9870
            1558     1.46774E+03     1.46774E+03     898.709E-03     898.709E-03        -3.48818        -3.48818
            1559     1.47573E+03     1.47573E+03         2.44650         2.44650        -6.24655        -6.24655
            1560     1.48244E+03     1.48244E+03         4.71914         4.71914        -8.37650        -8.37650
            1561     1.48836E+03     1.48836E+03         7.55261         7.55261        -10.2187        -10.2187
            1562     1.49392E+03     1.49392E+03         10.8442         10.8442        -12.0493        -12.0493
            1563     1.49950E+03     1.49950E+03         14.5292         14.5292        -14.0995        -14.0995
            1564     1.50550E+03     1.50550E+03         18.5543         18.5543        -16.5852        -16.5852
            1565     1.51238E+03     1.51238E+03         22.8416         22.8416        -19.7295        -19.7295
            1566     1.52077E+03     1.52077E+03         27.2265         27.2265        -23.7782        -23.7782
            1567     1.53159E+03     1.53159E+03         31.3333         31.3333        -28.9943        -28.9943
            1568     1.54626E+03     1.54626E+03         34.2828         34.2828        -35.5752        -35.5752
            1569     1.56706E+03     1.56706E+03         33.9917         33.9917        -43.3022        -43.3022
            1570     1.46434E+03     1.46434E+03         1.19212         1.19212        -1.75284        -1.75284
            1571     1.47325E+03     1.47325E+03         3.26678         3.26678        -3.11953        -3.11953
            1572     1.48042E+03     1.48042E+03         6.35346         6.35346        -4.16683        -4.16683
            1573     1.48646E+03     1.48646E+03         10.2852         10.2852        -5.09589        -5.09589
            1574     1.49184E+03     1.49184E+03         15.0092         15.0092        -6.07433        -6.07433
            1575     1.49699E+03     1.49699E+03         20.5688         20.5688        -7.25247        -7.25247
            1576     1.50228E+03     1.50228E+03         27.0963         27.0963        -8.78657        -8.78657
            1577     1.50815E+03     1.50815E+03         34.8179         34.8179        -10.8648        -10.8648
            1578     1.51513E+03     1.51513E+03         44.0688         44.0688        -13.7408        -13.7408
            1579     1.52402E+03     1.52402E+03         55.3184         55.3184        -17.7861        -17.7861
            1580     1.53611E+03     1.53611E+03         69.1864         69.1864        -23.6009        -23.6009
            1581     1.55382E+03     1.55382E+03         86.3394         86.3394        -32.2135        -32.2135
            1582     1.46345E+03     1.46345E+03         1.30242         1.30242     334.737E-03     334.737E-03
            1583     1.47266E+03     1.47266E+03         3.57576         3.57576     656.307E-03     656.307E-03
            1584     1.47996E+03     1.47996E+03         6.97062         6.97062     959.416E-03     959.416E-03
            1585     1.48599E+03     1.48599E+03         11.3203         11.3203         1.23416         1.23416
            1586     1.49126E+03     1.49126E+03         16.5930         16.5930         1.47356         1.47356
            1587     1.49618E+03     1.49618E+03         22.8772         22.8772         1.67221         1.67221
            1588     1.50113E+03     1.50113E+03         30.3846         30.3846         1.82609         1.82609
            1589     1.50650E+03     1.50650E+03         39.4757         39.4757         1.93267         1.93267
            1590     1.51277E+03     1.51277E+03         50.7179         50.7179         1.99053         1.99053
            1591     1.52062E+03     1.52062E+03         64.9975         64.9975         1.99972         1.99972
            1592     1.53116E+03     1.53116E+03         83.7607         83.7607         1.96200         1.96200
            1593     1.54634E+03     1.54634E+03         109.606         109.606         1.87805         1.87805
            1594     1.46529E+03     1.46529E+03         1.20430         1.20430         2.43363         2.43363
            1595     1.47415E+03     1.47415E+03         3.30195         3.30195         4.45349         4.45349
            1596     1.48125E+03     1.48125E+03         6.42461         6.42461         6.11554         6.11554
            1597     1.48719E+03     1.48719E+03         10.4032         10.4032         7.60107         7.60107
            1598     1.49247E+03     1.49247E+03         15.1829         15.1829         9.06389         9.06389
            1599     1.49749E+03     1.49749E+03         20.8048         20.8048         10.6434         10.6434
            1600     1.50265E+03     1.50265E+03         27.3997         27.3997         12.4882         12.4882
            1601     1.50838E+03     1.50838E+03         35.1918         35.1918         14.7811         14.7811
            1602     1.51522E+03     1.51522E+03         44.5150         44.5150         17.7737         17.7737
            1603     1.52397E+03     1.52397E+03         55.8373         55.8373         21.8371         21.8371
            1604     1.53594E+03     1.53594E+03         69.7756         69.7756         27.5733         27.5733
            1605     1.55352E+03     1.55352E+03         86.9970         86.9970         36.0183         36.0183
            1606     1.46965E+03     1.46965E+03     922.998E-03     922.998E-03         4.20289         4.20289
            1607     1.47755E+03     1.47755E+03         2.51667         2.51667         7.64450         7.64450
            1608     1.48412E+03     1.48412E+03         4.86114         4.86114         10.4147         10.4147
            1609     1.48985E+03     1.48985E+03         7.78812         7.78812         12.8344         12.8344
            1610     1.49519E+03     1.49519E+03         11.1907         11.1907         15.1659         15.1659
            1611     1.50052E+03     1.50052E+03         15.0001         15.0001         17.6299         17.6299
            1612     1.50624E+03     1.50624E+03         19.1593         19.1593         20.4346         20.4346
            1613     1.51285E+03     1.51285E+03         23.5868         23.5868         23.7986         23.7986
            1614     1.52096E+03     1.52096E+03         28.1152         28.1152         27.9656         27.9656
            1615     1.53150E+03     1.53150E+03         32.3657         32.3657         33.1990         33.1990
            1616     1.54590E+03     1.54590E+03         35.4584         35.4584         39.6979         39.6979
            1617     1.56645E+03     1.56645E+03         35.3030         35.3030         47.2470         47.2470
            1618     1.47595E+03     1.47595E+03     525.205E-03     525.205E-03         5.38292         5.38292
            1619     1.48237E+03     1.48237E+03         1.40872         1.40872         9.75432         9.75432
            1620     1.48808E+03     1.48808E+03         2.66463         2.66463         13.1961         13.1961
            1621     1.49341E+03     1.49341E+03         4.14085         4.14085         16.0857         16.0857
            1622     1.49867E+03     1.49867E+03         5.68502         5.68502         18.7153         18.7153
            1623     1.50421E+03     1.50421E+03         7.12245         7.12245         21.2983         21.2983
            1624     1.51037E+03     1.51037E+03         8.22097         8.22097         23.9854         23.9854
            1625     1.51762E+03     1.51762E+03         8.63637         8.63637         26.8601         26.8601
            1626     1.52649E+03     1.52649E+03         7.82375         7.82375         29.8960         29.8960
            1627     1.53770E+03     1.53770E+03         4.89206         4.89206         32.8422         32.8422
            1628     1.55205E+03     1.55205E+03        -1.61202        -1.61202         34.9173         34.9173
            1629     1.57016E+03     1.57016E+03        -13.8720        -13.8720         34.1732         34.1732
            1630     1.48331E+03     1.48331E+03     96.7088E-03     96.7088E-03         5.84871         5.84871
            1631     1.48792E+03     1.48792E+03     220.362E-03     220.362E-03         10.5598         10.5598
            1632     1.49249E+03     1.49249E+03     324.520E-03     324.520E-03         14.1670         14.1670
            1633     1.49713E+03     1.49713E+03     297.448E-03     297.448E-03         17.0210         17.0210
            1634     1.50202E+03     1.50202E+03    -20.4383E-03    -20.4383E-03         19.3729         19.3729
            1635     1.50736E+03     1.50736E+03    -847.358E-03    -847.358E-03         21.3634         21.3634
            1636     1.51341E+03     1.51341E+03        -2.48294        -2.48294         23.0207         23.0207
            1637     1.52043E+03     1.52043E+03        -5.34280        -5.34280         24.2306         24.2306
            1638     1.52868E+03     1.52868E+03        -9.99920        -9.99920         24.6634         24.6634
            1639     1.53834E+03     1.53834E+03        -17.2096        -17.2096         23.6285         23.6285
            1640     1.54919E+03     1.54919E+03        -27.8366        -27.8366         19.8571         19.8571
            1641     1.55994E+03     1.55994E+03        -42.4845        -42.4845         11.2490         11.2490
            1642     1.47240E+03     1.47240E+03         1.77592         1.77592     194.215E-03     194.215E-03
            1643     1.47238E+03     1.47238E+03         1.80908         1.80908     389.541E-03     389.541E-03
            1644     1.47235E+03     1.47235E+03         1.86419         1.86419     589.792E-03     589.792E-03
            1645     1.47231E+03     1.47231E+03         1.94124         1.94124     796.598E-03     796.598E-03
            1646     1.47226E+03     1.47226E+03         2.04010         2.04010         1.01213         1.01213
            1647     1.47219E+03     1.47219E+03         2.16059         2.16059         1.23855         1.23855
            1648     1.47211E+03     1.47211E+03         2.30241         2.30241         1.47801         1.47801
            1649     1.47201E+03     1.47201E+03         2.46514         2.46514         1.73265         1.73265
            1650     1.47189E+03     1.47189E+03         2.64816         2.64816         2.00459         2.00459
            1651     1.47176E+03     1.47176E+03         2.85065         2.85065         2.29592         2.29592
            1652     1.47161E+03     1.47161E+03         3.07145         3.07145         2.60870         2.60870
            1653     1.47144E+03     1.47144E+03         3.30908         3.30908         2.94498         2.94498
            1654     1.47124E+03     1.47124E+03         3.56157         3.56157         3.30677         3.30677
            1655     1.47102E+03     1.47102E+03         3.82639         3.82639         3.69607         3.69607
            1656     1.47078E+03     1.47078E+03         4.10035         4.10035         4.11488         4.11488
            1657     1.47051E+03     1.47051E+03         4.37941         4.37941         4.56519         4.56519
            1658     1.47022E+03     1.47022E+03         4.65859         4.65859         5.04908         5.04908
            1659     1.46989E+03     1.46989E+03         4.93171         4.93171         5.56871         5.56871
            1660     1.46954E+03     1.46954E+03         5.19124         5.19124         6.12642         6.12642
            1661     1.46916E+03     1.46916E+03         5.42805         5.42805         6.72481         6.72481
            1662     1.46876E+03     1.46876E+03         5.63109         5.63109         7.36686         7.36686
            1663     1.46833E+03     1.46833E+03         5.78717         5.78717         8.05610         8.05610
            1664     1.46789E+03     1.46789E+03         5.88050         5.88050         8.79678         8.79678
            1665     1.46744E+03     1.46744E+03         5.89237         5.89237         9.59406         9.59406
            1666     1.46700E+03     1.46700E+03         5.80069         5.80069         10.4542         10.4542
            1667     1.46657E+03     1.46657E+03         5.57940         5.57940         11.3850         11.3850
            1668     1.46618E+03     1.46618E+03         5.19796         5.19796         12.3954         12.3954
            1669     1.46585E+03     1.46585E+03         4.62058         4.62058         13.4962         13.4962
            1670     1.46564E+03     1.46564E+03         3.80558         3.80558         14.6995         14.6995
            1671     1.46557E+03     1.46557E+03         2.70429         2.70429         16.0179         16.0179
            1672     1.46572E+03     1.46572E+03         1.26046         1.26046         17.4633         17.4633
            1673     1.46616E+03     1.46616E+03    -591.064E-03    -591.064E-03         19.0444         19.0444
            1674     1.46702E+03     1.46702E+03        -2.92412        -2.92412         20.7618         20.7618
            1675     1.46842E+03     1.46842E+03        -5.82198        -5.82198         22.6012         22.6012
            1676     1.47055E+03     1.47055E+03        -9.37277        -9.37277         24.5205         24.5205
            1677     1.47363E+03     1.47363E+03        -13.6650        -13.6650         26.4327         26.4327
            1678     1.47793E+03     1.47793E+03        -18.7664        -18.7664         28.1768         28.1768
            1679     1.48377E+03     1.48377E+03        -24.6952        -24.6952         29.4848         29.4848
            1680     1.49147E+03     1.49147E+03        -31.3455        -31.3455         29.9318         29.9318
            1681     1.50127E+03     1.50127E+03        -38.3888        -38.3888         28.9214         28.9214
            1682     1.51318E+03     1.51318E+03        -45.1077        -45.1077         25.6893         25.6893
            1683     1.52681E+03     1.52681E+03        -50.3352        -50.3352         19.5247         19.5247
            1684     1.47256E+03     1.47256E+03         1.57915         1.57915     203.351E-03     203.351E-03
            1685     1.47255E+03     1.47255E+03         1.60898         1.60898     407.846E-03     407.846E-03
            1686     1.47253E+03     1.47253E+03         1.65857         1.65857     617.590E-03     617.590E-03
            1687     1.47251E+03     1.47251E+03         1.72790         1.72790     834.312E-03     834.312E-03
            1688     1.47248E+03     1.47248E+03         1.81686         1.81686         1.06032         1.06032
            1689     1.47244E+03     1.47244E+03         1.92528         1.92528         1.29790         1.29790
            1690     1.47238E+03     1.47238E+03         2.05287         2.05287         1.54933         1.54933
            1691     1.47233E+03     1.47233E+03         2.19925         2.19925         1.81689         1.81689
            1692     1.47225E+03     1.47225E+03         2.36382         2.36382         2.10277         2.10277
            1693     1.47217E+03     1.47217E+03         2.54580         2.54580         2.40917         2.40917
            1694     1.47208E+03     1.47208E+03         2.74409         2.74409         2.73822         2.73822
            1695     1.47197E+03     1.47197E+03         2.95724         2.95724         3.09200         3.09200
            1696     1.47185E+03     1.47185E+03         3.18333         3.18333         3.47250         3.47250
            1697     1.47171E+03     1.47171E+03         3.41989         3.41989         3.88165         3.88165
            1698     1.47156E+03     1.47156E+03         3.66378         3.66378         4.32132         4.32132
            1699     1.47139E+03     1.47139E+03         3.91098         3.91098         4.79326         4.79326
            1700     1.47120E+03     1.47120E+03         4.15651         4.15651         5.29917         5.29917
            1701     1.47100E+03     1.47100E+03         4.39418         4.39418         5.84068         5.84068
            1702     1.47078E+03     1.47078E+03         4.61636         4.61636         6.41939         6.41939
            1703     1.47055E+03     1.47055E+03         4.81375         4.81375         7.03688         7.03688
            1704     1.47031E+03     1.47031E+03         4.97507         4.97507         7.69481         7.69481
            1705     1.47006E+03     1.47006E+03         5.08674         5.08674         8.39493         8.39493
            1706     1.46981E+03     1.46981E+03         5.13250         5.13250         9.13915         9.13915
            1707     1.46958E+03     1.46958E+03         5.09300         5.09300         9.92967         9.92967
            1708     1.46937E+03     1.46937E+03         4.94537         4.94537         10.7689         10.7689
            1709     1.46921E+03     1.46921E+03         4.66278         4.66278         11.6597         11.6597
            1710     1.46911E+03     1.46911E+03         4.21386         4.21386         12.6048         12.6048
            1711     1.46912E+03     1.46912E+03         3.56237         3.56237         13.6070         13.6070
            1712     1.46927E+03     1.46927E+03         2.66663         2.66663         14.6682         14.6682
            1713     1.46961E+03     1.46961E+03         1.47946         1.47946         15.7881         15.7881
            1714     1.47021E+03     1.47021E+03    -52.1109E-03    -52.1109E-03         16.9625         16.9625
            1715     1.47116E+03     1.47116E+03        -1.98572        -1.98572         18.1798         18.1798
            1716     1.47255E+03     1.47255E+03        -4.38268        -4.38268         19.4159         19.4159
            1717     1.47452E+03     1.47452E+03        -7.30330        -7.30330         20.6263         20.6263
            1718     1.47722E+03     1.47722E+03        -10.8011        -10.8011         21.7358         21.7358
            1719     1.48083E+03     1.48083E+03        -14.9076        -14.9076         22.6218         22.6218
            1720     1.48554E+03     1.48554E+03        -19.6116        -19.6116         23.0980         23.0980
            1721     1.49151E+03     1.49151E+03        -24.8173        -24.8173         22.8899         22.8899
            1722     1.49889E+03     1.49889E+03        -30.2876        -30.2876         21.6308         21.6308
            1723     1.50766E+03     1.50766E+03        -35.5661        -35.5661         18.8637         18.8637
            1724     1.51760E+03     1.51760E+03        -39.9038        -39.9038         14.1341         14.1341
            1725     1.52826E+03     1.52826E+03        -42.3009        -42.3009         7.02947         7.02947
            1726     1.47272E+03     1.47272E+03         1.37561         1.37561     207.702E-03     207.702E-03
            1727     1.47271E+03     1.47271E+03         1.40194         1.40194     416.568E-03     416.568E-03
            1728     1.47271E+03     1.47271E+03         1.44572         1.44572     630.906E-03     630.906E-03
            1729     1.47270E+03     1.47270E+03         1.50694         1.50694     852.507E-03     852.507E-03
            1730     1.47269E+03     1.47269E+03         1.58549         1.58549         1.08377         1.08377
            1731     1.47268E+03     1.47268E+03         1.68122         1.68122         1.32707         1.32707
            1732     1.47266E+03     1.47266E+03         1.79388         1.79388         1.58478         1.58478
            1733     1.47264E+03     1.47264E+03         1.92309         1.92309         1.85922         1.85922
            1734     1.47262E+03     1.47262E+03         2.06835         2.06835         2.15268         2.15268
            1735     1.47259E+03     1.47259E+03         2.22889         2.22889         2.46740         2.46740
            1736     1.47256E+03     1.47256E+03         2.40370         2.40370         2.80552         2.80552
            1737     1.47252E+03     1.47252E+03         2.59141         2.59141         3.16911         3.16911
            1738     1.47247E+03     1.47247E+03         2.79022         2.79022         3.56013         3.56013
            1739     1.47242E+03     1.47242E+03         2.99777         2.99777         3.98038         3.98038
            1740     1.47236E+03     1.47236E+03         3.21104         3.21104         4.43152         4.43152
            1741     1.47230E+03     1.47230E+03         3.42617         3.42617         4.91503         4.91503
            1742     1.47223E+03     1.47223E+03         3.63832         3.63832         5.43217         5.43217
            1743     1.47215E+03     1.47215E+03         3.84146         3.84146         5.98394         5.98394
            1744     1.47207E+03     1.47207E+03         4.02812         4.02812         6.57112         6.57112
            1745     1.47199E+03     1.47199E+03         4.18915         4.18915         7.19416         7.19416
            1746     1.47191E+03     1.47191E+03         4.31340         4.31340         7.85322         7.85322
            1747     1.47185E+03     1.47185E+03         4.38740         4.38740         8.54811         8.54811
            1748     1.47180E+03     1.47180E+03         4.39501         4.39501         9.27825         9.27825
            1749     1.47178E+03     1.47178E+03         4.31700         4.31700         10.0426         10.0426
            1750     1.47180E+03     1.47180E+03         4.13069         4.13069         10.8395         10.8395
            1751     1.47189E+03     1.47189E+03         3.80957         3.80957         11.6666         11.6666
            1752     1.47206E+03     1.47206E+03         3.32298         3.32298         12.5203         12.5203
            1753     1.47236E+03     1.47236E+03         2.63584         2.63584         13.3954         13.3954
            1754     1.47282E+03     1.47282E+03         1.70881         1.70881         14.2840         14.2840
            1755     1.47349E+03     1.47349E+03     498.438E-03     498.438E-03         15.1741         15.1741
            1756     1.47445E+03     1.47445E+03        -1.04158        -1.04158         16.0474         16.0474
            1757     1.47575E+03     1.47575E+03        -2.95878        -2.95878         16.8758         16.8758
            1758     1.47750E+03     1.47750E+03        -5.29790        -5.29790         17.6171         17.6171
            1759     1.47981E+03     1.47981E+03        -8.09545        -8.09545         18.2081         18.2081
            1760     1.48278E+03     1.48278E+03        -11.3688        -11.3688         18.5564         18.5564
            1761     1.48653E+03     1.48653E+03        -15.1016        -15.1016         18.5312         18.5312
            1762     1.49118E+03     1.49118E+03        -19.2183        -19.2183         17.9522         17.9522
            1763     1.49679E+03     1.49679E+03        -23.5508        -23.5508         16.5883         16.5883
            1764     1.50335E+03     1.50335E+03        -27.7966        -27.7966         14.1608         14.1608
            1765     1.51071E+03     1.51071E+03        -31.4688        -31.4688         10.3832         10.3832
            1766     1.51857E+03     1.51857E+03        -33.8961        -33.8961         5.00960         5.00960
            1767     1.52637E+03     1.52637E+03        -34.1337        -34.1337        -2.13223        -2.13223
            1768     1.47286E+03     1.47286E+03         1.17011         1.17011     207.084E-03     207.084E-03
            1769     1.47286E+03     1.47286E+03         1.19284         1.19284     415.314E-03     415.314E-03
            1770     1.47287E+03     1.47287E+03         1.23065         1.23065     629.139E-03     629.139E-03
            1771     1.47288E+03     1.47288E+03         1.28351         1.28351     850.365E-03     850.365E-03
            1772     1.47290E+03     1.47290E+03         1.35134         1.35134         1.08143         1.08143
            1773     1.47291E+03     1.47291E+03         1.43401         1.43401         1.32476         1.32476
            1774     1.47293E+03     1.47293E+03         1.53131         1.53131         1.58276         1.58276
            1775     1.47296E+03     1.47296E+03         1.64290         1.64290         1.85778         1.85778
            1776     1.47298E+03     1.47298E+03         1.76833         1.76833         2.15214         2.15214
            1777     1.47301E+03     1.47301E+03         1.90691         1.90691         2.46807         2.46807
            1778     1.47304E+03     1.47304E+03         2.05774         2.05774         2.80772         2.80772
            1779     1.47307E+03     1.47307E+03         2.21957         2.21957         3.17310         3.17310
            1780     1.47310E+03     1.47310E+03         2.39074         2.39074         3.56607         3.56607
            1781     1.47314E+03     1.47314E+03         2.56907         2.56907         3.98833         3.98833
            1782     1.47318E+03     1.47318E+03         2.75177         2.75177         4.44129         4.44129
            1783     1.47322E+03     1.47322E+03         2.93525         2.93525         4.92612         4.92612
            1784     1.47327E+03     1.47327E+03         3.11496         3.11496         5.44361         5.44361
            1785     1.47333E+03     1.47333E+03         3.28524         3.28524         5.99417         5.99417
            1786     1.47339E+03     1.47339E+03         3.43900         3.43900         6.57769         6.57769
            1787     1.47346E+03     1.47346E+03         3.56757         3.56757         7.19352         7.19352
            1788     1.47355E+03     1.47355E+03         3.66033         3.66033         7.84031         7.84031
            1789     1.47366E+03     1.47366E+03         3.70441         3.70441         8.51595         8.51595
            1790     1.47381E+03     1.47381E+03         3.68439         3.68439         9.21735         9.21735
            1791     1.47399E+03     1.47399E+03         3.58192         3.58192         9.94032         9.94032
            1792     1.47424E+03     1.47424E+03         3.37540         3.37540         10.6793         10.6793
            1793     1.47456E+03     1.47456E+03         3.03973         3.03973         11.4269         11.4269
            1794     1.47497E+03     1.47497E+03         2.54615         2.54615         12.1737         12.1737
            1795     1.47552E+03     1.47552E+03         1.86232         1.86232         12.9071         12.9071
            1796     1.47624E+03     1.47624E+03     952.662E-03     952.662E-03         13.6108         13.6108
            1797     1.47717E+03     1.47717E+03    -220.609E-03    -220.609E-03         14.2628         14.2628
            1798     1.47838E+03     1.47838E+03        -1.69591        -1.69591         14.8340         14.8340
            1799     1.47991E+03     1.47991E+03        -3.50904        -3.50904         15.2847         15.2847
            1800     1.48186E+03     1.48186E+03        -5.68877        -5.68877         15.5619         15.5619
            1801     1.48428E+03     1.48428E+03        -8.24905        -8.24905         15.5940         15.5940
            1802     1.48727E+03     1.48727E+03        -11.1785        -11.1785         15.2868         15.2868
            1803     1.49089E+03     1.49089E+03        -14.4244        -14.4244         14.5184         14.5184
            1804     1.49517E+03     1.49517E+03        -17.8717        -17.8717         13.1395         13.1395
            1805     1.50011E+03     1.50011E+03        -21.3188        -21.3188         10.9768         10.9768
            1806     1.50561E+03     1.50561E+03        -24.4459        -24.4459         7.85283         7.85283
            1807     1.51146E+03     1.51146E+03        -26.8059        -26.8059         3.61862         3.61862
            1808     1.51733E+03     1.51733E+03        -27.7928        -27.7928        -1.80911        -1.80911
            1809     1.52267E+03     1.52267E+03        -26.6529        -26.6529        -8.34480        -8.34480
            1810     1.47298E+03     1.47298E+03     967.591E-03     967.591E-03     201.393E-03     201.393E-03
            1811     1.47299E+03     1.47299E+03     986.694E-03     986.694E-03     403.878E-03     403.878E-03
            1812     1.47301E+03     1.47301E+03         1.01847         1.01847     611.966E-03     611.966E-03
            1813     1.47304E+03     1.47304E+03         1.06292         1.06292     827.430E-03     827.430E-03
            1814     1.47308E+03     1.47308E+03         1.11995         1.11995         1.05270         1.05270
            1815     1.47313E+03     1.47313E+03         1.18947         1.18947         1.29021         1.29021
            1816     1.47318E+03     1.47318E+03         1.27130         1.27130         1.54232         1.54232
            1817     1.47325E+03     1.47325E+03         1.36516         1.36516         1.81141         1.81141
            1818     1.47332E+03     1.47332E+03         1.47065         1.47065         2.09974         2.09974
            1819     1.47341E+03     1.47341E+03         1.58720         1.58720         2.40953         2.40953
            1820     1.47350E+03     1.47350E+03         1.71401         1.71401         2.74287         2.74287
            1821     1.47361E+03     1.47361E+03         1.84998         1.84998         3.10170         3.10170
            1822     1.47372E+03     1.47372E+03         1.99366         1.99366         3.48779         3.48779
            1823     1.47385E+03     1.47385E+03         2.14312         2.14312         3.90266         3.90266
            1824     1.47399E+03     1.47399E+03         2.29585         2.29585         4.34754         4.34754
            1825     1.47414E+03     1.47414E+03         2.44864         2.44864         4.82325         4.82325
            1826     1.47431E+03     1.47431E+03         2.59739         2.59739         5.33020         5.33020
            1827     1.47450E+03     1.47450E+03         2.73695         2.73695         5.86818         5.86818
            1828     1.47471E+03     1.47471E+03         2.86091         2.86091         6.43634         6.43634
            1829     1.47494E+03     1.47494E+03         2.96133         2.96133         7.03298         7.03298
            1830     1.47520E+03     1.47520E+03         3.02850         3.02850         7.65541         7.65541
            1831     1.47549E+03     1.47549E+03         3.05063         3.05063         8.29976         8.29976
            1832     1.47582E+03     1.47582E+03         3.01357         3.01357         8.96070         8.96070
            1833     1.47621E+03     1.47621E+03         2.90051         2.90051         9.63124         9.63124
            1834     1.47666E+03     1.47666E+03         2.69172         2.69172         10.3023         10.3023
            1835     1.47719E+03     1.47719E+03         2.36443         2.36443         10.9623         10.9623
            1836     1.47783E+03     1.47783E+03         1.89280         1.89280         11.5965         11.5965
            1837     1.47859E+03     1.47859E+03         1.24819         1.24819         12.1865         12.1865
            1838     1.47952E+03     1.47952E+03     399.941E-03     399.941E-03         12.7091         12.7091
            1839     1.48064E+03     1.48064E+03    -683.458E-03    -683.458E-03         13.1350         13.1350
            1840     1.48200E+03     1.48200E+03        -2.03195        -2.03195         13.4276         13.4276
            1841     1.48366E+03     1.48366E+03        -3.67055        -3.67055         13.5407         13.5407
            1842     1.48565E+03     1.48565E+03        -5.61391        -5.61391         13.4167         13.4167
            1843     1.48804E+03     1.48804E+03        -7.85882        -7.85882         12.9844         12.9844
            1844     1.49086E+03     1.49086E+03        -10.3738        -10.3738         12.1574         12.1574
            1845     1.49414E+03     1.49414E+03        -13.0851        -13.0851         10.8353         10.8353
            1846     1.49786E+03     1.49786E+03        -15.8615        -15.8615         8.90665         8.90665
            1847     1.50198E+03     1.50198E+03        -18.4951        -18.4951         6.26121         6.26121
            1848     1.50635E+03     1.50635E+03        -20.6904        -20.6904         2.80954         2.80954
            1849     1.51075E+03     1.51075E+03        -22.0508        -22.0508        -1.49054        -1.49054
            1850     1.51486E+03     1.51486E+03        -22.0886        -22.0886        -6.57857        -6.57857
            1851     1.51825E+03     1.51825E+03        -20.2623        -20.2623        -12.2364        -12.2364
            1852     1.47307E+03     1.47307E+03     773.043E-03     773.043E-03     190.636E-03     190.636E-03
            1853     1.47309E+03     1.47309E+03     788.573E-03     788.573E-03     382.268E-03     382.268E-03
            1854     1.47313E+03     1.47313E+03     814.418E-03     814.418E-03     579.385E-03     579.385E-03
            1855     1.47318E+03     1.47318E+03     850.565E-03     850.565E-03     783.685E-03     783.685E-03
            1856     1.47324E+03     1.47324E+03     896.963E-03     896.963E-03     997.534E-03     997.534E-03
            1857     1.47331E+03     1.47331E+03     953.527E-03     953.527E-03         1.22329         1.22329
            1858     1.47340E+03     1.47340E+03         1.02012         1.02012         1.46328         1.46328
            1859     1.47351E+03     1.47351E+03         1.09652         1.09652         1.71979         1.71979
            1860     1.47364E+03     1.47364E+03         1.18240         1.18240         1.99503         1.99503
            1861     1.47378E+03     1.47378E+03         1.27729         1.27729         2.29115         2.29115
            1862     1.47393E+03     1.47393E+03         1.38053         1.38053         2.61015         2.61015
            1863     1.47411E+03     1.47411E+03         1.49119         1.49119         2.95389         2.95389
            1864     1.47431E+03     1.47431E+03         1.60806         1.60806         3.32401         3.32401
            1865     1.47453E+03     1.47453E+03         1.72949         1.72949         3.72188         3.72188
            1866     1.47477E+03     1.47477E+03         1.85334         1.85334         4.14854         4.14854
            1867     1.47504E+03     1.47504E+03         1.97685         1.97685         4.60456         4.60456
            1868     1.47533E+03     1.47533E+03         2.09650         2.09650         5.08996         5.08996
            1869     1.47565E+03     1.47565E+03         2.20783         2.20783         5.60411         5.60411
            1870     1.47600E+03     1.47600E+03         2.30524         2.30524         6.14550         6.14550
            1871     1.47639E+03     1.47639E+03         2.38184         2.38184         6.71161         6.71161
            1872     1.47682E+03     1.47682E+03         2.42910         2.42910         7.29866         7.29866
            1873     1.47729E+03     1.47729E+03         2.43673         2.43673         7.90137         7.90137
            1874     1.47781E+03     1.47781E+03         2.39229         2.39229         8.51266         8.51266
            1875     1.47839E+03     1.47839E+03         2.28109         2.28109         9.12325         9.12325
            1876     1.47904E+03     1.47904E+03         2.08589         2.08589         9.72132         9.72132
            1877     1.47977E+03     1.47977E+03         1.78694         1.78694         10.2919         10.2919
            1878     1.48060E+03     1.48060E+03         1.36200         1.36200         10.8165         10.8165
            1879     1.48155E+03     1.48155E+03     786.845E-03     786.845E-03         11.2722         11.2722
            1880     1.48264E+03     1.48264E+03     36.0698E-03     36.0698E-03         11.6311         11.6311
            1881     1.48390E+03     1.48390E+03    -915.349E-03    -915.349E-03         11.8591         11.8591
            1882     1.48536E+03     1.48536E+03        -2.08969        -2.08969         11.9155         11.9155
            1883     1.48704E+03     1.48704E+03        -3.50281        -3.50281         11.7516         11.7516
            1884     1.48899E+03     1.48899E+03        -5.15895        -5.15895         11.3105         11.3105
            1885     1.49122E+03     1.49122E+03        -7.04382        -7.04382         10.5267         10.5267
            1886     1.49375E+03     1.49375E+03        -9.11532        -9.11532         9.32778         9.32778
            1887     1.49657E+03     1.49657E+03        -11.2933        -11.2933         7.63792         7.63792
            1888     1.49964E+03     1.49964E+03        -13.4468        -13.4468         5.38517         5.38517
            1889     1.50288E+03     1.50288E+03        -15.3857        -15.3857         2.51458         2.51458
            1890     1.50614E+03     1.50614E+03        -16.8517        -16.8517    -994.696E-03    -994.696E-03
            1891     1.50922E+03     1.50922E+03        -17.5232        -17.5232        -5.09872        -5.09872
            1892     1.51186E+03     1.51186E+03        -17.0340        -17.0340        -9.65775        -9.65775
            1893     1.51375E+03     1.51375E+03        -15.0180        -15.0180        -14.3939        -14.3939
            1894     1.47313E+03     1.47313E+03     591.399E-03     591.399E-03     174.937E-03     174.937E-03
            1895     1.47316E+03     1.47316E+03     603.499E-03     603.499E-03     350.725E-03     350.725E-03
            1896     1.47320E+03     1.47320E+03     623.646E-03     623.646E-03     531.750E-03     531.750E-03
            1897     1.47327E+03     1.47327E+03     651.827E-03     651.827E-03     719.575E-03     719.575E-03
            1898     1.47335E+03     1.47335E+03     688.005E-03     688.005E-03     916.446E-03     916.446E-03
            1899     1.47346E+03     1.47346E+03     732.122E-03     732.122E-03         1.12460         1.12460
            1900     1.47358E+03     1.47358E+03     784.075E-03     784.075E-03         1.34624         1.34624
            1901     1.47373E+03     1.47373E+03     843.700E-03     843.700E-03         1.58354         1.58354
            1902     1.47390E+03     1.47390E+03     910.747E-03     910.747E-03         1.83860         1.83860
            1903     1.47410E+03     1.47410E+03     984.849E-03     984.849E-03         2.11344         2.11344
            1904     1.47432E+03     1.47432E+03         1.06548         1.06548         2.40997         2.40997
            1905     1.47457E+03     1.47457E+03         1.15192         1.15192         2.72991         2.72991
            1906     1.47485E+03     1.47485E+03         1.24319         1.24319         3.07480         3.07480
            1907     1.47516E+03     1.47516E+03         1.33796         1.33796         3.44586         3.44586
            1908     1.47550E+03     1.47550E+03         1.43450         1.43450         3.84396         3.84396
            1909     1.47588E+03     1.47588E+03         1.53058         1.53058         4.26948         4.26948
            1910     1.47630E+03     1.47630E+03         1.62330         1.62330         4.72221         4.72221
            1911     1.47676E+03     1.47676E+03         1.70901         1.70901         5.20117         5.20117
            1912     1.47725E+03     1.47725E+03         1.78311         1.78311         5.70445         5.70445
            1913     1.47780E+03     1.47780E+03         1.83986         1.83986         6.22898         6.22898
            1914     1.47839E+03     1.47839E+03         1.87224         1.87224         6.77027         6.77027
            1915     1.47904E+03     1.47904E+03         1.87166         1.87166         7.32212         7.32212
            1916     1.47975E+03     1.47975E+03         1.82781         1.82781         7.87627         7.87627
            1917     1.48052E+03     1.48052E+03         1.72845         1.72845         8.42197         8.42197
            1918     1.48136E+03     1.48136E+03         1.55932         1.55932         8.94558         8.94558
            1919     1.48228E+03     1.48228E+03         1.30410         1.30410         9.43004         9.43004
            1920     1.48329E+03     1.48329E+03     944.595E-03     944.595E-03         9.85435         9.85435
            1921     1.48441E+03     1.48441E+03     461.230E-03     461.230E-03         10.1930         10.1930
            1922     1.48564E+03     1.48564E+03    -166.064E-03    -166.064E-03         10.4153         10.4153
            1923     1.48700E+03     1.48700E+03    -956.362E-03    -956.362E-03         10.4852         10.4852
            1924     1.48850E+03     1.48850E+03        -1.92541        -1.92541         10.3605         10.3605
            1925     1.49017E+03     1.49017E+03        -3.08226        -3.08226         9.99356         9.99356
            1926       1.492E+03       1.492E+03        -4.42476        -4.42476         9.33111         9.33111
            1927     1.49401E+03     1.49401E+03        -5.93338        -5.93338         8.31657         8.31657
            1928     1.49618E+03     1.49618E+03        -7.56437        -7.56437         6.89291         6.89291
            1929     1.49848E+03     1.49848E+03        -9.24115        -9.24115         5.00826         5.00826
            1930     1.50086E+03     1.50086E+03        -10.8476        -10.8476         2.62477         2.62477
            1931     1.50323E+03     1.50323E+03        -12.2212        -12.2212    -269.812E-03    -269.812E-03
            1932     1.50546E+03     1.50546E+03        -13.1539        -13.1539        -3.64393        -3.64393
            1933     1.50738E+03     1.50738E+03        -13.3998        -13.3998        -7.40371        -7.40371
            1934     1.50879E+03     1.50879E+03        -12.6984        -12.6984        -11.3686        -11.3686
            1935     1.50949E+03     1.50949E+03        -10.8180        -10.8180        -15.2545        -15.2545
            1936     1.47314E+03     1.47314E+03     427.402E-03     427.402E-03     154.545E-03     154.545E-03
            1937     1.47318E+03     1.47318E+03     436.313E-03     436.313E-03     309.745E-03     309.745E-03
            1938     1.47323E+03     1.47323E+03     451.159E-03     451.159E-03     469.788E-03     469.788E-03
            1939     1.47332E+03     1.47332E+03     471.920E-03     471.920E-03     636.052E-03     636.052E-03
            1940     1.47342E+03     1.47342E+03     498.580E-03     498.580E-03     810.593E-03     810.593E-03
            1941     1.47355E+03     1.47355E+03     531.098E-03     531.098E-03     995.461E-03     995.461E-03
            1942     1.47371E+03     1.47371E+03     569.406E-03     569.406E-03         1.19269         1.19269
            1943     1.47390E+03     1.47390E+03     613.392E-03     613.392E-03         1.40426         1.40426
            1944     1.47412E+03     1.47412E+03     662.876E-03     662.876E-03         1.63212         1.63212
            1945     1.47437E+03     1.47437E+03     717.593E-03     717.593E-03         1.87812         1.87812
            1946     1.47465E+03     1.47465E+03     777.159E-03     777.159E-03         2.14402         2.14402
            1947     1.47497E+03     1.47497E+03     841.037E-03     841.037E-03         2.43141         2.43141
            1948     1.47533E+03     1.47533E+03     908.490E-03     908.490E-03         2.74167         2.74167
            1949     1.47573E+03     1.47573E+03     978.531E-03     978.531E-03         3.07592         3.07592
            1950     1.47617E+03     1.47617E+03         1.04985         1.04985         3.43490         3.43490
            1951     1.47666E+03     1.47666E+03         1.12074         1.12074         3.81886         3.81886
            1952     1.47720E+03     1.47720E+03         1.18899         1.18899         4.22746         4.22746
            1953     1.47779E+03     1.47779E+03         1.25180         1.25180         4.65959         4.65959
            1954     1.47843E+03     1.47843E+03         1.30562         1.30562         5.11317         5.11317
            1955     1.47913E+03     1.47913E+03         1.34602         1.34602         5.58492         5.58492
            1956     1.47989E+03     1.47989E+03         1.36754         1.36754         6.07008         6.07008
            1957     1.48072E+03     1.48072E+03         1.36351         1.36351         6.56209         6.56209
            1958     1.48161E+03     1.48161E+03         1.32590         1.32590         7.05225         7.05225
            1959     1.48257E+03     1.48257E+03         1.24518         1.24518         7.52926         7.52926
            1960     1.48361E+03     1.48361E+03         1.11025         1.11025         7.97879         7.97879
            1961     1.48472E+03     1.48472E+03     908.451E-03     908.451E-03         8.38299         8.38299
            1962     1.48591E+03     1.48591E+03     625.764E-03     625.764E-03         8.72002         8.72002
            1963     1.48718E+03     1.48718E+03     247.258E-03     247.258E-03         8.96357         8.96357
            1964     1.48854E+03     1.48854E+03    -242.115E-03    -242.115E-03         9.08256         9.08256
            1965     1.48999E+03     1.48999E+03    -856.179E-03    -856.179E-03         9.04092         9.04092
            1966     1.49152E+03     1.49152E+03        -1.60555        -1.60555         8.79787         8.79787
            1967     1.49314E+03     1.49314E+03        -2.49488        -2.49488         8.30853         8.30853
            1968     1.49484E+03     1.49484E+03        -3.51899        -3.51899         7.52558         7.52558
            1969     1.49659E+03     1.49659E+03        -4.65841        -4.65841         6.40188         6.40188
            1970     1.49838E+03     1.49838E+03        -5.87371        -5.87371         4.89475         4.89475
            1971     1.50016E+03     1.50016E+03        -7.10033        -7.10033         2.97244         2.97244
            1972     1.50186E+03     1.50186E+03        -8.24334        -8.24334     622.385E-03     622.385E-03
            1973     1.50340E+03     1.50340E+03        -9.17571        -9.17571        -2.13688        -2.13688
            1974     1.50468E+03     1.50468E+03        -9.74042        -9.74042        -5.24353        -5.24353
            1975     1.50556E+03     1.50556E+03        -9.76050        -9.76050        -8.57735        -8.57735
            1976     1.50592E+03     1.50592E+03        -9.06078        -9.06078        -11.9492        -11.9492
            1977     1.50563E+03     1.50563E+03        -7.49888        -7.49888        -15.0956        -15.0956
            1978     1.47310E+03     1.47310E+03     285.496E-03     285.496E-03     129.848E-03     129.848E-03
            1979     1.47315E+03     1.47315E+03     291.559E-03     291.559E-03     260.082E-03     260.082E-03
            1980     1.47321E+03     1.47321E+03     301.664E-03     301.664E-03     394.629E-03     394.629E-03
            1981     1.47331E+03     1.47331E+03     315.793E-03     315.793E-03     534.598E-03     534.598E-03
            1982     1.47344E+03     1.47344E+03     333.930E-03     333.930E-03     681.795E-03     681.795E-03
            1983     1.47359E+03     1.47359E+03     356.060E-03     356.060E-03     838.020E-03     838.020E-03
            1984     1.47378E+03     1.47378E+03     382.145E-03     382.145E-03         1.00505         1.00505
            1985     1.47401E+03     1.47401E+03     412.112E-03     412.112E-03         1.18463         1.18463
            1986     1.47427E+03     1.47427E+03     445.845E-03     445.845E-03         1.37847         1.37847
            1987     1.47456E+03     1.47456E+03     483.166E-03     483.166E-03         1.58822         1.58822
            1988     1.47490E+03     1.47490E+03     523.819E-03     523.819E-03         1.81543         1.81543
            1989     1.47529E+03     1.47529E+03     567.439E-03     567.439E-03         2.06152         2.06152
            1990     1.47572E+03     1.47572E+03     613.524E-03     613.524E-03         2.32772         2.32772
            1991     1.47621E+03     1.47621E+03     661.393E-03     661.393E-03         2.61501         2.61501
            1992     1.47674E+03     1.47674E+03     710.141E-03     710.141E-03         2.92404         2.92404
            1993     1.47734E+03     1.47734E+03     758.578E-03     758.578E-03         3.25502         3.25502
            1994     1.47800E+03     1.47800E+03     805.163E-03     805.163E-03         3.60759         3.60759
            1995     1.47872E+03     1.47872E+03     847.922E-03     847.922E-03         3.98069         3.98069
            1996     1.47951E+03     1.47951E+03     884.355E-03     884.355E-03         4.37231         4.37231
            1997     1.48036E+03     1.48036E+03     911.327E-03     911.327E-03         4.77934         4.77934
            1998     1.48129E+03     1.48129E+03     924.960E-03     924.960E-03         5.19722         5.19722
            1999     1.48230E+03     1.48230E+03     920.502E-03     920.502E-03         5.61967         5.61967
            2000     1.48338E+03     1.48338E+03     892.227E-03     892.227E-03         6.03833         6.03833
            2001     1.48454E+03     1.48454E+03     833.323E-03     833.323E-03         6.44233         6.44233
            2002     1.48577E+03     1.48577E+03     735.861E-03     735.861E-03         6.81788         6.81788
            2003     1.48708E+03     1.48708E+03     590.805E-03     590.805E-03         7.14782         7.14782
            2004     1.48846E+03     1.48846E+03     388.193E-03     388.193E-03         7.41117         7.41117
            2005     1.48990E+03     1.48990E+03     117.472E-03     117.472E-03         7.58282         7.58282
            2006     1.49140E+03     1.49140E+03    -231.842E-03    -231.842E-03         7.63331         7.63331
            2007     1.49295E+03     1.49295E+03    -669.149E-03    -669.149E-03         7.52891         7.52891
            2008     1.49452E+03     1.49452E+03        -1.20126        -1.20126         7.23215         7.23215
            2009     1.49611E+03     1.49611E+03        -1.83023        -1.83023         6.70291         6.70291
            2010     1.49767E+03     1.49767E+03        -2.55074        -2.55074         5.90050         5.90050
            2011     1.49919E+03     1.49919E+03        -3.34652        -3.34652         4.78677         4.78677
            2012     1.50062E+03     1.50062E+03        -4.18695        -4.18695         3.33086         3.33086
            2013     1.50190E+03     1.50190E+03        -5.02309        -5.02309         1.51527         1.51527
            2014     1.50296E+03     1.50296E+03        -5.78536        -5.78536    -655.800E-03    -655.800E-03
            2015     1.50373E+03     1.50373E+03        -6.38276        -6.38276        -3.14762        -3.14762
            2016     1.50413E+03     1.50413E+03        -6.70615        -6.70615        -5.88444        -5.88444
            2017     1.50406E+03     1.50406E+03        -6.63731        -6.63731        -8.74137        -8.74137
            2018     1.50345E+03     1.50345E+03        -6.06392        -6.06392        -11.5398        -11.5398
            2019     1.50226E+03     1.50226E+03        -4.90323        -4.90323        -14.0492        -14.0492
            2020     1.47301E+03     1.47301E+03     169.666E-03     169.666E-03     101.357E-03     101.357E-03
            2021     1.47306E+03     1.47306E+03     173.338E-03     173.338E-03     202.793E-03     202.793E-03
            2022     1.47313E+03     1.47313E+03     179.456E-03     179.456E-03     307.818E-03     307.818E-03
            2023     1.47324E+03     1.47324E+03     187.970E-03     187.970E-03     417.257E-03     417.257E-03
            2024     1.47339E+03     1.47339E+03     198.898E-03     198.898E-03     532.593E-03     532.593E-03
            2025     1.47356E+03     1.47356E+03     212.248E-03     212.248E-03     655.272E-03     655.272E-03
            2026     1.47378E+03     1.47378E+03     227.991E-03     227.991E-03     786.749E-03     786.749E-03
            2027     1.47403E+03     1.47403E+03     246.086E-03     246.086E-03     928.464E-03     928.464E-03
            2028     1.47433E+03     1.47433E+03     266.465E-03     266.465E-03         1.08183         1.08183
            2029     1.47468E+03     1.47468E+03     289.025E-03     289.025E-03         1.24820         1.24820
            2030     1.47507E+03     1.47507E+03     313.612E-03     313.612E-03         1.42888         1.42888
            2031     1.47551E+03     1.47551E+03     340.010E-03     340.010E-03         1.62506         1.62506
            2032     1.47601E+03     1.47601E+03     367.914E-03     367.914E-03         1.83776         1.83776
            2033     1.47658E+03     1.47658E+03     396.913E-03     396.913E-03         2.06784         2.06784
            2034     1.47721E+03     1.47721E+03     426.452E-03     426.452E-03         2.31586         2.31586
            2035     1.47790E+03     1.47790E+03     455.804E-03     455.804E-03         2.58202         2.58202
            2036     1.47867E+03     1.47867E+03     484.019E-03     484.019E-03         2.86605         2.86605
            2037     1.47952E+03     1.47952E+03     509.875E-03     509.875E-03         3.16707         3.16707
            2038     1.48045E+03     1.48045E+03     531.821E-03     531.821E-03         3.48342         3.48342
            2039     1.48146E+03     1.48146E+03     547.904E-03     547.904E-03         3.81245         3.81245
            2040     1.48257E+03     1.48257E+03     555.697E-03     555.697E-03         4.15028         4.15028
            2041     1.48375E+03     1.48375E+03     552.225E-03     552.225E-03         4.49154         4.49154
            2042     1.48503E+03     1.48503E+03     533.883E-03     533.883E-03         4.82901         4.82901
            2043     1.48639E+03     1.48639E+03     496.388E-03     496.388E-03         5.15327         5.15327
            2044     1.48784E+03     1.48784E+03     434.731E-03     434.731E-03         5.45234         5.45234
            2045     1.48936E+03     1.48936E+03     343.218E-03     343.218E-03         5.71123         5.71123
            2046     1.49095E+03     1.49095E+03     215.565E-03     215.565E-03         5.91164         5.91164
            2047     1.49258E+03     1.49258E+03     45.1473E-03     45.1473E-03         6.03166         6.03166
            2048     1.49425E+03     1.49425E+03    -174.575E-03    -174.575E-03         6.04566         6.04566
            2049     1.49593E+03     1.49593E+03    -449.381E-03    -449.381E-03         5.92447         5.92447
            2050     1.49759E+03     1.49759E+03    -783.267E-03    -783.267E-03         5.63601         5.63601
            2051     1.49919E+03     1.49919E+03        -1.17711        -1.17711         5.14650         5.14650
            2052     1.50068E+03     1.50068E+03        -1.62680        -1.62680         4.42250         4.42250
            2053     1.50202E+03     1.50202E+03        -2.12128        -2.12128         3.43411         3.43411
            2054     1.50315E+03     1.50315E+03        -2.64001        -2.64001         2.15918         2.15918
            2055     1.50399E+03     1.50399E+03        -3.15111        -3.15111     589.100E-03     589.100E-03
            2056     1.50448E+03     1.50448E+03        -3.60975        -3.60975        -1.26463        -1.26463
            2057     1.50454E+03     1.50454E+03        -3.95841        -3.95841        -3.36273        -3.36273
            2058     1.50411E+03     1.50411E+03        -4.12965        -4.12965        -5.63137        -5.63137
            2059     1.50313E+03     1.50313E+03        -4.05194        -4.05194        -7.95684        -7.95684
            2060     1.50157E+03     1.50157E+03        -3.65988        -3.65988        -10.1847        -10.1847
            2061     1.49945E+03     1.49945E+03        -2.90707        -2.90707        -12.1250        -12.1250
            2062     1.47285E+03     1.47285E+03     83.3311E-03     83.3311E-03     69.7903E-03     69.7903E-03
            2063     1.47290E+03     1.47290E+03     85.2093E-03     85.2093E-03     139.173E-03     139.173E-03
            2064     1.47299E+03     1.47299E+03     88.2282E-03     88.2282E-03     211.328E-03     211.328E-03
            2065     1.47311E+03     1.47311E+03     92.4035E-03     92.4035E-03     286.696E-03     286.696E-03
            2066     1.47326E+03     1.47326E+03     97.7950E-03     97.7950E-03     366.280E-03     366.280E-03
            2067     1.47346E+03     1.47346E+03     104.383E-03     104.383E-03     451.128E-03     451.128E-03
            2068     1.47370E+03     1.47370E+03     112.153E-03     112.153E-03     542.297E-03     542.297E-03
            2069     1.47398E+03     1.47398E+03     121.088E-03     121.088E-03     640.831E-03     640.831E-03
            2070     1.47431E+03     1.47431E+03     131.151E-03     131.151E-03     747.760E-03     747.760E-03
            2071     1.47469E+03     1.47469E+03     142.294E-03     142.294E-03     864.084E-03     864.084E-03
            2072     1.47513E+03     1.47513E+03     154.439E-03     154.439E-03     990.759E-03     990.759E-03
            2073     1.47562E+03     1.47562E+03     167.480E-03     167.480E-03         1.12867         1.12867
            2074     1.47619E+03     1.47619E+03     181.264E-03     181.264E-03         1.27861         1.27861
            2075     1.47682E+03     1.47682E+03     195.587E-03     195.587E-03         1.44122         1.44122
            2076     1.47753E+03     1.47753E+03     210.170E-03     210.170E-03         1.61696         1.61696
            2077     1.47832E+03     1.47832E+03     224.646E-03     224.646E-03         1.80602         1.80602
            2078     1.47920E+03     1.47920E+03     238.539E-03     238.539E-03         2.00828         2.00828
            2079     1.48017E+03     1.48017E+03     251.229E-03     251.229E-03         2.22313         2.22313
            2080     1.48124E+03     1.48124E+03     261.929E-03     261.929E-03         2.44942         2.44942
            2081     1.48240E+03     1.48240E+03     269.647E-03     269.647E-03         2.68527         2.68527
            2082     1.48367E+03     1.48367E+03     273.146E-03     273.146E-03         2.92787         2.92787
            2083     1.48505E+03     1.48505E+03     270.904E-03     270.904E-03         3.17328         3.17328
            2084     1.48653E+03     1.48653E+03     261.077E-03     261.077E-03         3.41618         3.41618
            2085     1.48811E+03     1.48811E+03     241.462E-03     241.462E-03         3.64957         3.64957
            2086     1.48978E+03     1.48978E+03     209.487E-03     209.487E-03         3.86447         3.86447
            2087     1.49154E+03     1.49154E+03     162.217E-03     162.217E-03         4.04963         4.04963
            2088     1.49337E+03     1.49337E+03     96.4178E-03     96.4178E-03         4.19122         4.19122
            2089     1.49524E+03     1.49524E+03     8.67710E-03     8.67710E-03         4.27265         4.27265
            2090     1.49714E+03     1.49714E+03    -104.362E-03    -104.362E-03         4.27444         4.27444
            2091     1.49901E+03     1.49901E+03    -245.638E-03    -245.638E-03         4.17446         4.17446
            2092     1.50082E+03     1.50082E+03    -417.154E-03    -417.154E-03         3.94839         3.94839
            2093     1.50252E+03     1.50252E+03    -619.213E-03    -619.213E-03         3.57076         3.57076
            2094     1.50403E+03     1.50403E+03    -849.541E-03    -849.541E-03         3.01666         3.01666
            2095     1.50529E+03     1.50529E+03        -1.10210        -1.10210         2.26419         2.26419
            2096     1.50622E+03     1.50622E+03        -1.36603        -1.36603         1.29804         1.29804
            2097     1.50673E+03     1.50673E+03        -1.62443        -1.62443     113.697E-03     113.697E-03
            2098     1.50673E+03     1.50673E+03        -1.85390        -1.85390        -1.27721        -1.27721
            2099     1.50616E+03     1.50616E+03        -2.02469        -2.02469        -2.84173        -2.84173
            2100     1.50494E+03     1.50494E+03        -2.10221        -2.10221        -4.52066        -4.52066
            2101     1.50305E+03     1.50305E+03        -2.05072        -2.05072        -6.22572        -6.22572
            2102     1.50049E+03     1.50049E+03        -1.83794        -1.83794        -7.83983        -7.83983
            2103     1.49732E+03     1.49732E+03        -1.44096        -1.44096        -9.22081        -9.22081
            2104     1.47263E+03     1.47263E+03     29.1292E-03     29.1292E-03     35.9463E-03     35.9463E-03
            2105     1.47268E+03     1.47268E+03     29.8491E-03     29.8491E-03     71.1400E-03     71.1400E-03
            2106     1.47277E+03     1.47277E+03     30.8431E-03     30.8431E-03     108.142E-03     108.142E-03
            2107     1.47290E+03     1.47290E+03     32.2735E-03     32.2735E-03     146.830E-03     146.830E-03
            2108     1.47306E+03     1.47306E+03     34.1352E-03     34.1352E-03     187.741E-03     187.741E-03
            2109     1.47327E+03     1.47327E+03     36.4041E-03     36.4041E-03     231.452E-03     231.452E-03
            2110     1.47353E+03     1.47353E+03     39.0836E-03     39.0836E-03     278.526E-03     278.526E-03
            2111     1.47383E+03     1.47383E+03     42.1607E-03     42.1607E-03     329.526E-03     329.526E-03
            2112     1.47418E+03     1.47418E+03     45.6260E-03     45.6260E-03     385.008E-03     385.008E-03
            2113     1.47459E+03     1.47459E+03     49.4592E-03     49.4592E-03     445.515E-03     445.515E-03
            2114     1.47506E+03     1.47506E+03     53.6342E-03     53.6342E-03     511.569E-03     511.569E-03
            2115     1.47561E+03     1.47561E+03     58.1114E-03     58.1114E-03     583.659E-03     583.659E-03
            2116     1.47622E+03     1.47622E+03     62.8372E-03     62.8372E-03     662.227E-03     662.227E-03
            2117     1.47691E+03     1.47691E+03     67.7378E-03     67.7378E-03     747.641E-03     747.641E-03
            2118     1.47770E+03     1.47770E+03     72.7145E-03     72.7145E-03     840.175E-03     840.175E-03
            2119     1.47857E+03     1.47857E+03     77.6366E-03     77.6366E-03     939.967E-03     939.967E-03
            2120     1.47955E+03     1.47955E+03     82.3337E-03     82.3337E-03         1.04698         1.04698
            2121     1.48063E+03     1.48063E+03     86.5860E-03     86.5860E-03         1.16093         1.16093
            2122     1.48183E+03     1.48183E+03     90.1129E-03     90.1129E-03         1.28125         1.28125
            2123     1.48314E+03     1.48314E+03     92.5605E-03     92.5605E-03         1.40696         1.40696
            2124     1.48458E+03     1.48458E+03     93.4872E-03     93.4872E-03         1.53659         1.53659
            2125     1.48614E+03     1.48614E+03     92.3500E-03     92.3500E-03         1.66806         1.66806
            2126     1.48783E+03     1.48783E+03     88.4883E-03     88.4883E-03         1.79851         1.79851
            2127     1.48964E+03     1.48964E+03     81.1154E-03     81.1154E-03         1.92417         1.92417
            2128     1.49157E+03     1.49157E+03     69.3075E-03     69.3075E-03         2.04017         2.04017
            2129     1.49360E+03     1.49360E+03     52.0154E-03     52.0154E-03         2.14036         2.14036
            2130     1.49571E+03     1.49571E+03     28.0750E-03     28.0750E-03         2.21714         2.21714
            2131     1.49788E+03     1.49788E+03    -3.73216E-03    -3.73216E-03         2.26134         2.26134
            2132     1.50007E+03     1.50007E+03    -44.6119E-03    -44.6119E-03         2.26218         2.26218
            2133     1.50223E+03     1.50223E+03    -95.6079E-03    -95.6079E-03         2.20733         2.20733
            2134     1.50431E+03     1.50431E+03    -157.421E-03    -157.421E-03         2.08321         2.08321
            2135     1.50623E+03     1.50623E+03    -230.135E-03    -230.135E-03         1.87561         1.87561
            2136     1.50790E+03     1.50790E+03    -312.869E-03    -312.869E-03         1.57054         1.57054
            2137     1.50923E+03     1.50923E+03    -403.407E-03    -403.407E-03         1.15581         1.15581
            2138     1.51011E+03     1.51011E+03    -497.710E-03    -497.710E-03     622.874E-03     622.874E-03
            2139     1.51043E+03     1.51043E+03    -589.631E-03    -589.631E-03    -30.5654E-03    -30.5654E-03
            2140     1.51008E+03     1.51008E+03    -670.607E-03    -670.607E-03    -797.771E-03    -797.771E-03
            2141     1.50897E+03     1.50897E+03    -729.859E-03    -729.859E-03        -1.65991        -1.65991
            2142     1.50701E+03     1.50701E+03    -754.980E-03    -754.980E-03        -2.58346        -2.58346
            2143     1.50418E+03     1.50418E+03    -733.112E-03    -733.112E-03        -3.51898        -3.51898
            2144     1.50050E+03     1.50050E+03    -653.349E-03    -653.349E-03        -4.40128        -4.40128
            2145     1.49604E+03     1.49604E+03    -507.090E-03    -507.090E-03        -5.15102        -5.15102
            2146     1.39493E+03     1.39493E+03         402.801         402.801        -107.978        -107.978
            2147     1.41004E+03     1.41004E+03         366.356         366.356        -107.228        -107.228
            2148     1.42471E+03     1.42471E+03         329.820         329.820        -103.550        -103.550
            2149     1.43841E+03     1.43841E+03         294.098         294.098        -98.0267        -98.0267
            2150     1.45082E+03     1.45082E+03         259.870         259.870        -90.9301        -90.9301
            2151     1.46171E+03     1.46171E+03         227.682         227.682        -82.5544        -82.5544
            2152     1.47090E+03     1.47090E+03         197.959         197.959        -73.3306        -73.3306
            2153     1.47842E+03     1.47842E+03         170.917         170.917        -63.6575        -63.6575
            2154     1.48431E+03     1.48431E+03         146.654         146.654        -53.9169        -53.9169
            2155     1.48876E+03     1.48876E+03         125.116         125.116        -44.4338        -44.4338
            2156     1.49190E+03     1.49190E+03         106.174         106.174        -35.4341        -35.4341
            2157     1.49396E+03     1.49396E+03         89.6400         89.6400        -27.0974        -27.0974
            2158     1.49511E+03     1.49511E+03         75.2926         75.2926        -19.5040        -19.5040
            2159     1.49553E+03     1.49553E+03         62.9163         62.9163        -12.7077        -12.7077
            2160     1.49538E+03     1.49538E+03         52.2840         52.2840        -6.69705        -6.69705
            2161     1.49477E+03     1.49477E+03         43.1985         43.1985        -1.44943        -1.44943
            2162     1.49382E+03     1.49382E+03         35.4626         35.4626         3.09090         3.09090
            2163     1.49260E+03     1.49260E+03         28.9099         28.9099         6.98190         6.98190
            2164     1.49120E+03     1.49120E+03         23.3789         23.3789         10.2942         10.2942
            2165     1.48966E+03     1.48966E+03         18.7323         18.7323         13.0960         13.0960
            2166     1.48803E+03     1.48803E+03         14.8391         14.8391         15.4577         15.4577
            2167     1.48636E+03     1.48636E+03         11.5851         11.5851         17.4452         17.4452
            2168     1.48466E+03     1.48466E+03         8.86186         8.86186         19.1222         19.1222
            2169     1.48298E+03     1.48298E+03         6.57186         6.57186         20.5477         20.5477
            2170     1.48132E+03     1.48132E+03         4.62138         4.62138         21.7771         21.7771
            2171     1.47973E+03     1.47973E+03         2.92318         2.92318         22.8621         22.8621
            2172     1.47823E+03     1.47823E+03         1.39158         1.39158         23.8507         23.8507
            2173     1.47686E+03     1.47686E+03    -56.5235E-03    -56.5235E-03         24.7878         24.7878
            2174     1.47564E+03     1.47564E+03        -1.50505        -1.50505         25.7155         25.7155
            2175     1.47464E+03     1.47464E+03        -3.03900        -3.03900         26.6722         26.6722
            2176     1.47392E+03     1.47392E+03        -4.74671        -4.74671         27.6924         27.6924
            2177     1.47355E+03     1.47355E+03        -6.72092        -6.72092         28.8036         28.8036
            2178     1.47365E+03     1.47365E+03        -9.05957        -9.05957         30.0229         30.0229
            2179     1.47436E+03     1.47436E+03        -11.8666        -11.8666         31.3494         31.3494
            2180     1.47585E+03     1.47585E+03        -15.2478        -15.2478         32.7524         32.7524
            2181     1.47835E+03     1.47835E+03        -19.3070        -19.3070         34.1545         34.1545
            2182     1.48212E+03     1.48212E+03        -24.1243        -24.1243         35.4020         35.4020
            2183     1.48747E+03     1.48747E+03        -29.7287        -29.7287         36.2335         36.2335
            2184     1.49472E+03     1.49472E+03        -36.0225        -36.0225         36.2284         36.2284
            2185     1.50411E+03     1.50411E+03        -42.6833        -42.6833         34.7946         34.7946
            2186     1.51565E+03     1.51565E+03        -48.9968        -48.9968         31.1702         31.1702
            2187     1.52893E+03     1.52893E+03        -53.7948        -53.7948         24.6493         24.6493
            2188     1.39903E+03     1.39903E+03         401.901         401.901        -123.438        -123.438
            2189     1.41491E+03     1.41491E+03         363.349         363.349        -122.472        -122.472
            2190     1.43012E+03     1.43012E+03         324.710         324.710        -117.913        -117.913
            2191     1.44418E+03     1.44418E+03         287.061         287.061        -111.144        -111.144
            2192     1.45664E+03     1.45664E+03         251.240         251.240        -102.421        -102.421
            2193     1.46722E+03     1.46722E+03         217.937         217.937        -92.2779        -92.2779
            2194     1.47587E+03     1.47587E+03         187.558         187.558        -81.2181        -81.2181
            2195     1.48256E+03     1.48256E+03         160.343         160.343        -69.7915        -69.7915
            2196     1.48754E+03     1.48754E+03         136.275         136.275        -58.4700        -58.4700
            2197     1.49097E+03     1.49097E+03         115.233         115.233        -47.5982        -47.5982
            2198     1.49314E+03     1.49314E+03         96.9879         96.9879        -37.4566        -37.4566
            2199     1.49428E+03     1.49428E+03         81.2619         81.2619        -28.1742        -28.1742
            2200     1.49464E+03     1.49464E+03         67.7856         67.7856        -19.8476        -19.8476
            2201     1.49439E+03     1.49439E+03         56.2719         56.2719        -12.4717        -12.4717
            2202     1.49369E+03     1.49369E+03         46.4819         46.4819        -6.03062        -6.03062
            2203     1.49268E+03     1.49268E+03         38.1754         38.1754    -458.152E-03    -458.152E-03
            2204     1.49145E+03     1.49145E+03         31.1597         31.1597         4.31217         4.31217
            2205     1.49008E+03     1.49008E+03         25.2471         25.2471         8.36541         8.36541
            2206     1.48862E+03     1.48862E+03         20.2859         20.2859         11.7820         11.7820
            2207     1.48712E+03     1.48712E+03         16.1310         16.1310         14.6456         14.6456
            2208     1.48562E+03     1.48562E+03         12.6612         12.6612         17.0331         17.0331
            2209     1.48415E+03     1.48415E+03         9.76159         9.76159         19.0183         19.0183
            2210     1.48272E+03     1.48272E+03         7.33234         7.33234         20.6679         20.6679
            2211     1.48135E+03     1.48135E+03         5.27797         5.27797         22.0433         22.0433
            2212     1.48008E+03     1.48008E+03         3.51177         3.51177         23.1998         23.1998
            2213     1.47891E+03     1.47891E+03         1.94939         1.94939         24.1871         24.1871
            2214     1.47788E+03     1.47788E+03     510.682E-03     510.682E-03         25.0492         25.0492
            2215     1.47701E+03     1.47701E+03    -884.173E-03    -884.173E-03         25.8249         25.8249
            2216     1.47636E+03     1.47636E+03        -2.31408        -2.31408         26.5473         26.5473
            2217     1.47596E+03     1.47596E+03        -3.85917        -3.85917         27.2433         27.2433
            2218     1.47588E+03     1.47588E+03        -5.60063        -5.60063         27.9316         27.9316
            2219     1.47620E+03     1.47620E+03        -7.62084        -7.62084         28.6203         28.6203
            2220     1.47703E+03     1.47703E+03        -10.0023        -10.0023         29.3020         29.3020
            2221     1.47849E+03     1.47849E+03        -12.8236        -12.8236         29.9461         29.9461
            2222     1.48073E+03     1.48073E+03        -16.1539        -16.1539         30.4890         30.4890
            2223     1.48392E+03     1.48392E+03        -20.0379        -20.0379         30.8176         30.8176
            2224     1.48824E+03     1.48824E+03        -24.4755        -24.4755         30.7535         30.7535
            2225     1.49388E+03     1.49388E+03        -29.3799        -29.3799         30.0284         30.0284
            2226     1.50095E+03     1.50095E+03        -34.5213        -34.5213         28.2808         28.2808
            2227     1.50945E+03     1.50945E+03        -39.4488        -39.4488         25.0578         25.0578
            2228     1.51913E+03     1.51913E+03        -43.4167        -43.4167         19.9101         19.9101
            2229     1.52956E+03     1.52956E+03        -45.4289        -45.4289         12.4315         12.4315
            2230     1.40440E+03     1.40440E+03         400.805         400.805        -139.749        -139.749
            2231     1.42106E+03     1.42106E+03         359.668         359.668        -138.410        -138.410
            2232     1.43698E+03     1.43698E+03         318.381         318.381        -132.814        -132.814
            2233     1.45134E+03     1.45134E+03         278.370         278.370        -124.380        -124.380
            2234     1.46367E+03     1.46367E+03         240.721         240.721        -113.716        -113.716
            2235     1.47375E+03     1.47375E+03         206.177         206.177        -101.406        -101.406
            2236     1.48146E+03     1.48146E+03         175.247         175.247        -88.2365        -88.2365
            2237     1.48706E+03     1.48706E+03         148.015         148.015        -74.8843        -74.8843
            2238     1.49073E+03     1.49073E+03         124.397         124.397        -61.8801        -61.8801
            2239     1.49290E+03     1.49290E+03         104.114         104.114        -49.6618        -49.6618
            2240     1.49385E+03     1.49385E+03         86.8064         86.8064        -38.4310        -38.4310
            2241     1.49394E+03     1.49394E+03         72.1252         72.1252        -28.3495        -28.3495
            2242     1.49338E+03     1.49338E+03         59.6920         59.6920        -19.4180        -19.4180
            2243     1.49240E+03     1.49240E+03         49.2080         49.2080        -11.6292        -11.6292
            2244     1.49115E+03     1.49115E+03         40.3692         40.3692        -4.89975        -4.89975
            2245     1.48974E+03     1.48974E+03         32.9467         32.9467     849.347E-03     849.347E-03
            2246     1.48826E+03     1.48826E+03         26.7159         26.7159         5.72362         5.72362
            2247     1.48678E+03     1.48678E+03         21.5056         21.5056         9.82028         9.82028
            2248     1.48532E+03     1.48532E+03         17.1519         17.1519         13.2403         13.2403
            2249     1.48392E+03     1.48392E+03         13.5251         13.5251         16.0753         16.0753
            2250     1.48261E+03     1.48261E+03         10.5021         10.5021         18.4118         18.4118
            2251     1.48139E+03     1.48139E+03         7.98061         7.98061         20.3273         20.3273
            2252     1.48027E+03     1.48027E+03         5.86344         5.86344         21.8916         21.8916
            2253     1.47928E+03     1.47928E+03         4.06517         4.06517         23.1662         23.1662
            2254     1.47842E+03     1.47842E+03         2.50343         2.50343         24.2051         24.2051
            2255     1.47771E+03     1.47771E+03         1.10197         1.10197         25.0543         25.0543
            2256     1.47716E+03     1.47716E+03    -214.319E-03    -214.319E-03         25.7529         25.7529
            2257     1.47681E+03     1.47681E+03        -1.51804        -1.51804         26.3325         26.3325
            2258     1.47669E+03     1.47669E+03        -2.88186        -2.88186         26.8169         26.8169
            2259     1.47685E+03     1.47685E+03        -4.37753        -4.37753         27.2214         27.2214
            2260     1.47735E+03     1.47735E+03        -6.07628        -6.07628         27.5509         27.5509
            2261     1.47825E+03     1.47825E+03        -8.04687        -8.04687         27.7972         27.7972
            2262     1.47965E+03     1.47965E+03        -10.3525        -10.3525         27.9343         27.9343
            2263     1.48164E+03     1.48164E+03        -13.0455        -13.0455         27.9133         27.9133
            2264     1.48434E+03     1.48434E+03        -16.1566        -16.1566         27.6529         27.6529
            2265     1.48786E+03     1.48786E+03        -19.6807        -19.6807         27.0320         27.0320
            2266     1.49230E+03     1.49230E+03        -23.5519        -23.5519         25.8779         25.8779
            2267     1.49774E+03     1.49774E+03        -27.6097        -27.6097         23.9658         23.9658
            2268     1.50414E+03     1.50414E+03        -31.5582        -31.5582         21.0222         21.0222
            2269     1.51137E+03     1.51137E+03        -34.9150        -34.9150         16.7655         16.7655
            2270     1.51911E+03     1.51911E+03        -37.0138        -37.0138         10.9547         10.9547
            2271     1.52682E+03     1.52682E+03        -36.9171        -36.9171         3.42356         3.42356
            2272     1.41126E+03     1.41126E+03         399.553         399.553        -157.031        -157.031
            2273     1.42907E+03     1.42907E+03         355.054         355.054        -155.274        -155.274
            2274     1.44565E+03     1.44565E+03         310.467         310.467        -148.149        -148.149
            2275     1.46022E+03     1.46022E+03         267.609         267.609        -137.692        -137.692
            2276     1.47222E+03     1.47222E+03         227.812         227.812        -124.467        -124.467
            2277     1.48128E+03     1.48128E+03         192.087         192.087        -109.577        -109.577
            2278     1.48768E+03     1.48768E+03         160.747         160.747        -93.9758        -93.9758
            2279     1.49159E+03     1.49159E+03         133.842         133.842        -78.5006        -78.5006
            2280     1.49362E+03     1.49362E+03         111.028         111.028        -63.8432        -63.8432
            2281     1.49415E+03     1.49415E+03         91.8352         91.8352        -50.3202        -50.3202
            2282     1.49370E+03     1.49370E+03         75.7914         75.7914        -38.1992        -38.1992
            2283     1.49256E+03     1.49256E+03         62.3767         62.3767        -27.4809        -27.4809
            2284     1.49103E+03     1.49103E+03         51.2056         51.2056        -18.1689        -18.1689
            2285     1.48930E+03     1.48930E+03         41.8788         41.8788        -10.1500        -10.1500
            2286     1.48751E+03     1.48751E+03         34.1178         34.1178        -3.32480        -3.32480
            2287     1.48576E+03     1.48576E+03         27.6457         27.6457         2.44225         2.44225
            2288     1.48410E+03     1.48410E+03         22.2662         22.2662         7.27217         7.27217
            2289     1.48257E+03     1.48257E+03         17.7902         17.7902         11.2894         11.2894
            2290     1.48119E+03     1.48119E+03         14.0768         14.0768         14.6048         14.6048
            2291     1.47997E+03     1.47997E+03         10.9931         10.9931         17.3217         17.3217
            2292     1.47891E+03     1.47891E+03         8.43369         8.43369         19.5312         19.5312
            2293     1.47802E+03     1.47802E+03         6.29937         6.29937         21.3142         21.3142
            2294     1.47729E+03     1.47729E+03         4.50650         4.50650         22.7410         22.7410
            2295     1.47672E+03     1.47672E+03         2.97513         2.97513         23.8718         23.8718
            2296     1.47632E+03     1.47632E+03         1.63362         1.63362         24.7577         24.7577
            2297     1.47610E+03     1.47610E+03     412.051E-03     412.051E-03         25.4403         25.4403
            2298     1.47606E+03     1.47606E+03    -755.548E-03    -755.548E-03         25.9527         25.9527
            2299     1.47623E+03     1.47623E+03        -1.93458        -1.93458         26.3189         26.3189
            2300     1.47663E+03     1.47663E+03        -3.18846        -3.18846         26.5539         26.5539
            2301     1.47731E+03     1.47731E+03        -4.57954        -4.57954         26.6627         26.6627
            2302     1.47831E+03     1.47831E+03        -6.16701        -6.16701         26.6388         26.6388
            2303     1.47969E+03     1.47969E+03        -8.00490        -8.00490         26.4617         26.4617
            2304     1.48151E+03     1.48151E+03        -10.1374        -10.1374         26.0944         26.0944
            2305     1.48385E+03     1.48385E+03        -12.5917        -12.5917         25.4787         25.4787
            2306     1.48677E+03     1.48677E+03        -15.3677        -15.3677         24.5314         24.5314
            2307     1.49035E+03     1.49035E+03        -18.4224        -18.4224         23.1397         23.1397
            2308     1.49462E+03     1.49462E+03        -21.6484        -21.6484         21.1617         21.1617
            2309     1.49956E+03     1.49956E+03        -24.8507        -24.8507         18.4301         18.4301
            2310     1.50507E+03     1.50507E+03        -27.7151        -27.7151         14.7727         14.7727
            2311     1.51095E+03     1.51095E+03        -29.7990        -29.7990         10.0448         10.0448
            2312     1.51685E+03     1.51685E+03        -30.5013        -30.5013         4.16766         4.16766
            2313     1.52223E+03     1.52223E+03        -29.0754        -29.0754        -2.77205        -2.77205
            2314     1.42054E+03     1.42054E+03         397.947         397.947        -175.633        -175.633
            2315     1.43940E+03     1.43940E+03         349.230         349.230        -173.022        -173.022
            2316     1.45680E+03     1.45680E+03         300.430         300.430        -164.053        -164.053
            2317     1.47137E+03     1.47137E+03         254.055         254.055        -150.640        -150.640
            2318     1.48236E+03     1.48236E+03         212.018         212.018        -134.264        -134.264
            2319     1.48994E+03     1.48994E+03         175.155         175.155        -116.194        -116.194
            2320     1.49412E+03     1.49412E+03         143.881         143.881        -97.7991        -97.7991
            2321     1.49586E+03     1.49586E+03         117.784         117.784        -80.1959        -80.1959
            2322     1.49566E+03     1.49566E+03         96.2538         96.2538        -63.8995        -63.8995
            2323     1.49427E+03     1.49427E+03         78.6199         78.6199        -49.3598        -49.3598
            2324     1.49217E+03     1.49217E+03         64.1343         64.1343        -36.5622        -36.5622
            2325     1.48973E+03     1.48973E+03         52.2842         52.2842        -25.5218        -25.5218
            2326     1.48721E+03     1.48721E+03         42.5252         42.5252        -16.0720        -16.0720
            2327     1.48477E+03     1.48477E+03         34.5122         34.5122        -8.07895        -8.07895
            2328     1.48252E+03     1.48252E+03         27.8943         27.8943        -1.36153        -1.36153
            2329     1.48052E+03     1.48052E+03         22.4436         22.4436         4.23627         4.23627
            2330     1.47878E+03     1.47878E+03         17.9374         17.9374         8.87074         8.87074
            2331     1.47732E+03     1.47732E+03         14.2220         14.2220         12.6788         12.6788
            2332     1.47612E+03     1.47612E+03         11.1514         11.1514         15.7845         15.7845
            2333     1.47518E+03     1.47518E+03         8.61746         8.61746         18.2967         18.2967
            2334     1.47448E+03     1.47448E+03         6.51818         6.51818         20.3096         20.3096
            2335     1.47400E+03     1.47400E+03         4.77217         4.77217         21.9047         21.9047
            2336     1.47373E+03     1.47373E+03         3.30223         3.30223         23.1506         23.1506
            2337     1.47366E+03     1.47366E+03         2.04190         2.04190         24.1049         24.1049
            2338     1.47377E+03     1.47377E+03     926.957E-03     926.957E-03         24.8141         24.8141
            2339     1.47408E+03     1.47408E+03    -101.562E-03    -101.562E-03         25.3148         25.3148
            2340     1.47457E+03     1.47457E+03        -1.10166        -1.10166         25.6335         25.6335
            2341     1.47527E+03     1.47527E+03        -2.12870        -2.12870         25.7871         25.7871
            2342     1.47618E+03     1.47618E+03        -3.23695        -3.23695         25.7824         25.7824
            2343     1.47735E+03     1.47735E+03        -4.47777        -4.47777         25.6157         25.6157
            2344     1.47879E+03     1.47879E+03        -5.89851        -5.89851         25.2720         25.2720
            2345     1.48056E+03     1.48056E+03        -7.53888        -7.53888         24.7232         24.7232
            2346     1.48269E+03     1.48269E+03        -9.42631        -9.42631         23.9266         23.9266
            2347     1.48524E+03     1.48524E+03        -11.5683        -11.5683         22.8237         22.8237
            2348     1.48822E+03     1.48822E+03        -13.9427        -13.9427         21.3383         21.3383
            2349     1.49168E+03     1.49168E+03        -16.4834        -16.4834         19.3783         19.3783
            2350     1.49559E+03     1.49559E+03        -19.0659        -19.0659         16.8393         16.8393
            2351     1.49989E+03     1.49989E+03        -21.4872        -21.4872         13.6165         13.6165
            2352     1.50445E+03     1.50445E+03        -23.4569        -23.4569         9.62500         9.62500
            2353     1.50904E+03     1.50904E+03        -24.5821        -24.5821         4.82663         4.82663
            2354     1.51334E+03     1.51334E+03        -24.3798        -24.3798    -715.552E-03    -715.552E-03
            2355     1.51691E+03     1.51691E+03        -22.3106        -22.3106        -6.78341        -6.78341
            2356     1.43267E+03     1.43267E+03         396.061         396.061        -195.654        -195.654
            2357     1.45333E+03     1.45333E+03         341.572         341.572        -192.104        -192.104
            2358     1.47126E+03     1.47126E+03         287.334         287.334        -179.994        -179.994
            2359     1.48516E+03     1.48516E+03         236.938         236.938        -162.871        -162.871
            2360     1.49459E+03     1.49459E+03         192.406         192.406        -142.205        -142.205
            2361     1.49922E+03     1.49922E+03         155.060         155.060        -120.307        -120.307
            2362     1.50049E+03     1.50049E+03         124.492         124.492        -99.0157        -99.0157
            2363     1.49905E+03     1.49905E+03         99.9437         99.9437        -79.2311        -79.2311
            2364     1.49618E+03     1.49618E+03         80.4024         80.4024        -61.7448        -61.7448
            2365     1.49254E+03     1.49254E+03         64.7293         64.7293        -46.4847        -46.4847
            2366     1.48868E+03     1.48868E+03         52.2222         52.2222        -33.4730        -33.4730
            2367     1.48494E+03     1.48494E+03         42.1107         42.1107        -22.4451        -22.4451
            2368     1.48150E+03     1.48150E+03         33.9613         33.9613        -13.2066        -13.2066
            2369     1.47848E+03     1.47848E+03         27.3194         27.3194        -5.50644        -5.50644
            2370     1.47592E+03     1.47592E+03         21.9188         21.9188     864.261E-03     864.261E-03
            2371     1.47381E+03     1.47381E+03         17.4939         17.4939         6.10498         6.10498
            2372     1.47216E+03     1.47216E+03         13.8768         13.8768         10.3878         10.3878
            2373     1.47091E+03     1.47091E+03         10.9061         10.9061         13.8627         13.8627
            2374     1.47004E+03     1.47004E+03         8.47081         8.47081         16.6602         16.6602
            2375     1.46951E+03     1.46951E+03         6.46637         6.46637         18.8903         18.8903
            2376     1.46928E+03     1.46928E+03         4.81413         4.81413         20.6475         20.6475
            2377     1.46932E+03     1.46932E+03         3.44004         3.44004         22.0102         22.0102
            2378     1.46960E+03     1.46960E+03         2.28341         2.28341         23.0439         23.0439
            2379     1.47009E+03     1.47009E+03         1.28613         1.28613         23.8010         23.8010
            2380     1.47078E+03     1.47078E+03     396.711E-03     396.711E-03         24.3231         24.3231
            2381     1.47166E+03     1.47166E+03    -435.200E-03    -435.200E-03         24.6406         24.6406
            2382     1.47272E+03     1.47272E+03        -1.25671        -1.25671         24.7736         24.7736
            2383     1.47396E+03     1.47396E+03        -2.11412        -2.11412         24.7323         24.7323
            2384     1.47539E+03     1.47539E+03        -3.05114        -3.05114         24.5166         24.5166
            2385     1.47703E+03     1.47703E+03        -4.10892        -4.10892         24.1160         24.1160
            2386     1.47888E+03     1.47888E+03        -5.32328        -5.32328         23.5095         23.5095
            2387     1.48098E+03     1.48098E+03        -6.72186        -6.72186         22.6651         22.6651
            2388     1.48334E+03     1.48334E+03        -8.31885        -8.31885         21.5394         21.5394
            2389     1.48599E+03     1.48599E+03        -10.1085        -10.1085         20.0782         20.0782
            2390     1.48893E+03     1.48893E+03        -12.0560        -12.0560         18.2184         18.2184
            2391     1.49216E+03     1.49216E+03        -14.0872        -14.0872         15.8916         15.8916
            2392     1.49562E+03     1.49562E+03        -16.0762        -16.0762         13.0319         13.0319
            2393     1.49924E+03     1.49924E+03        -17.8375        -17.8375         9.58920         9.58920
            2394     1.50287E+03     1.50287E+03        -19.1161        -19.1161         5.54659         5.54659
            2395     1.50631E+03     1.50631E+03        -19.5940        -19.5940     951.004E-03     951.004E-03
            2396     1.50929E+03     1.50929E+03        -18.9073        -18.9073        -4.05612        -4.05612
            2397     1.51151E+03     1.51151E+03        -16.6916        -16.6916        -9.19622        -9.19622
            2398     1.45011E+03     1.45011E+03         393.295         393.295        -217.904        -217.904
            2399     1.47194E+03     1.47194E+03         331.187         331.187        -211.968        -211.968
            2400     1.49021E+03     1.49021E+03         270.004         270.004        -195.977        -195.977
            2401     1.50270E+03     1.50270E+03         214.571         214.571        -172.973        -172.973
            2402     1.50823E+03     1.50823E+03         168.376         168.376        -146.894        -146.894
            2403     1.50889E+03     1.50889E+03         131.344         131.344        -120.773        -120.773
            2404     1.50545E+03     1.50545E+03         102.719         102.719        -96.3633        -96.3633
            2405     1.50017E+03     1.50017E+03         80.8450         80.8450        -75.1641        -75.1641
            2406     1.49412E+03     1.49412E+03         63.8513         63.8513        -56.9287        -56.9287
            2407     1.48808E+03     1.48808E+03         50.7526         50.7526        -41.6623        -41.6623
            2408     1.48252E+03     1.48252E+03         40.4147         40.4147        -28.9187        -28.9187
            2409     1.47761E+03     1.47761E+03         32.2923         32.2923        -18.3915        -18.3915
            2410     1.47347E+03     1.47347E+03         25.7860         25.7860        -9.72294        -9.72294
            2411     1.47009E+03     1.47009E+03         20.5873         20.5873        -2.62279        -2.62279
            2412     1.46744E+03     1.46744E+03         16.3780         16.3780         3.16585         3.16585
            2413     1.46547E+03     1.46547E+03         12.9764         12.9764         7.86273         7.86273
            2414     1.46409E+03     1.46409E+03         10.2050         10.2050         11.6487         11.6487
            2415     1.46325E+03     1.46325E+03         7.95133         7.95133         14.6805         14.6805
            2416     1.46288E+03     1.46288E+03         6.10877         6.10877         17.0850         17.0850
            2417     1.46291E+03     1.46291E+03         4.60257         4.60257         18.9716         18.9716
            2418     1.46329E+03     1.46329E+03         3.36268         3.36268         20.4283         20.4283
            2419     1.46396E+03     1.46396E+03         2.33484         2.33484         21.5292         21.5292
            2420     1.46489E+03     1.46489E+03         1.46759         1.46759         22.3329         22.3329
            2421     1.46604E+03     1.46604E+03     717.239E-03     717.239E-03         22.8866         22.8866
            2422     1.46738E+03     1.46738E+03     41.4222E-03     41.4222E-03         23.2247         23.2247
            2423     1.46889E+03     1.46889E+03    -598.530E-03    -598.530E-03         23.3719         23.3719
            2424     1.47056E+03     1.47056E+03        -1.24066        -1.24066         23.3419         23.3419
            2425     1.47238E+03     1.47238E+03        -1.92078        -1.92078         23.1390         23.1390
            2426     1.47433E+03     1.47433E+03        -2.67331        -2.67331         22.7572         22.7572
            2427     1.47643E+03     1.47643E+03        -3.52922        -3.52922         22.1816         22.1816
            2428     1.47868E+03     1.47868E+03        -4.51471        -4.51471         21.3873         21.3873
            2429     1.48108E+03     1.48108E+03        -5.64758        -5.64758         20.3411         20.3411
            2430     1.48363E+03     1.48363E+03        -6.93329        -6.93329         19.0018         19.0018
            2431     1.48633E+03     1.48633E+03        -8.35865        -8.35865         17.3226         17.3226
            2432     1.48917E+03     1.48917E+03        -9.88542        -9.88542         15.2543         15.2543
            2433     1.49211E+03     1.49211E+03        -11.4415        -11.4415         12.7516         12.7516
            2434     1.49511E+03     1.49511E+03        -12.9148        -12.9148         9.78152         9.78152
            2435     1.49806E+03     1.49806E+03        -14.1458        -14.1458         6.33595         6.33595
            2436     1.50084E+03     1.50084E+03        -14.9297        -14.9297         2.44950         2.44950
            2437     1.50328E+03     1.50328E+03        -15.0225        -15.0225        -1.78180        -1.78180
            2438     1.50519E+03     1.50519E+03        -14.1657        -14.1657        -6.17570        -6.17570
            2439     1.50637E+03     1.50637E+03        -12.1275        -12.1275        -10.4476        -10.4476
            2440     1.47380E+03     1.47380E+03         389.667         389.667        -242.102        -242.102
            2441     1.49836E+03     1.49836E+03         316.356         316.356        -233.594        -233.594
            2442     1.51584E+03     1.51584E+03         245.571         245.571        -209.743        -209.743
            2443     1.52340E+03     1.52340E+03         185.799         185.799        -179.063        -179.063
            2444     1.52352E+03     1.52352E+03         138.661         138.661        -146.266        -146.266
            2445     1.51666E+03     1.51666E+03         104.224         104.224        -115.262        -115.262
            2446     1.50738E+03     1.50738E+03         79.4937         79.4937        -89.1930        -89.1930
            2447     1.49751E+03     1.49751E+03         61.0681         61.0681        -67.3017        -67.3017
            2448     1.48815E+03     1.48815E+03         47.5474         47.5474        -49.4763        -49.4763
            2449     1.47990E+03     1.47990E+03         37.1973         37.1973        -34.9337        -34.9337
            2450     1.47288E+03     1.47288E+03         29.3403         29.3403        -23.1530        -23.1530
            2451     1.46718E+03     1.46718E+03         23.1834         23.1834        -13.6188        -13.6188
            2452     1.46268E+03     1.46268E+03         18.3757         18.3757        -5.91382        -5.91382
            2453     1.45930E+03     1.45930E+03         14.5417         14.5417     290.985E-03     290.985E-03
            2454     1.45689E+03     1.45689E+03         11.4891         11.4891         5.27912         5.27912
            2455     1.45533E+03     1.45533E+03         9.02713         9.02713         9.26498         9.26498
            2456     1.45450E+03     1.45450E+03         7.04426         7.04426         12.4362         12.4362
            2457     1.45430E+03     1.45430E+03         5.43502         5.43502         14.9356         14.9356
            2458     1.45462E+03     1.45462E+03         4.13009         4.13009         16.8878         16.8878
            2459     1.45538E+03     1.45538E+03         3.06512         3.06512         18.3889         18.3889
            2460     1.45651E+03     1.45651E+03         2.19307         2.19307         19.5210         19.5210
            2461     1.45795E+03     1.45795E+03         1.46991         1.46991         20.3476         20.3476
            2462     1.45964E+03     1.45964E+03     859.995E-03     859.995E-03         20.9208         20.9208
            2463     1.46154E+03     1.46154E+03     329.154E-03     329.154E-03         21.2790         21.2790
            2464     1.46362E+03     1.46362E+03    -152.802E-03    -152.802E-03         21.4508         21.4508
            2465     1.46583E+03     1.46583E+03    -615.538E-03    -615.538E-03         21.4539         21.4539
            2466     1.46816E+03     1.46816E+03        -1.08669        -1.08669         21.2968         21.2968
            2467     1.47059E+03     1.47059E+03        -1.59328        -1.59328         20.9784         20.9784
            2468     1.47311E+03     1.47311E+03        -2.16026        -2.16026         20.4890         20.4890
            2469     1.47569E+03     1.47569E+03        -2.81022        -2.81022         19.8101         19.8101
            2470     1.47834E+03     1.47834E+03        -3.56101        -3.56101         18.9158         18.9158
            2471     1.48103E+03     1.48103E+03        -4.42364        -4.42364         17.7732         17.7732
            2472     1.48376E+03     1.48376E+03        -5.39823        -5.39823         16.3451         16.3451
            2473     1.48650E+03     1.48650E+03        -6.46992        -6.46992         14.5923         14.5923
            2474     1.48922E+03     1.48922E+03        -7.60303        -7.60303         12.4787         12.4787
            2475     1.49189E+03     1.49189E+03        -8.73637        -8.73637         9.97767         9.97767
            2476     1.49442E+03     1.49442E+03        -9.77765        -9.77765         7.08068         7.08068
            2477     1.49675E+03     1.49675E+03        -10.6023        -10.6023         3.80934         3.80934
            2478     1.49877E+03     1.49877E+03        -11.0552        -11.0552     227.675E-03     227.675E-03
            2479     1.50034E+03     1.50034E+03        -10.9612        -10.9612        -3.54239        -3.54239
            2480     1.50135E+03     1.50135E+03        -10.1460        -10.1460        -7.31069        -7.31069
            2481     1.50167E+03     1.50167E+03        -8.46749        -8.46749        -10.8122        -10.8122
            2482     1.51169E+03     1.51169E+03         382.915         382.915        -270.795        -270.795
            2483     1.53615E+03     1.53615E+03         293.112         293.112        -253.484        -253.484
            2484     1.54867E+03     1.54867E+03         211.663         211.663        -219.531        -219.531
            2485     1.54909E+03     1.54909E+03         147.036         147.036        -176.934        -176.934
            2486     1.53597E+03     1.53597E+03         103.683         103.683        -135.576        -135.576
            2487     1.51957E+03     1.51957E+03         75.6076         75.6076        -102.842        -102.842
            2488     1.50347E+03     1.50347E+03         55.7705         55.7705        -76.4642        -76.4642
            2489     1.48895E+03     1.48895E+03         42.2196         42.2196        -55.8440        -55.8440
            2490     1.47679E+03     1.47679E+03         32.2284         32.2284        -39.5915        -39.5915
            2491     1.46684E+03     1.46684E+03         24.9862         24.9862        -26.7654        -26.7654
            2492     1.45905E+03     1.45905E+03         19.4637         19.4637        -16.6338        -16.6338
            2493     1.45311E+03     1.45311E+03         15.2761         15.2761        -8.58518        -8.58518
            2494     1.44881E+03     1.44881E+03         12.0001         12.0001        -2.21012        -2.21012
            2495     1.44587E+03     1.44587E+03         9.43913         9.43913         2.85620         2.85620
            2496     1.44411E+03     1.44411E+03         7.40001         7.40001         6.85874         6.85874
            2497     1.44332E+03     1.44332E+03         5.77614         5.77614         10.0178         10.0178
            2498     1.44335E+03     1.44335E+03         4.46945         4.46945         12.4879         12.4879
            2499     1.44404E+03     1.44404E+03         3.41817         3.41817         14.4064         14.4064
            2500     1.44527E+03     1.44527E+03         2.56673         2.56673         15.8736         15.8736
            2501     1.44696E+03     1.44696E+03         1.87614         1.87614         16.9770         16.9770
            2502     1.44901E+03     1.44901E+03         1.31093         1.31093         17.7820         17.7820
            2503     1.45135E+03     1.45135E+03     843.590E-03     843.590E-03         18.3436         18.3436
            2504     1.45392E+03     1.45392E+03     448.272E-03     448.272E-03         18.7023         18.7023
            2505     1.45667E+03     1.45667E+03     102.966E-03     102.966E-03         18.8894         18.8894
            2506     1.45956E+03     1.45956E+03    -213.795E-03    -213.795E-03         18.9256         18.9256
            2507     1.46255E+03     1.46255E+03    -521.639E-03    -521.639E-03         18.8232         18.8232
            2508     1.46561E+03     1.46561E+03    -839.998E-03    -839.998E-03         18.5856         18.5856
            2509     1.46871E+03     1.46871E+03        -1.18702        -1.18702         18.2083         18.2083
            2510     1.47183E+03     1.47183E+03        -1.57999        -1.57999         17.6787         17.6787
            2511     1.47494E+03     1.47494E+03        -2.03384        -2.03384         16.9774         16.9774
            2512     1.47802E+03     1.47802E+03        -2.56029        -2.56029         16.0785         16.0785
            2513     1.48104E+03     1.48104E+03        -3.16546        -3.16546         14.9516         14.9516
            2514     1.48397E+03     1.48397E+03        -3.84757        -3.84757         13.5637         13.5637
            2515     1.48677E+03     1.48677E+03        -4.59330        -4.59330         11.8830         11.8830
            2516     1.48940E+03     1.48940E+03        -5.37459        -5.37459         9.88352         9.88352
            2517     1.49181E+03     1.49181E+03        -6.14457        -6.14457         7.55171         7.55171
            2518     1.49393E+03     1.49393E+03        -6.83554        -6.83554         4.89470         4.89470
            2519     1.49569E+03     1.49569E+03        -7.35792        -7.35792         1.94938         1.94938
            2520     1.49700E+03     1.49700E+03        -7.60402        -7.60402        -1.20694        -1.20694
            2521     1.49779E+03     1.49779E+03        -7.45661        -7.45661        -4.44856        -4.44856
            2522     1.49798E+03     1.49798E+03        -6.80455        -6.80455        -7.59593        -7.59593
            2523     1.49754E+03     1.49754E+03        -5.56533        -5.56533        -10.4172        -10.4172
            2524     1.56711E+03     1.56711E+03         371.224         371.224        -299.759        -299.759
            2525     1.59214E+03     1.59214E+03         256.215         256.215        -273.068        -273.068
            2526     1.59574E+03     1.59574E+03         157.922         157.922        -215.329        -215.329
            2527     1.56956E+03     1.56956E+03         99.3130         99.3130        -155.849        -155.849
            2528     1.53933E+03     1.53933E+03         67.9797         67.9797        -113.677        -113.677
            2529     1.51269E+03     1.51269E+03         47.1725         47.1725        -82.1524        -82.1524
            2530     1.49014E+03     1.49014E+03         34.3959         34.3959        -58.8658        -58.8658
            2531     1.47237E+03     1.47237E+03         25.3930         25.3930        -41.4509        -41.4509
            2532     1.45846E+03     1.45846E+03         19.2482         19.2482        -28.1499        -28.1499
            2533     1.44802E+03     1.44802E+03         14.7226         14.7226        -17.9930        -17.9930
            2534     1.44035E+03     1.44035E+03         11.4079         11.4079        -10.0873        -10.0873
            2535     1.43503E+03     1.43503E+03         8.88006         8.88006        -3.96107        -3.96107
            2536     1.43159E+03     1.43159E+03         6.94331         6.94331     842.674E-03     842.674E-03
            2537     1.42971E+03     1.42971E+03         5.42781         5.42781         4.58302         4.58302
            2538     1.42907E+03     1.42907E+03         4.23476         4.23476         7.50799         7.50799
            2539     1.42946E+03     1.42946E+03         3.28528         3.28528         9.77205         9.77205
            2540     1.43066E+03     1.43066E+03         2.52661         2.52661         11.5186         11.5186
            2541     1.43253E+03     1.43253E+03         1.91682         1.91682         12.8447         12.8447
            2542     1.43492E+03     1.43492E+03         1.42543         1.42543         13.8375         13.8375
            2543     1.43772E+03     1.43772E+03         1.02709         1.02709         14.5593         14.5593
            2544     1.44086E+03     1.44086E+03     702.126E-03     702.126E-03         15.0638         15.0638
            2545     1.44424E+03     1.44424E+03     433.038E-03     433.038E-03         15.3901         15.3901
            2546     1.44781E+03     1.44781E+03     205.268E-03     205.268E-03         15.5699         15.5699
            2547     1.45151E+03     1.45151E+03     4.94222E-03     4.94222E-03         15.6245         15.6245
            2548     1.45530E+03     1.45530E+03    -180.321E-03    -180.321E-03         15.5687         15.5687
            2549     1.45915E+03     1.45915E+03    -362.827E-03    -362.827E-03         15.4091         15.4091
            2550     1.46300E+03     1.46300E+03    -554.050E-03    -554.050E-03         15.1460         15.1460
            2551     1.46684E+03     1.46684E+03    -765.312E-03    -765.312E-03         14.7724         14.7724
            2552     1.47062E+03     1.47062E+03        -1.00690        -1.00690         14.2755         14.2755
            2553     1.47432E+03     1.47432E+03        -1.28799        -1.28799         13.6364         13.6364
            2554     1.47789E+03     1.47789E+03        -1.61531        -1.61531         12.8317         12.8317
            2555     1.48129E+03     1.48129E+03        -1.99221        -1.99221         11.8344         11.8344
            2556     1.48448E+03     1.48448E+03        -2.41656        -2.41656         10.6169         10.6169
            2557     1.48741E+03     1.48741E+03        -2.87907        -2.87907         9.15346         9.15346
            2558     1.49001E+03     1.49001E+03        -3.36065        -3.36065         7.42557         7.42557
            2559     1.49223E+03     1.49223E+03        -3.83071        -3.83071         5.42726         5.42726
            2560     1.49399E+03     1.49399E+03        -4.24538        -4.24538         3.17197         3.17197
            2561     1.49524E+03     1.49524E+03        -4.54812        -4.54812     700.374E-03     700.374E-03
            2562     1.49590E+03     1.49590E+03        -4.67214        -4.67214        -1.91288        -1.91288
            2563     1.49593E+03     1.49593E+03        -4.54667        -4.54667        -4.55357        -4.55357
            2564     1.49531E+03     1.49531E+03        -4.10715        -4.10715        -7.06731        -7.06731
            2565     1.49405E+03     1.49405E+03        -3.30848        -3.30848        -9.26307        -9.26307
            2566     1.67823E+03     1.67823E+03         342.030         342.030        -341.750        -341.750
            2567     1.68795E+03     1.68795E+03         176.837         176.837        -263.828        -263.828
            2568     1.62922E+03     1.62922E+03         87.4160         87.4160        -170.773        -170.773
            2569     1.56955E+03     1.56955E+03         54.8787         54.8787        -115.480        -115.480
            2570     1.52468E+03     1.52468E+03         34.6727         34.6727        -79.8129        -79.8129
            2571     1.48989E+03     1.48989E+03         24.0298         24.0298        -55.2107        -55.2107
            2572     1.46442E+03     1.46442E+03         16.9918         16.9918        -38.2724        -38.2724
            2573     1.44558E+03     1.44558E+03         12.4928         12.4928        -25.7872        -25.7872
            2574     1.43213E+03     1.43213E+03         9.36051         9.36051        -16.6995        -16.6995
            2575     1.42271E+03     1.42271E+03         7.12844         7.12844        -9.77508        -9.77508
            2576     1.41650E+03     1.41650E+03         5.49983         5.49983        -4.56204        -4.56204
            2577     1.41278E+03     1.41278E+03         4.26581         4.26581    -530.330E-03    -530.330E-03
            2578     1.41104E+03     1.41104E+03         3.32960         3.32960         2.55238         2.55238
            2579     1.41083E+03     1.41083E+03         2.59556         2.59556         4.94027         4.94027
            2580     1.41186E+03     1.41186E+03         2.02258         2.02258         6.76624         6.76624
            2581     1.41384E+03     1.41384E+03         1.56519         1.56519         8.16490         8.16490
            2582     1.41658E+03     1.41658E+03         1.20163         1.20163         9.21742         9.21742
            2583     1.41990E+03     1.41990E+03     908.860E-03     908.860E-03         10.0010         10.0010
            2584     1.42368E+03     1.42368E+03     673.410E-03     673.410E-03         10.5671         10.5671
            2585     1.42780E+03     1.42780E+03     482.378E-03     482.378E-03         10.9621         10.9621
            2586     1.43217E+03     1.43217E+03     326.365E-03     326.365E-03         11.2185         11.2185
            2587     1.43673E+03     1.43673E+03     196.976E-03     196.976E-03         11.3638         11.3638
            2588     1.44141E+03     1.44141E+03     86.8719E-03     86.8719E-03         11.4171         11.4171
            2589     1.44617E+03     1.44617E+03    -10.4644E-03    -10.4644E-03         11.3926         11.3926
            2590     1.45095E+03     1.45095E+03    -101.427E-03    -101.427E-03         11.2983         11.2983
            2591     1.45573E+03     1.45573E+03    -191.862E-03    -191.862E-03         11.1374         11.1374
            2592     1.46046E+03     1.46046E+03    -287.725E-03    -287.725E-03         10.9079         10.9079
            2593     1.46511E+03     1.46511E+03    -394.489E-03    -394.489E-03         10.6032         10.6032
            2594     1.46963E+03     1.46963E+03    -517.481E-03    -517.481E-03         10.2118         10.2118
            2595     1.47399E+03     1.47399E+03    -661.138E-03    -661.138E-03         9.71837         9.71837
            2596     1.47813E+03     1.47813E+03    -828.893E-03    -828.893E-03         9.10401         9.10401
            2597     1.48201E+03     1.48201E+03        -1.02214        -1.02214         8.34764         8.34764
            2598     1.48556E+03     1.48556E+03        -1.23966        -1.23966         7.42785         7.42785
            2599     1.48870E+03     1.48870E+03        -1.47619        -1.47619         6.32546         6.32546
            2600     1.49137E+03     1.49137E+03        -1.72163        -1.72163         5.02727         5.02727
            2601     1.49349E+03     1.49349E+03        -1.95964        -1.95964         3.53031         3.53031
            2602     1.49498E+03     1.49498E+03        -2.16737        -2.16737         1.84734         1.84734
            2603     1.49577E+03     1.49577E+03        -2.31542        -2.31542     12.0035E-03     12.0035E-03
            2604     1.49581E+03     1.49581E+03        -2.36966        -2.36966        -1.91607        -1.91607
            2605     1.49507E+03     1.49507E+03        -2.29455        -2.29455        -3.84849        -3.84849
            2606     1.49356E+03     1.49356E+03        -2.05834        -2.05834        -5.66838        -5.66838
            2607     1.49136E+03     1.49136E+03        -1.63976        -1.63976        -7.23360        -7.23360
            2608     1.89117E+03     1.89117E+03         231.940         231.940        -299.863        -299.863
            2609     1.73253E+03     1.73253E+03         65.5146         65.5146        -162.205        -162.205
            2610     1.60831E+03     1.60831E+03         35.0466         35.0466        -93.0067        -93.0067
            2611     1.53350E+03     1.53350E+03         19.6583         19.6583        -60.8493        -60.8493
            2612     1.48209E+03     1.48209E+03         12.3499         12.3499        -39.6442        -39.6442
            2613     1.44762E+03     1.44762E+03         8.46259         8.46259        -27.0113        -27.0113
            2614     1.42384E+03     1.42384E+03         5.84799         5.84799        -17.8874        -17.8874
            2615     1.40782E+03     1.40782E+03         4.35782         4.35782        -11.7201        -11.7201
            2616     1.39731E+03     1.39731E+03         3.19883         3.19883        -7.08219        -7.08219
            2617     1.39090E+03     1.39090E+03         2.47625         2.47625        -3.72833        -3.72833
            2618     1.38756E+03     1.38756E+03         1.88458         1.88458        -1.15829        -1.15829
            2619     1.38656E+03     1.38656E+03         1.48198         1.48198     762.656E-03     762.656E-03
            2620     1.38735E+03     1.38735E+03         1.14841         1.14841         2.24124         2.24124
            2621     1.38950E+03     1.38950E+03     904.951E-03     904.951E-03         3.35705         3.35705
            2622     1.39270E+03     1.39270E+03     703.673E-03     703.673E-03         4.20827         4.20827
            2623     1.39671E+03     1.39671E+03     549.456E-03     549.456E-03         4.84387         4.84387
            2624     1.40131E+03     1.40131E+03     422.678E-03     422.678E-03         5.31616         5.31616
            2625     1.40636E+03     1.40636E+03     322.515E-03     322.515E-03         5.65616         5.65616
            2626     1.41174E+03     1.41174E+03     240.495E-03     240.495E-03         5.89409         5.89409
            2627     1.41736E+03     1.41736E+03     174.236E-03     174.236E-03         6.04974         6.04974
            2628     1.42312E+03     1.42312E+03     119.614E-03     119.614E-03         6.14108         6.14108
            2629     1.42898E+03     1.42898E+03     74.0653E-03     74.0653E-03         6.18017         6.18017
            2630     1.43487E+03     1.43487E+03     35.0853E-03     35.0853E-03         6.17701         6.17701
            2631     1.44077E+03     1.44077E+03     247.504E-06     247.504E-06         6.13762         6.13762
            2632     1.44662E+03     1.44662E+03    -32.4333E-03    -32.4333E-03         6.06583         6.06583
            2633     1.45241E+03     1.45241E+03    -65.2454E-03    -65.2454E-03         5.96229         5.96229
            2634     1.45809E+03     1.45809E+03    -100.050E-03    -100.050E-03         5.82534         5.82534
            2635     1.46362E+03     1.46362E+03    -138.976E-03    -138.976E-03         5.65050         5.65050
            2636     1.46897E+03     1.46897E+03    -183.729E-03    -183.729E-03         5.43099         5.43099
            2637     1.47409E+03     1.47409E+03    -236.014E-03    -236.014E-03         5.15765         5.15765
            2638     1.47892E+03     1.47892E+03    -296.905E-03    -296.905E-03         4.81952         4.81952
            2639     1.48339E+03     1.48339E+03    -366.965E-03    -366.965E-03         4.40443         4.40443
            2640     1.48743E+03     1.48743E+03    -445.588E-03    -445.588E-03         3.90006         3.90006
            2641     1.49093E+03     1.49093E+03    -530.907E-03    -530.907E-03         3.29548         3.29548
            2642     1.49381E+03     1.49381E+03    -619.075E-03    -619.075E-03         2.58305         2.58305
            2643     1.49597E+03     1.49597E+03    -704.214E-03    -704.214E-03         1.76120         1.76120
            2644     1.49730E+03     1.49730E+03    -777.866E-03    -777.866E-03     837.075E-03     837.075E-03
            2645     1.49771E+03     1.49771E+03    -829.488E-03    -829.488E-03    -170.150E-03    -170.150E-03
            2646     1.49715E+03     1.49715E+03    -846.667E-03    -846.667E-03        -1.22690        -1.22690
            2647     1.49560E+03     1.49560E+03    -816.844E-03    -816.844E-03        -2.28368        -2.28368
            2648     1.49307E+03     1.49307E+03    -728.985E-03    -728.985E-03        -3.27546        -3.27546
            2649     1.48968E+03     1.48968E+03    -575.602E-03    -575.602E-03        -4.12278        -4.12278
            2650     1.55907E+03     1.55907E+03        -48.6185        -48.6185         2.74947         2.74947
            2651     1.54921E+03     1.54921E+03        -33.7993        -33.7993         12.3087         12.3087
            2652     1.53855E+03     1.53855E+03        -22.5050        -22.5050         16.9946         16.9946
            2653     1.52864E+03     1.52864E+03        -14.4307        -14.4307         18.7909         18.7909
            2654     1.51990E+03     1.51990E+03        -8.89820        -8.89820         18.9823         18.9823
            2655     1.51230E+03     1.51230E+03        -5.23659        -5.23659         18.3248         18.3248
            2656     1.50566E+03     1.50566E+03        -2.90108        -2.90108         17.2076         17.2076
            2657     1.49975E+03     1.49975E+03        -1.47937        -1.47937         15.7853         15.7853
            2658     1.49438E+03     1.49438E+03    -668.678E-03    -668.678E-03         14.0514         14.0514
            2659     1.48935E+03     1.48935E+03    -248.394E-03    -248.394E-03         11.8728         11.8728
            2660     1.48453E+03     1.48453E+03    -60.3582E-03    -60.3582E-03         8.99468         8.99468
            2661     1.47982E+03     1.47982E+03    -92.8044E-06    -92.8044E-06         5.04828         5.04828
            2662     1.57009E+03     1.57009E+03        -28.9544        -28.9544         22.9876         22.9876
            2663     1.55350E+03     1.55350E+03        -14.1195        -14.1195         26.7719         26.7719
            2664     1.53929E+03     1.53929E+03        -4.89410        -4.89410         26.6580         26.6580
            2665     1.52765E+03     1.52765E+03     396.454E-03     396.454E-03         24.9092         24.9092
            2666     1.51816E+03     1.51816E+03         3.10358         3.10358         22.6305         22.6305
            2667     1.51027E+03     1.51027E+03         4.17378         4.17378         20.3039         20.3039
            2668     1.50351E+03     1.50351E+03         4.23581         4.23581         18.0886         18.0886
            2669     1.49747E+03     1.49747E+03         3.70455         3.70455         15.9724         15.9724
            2670     1.49181E+03     1.49181E+03         2.86354         2.86354         13.8381         13.8381
            2671     1.48622E+03     1.48622E+03         1.92119         1.92119         11.4821         11.4821
            2672     1.48040E+03     1.48040E+03         1.04775         1.04775         8.60437         8.60437
            2673     1.47404E+03     1.47404E+03     400.049E-03     400.049E-03         4.80362         4.80362
            2674     1.57168E+03     1.57168E+03         7.09111         7.09111         40.1784         40.1784
            2675     1.55081E+03     1.55081E+03         15.5866         15.5866         36.0714         36.0714
            2676     1.53528E+03     1.53528E+03         18.5011         18.5011         30.9673         30.9673
            2677     1.52358E+03     1.52358E+03         18.4122         18.4122         26.2041         26.2041
            2678     1.51446E+03     1.51446E+03         16.7770         16.7770         22.1688         22.1688
            2679     1.50705E+03     1.50705E+03         14.4010         14.4010         18.8539         18.8539
            2680     1.50068E+03     1.50068E+03         11.7256         11.7256         16.1259         16.1259
            2681     1.49487E+03     1.49487E+03         9.00639         9.00639         13.8067         13.8067
            2682     1.48919E+03     1.48919E+03         6.40982         6.40982         11.6936         11.6936
            2683     1.48327E+03     1.48327E+03         4.07113         4.07113         9.55121         9.55121
            2684     1.47667E+03     1.47667E+03         2.13618         2.13618         7.08762         7.08762
            2685     1.46892E+03     1.46892E+03     791.536E-03     791.536E-03         3.93652         3.93652
            2686     1.56312E+03     1.56312E+03         54.3450         54.3450         44.2782         44.2782
            2687     1.54251E+03     1.54251E+03         49.5387         49.5387         34.4125         34.4125
            2688     1.52833E+03     1.52833E+03         42.8321         42.8321         26.7717         26.7717
            2689     1.51807E+03     1.51807E+03         35.9173         35.9173         21.0691         21.0691
            2690     1.51017E+03     1.51017E+03         29.4179         29.4179         16.8358         16.8358
            2691     1.50368E+03     1.50368E+03         23.5051         23.5051         13.6705         13.6705
            2692     1.49798E+03     1.49798E+03         18.2021         18.2021         11.2588         11.2588
            2693     1.49258E+03     1.49258E+03         13.4897         13.4897         9.35184         9.35184
            2694     1.48706E+03     1.48706E+03         9.35829         9.35829         7.73636         7.73636
            2695     1.48100E+03     1.48100E+03         5.83735         5.83735         6.20984         6.20984
            2696     1.47390E+03     1.47390E+03         3.02260         3.02260         4.55360         4.55360
            2697     1.46515E+03     1.46515E+03         1.10715         1.10715         2.51177         2.51177
            2698     1.55079E+03     1.55079E+03         96.5572         96.5572         28.1438         28.1438
            2699     1.53368E+03     1.53368E+03         76.7190         76.7190         19.3857         19.3857
            2700     1.52211E+03     1.52211E+03         60.8870         60.8870         13.6802         13.6802
            2701     1.51364E+03     1.51364E+03         48.2283         48.2283         9.85876         9.85876
            2702     1.50699E+03     1.50699E+03         37.9393         37.9393         7.23270         7.23270
            2703     1.50138E+03     1.50138E+03         29.4347         29.4347         5.39828         5.39828
            2704     1.49627E+03     1.49627E+03         22.2994         22.2994         4.09805         4.09805
            2705     1.49124E+03     1.49124E+03         16.2558         16.2558         3.15539         3.15539
            2706     1.48591E+03     1.48591E+03         11.1387         11.1387         2.44178         2.44178
            2707     1.47985E+03     1.47985E+03         6.88636         6.88636         1.85325         1.85325
            2708     1.47254E+03     1.47254E+03         3.54610         3.54610         1.29829         1.29829
            2709     1.46331E+03     1.46331E+03         1.29606         1.29606     691.330E-03     691.330E-03
            2710     1.54587E+03     1.54587E+03         111.033         111.033        -4.82252        -4.82252
            2711     1.53083E+03     1.53083E+03         84.7318         84.7318        -5.20303        -5.20303
            2712     1.52041E+03     1.52041E+03         65.6308         65.6308        -5.20088        -5.20088
            2713     1.51263E+03     1.51263E+03         51.1258         51.1258        -5.06110        -5.06110
            2714     1.50643E+03     1.50643E+03         39.7303         39.7303        -4.84591        -4.84591
            2715     1.50111E+03     1.50111E+03         30.5338         30.5338        -4.58233        -4.58233
            2716     1.49621E+03     1.49621E+03         22.9547         22.9547        -4.27549        -4.27549
            2717     1.49133E+03     1.49133E+03         16.6231         16.6231        -3.91772        -3.91772
            2718     1.48610E+03     1.48610E+03         11.3220         11.3220        -3.48953        -3.48953
            2719     1.48011E+03     1.48011E+03         6.95920         6.95920        -2.95460        -2.95460
            2720     1.47287E+03     1.47287E+03         3.56347         3.56347        -2.25109        -2.25109
            2721     1.46373E+03     1.46373E+03         1.29597         1.29597        -1.27814        -1.27814
            2722     1.55400E+03     1.55400E+03         85.4854         85.4854        -36.8373        -36.8373
            2723     1.53655E+03     1.53655E+03         67.9500         67.9500        -28.9247        -28.9247
            2724     1.52459E+03     1.52459E+03         54.1098         54.1098        -23.4623        -23.4623
            2725     1.51580E+03     1.51580E+03         42.9819         42.9819        -19.5179        -19.5179
            2726     1.50892E+03     1.50892E+03         33.8738         33.8738        -16.5675        -16.5675
            2727     1.50315E+03     1.50315E+03         26.2929         26.2929        -14.2728        -14.2728
            2728     1.49797E+03     1.49797E+03         19.8985         19.8985        -12.3982        -12.3982
            2729     1.49294E+03     1.49294E+03         14.4670         14.4670        -10.7617        -10.7617
            2730     1.48770E+03     1.48770E+03         9.86935         9.86935        -9.20245        -9.20245
            2731     1.48185E+03     1.48185E+03         6.06373         6.06373        -7.55391        -7.55391
            2732     1.47494E+03     1.47494E+03         3.09917         3.09917        -5.61265        -5.61265
            2733     1.46642E+03     1.46642E+03         1.12470         1.12470        -3.12146        -3.12146
            2734     1.56672E+03     1.56672E+03         33.9193         33.9193        -47.2191        -47.2191
            2735     1.54635E+03     1.54635E+03         33.5574         33.5574        -39.8602        -39.8602
            2736     1.53206E+03     1.53206E+03         30.3785         30.3785        -33.6105        -33.6105
            2737     1.52155E+03     1.52155E+03         26.2569         26.2569        -28.5825        -28.5825
            2738     1.51343E+03     1.51343E+03         21.9400         21.9400        -24.5595        -24.5595
            2739     1.50680E+03     1.50680E+03         17.7533         17.7533        -21.2911        -21.2911
            2740     1.50106E+03     1.50106E+03         13.8417         13.8417        -18.5417        -18.5417
            2741     1.49575E+03     1.49575E+03         10.2775         10.2775        -16.0963        -16.0963
            2742     1.49047E+03     1.49047E+03         7.11399         7.11399        -13.7418        -13.7418
            2743     1.48486E+03     1.48486E+03         4.41489         4.41489        -11.2441        -11.2441
            2744     1.47854E+03     1.47854E+03         2.27487         2.27487        -8.31509        -8.31509
            2745     1.47109E+03     1.47109E+03     832.856E-03     832.856E-03        -4.60054        -4.60054
            2746     1.57011E+03     1.57011E+03        -14.6803        -14.6803        -33.8434        -33.8434
            2747     1.55210E+03     1.55210E+03        -2.74909        -2.74909        -34.5722        -34.5722
            2748     1.53786E+03     1.53786E+03         3.59587         3.59587        -32.6051        -32.6051
            2749     1.52675E+03     1.52675E+03         6.51510         6.51510        -29.8095        -29.8095
            2750     1.51793E+03     1.51793E+03         7.41485         7.41485        -26.9178        -26.9178
            2751     1.51072E+03     1.51072E+03         7.14054         7.14054        -24.1603        -24.1603
            2752     1.50458E+03     1.50458E+03         6.21170         6.21170        -21.5604        -21.5604
            2753     1.49909E+03     1.49909E+03         4.95774         4.95774        -19.0332        -19.0332
            2754     1.49390E+03     1.49390E+03         3.60116         3.60116        -16.4264        -16.4264
            2755     1.48870E+03     1.48870E+03         2.30742         2.30742        -13.5220        -13.5220
            2756     1.48322E+03     1.48322E+03         1.21462         1.21462        -10.0219        -10.0219
            2757     1.47718E+03     1.47718E+03     451.638E-03     451.638E-03        -5.54445        -5.54445
            2758     1.55974E+03     1.55974E+03        -42.8034        -42.8034        -10.9696        -10.9696
            2759     1.54902E+03     1.54902E+03        -28.2639        -28.2639        -19.5566        -19.5566
            2760     1.53824E+03     1.53824E+03        -17.7291        -17.7291        -23.3498        -23.3498
            2761     1.52866E+03     1.52866E+03        -10.5654        -10.5654        -24.4396        -24.4396
            2762     1.52048E+03     1.52048E+03        -5.90793        -5.90793        -24.0766        -24.0766
            2763     1.51351E+03     1.51351E+03        -3.00642        -3.00642        -22.9360        -22.9360
            2764     1.50751E+03     1.50751E+03        -1.30229        -1.30229        -21.3368        -21.3368
            2765     1.50221E+03     1.50221E+03    -390.192E-03    -390.192E-03        -19.3897        -19.3897
            2766     1.49738E+03     1.49738E+03     20.9479E-03     20.9479E-03        -17.0641        -17.0641
            2767     1.49284E+03     1.49284E+03     140.902E-03     140.902E-03        -14.2194        -14.2194
            2768     1.48842E+03     1.48842E+03     119.954E-03     119.954E-03        -10.6058        -10.6058
            2769     1.48403E+03     1.48403E+03     58.1840E-03     58.1840E-03        -5.87916        -5.87916
            2770     1.38870E+03     1.38870E+03         404.376         404.376         75.1564         75.1564
            2771     1.40263E+03     1.40263E+03         371.214         371.214         74.7124         74.7124
            2772     1.41627E+03     1.41627E+03         338.030         338.030         72.3967         72.3967
            2773     1.42926E+03     1.42926E+03         305.451         305.451         68.9595         68.9595
            2774     1.44137E+03     1.44137E+03         273.915         273.915         64.5248         64.5248
            2775     1.45239E+03     1.45239E+03         243.814         243.814         59.2422         59.2422
            2776     1.46219E+03     1.46219E+03         215.472         215.472         53.3297         53.3297
            2777     1.47069E+03     1.47069E+03         189.119         189.119         47.0055         47.0055
            2778     1.47787E+03     1.47787E+03         164.903         164.903         40.4978         40.4978
            2779     1.48376E+03     1.48376E+03         142.881         142.881         34.0093         34.0093
            2780     1.48842E+03     1.48842E+03         123.046         123.046         27.7092         27.7092
            2781     1.49197E+03     1.49197E+03         105.333         105.333         21.7345         21.7345
            2782     1.49451E+03     1.49451E+03         89.6363         89.6363         16.1747         16.1747
            2783     1.49617E+03     1.49617E+03         75.8266         75.8266         11.0930         11.0930
            2784     1.49706E+03     1.49706E+03         63.7565         63.7565         6.51270         6.51270
            2785     1.49728E+03     1.49728E+03         53.2764         53.2764         2.44052         2.44052
            2786     1.49695E+03     1.49695E+03         44.2321         44.2321        -1.14285        -1.14285
            2787     1.49615E+03     1.49615E+03         36.4773         36.4773        -4.26437        -4.26437
            2788     1.49496E+03     1.49496E+03         29.8682         29.8682        -6.96509        -6.96509
            2789     1.49346E+03     1.49346E+03         24.2718         24.2718        -9.28798        -9.28798
            2790     1.49169E+03     1.49169E+03         19.5608         19.5608        -11.2822        -11.2822
            2791     1.48971E+03     1.48971E+03         15.6180         15.6180        -12.9958        -12.9958
            2792     1.48756E+03     1.48756E+03         12.3327         12.3327        -14.4792        -14.4792
            2793     1.48528E+03     1.48528E+03         9.60251         9.60251        -15.7809        -15.7809
            2794     1.48290E+03     1.48290E+03         7.33068         7.33068        -16.9503        -16.9503
            2795     1.48044E+03     1.48044E+03         5.42671         5.42671        -18.0359        -18.0359
            2796     1.47794E+03     1.47794E+03         3.80391         3.80391        -19.0875        -19.0875
            2797     1.47540E+03     1.47540E+03         2.37925         2.37925        -20.1563        -20.1563
            2798     1.47286E+03     1.47286E+03         1.07095         1.07095        -21.2966        -21.2966
            2799     1.47033E+03     1.47033E+03    -202.844E-03    -202.844E-03        -22.5668        -22.5668
            2800     1.46786E+03     1.46786E+03        -1.52696        -1.52696        -24.0315        -24.0315
            2801     1.46548E+03     1.46548E+03        -2.99239        -2.99239        -25.7624        -25.7624
            2802     1.46326E+03     1.46326E+03        -4.70092        -4.70092        -27.8401        -27.8401
            2803     1.46128E+03     1.46128E+03        -6.77187        -6.77187        -30.3540        -30.3540
            2804     1.45968E+03     1.45968E+03        -9.35034        -9.35034        -33.4005        -33.4005
            2805     1.45865E+03     1.45865E+03        -12.6206        -12.6206        -37.0773        -37.0773
            2806     1.45851E+03     1.45851E+03        -16.8193        -16.8193        -41.4671        -41.4671
            2807     1.45972E+03     1.45972E+03        -22.2566        -22.2566        -46.6050        -46.6050
            2808     1.46298E+03     1.46298E+03        -29.3183        -29.3183        -52.4061        -52.4061
            2809     1.46935E+03     1.46935E+03        -38.4561        -38.4561        -58.5212        -58.5212
            2810     1.48023E+03     1.48023E+03        -49.9770        -49.9770        -64.0596        -64.0596
            2811     1.49724E+03     1.49724E+03        -63.6470        -63.6470        -67.2682        -67.2682
            2812     1.38644E+03     1.38644E+03         404.998         404.998         57.7428         57.7428
            2813     1.39992E+03     1.39992E+03         373.075         373.075         57.3845         57.3845
            2814     1.41314E+03     1.41314E+03         341.159         341.159         55.6333         55.6333
            2815     1.42582E+03     1.42582E+03         309.777         309.777         53.0793         53.0793
            2816     1.43774E+03     1.43774E+03         279.299         279.299         49.7864         49.7864
            2817     1.44874E+03     1.44874E+03         250.061         250.061         45.8743         45.8743
            2818     1.45867E+03     1.45867E+03         222.342         222.342         41.4732         41.4732
            2819     1.46745E+03     1.46745E+03         196.368         196.368         36.7457         36.7457
            2820     1.47502E+03     1.47502E+03         172.288         172.288         31.8457         31.8457
            2821     1.48140E+03     1.48140E+03         150.191         150.191         26.9226         26.9226
            2822     1.48661E+03     1.48661E+03         130.103         130.103         22.1058         22.1058
            2823     1.49071E+03     1.49071E+03         112.002         112.002         17.4976         17.4976
            2824     1.49379E+03     1.49379E+03         95.8245         95.8245         13.1786         13.1786
            2825     1.49595E+03     1.49595E+03         81.4757         81.4757         9.19762         9.19762
            2826     1.49728E+03     1.49728E+03         68.8439         68.8439         5.58679         5.58679
            2827     1.49788E+03     1.49788E+03         57.8014         57.8014         2.35234         2.35234
            2828     1.49784E+03     1.49784E+03         48.2174         48.2174    -509.483E-03    -509.483E-03
            2829     1.49724E+03     1.49724E+03         39.9563         39.9563        -3.01916        -3.01916
            2830     1.49618E+03     1.49618E+03         32.8872         32.8872        -5.20175        -5.20175
            2831     1.49472E+03     1.49472E+03         26.8808         26.8808        -7.09133        -7.09133
            2832     1.49291E+03     1.49291E+03         21.8154         21.8154        -8.72310        -8.72310
            2833     1.49082E+03     1.49082E+03         17.5744         17.5744        -10.1365        -10.1365
            2834     1.48849E+03     1.48849E+03         14.0490         14.0490        -11.3705        -11.3705
            2835     1.48596E+03     1.48596E+03         11.1367         11.1367        -12.4662        -12.4662
            2836     1.48325E+03     1.48325E+03         8.74220         8.74220        -13.4645        -13.4645
            2837     1.48038E+03     1.48038E+03         6.77603         6.77603        -14.4082        -14.4082
            2838     1.47739E+03     1.47739E+03         5.15477         5.15477        -15.3415        -15.3415
            2839     1.47426E+03     1.47426E+03         3.79951         3.79951        -16.3121        -16.3121
            2840     1.47102E+03     1.47102E+03         2.63532         2.63532        -17.3723        -17.3723
            2841     1.46766E+03     1.46766E+03         1.58945         1.58945        -18.5814        -18.5814
            2842     1.46419E+03     1.46419E+03     589.508E-03     589.508E-03        -20.0084        -20.0084
            2843     1.46059E+03     1.46059E+03    -439.470E-03    -439.470E-03        -21.7351        -21.7351
            2844     1.45689E+03     1.45689E+03        -1.57944        -1.57944        -23.8609        -23.8609
            2845     1.45307E+03     1.45307E+03        -2.92550        -2.92550        -26.5082        -26.5082
            2846     1.44919E+03     1.44919E+03        -4.59667        -4.59667        -29.8288        -29.8288
            2847     1.44530E+03     1.44530E+03        -6.75010        -6.75010        -34.0126        -34.0126
            2848     1.44155E+03     1.44155E+03        -9.60826        -9.60826        -39.2943        -39.2943
            2849     1.43821E+03     1.43821E+03        -13.4932        -13.4932        -45.9591        -45.9591
            2850     1.43580E+03     1.43580E+03        -18.8951        -18.8951        -54.3295        -54.3295
            2851     1.43524E+03     1.43524E+03        -26.5480        -26.5480        -64.7134        -64.7134
            2852     1.43828E+03     1.43828E+03        -37.5716        -37.5716        -77.1793        -77.1793
            2853     1.44790E+03     1.44790E+03        -53.3208        -53.3208        -91.0403        -91.0403
            2854     1.38489E+03     1.38489E+03         405.460         405.460         40.8432         40.8432
            2855     1.39804E+03     1.39804E+03         374.411         374.411         40.5398         40.5398
            2856     1.41096E+03     1.41096E+03         343.381         343.381         39.2836         39.2836
            2857     1.42341E+03     1.42341E+03         312.846         312.846         37.4809         37.4809
            2858     1.43518E+03     1.43518E+03         283.124         283.124         35.1877         35.1877
            2859     1.44613E+03     1.44613E+03         254.511         254.511         32.4668         32.4668
            2860     1.45612E+03     1.45612E+03         227.263         227.263         29.4155         29.4155
            2861     1.46505E+03     1.46505E+03         201.588         201.588         26.1302         26.1302
            2862     1.47288E+03     1.47288E+03         177.644         177.644         22.7190         22.7190
            2863     1.47957E+03     1.47957E+03         155.529         155.529         19.2796         19.2796
            2864     1.48514E+03     1.48514E+03         135.295         135.295         15.9006         15.9006
            2865     1.48962E+03     1.48962E+03         116.944         116.944         12.6564         12.6564
            2866     1.49309E+03     1.49309E+03         100.440         100.440         9.60126         9.60126
            2867     1.49561E+03     1.49561E+03         85.7180         85.7180         6.77660         6.77660
            2868     1.49726E+03     1.49726E+03         72.6864         72.6864         4.20309         4.20309
            2869     1.49813E+03     1.49813E+03         61.2401         61.2401         1.89243         1.89243
            2870     1.49831E+03     1.49831E+03         51.2613         51.2613    -159.635E-03    -159.635E-03
            2871     1.49788E+03     1.49788E+03         42.6288         42.6288        -1.96230        -1.96230
            2872     1.49692E+03     1.49692E+03         35.2180         35.2180        -3.53479        -3.53479
            2873     1.49549E+03     1.49549E+03         28.9074         28.9074        -4.89821        -4.89821
            2874     1.49367E+03     1.49367E+03         23.5776         23.5776        -6.07909        -6.07909
            2875     1.49151E+03     1.49151E+03         19.1156         19.1156        -7.10420        -7.10420
            2876     1.48904E+03     1.48904E+03         15.4136         15.4136        -8.00303        -8.00303
            2877     1.48632E+03     1.48632E+03         12.3710         12.3710        -8.80497        -8.80497
            2878     1.48335E+03     1.48335E+03         9.89374         9.89374        -9.54129        -9.54129
            2879     1.48017E+03     1.48017E+03         7.89528         7.89528        -10.2440        -10.2440
            2880     1.47678E+03     1.47678E+03         6.29559         6.29559        -10.9476        -10.9476
            2881     1.47318E+03     1.47318E+03         5.02152         5.02152        -11.6897        -11.6897
            2882     1.46936E+03     1.46936E+03         4.00600         4.00600        -12.5125        -12.5125
            2883     1.46530E+03     1.46530E+03         3.18764         3.18764        -13.4653        -13.4653
            2884     1.46097E+03     1.46097E+03         2.50968         2.50968        -14.6069        -14.6069
            2885     1.45630E+03     1.45630E+03         1.91849         1.91849        -16.0100        -16.0100
            2886     1.45125E+03     1.45125E+03         1.36150         1.36150        -17.7666        -17.7666
            2887     1.44573E+03     1.44573E+03     783.034E-03     783.034E-03        -19.9955        -19.9955
            2888     1.43963E+03     1.43963E+03     118.860E-03     118.860E-03        -22.8545        -22.8545
            2889     1.43284E+03     1.43284E+03    -715.725E-03    -715.725E-03        -26.5565        -26.5565
            2890     1.42524E+03     1.42524E+03        -1.84174        -1.84174        -31.3953        -31.3953
            2891     1.41668E+03     1.41668E+03        -3.45327        -3.45327        -37.7832        -37.7832
            2892     1.40708E+03     1.40708E+03        -5.87049        -5.87049        -46.3115        -46.3115
            2893     1.39653E+03     1.39653E+03        -9.66697        -9.66697        -57.8314        -57.8314
            2894     1.38553E+03     1.38553E+03        -15.9057        -15.9057        -73.5944        -73.5944
            2895     1.37590E+03     1.37590E+03        -26.6463        -26.6463        -95.2377        -95.2377
            2896     1.38391E+03     1.38391E+03         405.769         405.769         24.2914         24.2914
            2897     1.39685E+03     1.39685E+03         375.275         375.275         24.0324         24.0324
            2898     1.40959E+03     1.40959E+03         344.805         344.805         23.2157         23.2157
            2899     1.42188E+03     1.42188E+03         314.805         314.805         22.0966         22.0966
            2900     1.43355E+03     1.43355E+03         285.563         285.563         20.6974         20.6974
            2901     1.44446E+03     1.44446E+03         257.350         257.350         19.0658         19.0658
            2902     1.45448E+03     1.45448E+03         230.406         230.406         17.2478         17.2478
            2903     1.46350E+03     1.46350E+03         204.932         204.932         15.3064         15.3064
            2904     1.47147E+03     1.47147E+03         181.083         181.083         13.2975         13.2975
            2905     1.47835E+03     1.47835E+03         158.969         158.969         11.2797         11.2797
            2906     1.48414E+03     1.48414E+03         138.651         138.651         9.30295         9.30295
            2907     1.48886E+03     1.48886E+03         120.149         120.149         7.40842         7.40842
            2908     1.49256E+03     1.49256E+03         103.444         103.444         5.62976         5.62976
            2909     1.49530E+03     1.49530E+03         88.4862         88.4862         3.98756         3.98756
            2910     1.49716E+03     1.49716E+03         75.2014         75.2014         2.49706         2.49706
            2911     1.49821E+03     1.49821E+03         63.4955         63.4955         1.16142         1.16142
            2912     1.49853E+03     1.49853E+03         53.2630         53.2630    -19.0517E-03    -19.0517E-03
            2913     1.49821E+03     1.49821E+03         44.3895         44.3895        -1.05275        -1.05275
            2914     1.49732E+03     1.49732E+03         36.7575         36.7575        -1.94900        -1.94900
            2915     1.49592E+03     1.49592E+03         30.2488         30.2488        -2.72241        -2.72241
            2916     1.49409E+03     1.49409E+03         24.7478         24.7478        -3.38736        -3.38736
            2917     1.49188E+03     1.49188E+03         20.1427         20.1427        -3.96105        -3.96105
            2918     1.48933E+03     1.48933E+03         16.3276         16.3276        -4.46008        -4.46008
            2919     1.48647E+03     1.48647E+03         13.2028         13.2028        -4.90264        -4.90264
            2920     1.48335E+03     1.48335E+03         10.6761         10.6761        -5.30661        -5.30661
            2921     1.47995E+03     1.47995E+03         8.66259         8.66259        -5.69127        -5.69127
            2922     1.47630E+03     1.47630E+03         7.08561         7.08561        -6.07657        -6.07657
            2923     1.47238E+03     1.47238E+03         5.87629         5.87629        -6.48474        -6.48474
            2924     1.46817E+03     1.46817E+03         4.97408         4.97408        -6.94047        -6.94047
            2925     1.46363E+03     1.46363E+03         4.32678         4.32678        -7.47289        -7.47289
            2926     1.45869E+03     1.45869E+03         3.89060         3.89060        -8.11695        -8.11695
            2927     1.45328E+03     1.45328E+03         3.63036         3.63036        -8.91647        -8.91647
            2928     1.44726E+03     1.44726E+03         3.51927         3.51927        -9.92761        -9.92761
            2929     1.44049E+03     1.44049E+03         3.53912         3.53912        -11.2250        -11.2250
            2930     1.43275E+03     1.43275E+03         3.67880         3.67880        -12.9097        -12.9097
            2931     1.42375E+03     1.42375E+03         3.93390         3.93390        -15.1239        -15.1239
            2932     1.41310E+03     1.41310E+03         4.30056         4.30056        -18.0713        -18.0713
            2933     1.40025E+03     1.40025E+03         4.77084         4.77084        -22.0560        -22.0560
            2934     1.38443E+03     1.38443E+03         5.30813         5.30813        -27.5433        -27.5433
            2935     1.36457E+03     1.36457E+03         5.81328         5.81328        -35.2862        -35.2862
            2936     1.33905E+03     1.33905E+03         6.01911         6.01911        -46.5590        -46.5590
            2937     1.30554E+03     1.30554E+03         5.17850         5.17850        -63.7620        -63.7620
            2938     1.38344E+03     1.38344E+03         405.920         405.920         7.96134         7.96134
            2939     1.39628E+03     1.39628E+03         375.687         375.687         7.75044         7.75044
            2940     1.40893E+03     1.40893E+03         345.483         345.483         7.36993         7.36993
            2941     1.42115E+03     1.42115E+03         315.733         315.733         6.89983         6.89983
            2942     1.43278E+03     1.43278E+03         286.714         286.714         6.35959         6.35959
            2943     1.44367E+03     1.44367E+03         258.685         258.685         5.75942         5.75942
            2944     1.45369E+03     1.45369E+03         231.880         231.880         5.12354         5.12354
            2945     1.46276E+03     1.46276E+03         206.495         206.495         4.46725         4.46725
            2946     1.47079E+03     1.47079E+03         182.687         182.687         3.81269         3.81269
            2947     1.47776E+03     1.47776E+03         160.568         160.568         3.17518         3.17518
            2948     1.48365E+03     1.48365E+03         140.207         140.207         2.56964         2.56964
            2949     1.48848E+03     1.48848E+03         121.630         121.630         2.00751         2.00751
            2950     1.49229E+03     1.49229E+03         104.828         104.828         1.49527         1.49527
            2951     1.49513E+03     1.49513E+03         89.7574         89.7574         1.03885         1.03885
            2952     1.49708E+03     1.49708E+03         76.3518         76.3518     637.942E-03     637.942E-03
            2953     1.49821E+03     1.49821E+03         64.5238         64.5238     293.471E-03     293.471E-03
            2954     1.49860E+03     1.49860E+03         54.1720         54.1720     1.04669E-03     1.04669E-03
            2955     1.49833E+03     1.49833E+03         45.1862         45.1862    -241.820E-03    -241.820E-03
            2956     1.49746E+03     1.49746E+03         37.4514         37.4514    -441.235E-03    -441.235E-03
            2957     1.49608E+03     1.49608E+03         30.8514         30.8514    -601.397E-03    -601.397E-03
            2958     1.49425E+03     1.49425E+03         25.2718         25.2718    -728.578E-03    -728.578E-03
            2959     1.49201E+03     1.49201E+03         20.6015         20.6015    -827.431E-03    -827.431E-03
            2960     1.48942E+03     1.48942E+03         16.7352         16.7352    -903.620E-03    -903.620E-03
            2961     1.48652E+03     1.48652E+03         13.5734         13.5734    -961.559E-03    -961.559E-03
            2962     1.48331E+03     1.48331E+03         11.0245         11.0245        -1.00607        -1.00607
            2963     1.47983E+03     1.47983E+03         9.00436         9.00436        -1.04110        -1.04110
            2964     1.47607E+03     1.47607E+03         7.43743         7.43743        -1.07072        -1.07072
            2965     1.47201E+03     1.47201E+03         6.25659         6.25659        -1.09845        -1.09845
            2966     1.46764E+03     1.46764E+03         5.40406         5.40406        -1.12790        -1.12790
            2967     1.46289E+03     1.46289E+03         4.83137         4.83137        -1.16241        -1.16241
            2968     1.45770E+03     1.45770E+03         4.50052         4.50052        -1.20554        -1.20554
            2969     1.45196E+03     1.45196E+03         4.38409         4.38409        -1.26083        -1.26083
            2970     1.44554E+03     1.44554E+03         4.46723         4.46723        -1.33235        -1.33235
            2971     1.43824E+03     1.43824E+03         4.74791         4.74791        -1.42444        -1.42444
            2972     1.42980E+03     1.42980E+03         5.24094         5.24094        -1.54265        -1.54265
            2973     1.41985E+03     1.41985E+03         5.97796         5.97796        -1.69302        -1.69302
            2974     1.40789E+03     1.40789E+03         7.01628         7.01628        -1.88436        -1.88436
            2975     1.39316E+03     1.39316E+03         8.43723         8.43723        -2.12562        -2.12562
            2976     1.37457E+03     1.37457E+03         10.3668         10.3668        -2.43121        -2.43121
            2977     1.35045E+03     1.35045E+03         12.9699         12.9699        -2.81133        -2.81133
            2978     1.31806E+03     1.31806E+03         16.5032         16.5032        -3.27479        -3.27479
            2979     1.27251E+03     1.27251E+03         21.3343         21.3343        -3.72497        -3.72497
            2980     1.38344E+03     1.38344E+03         405.920         405.920        -8.27257        -8.27257
            2981     1.39629E+03     1.39629E+03         375.675         375.675        -8.39669        -8.39669
            2982     1.40894E+03     1.40894E+03         345.457         345.457        -8.32398        -8.32398
            2983     1.42117E+03     1.42117E+03         315.691         315.691        -8.12343        -8.12343
            2984     1.43281E+03     1.43281E+03         286.652         286.652        -7.80426        -7.80426
            2985     1.44371E+03     1.44371E+03         258.602         258.602        -7.36815        -7.36815
            2986     1.45374E+03     1.45374E+03         231.774         231.774        -6.83387        -6.83387
            2987     1.46281E+03     1.46281E+03         206.368         206.368        -6.21426        -6.21426
            2988     1.47084E+03     1.47084E+03         182.541         182.541        -5.53264        -5.53264
            2989     1.47781E+03     1.47781E+03         160.406         160.406        -4.80824        -4.80824
            2990     1.48369E+03     1.48369E+03         140.034         140.034        -4.06245        -4.06245
            2991     1.48851E+03     1.48851E+03         121.450         121.450        -3.31475        -3.31475
            2992     1.49231E+03     1.49231E+03         104.644         104.644        -2.58049        -2.58049
            2993     1.49515E+03     1.49515E+03         89.5756         89.5756        -1.87469        -1.87469
            2994     1.49708E+03     1.49708E+03         76.1749         76.1749        -1.20556        -1.20556
            2995     1.49820E+03     1.49820E+03         64.3545         64.3545    -581.804E-03    -581.804E-03
            2996     1.49858E+03     1.49858E+03         54.0124         54.0124    -5.43737E-03    -5.43737E-03
            2997     1.49829E+03     1.49829E+03         45.0377         45.0377     520.804E-03     520.804E-03
            2998     1.49742E+03     1.49742E+03         37.3145         37.3145     999.368E-03     999.368E-03
            2999     1.49604E+03     1.49604E+03         30.7260         30.7260         1.43209         1.43209
            3000     1.49420E+03     1.49420E+03         25.1571         25.1571         1.82437         1.82437
            3001     1.49197E+03     1.49197E+03         20.4963         20.4963         2.18124         2.18124
            3002     1.48939E+03     1.48939E+03         16.6373         16.6373         2.51014         2.51014
            3003     1.48649E+03     1.48649E+03         13.4805         13.4805         2.81856         2.81856
            3004     1.48331E+03     1.48331E+03         10.9333         10.9333         3.11590         3.11590
            3005     1.47985E+03     1.47985E+03         8.91106         8.91106         3.41227         3.41227
            3006     1.47612E+03     1.47612E+03         7.33698         7.33698         3.71991         3.71991
            3007     1.47211E+03     1.47211E+03         6.14287         6.14287         4.05293         4.05293
            3008     1.46780E+03     1.46780E+03         5.26915         5.26915         4.42870         4.42870
            3009     1.46312E+03     1.46312E+03         4.66522         4.66522         4.86853         4.86853
            3010     1.45803E+03     1.45803E+03         4.28968         4.28968         5.39972         5.39972
            3011     1.45243E+03     1.45243E+03         4.11085         4.11085         6.05748         6.05748
            3012     1.44619E+03     1.44619E+03         4.10704         4.10704         6.88904         6.88904
            3013     1.43913E+03     1.43913E+03         4.26717         4.26717         7.95807         7.95807
            3014     1.43102E+03     1.43102E+03         4.59084         4.59084         9.35428         9.35428
            3015     1.42153E+03     1.42153E+03         5.08862         5.08862         11.2043         11.2043
            3016     1.41023E+03     1.41023E+03         5.78015         5.78015         13.6971         13.6971
            3017     1.39649E+03     1.39649E+03         6.69089         6.69089         17.1151         17.1151
            3018     1.37943E+03     1.37943E+03         7.83884         7.83884         21.9105         21.9105
            3019     1.35776E+03     1.35776E+03         9.20544         9.20544         28.8203         28.8203
            3020     1.32957E+03     1.32957E+03         10.6476         10.6476         39.1593         39.1593
            3021     1.29209E+03     1.29209E+03         11.5681         11.5681         55.4431         55.4431
            3022     1.38391E+03     1.38391E+03         405.774         405.774        -24.5570        -24.5570
            3023     1.39687E+03     1.39687E+03         375.251         375.251        -24.5790        -24.5790
            3024     1.40963E+03     1.40963E+03         344.746         344.746        -24.0224        -24.0224
            3025     1.42194E+03     1.42194E+03         314.701         314.701        -23.1302        -23.1302
            3026     1.43364E+03     1.43364E+03         285.406         285.406        -21.9155        -21.9155
            3027     1.44457E+03     1.44457E+03         257.136         257.136        -20.4192        -20.4192
            3028     1.45460E+03     1.45460E+03         230.133         230.133        -18.6826        -18.6826
            3029     1.46364E+03     1.46364E+03         204.603         204.603        -16.7671        -16.7671
            3030     1.47161E+03     1.47161E+03         180.705         180.705        -14.7300        -14.7300
            3031     1.47848E+03     1.47848E+03         158.550         158.550        -12.6338        -12.6338
            3032     1.48426E+03     1.48426E+03         138.202         138.202        -10.5345        -10.5345
            3033     1.48896E+03     1.48896E+03         119.682         119.682        -8.48035        -8.48035
            3034     1.49263E+03     1.49263E+03         102.970         102.970        -6.51289        -6.51289
            3035     1.49534E+03     1.49534E+03         88.0162         88.0162        -4.66034        -4.66034
            3036     1.49716E+03     1.49716E+03         74.7440         74.7440        -2.94525        -2.94525
            3037     1.49818E+03     1.49818E+03         63.0582         63.0582        -1.37706        -1.37706
            3038     1.49847E+03     1.49847E+03         52.8510         52.8510     38.5331E-03     38.5331E-03
            3039     1.49812E+03     1.49812E+03         44.0060         44.0060         1.30586         1.30586
            3040     1.49721E+03     1.49721E+03         36.4041         36.4041         2.43122         2.43122
            3041     1.49580E+03     1.49580E+03         29.9251         29.9251         3.42747         3.42747
            3042     1.49397E+03     1.49397E+03         24.4520         24.4520         4.30824         4.30824
            3043     1.49176E+03     1.49176E+03         19.8712         19.8712         5.09112         5.09112
            3044     1.48923E+03     1.48923E+03         16.0756         16.0756         5.79407         5.79407
            3045     1.48641E+03     1.48641E+03         12.9639         12.9639         6.43767         6.43767
            3046     1.48333E+03     1.48333E+03         10.4422         10.4422         7.04328         7.04328
            3047     1.48000E+03     1.48000E+03         8.42379         8.42379         7.63483         7.63483
            3048     1.47644E+03     1.47644E+03         6.82946         6.82946         8.23834         8.23834
            3049     1.47264E+03     1.47264E+03         5.58728         5.58728         8.88377         8.88377
            3050     1.46858E+03     1.46858E+03         4.63265         4.63265         9.60575         9.60575
            3051     1.46423E+03     1.46423E+03         3.90770         3.90770         10.4462         10.4462
            3052     1.45955E+03     1.45955E+03         3.36101         3.36101         11.4564         11.4564
            3053     1.45446E+03     1.45446E+03         2.94651         2.94651         12.7017         12.7017
            3054     1.44889E+03     1.44889E+03         2.62209         2.62209         14.2666         14.2666
            3055     1.44271E+03     1.44271E+03         2.34704         2.34704         16.2635         16.2635
            3056     1.43578E+03     1.43578E+03         2.07724         2.07724         18.8441         18.8441
            3057     1.42792E+03     1.42792E+03         1.75769         1.75769         22.2203         22.2203
            3058     1.41888E+03     1.41888E+03         1.30641         1.30641         26.6900         26.6900
            3059     1.40839E+03     1.40839E+03     588.988E-03     588.988E-03         32.6899         32.6899
            3060     1.39614E+03     1.39614E+03    -640.664E-03    -640.664E-03         40.8623         40.8623
            3061     1.38187E+03     1.38187E+03        -2.84638        -2.84638         52.1939         52.1939
            3062     1.36557E+03     1.36557E+03        -6.97980        -6.97980         68.2002         68.2002
            3063     1.34822E+03     1.34822E+03        -14.9992        -14.9992         91.0849         91.0849
            3064     1.38489E+03     1.38489E+03         405.471         405.471        -41.0480        -41.0480
            3065     1.39806E+03     1.39806E+03         374.389         374.389        -40.9560        -40.9560
            3066     1.41102E+03     1.41102E+03         343.312         343.312        -39.8950        -39.8950
            3067     1.42349E+03     1.42349E+03         312.717         312.717        -38.2616        -38.2616
            3068     1.43530E+03     1.43530E+03         282.926         282.926        -36.1042        -36.1042
            3069     1.44628E+03     1.44628E+03         254.238         254.238        -33.4799        -33.4799
            3070     1.45629E+03     1.45629E+03         226.914         226.914        -30.4830        -30.4830
            3071     1.46523E+03     1.46523E+03         201.167         201.167        -27.2091        -27.2091
            3072     1.47306E+03     1.47306E+03         177.159         177.159        -23.7682        -23.7682
            3073     1.47974E+03     1.47974E+03         154.993         154.993        -20.2621        -20.2621
            3074     1.48529E+03     1.48529E+03         134.722         134.722        -16.7845        -16.7845
            3075     1.48975E+03     1.48975E+03         116.349         116.349        -13.4158        -13.4158
            3076     1.49317E+03     1.49317E+03         99.8382         99.8382        -10.2166        -10.2166
            3077     1.49565E+03     1.49565E+03         85.1223         85.1223        -7.23422        -7.23422
            3078     1.49725E+03     1.49725E+03         72.1083         72.1083        -4.49469        -4.49469
            3079     1.49808E+03     1.49808E+03         60.6886         60.6886        -2.01434        -2.01434
            3080     1.49822E+03     1.49822E+03         50.7428         50.7428     207.507E-03     207.507E-03
            3081     1.49776E+03     1.49776E+03         42.1473         42.1473         2.17715         2.17715
            3082     1.49677E+03     1.49677E+03         34.7752         34.7752         3.91196         3.91196
            3083     1.49533E+03     1.49533E+03         28.5028         28.5028         5.43184         5.43184
            3084     1.49351E+03     1.49351E+03         23.2087         23.2087         6.76296         6.76296
            3085     1.49135E+03     1.49135E+03         18.7782         18.7782         7.93233         7.93233
            3086     1.48891E+03     1.48891E+03         15.1015         15.1015         8.97035         8.97035
            3087     1.48622E+03     1.48622E+03         12.0764         12.0764         9.90787         9.90787
            3088     1.48332E+03     1.48332E+03         9.60702         9.60702         10.7782         10.7782
            3089     1.48022E+03     1.48022E+03         7.60442         7.60442         11.6161         11.6161
            3090     1.47694E+03     1.47694E+03         5.98584         5.98584         12.4594         12.4594
            3091     1.47348E+03     1.47348E+03         4.67470         4.67470         13.3497         13.3497
            3092     1.46984E+03     1.46984E+03         3.59929         3.59929         14.3345         14.3345
            3093     1.46601E+03     1.46601E+03         2.69210         2.69210         15.4689         15.4689
            3094     1.46198E+03     1.46198E+03         1.88800         1.88800         16.8195         16.8195
            3095     1.45771E+03     1.45771E+03         1.12193         1.12193         18.4675         18.4675
            3096     1.45317E+03     1.45317E+03     325.388E-03     325.388E-03         20.5153         20.5153
            3097     1.44833E+03     1.44833E+03    -579.729E-03    -579.729E-03         23.0935         23.0935
            3098     1.44315E+03     1.44315E+03        -1.68954        -1.68954         26.3720         26.3720
            3099     1.43762E+03     1.43762E+03        -3.13497        -3.13497         30.5733         30.5733
            3100     1.43177E+03     1.43177E+03        -5.10403        -5.10403         35.9942         35.9942
            3101     1.42570E+03     1.42570E+03        -7.89023        -7.89023         43.0258         43.0258
            3102     1.41970E+03     1.41970E+03        -11.9561        -11.9561         52.1849         52.1849
            3103     1.41448E+03     1.41448E+03        -18.0785        -18.0785         64.1083         64.1083
            3104     1.41150E+03     1.41150E+03        -27.5327        -27.5327         79.4641         79.4641
            3105     1.41370E+03     1.41370E+03        -42.2658        -42.2658         98.5514         98.5514
            3106     1.38644E+03     1.38644E+03         405.011         405.011        -57.8853        -57.8853
            3107     1.39995E+03     1.39995E+03         373.056         373.056        -57.6694        -57.6694
            3108     1.41319E+03     1.41319E+03         341.093         341.093        -56.0470        -56.0470
            3109     1.42590E+03     1.42590E+03         309.654         309.654        -53.6043        -53.6043
            3110     1.43786E+03     1.43786E+03         279.110         279.110        -50.3989        -50.3989
            3111     1.44888E+03     1.44888E+03         249.799         249.799        -46.5461        -46.5461
            3112     1.45883E+03     1.45883E+03         222.009         222.009        -42.1743        -42.1743
            3113     1.46761E+03     1.46761E+03         195.967         195.967        -37.4464        -37.4464
            3114     1.47519E+03     1.47519E+03         171.829         171.829        -32.5184        -32.5184
            3115     1.48155E+03     1.48155E+03         149.687         149.687        -27.5432        -27.5432
            3116     1.48674E+03     1.48674E+03         129.567         129.567        -22.6547        -22.6547
            3117     1.49081E+03     1.49081E+03         111.449         111.449        -17.9595        -17.9595
            3118     1.49386E+03     1.49386E+03         95.2676         95.2676        -13.5429        -13.5429
            3119     1.49597E+03     1.49597E+03         80.9275         80.9275        -9.45755        -9.45755
            3120     1.49726E+03     1.49726E+03         68.3145         68.3145        -5.73920        -5.73920
            3121     1.49781E+03     1.49781E+03         57.2987         57.2987        -2.39671        -2.39671
            3122     1.49774E+03     1.49774E+03         47.7469         47.7469     571.398E-03     571.398E-03
            3123     1.49711E+03     1.49711E+03         39.5213         39.5213         3.18419         3.18419
            3124     1.49603E+03     1.49603E+03         32.4889         32.4889         5.46560         5.46560
            3125     1.49455E+03     1.49455E+03         26.5185         26.5185         7.44925         7.44925
            3126     1.49274E+03     1.49274E+03         21.4868         21.4868         9.17015         9.17015
            3127     1.49066E+03     1.49066E+03         17.2754         17.2754         10.6679         10.6679
            3128     1.48835E+03     1.48835E+03         13.7744         13.7744         11.9820         11.9820
            3129     1.48585E+03     1.48585E+03         10.8795         10.8795         13.1543         13.1543
            3130     1.48319E+03     1.48319E+03         8.49416         8.49416         14.2265         14.2265
            3131     1.48040E+03     1.48040E+03         6.52698         6.52698         15.2425         15.2425
            3132     1.47749E+03     1.47749E+03         4.89245         4.89245         16.2478         16.2478
            3133     1.47449E+03     1.47449E+03         3.50897         3.50897         17.2914         17.2914
            3134     1.47141E+03     1.47141E+03         2.29818         2.29818         18.4271         18.4271
            3135     1.46824E+03     1.46824E+03         1.18282         1.18282         19.7155         19.7155
            3136     1.46502E+03     1.46502E+03     84.5594E-03     84.5594E-03         21.2264         21.2264
            3137     1.46175E+03     1.46175E+03        -1.07941        -1.07941         23.0422         23.0422
            3138     1.45846E+03     1.45846E+03        -2.40150        -2.40150         25.2608         25.2608
            3139     1.45518E+03     1.45518E+03        -3.99048        -3.99048         28.0003         28.0003
            3140     1.45201E+03     1.45201E+03        -5.98359        -5.98359         31.4024         31.4024
            3141     1.44906E+03     1.44906E+03        -8.56072        -8.56072         35.6364         35.6364
            3142     1.44658E+03     1.44658E+03        -11.9731        -11.9731         40.8958         40.8958
            3143     1.44494E+03     1.44494E+03        -16.5714        -16.5714         47.3876         47.3876
            3144     1.44483E+03     1.44483E+03        -22.8666        -22.8666         55.2865         55.2865
            3145     1.44734E+03     1.44734E+03        -31.5530        -31.5530         64.6224         64.6224
            3146     1.45427E+03     1.45427E+03        -43.5249        -43.5249         74.9915         74.9915
            3147     1.46829E+03     1.46829E+03        -59.5630        -59.5630         85.1136         85.1136
            3148     1.38869E+03     1.38869E+03         404.384         404.384        -75.2331        -75.2331
            3149     1.40264E+03     1.40264E+03         371.199         371.199        -74.8578        -74.8578
            3150     1.41630E+03     1.41630E+03         337.985         337.985        -72.6043        -72.6043
            3151     1.42930E+03     1.42930E+03         305.370         305.370        -69.2210        -69.2210
            3152     1.44143E+03     1.44143E+03         273.791         273.791        -64.8279        -64.8279
            3153     1.45247E+03     1.45247E+03         243.644         243.644        -59.5717        -59.5717
            3154     1.46229E+03     1.46229E+03         215.257         215.257        -53.6701        -53.6701
            3155     1.47079E+03     1.47079E+03         188.863         188.863        -47.3414        -47.3414
            3156     1.47796E+03     1.47796E+03         164.613         164.613        -40.8155        -40.8155
            3157     1.48384E+03     1.48384E+03         142.564         142.564        -34.2973        -34.2973
            3158     1.48849E+03     1.48849E+03         122.713         122.713        -27.9587        -27.9587
            3159     1.49202E+03     1.49202E+03         104.991         104.991        -21.9390        -21.9390
            3160     1.49454E+03     1.49454E+03         89.2942         89.2942        -16.3301        -16.3301
            3161     1.49617E+03     1.49617E+03         75.4919         75.4919        -11.1974        -11.1974
            3162     1.49703E+03     1.49703E+03         63.4351         63.4351        -6.56539        -6.56539
            3163     1.49723E+03     1.49723E+03         52.9729         52.9729        -2.44238        -2.44238
            3164     1.49687E+03     1.49687E+03         43.9495         43.9495         1.19027         1.19027
            3165     1.49605E+03     1.49605E+03         36.2174         36.2174         4.35879         4.35879
            3166     1.49485E+03     1.49485E+03         29.6314         29.6314         7.10399         7.10399
            3167     1.49333E+03     1.49333E+03         24.0576         24.0576         9.46859         9.46859
            3168     1.49156E+03     1.49156E+03         19.3675         19.3675         11.5018         11.5018
            3169     1.48959E+03     1.48959E+03         15.4433         15.4433         13.2518         13.2518
            3170     1.48745E+03     1.48745E+03         12.1733         12.1733         14.7691         14.7691
            3171     1.48520E+03     1.48520E+03         9.45447         9.45447         16.1025         16.1025
            3172     1.48285E+03     1.48285E+03         7.18908         7.18908         17.3015         17.3015
            3173     1.48043E+03     1.48043E+03         5.28579         5.28579         18.4150         18.4150
            3174     1.47798E+03     1.47798E+03         3.65675         3.65675         19.4930         19.4930
            3175     1.47551E+03     1.47551E+03         2.21760         2.21760         20.5865         20.5865
            3176     1.47306E+03     1.47306E+03     884.813E-03     884.813E-03         21.7497         21.7497
            3177     1.47065E+03     1.47065E+03    -425.637E-03    -425.637E-03         23.0406         23.0406
            3178     1.46831E+03     1.46831E+03        -1.80132        -1.80132         24.5223         24.5223
            3179     1.46611E+03     1.46611E+03        -3.33669        -3.33669         26.2643         26.2643
            3180     1.46411E+03     1.46411E+03        -5.13763        -5.13763         28.3431         28.3431
            3181     1.46241E+03     1.46241E+03        -7.32848        -7.32848         30.8409         30.8409
            3182     1.46117E+03     1.46117E+03        -10.0592        -10.0592         33.8423         33.8423
            3183     1.46061E+03     1.46061E+03        -13.5188        -13.5188         37.4246         37.4246
            3184     1.46106E+03     1.46106E+03        -17.9432        -17.9432         41.6378         41.6378
            3185     1.46301E+03     1.46301E+03        -23.6333        -23.6333         46.4636         46.4636
            3186     1.46716E+03     1.46716E+03        -30.9356        -30.9356         51.7343         51.7343
            3187     1.47453E+03     1.47453E+03        -40.2083        -40.2083         56.9918         56.9918
            3188     1.48634E+03     1.48634E+03        -51.5735        -51.5735         61.2563         61.2563
            3189     1.50390E+03     1.50390E+03        -64.5498        -64.5498         62.7512         62.7512
            3190     1.52917E+03     1.52917E+03        -53.6841        -53.6841        -24.5099        -24.5099
            3191     1.51592E+03     1.51592E+03        -49.0184        -49.0184        -31.1430        -31.1430
            3192     1.50431E+03     1.50431E+03        -42.7281        -42.7281        -34.8529        -34.8529
            3193     1.49484E+03     1.49484E+03        -36.0484        -36.0484        -36.3191        -36.3191
            3194     1.48753E+03     1.48753E+03        -29.7290        -29.7290        -36.3226        -36.3226
            3195     1.48213E+03     1.48213E+03        -24.1069        -24.1069        -35.4741        -35.4741
            3196     1.47835E+03     1.47835E+03        -19.2815        -19.2815        -34.2071        -34.2071
            3197     1.47584E+03     1.47584E+03        -15.2208        -15.2208        -32.7886        -32.7886
            3198     1.47435E+03     1.47435E+03        -11.8414        -11.8414        -31.3729        -31.3729
            3199     1.47365E+03     1.47365E+03        -9.03783        -9.03783        -30.0375        -30.0375
            3200     1.47354E+03     1.47354E+03        -6.70297        -6.70297        -28.8120        -28.8120
            3201     1.47391E+03     1.47391E+03        -4.73241        -4.73241        -27.6967        -27.6967
            3202     1.47464E+03     1.47464E+03        -3.02785        -3.02785        -26.6739        -26.6739
            3203     1.47564E+03     1.47564E+03        -1.49654        -1.49654        -25.7155        -25.7155
            3204     1.47686E+03     1.47686E+03    -50.0872E-03    -50.0872E-03        -24.7868        -24.7868
            3205     1.47823E+03     1.47823E+03         1.39639         1.39639        -23.8491        -23.8491
            3206     1.47974E+03     1.47974E+03         2.92678         2.92678        -22.8602        -22.8602
            3207     1.48133E+03     1.48133E+03         4.62409         4.62409        -21.7750        -21.7750
            3208     1.48298E+03     1.48298E+03         6.57396         6.57396        -20.5454        -20.5454
            3209     1.48466E+03     1.48466E+03         8.86352         8.86352        -19.1198        -19.1198
            3210     1.48636E+03     1.48636E+03         11.5865         11.5865        -17.4428        -17.4428
            3211     1.48804E+03     1.48804E+03         14.8403         14.8403        -15.4552        -15.4552
            3212     1.48966E+03     1.48966E+03         18.7335         18.7335        -13.0934        -13.0934
            3213     1.49120E+03     1.49120E+03         23.3800         23.3800        -10.2915        -10.2915
            3214     1.49260E+03     1.49260E+03         28.9110         28.9110        -6.97902        -6.97902
            3215     1.49381E+03     1.49381E+03         35.4636         35.4636        -3.08784        -3.08784
            3216     1.49477E+03     1.49477E+03         43.1994         43.1994         1.45265         1.45265
            3217     1.49538E+03     1.49538E+03         52.2847         52.2847         6.70047         6.70047
            3218     1.49553E+03     1.49553E+03         62.9168         62.9168         12.7113         12.7113
            3219     1.49511E+03     1.49511E+03         75.2928         75.2928         19.5078         19.5078
            3220     1.49396E+03     1.49396E+03         89.6397         89.6397         27.1013         27.1013
            3221     1.49190E+03     1.49190E+03         106.173         106.173         35.4381         35.4381
            3222     1.48876E+03     1.48876E+03         125.115         125.115         44.4379         44.4379
            3223     1.48431E+03     1.48431E+03         146.652         146.652         53.9210         53.9210
            3224     1.47842E+03     1.47842E+03         170.913         170.913         63.6616         63.6616
            3225     1.47090E+03     1.47090E+03         197.954         197.954         73.3345         73.3345
            3226     1.46171E+03     1.46171E+03         227.675         227.675         82.5580         82.5580
            3227     1.45082E+03     1.45082E+03         259.862         259.862         90.9330         90.9330
            3228     1.43841E+03     1.43841E+03         294.089         294.089         98.0285         98.0285
            3229     1.42471E+03     1.42471E+03         329.808         329.808         103.550         103.550
            3230     1.41005E+03     1.41005E+03         366.343         366.343         107.224         107.224
            3231     1.39494E+03     1.39494E+03         402.791         402.791         107.969         107.969
            3232     1.52962E+03     1.52962E+03        -45.2598        -45.2598        -12.3745        -12.3745
            3233     1.51927E+03     1.51927E+03        -43.3568        -43.3568        -19.8631        -19.8631
            3234     1.50959E+03     1.50959E+03        -39.4449        -39.4449        -25.0569        -25.0569
            3235     1.50106E+03     1.50106E+03        -34.5306        -34.5306        -28.3138        -28.3138
            3236     1.49395E+03     1.49395E+03        -29.3842        -29.3842        -30.0756        -30.0756
            3237     1.48828E+03     1.48828E+03        -24.4705        -24.4705        -30.8012        -30.8012
            3238     1.48394E+03     1.48394E+03        -20.0259        -20.0259        -30.8584        -30.8584
            3239     1.48074E+03     1.48074E+03        -16.1384        -16.1384        -30.5209        -30.5209
            3240     1.47849E+03     1.47849E+03        -12.8074        -12.8074        -29.9697        -29.9697
            3241     1.47703E+03     1.47703E+03        -9.98710        -9.98710        -29.3187        -29.3187
            3242     1.47620E+03     1.47620E+03        -7.60756        -7.60756        -28.6318        -28.6318
            3243     1.47588E+03     1.47588E+03        -5.58948        -5.58948        -27.9392        -27.9392
            3244     1.47595E+03     1.47595E+03        -3.85016        -3.85016        -27.2481        -27.2481
            3245     1.47636E+03     1.47636E+03        -2.30694        -2.30694        -26.5503        -26.5503
            3246     1.47701E+03     1.47701E+03    -878.643E-03    -878.643E-03        -25.8265        -25.8265
            3247     1.47788E+03     1.47788E+03     514.929E-03     514.929E-03        -25.0500        -25.0500
            3248     1.47891E+03     1.47891E+03         1.95262         1.95262        -24.1873        -24.1873
            3249     1.48008E+03     1.48008E+03         3.51425         3.51425        -23.1996        -23.1996
            3250     1.48135E+03     1.48135E+03         5.27989         5.27989        -22.0428        -22.0428
            3251     1.48272E+03     1.48272E+03         7.33389         7.33389        -20.6672        -20.6672
            3252     1.48415E+03     1.48415E+03         9.76287         9.76287        -19.0174        -19.0174
            3253     1.48562E+03     1.48562E+03         12.6623         12.6623        -17.0321        -17.0321
            3254     1.48712E+03     1.48712E+03         16.1320         16.1320        -14.6445        -14.6445
            3255     1.48862E+03     1.48862E+03         20.2869         20.2869        -11.7807        -11.7807
            3256     1.49008E+03     1.49008E+03         25.2480         25.2480        -8.36391        -8.36391
            3257     1.49145E+03     1.49145E+03         31.1604         31.1604        -4.31049        -4.31049
            3258     1.49268E+03     1.49268E+03         38.1761         38.1761     460.041E-03     460.041E-03
            3259     1.49369E+03     1.49369E+03         46.4824         46.4824         6.03272         6.03272
            3260     1.49439E+03     1.49439E+03         56.2721         56.2721         12.4741         12.4741
            3261     1.49464E+03     1.49464E+03         67.7856         67.7856         19.8501         19.8501
            3262     1.49428E+03     1.49428E+03         81.2614         81.2614         28.1770         28.1770
            3263     1.49314E+03     1.49314E+03         96.9868         96.9868         37.4595         37.4595
            3264     1.49097E+03     1.49097E+03         115.231         115.231         47.6012         47.6012
            3265     1.48754E+03     1.48754E+03         136.273         136.273         58.4732         58.4732
            3266     1.48256E+03     1.48256E+03         160.339         160.339         69.7946         69.7946
            3267     1.47587E+03     1.47587E+03         187.554         187.554         81.2211         81.2211
            3268     1.46722E+03     1.46722E+03         217.932         217.932         92.2805         92.2805
            3269     1.45664E+03     1.45664E+03         251.233         251.233         102.423         102.423
            3270     1.44418E+03     1.44418E+03         287.052         287.052         111.144         111.144
            3271     1.43012E+03     1.43012E+03         324.701         324.701         117.912         117.912
            3272     1.41491E+03     1.41491E+03         363.340         363.340         122.468         122.468
            3273     1.39904E+03     1.39904E+03         401.896         401.896         123.431         123.431
            3274     1.52683E+03     1.52683E+03        -36.7842        -36.7842        -3.44766        -3.44766
            3275     1.51917E+03     1.51917E+03        -36.9338        -36.9338        -10.9409        -10.9409
            3276     1.51145E+03     1.51145E+03        -34.8808        -34.8808        -16.7570        -16.7570
            3277     1.50422E+03     1.50422E+03        -31.5478        -31.5478        -21.0305        -21.0305
            3278     1.49780E+03     1.49780E+03        -27.6068        -27.6068        -23.9871        -23.9871
            3279     1.49235E+03     1.49235E+03        -23.5483        -23.5483        -25.9049        -25.9049
            3280     1.48789E+03     1.48789E+03        -19.6742        -19.6742        -27.0590        -27.0590
            3281     1.48435E+03     1.48435E+03        -16.1477        -16.1477        -27.6765        -27.6765
            3282     1.48165E+03     1.48165E+03        -13.0354        -13.0354        -27.9324        -27.9324
            3283     1.47965E+03     1.47965E+03        -10.3425        -10.3425        -27.9489        -27.9489
            3284     1.47825E+03     1.47825E+03        -8.03754        -8.03754        -27.8078        -27.8078
            3285     1.47735E+03     1.47735E+03        -6.06812        -6.06812        -27.5584        -27.5584
            3286     1.47685E+03     1.47685E+03        -4.37067        -4.37067        -27.2264        -27.2264
            3287     1.47669E+03     1.47669E+03        -2.87627        -2.87627        -26.8201        -26.8201
            3288     1.47681E+03     1.47681E+03        -1.51358        -1.51358        -26.3344        -26.3344
            3289     1.47716E+03     1.47716E+03    -210.821E-03    -210.821E-03        -25.7538        -25.7538
            3290     1.47771E+03     1.47771E+03         1.10470         1.10470        -25.0546        -25.0546
            3291     1.47842E+03     1.47842E+03         2.50554         2.50554        -24.2048        -24.2048
            3292     1.47928E+03     1.47928E+03         4.06684         4.06684        -23.1656        -23.1656
            3293     1.48027E+03     1.48027E+03         5.86478         5.86478        -21.8907        -21.8907
            3294     1.48139E+03     1.48139E+03         7.98172         7.98172        -20.3262        -20.3262
            3295     1.48261E+03     1.48261E+03         10.5030         10.5030        -18.4106        -18.4106
            3296     1.48392E+03     1.48392E+03         13.5259         13.5259        -16.0739        -16.0739
            3297     1.48532E+03     1.48532E+03         17.1527         17.1527        -13.2387        -13.2387
            3298     1.48678E+03     1.48678E+03         21.5062         21.5062        -9.81855        -9.81855
            3299     1.48826E+03     1.48826E+03         26.7165         26.7165        -5.72171        -5.72171
            3300     1.48974E+03     1.48974E+03         32.9471         32.9471    -847.275E-03    -847.275E-03
            3301     1.49115E+03     1.49115E+03         40.3695         40.3695         4.90200         4.90200
            3302     1.49240E+03     1.49240E+03         49.2081         49.2081         11.6316         11.6316
            3303     1.49338E+03     1.49338E+03         59.6917         59.6917         19.4206         19.4206
            3304     1.49394E+03     1.49394E+03         72.1246         72.1246         28.3522         28.3522
            3305     1.49385E+03     1.49385E+03         86.8053         86.8053         38.4338         38.4338
            3306     1.49290E+03     1.49290E+03         104.112         104.112         49.6647         49.6647
            3307     1.49073E+03     1.49073E+03         124.395         124.395         61.8829         61.8829
            3308     1.48706E+03     1.48706E+03         148.012         148.012         74.8869         74.8869
            3309     1.48146E+03     1.48146E+03         175.243         175.243         88.2389         88.2389
            3310     1.47376E+03     1.47376E+03         206.172         206.172         101.408         101.408
            3311     1.46367E+03     1.46367E+03         240.715         240.715         113.717         113.717
            3312     1.45134E+03     1.45134E+03         278.363         278.363         124.380         124.380
            3313     1.43698E+03     1.43698E+03         318.374         318.374         132.812         132.812
            3314     1.42106E+03     1.42106E+03         359.662         359.662         138.406         138.406
            3315     1.40441E+03     1.40441E+03         400.802         400.802         139.743         139.743
            3316     1.52223E+03     1.52223E+03        -29.0032        -29.0032         2.70938         2.70938
            3317     1.51687E+03     1.51687E+03        -30.4376        -30.4376        -4.18428        -4.18428
            3318     1.51099E+03     1.51099E+03        -29.7583        -29.7583        -10.0467        -10.0467
            3319     1.50512E+03     1.50512E+03        -27.6936        -27.6936        -14.7758        -14.7758
            3320     1.49960E+03     1.49960E+03        -24.8401        -24.8401        -18.4393        -18.4393
            3321     1.49466E+03     1.49466E+03        -21.6420        -21.6420        -21.1758        -21.1758
            3322     1.49038E+03     1.49038E+03        -18.4168        -18.4168        -23.1559        -23.1559
            3323     1.48679E+03     1.48679E+03        -15.3617        -15.3617        -24.5472        -24.5472
            3324     1.48386E+03     1.48386E+03        -12.5852        -12.5852        -25.4926        -25.4926
            3325     1.48152E+03     1.48152E+03        -10.1307        -10.1307        -26.1058        -26.1058
            3326     1.47969E+03     1.47969E+03        -7.99857        -7.99857        -26.4705        -26.4705
            3327     1.47831E+03     1.47831E+03        -6.16129        -6.16129        -26.6453        -26.6453
            3328     1.47731E+03     1.47731E+03        -4.57458        -4.57458        -26.6672        -26.6672
            3329     1.47663E+03     1.47663E+03        -3.18431        -3.18431        -26.5569        -26.5569
            3330     1.47623E+03     1.47623E+03        -1.93119        -1.93119        -26.3206        -26.3206
            3331     1.47606E+03     1.47606E+03    -752.830E-03    -752.830E-03        -25.9535        -25.9535
            3332     1.47610E+03     1.47610E+03     414.202E-03     414.202E-03        -25.4405        -25.4405
            3333     1.47632E+03     1.47632E+03         1.63532         1.63532        -24.7574        -24.7574
            3334     1.47672E+03     1.47672E+03         2.97648         2.97648        -23.8711        -23.8711
            3335     1.47729E+03     1.47729E+03         4.50759         4.50759        -22.7400        -22.7400
            3336     1.47802E+03     1.47802E+03         6.30028         6.30028        -21.3129        -21.3129
            3337     1.47891E+03     1.47891E+03         8.43447         8.43447        -19.5298        -19.5298
            3338     1.47997E+03     1.47997E+03         10.9938         10.9938        -17.3201        -17.3201
            3339     1.48119E+03     1.48119E+03         14.0775         14.0775        -14.6031        -14.6031
            3340     1.48257E+03     1.48257E+03         17.7907         17.7907        -11.2875        -11.2875
            3341     1.48410E+03     1.48410E+03         22.2666         22.2666        -7.27010        -7.27010
            3342     1.48576E+03     1.48576E+03         27.6460         27.6460        -2.44004        -2.44004
            3343     1.48751E+03     1.48751E+03         34.1179         34.1179         3.32714         3.32714
            3344     1.48930E+03     1.48930E+03         41.8788         41.8788         10.1524         10.1524
            3345     1.49103E+03     1.49103E+03         51.2053         51.2053         18.1714         18.1714
            3346     1.49256E+03     1.49256E+03         62.3760         62.3760         27.4836         27.4836
            3347     1.49370E+03     1.49370E+03         75.7903         75.7903         38.2018         38.2018
            3348     1.49416E+03     1.49416E+03         91.8336         91.8336         50.3228         50.3228
            3349     1.49362E+03     1.49362E+03         111.025         111.025         63.8457         63.8457
            3350     1.49159E+03     1.49159E+03         133.839         133.839         78.5028         78.5028
            3351     1.48768E+03     1.48768E+03         160.743         160.743         93.9776         93.9776
            3352     1.48128E+03     1.48128E+03         192.083         192.083         109.578         109.578
            3353     1.47222E+03     1.47222E+03         227.807         227.807         124.467         124.467
            3354     1.46023E+03     1.46023E+03         267.604         267.604         137.691         137.691
            3355     1.44565E+03     1.44565E+03         310.462         310.462         148.147         148.147
            3356     1.42908E+03     1.42908E+03         355.050         355.050         155.271         155.271
            3357     1.41126E+03     1.41126E+03         399.551         399.551         157.026         157.026
            3358     1.51693E+03     1.51693E+03        -22.2904        -22.2904         6.71578         6.71578
            3359     1.51335E+03     1.51335E+03        -24.3425        -24.3425     683.822E-03     683.822E-03
            3360     1.50906E+03     1.50906E+03        -24.5491        -24.5491        -4.83912        -4.83912
            3361     1.50448E+03     1.50448E+03        -23.4337        -23.4337        -9.63065        -9.63065
            3362     1.49992E+03     1.49992E+03        -21.4726        -21.4726        -13.6221        -13.6221
            3363     1.49562E+03     1.49562E+03        -19.0567        -19.0567        -16.8470        -16.8470
            3364     1.49170E+03     1.49170E+03        -16.4770        -16.4770        -19.3877        -19.3877
            3365     1.48824E+03     1.48824E+03        -13.9374        -13.9374        -21.3483        -21.3483
            3366     1.48525E+03     1.48525E+03        -11.5635        -11.5635        -22.8331        -22.8331
            3367     1.48270E+03     1.48270E+03        -9.42172        -9.42172        -23.9347        -23.9347
            3368     1.48057E+03     1.48057E+03        -7.53459        -7.53459        -24.7297        -24.7297
            3369     1.47880E+03     1.47880E+03        -5.89462        -5.89462        -25.2770        -25.2770
            3370     1.47735E+03     1.47735E+03        -4.47435        -4.47435        -25.6193        -25.6193
            3371     1.47619E+03     1.47619E+03        -3.23404        -3.23404        -25.7847        -25.7847
            3372     1.47527E+03     1.47527E+03        -2.12627        -2.12627        -25.7884        -25.7884
            3373     1.47457E+03     1.47457E+03        -1.09969        -1.09969        -25.6340        -25.6340
            3374     1.47408E+03     1.47408E+03    -99.9643E-03    -99.9643E-03        -25.3147        -25.3147
            3375     1.47378E+03     1.47378E+03     928.238E-03     928.238E-03        -24.8136        -24.8136
            3376     1.47366E+03     1.47366E+03         2.04294         2.04294        -24.1040        -24.1040
            3377     1.47373E+03     1.47373E+03         3.30308         3.30308        -23.1494        -23.1494
            3378     1.47401E+03     1.47401E+03         4.77288         4.77288        -21.9032        -21.9032
            3379     1.47448E+03     1.47448E+03         6.51879         6.51879        -20.3080        -20.3080
            3380     1.47518E+03     1.47518E+03         8.61799         8.61799        -18.2949        -18.2949
            3381     1.47612E+03     1.47612E+03         11.1519         11.1519        -15.7826        -15.7826
            3382     1.47732E+03     1.47732E+03         14.2224         14.2224        -12.6767        -12.6767
            3383     1.47878E+03     1.47878E+03         17.9377         17.9377        -8.86858        -8.86858
            3384     1.48052E+03     1.48052E+03         22.4438         22.4438        -4.23400        -4.23400
            3385     1.48252E+03     1.48252E+03         27.8944         27.8944         1.36390         1.36390
            3386     1.48477E+03     1.48477E+03         34.5120         34.5120         8.08140         8.08140
            3387     1.48721E+03     1.48721E+03         42.5249         42.5249         16.0745         16.0745
            3388     1.48973E+03     1.48973E+03         52.2834         52.2834         25.5243         25.5243
            3389     1.49217E+03     1.49217E+03         64.1332         64.1332         36.5647         36.5647
            3390     1.49427E+03     1.49427E+03         78.6183         78.6183         49.3621         49.3621
            3391     1.49566E+03     1.49566E+03         96.2518         96.2518         63.9016         63.9016
            3392     1.49587E+03     1.49587E+03         117.781         117.781         80.1977         80.1977
            3393     1.49413E+03     1.49413E+03         143.878         143.878         97.8005         97.8005
            3394     1.48994E+03     1.48994E+03         175.152         175.152         116.195         116.195
            3395     1.48237E+03     1.48237E+03         212.014         212.014         134.264         134.264
            3396     1.47137E+03     1.47137E+03         254.051         254.051         150.638         150.638
            3397     1.45680E+03     1.45680E+03         300.426         300.426         164.051         164.051
            3398     1.43940E+03     1.43940E+03         349.227         349.227         173.019         173.019
            3399     1.42055E+03     1.42055E+03         397.945         397.945         175.629         175.629
            3400     1.51153E+03     1.51153E+03        -16.7033        -16.7033         9.14183         9.14183
            3401     1.50931E+03     1.50931E+03        -18.8934        -18.8934         4.02248         4.02248
            3402     1.50633E+03     1.50633E+03        -19.5727        -19.5727    -968.737E-03    -968.737E-03
            3403     1.50289E+03     1.50289E+03        -19.0967        -19.0967        -5.55573        -5.55573
            3404     1.49926E+03     1.49926E+03        -17.8226        -17.8226        -9.59501        -9.59501
            3405     1.49564E+03     1.49564E+03        -16.0658        -16.0658        -13.0373        -13.0373
            3406     1.49217E+03     1.49217E+03        -14.0800        -14.0800        -15.8974        -15.8974
            3407     1.48895E+03     1.48895E+03        -12.0507        -12.0507        -18.2246        -18.2246
            3408     1.48600E+03     1.48600E+03        -10.1044        -10.1044        -20.0841        -20.0841
            3409     1.48335E+03     1.48335E+03        -8.31542        -8.31542        -21.5447        -21.5447
            3410     1.48098E+03     1.48098E+03        -6.71888        -6.71888        -22.6695        -22.6695
            3411     1.47888E+03     1.47888E+03        -5.32067        -5.32067        -23.5129        -23.5129
            3412     1.47703E+03     1.47703E+03        -4.10666        -4.10666        -24.1184        -24.1184
            3413     1.47540E+03     1.47540E+03        -3.04920        -3.04920        -24.5181        -24.5181
            3414     1.47396E+03     1.47396E+03        -2.11249        -2.11249        -24.7330        -24.7330
            3415     1.47272E+03     1.47272E+03        -1.25536        -1.25536        -24.7737        -24.7737
            3416     1.47166E+03     1.47166E+03    -434.096E-03    -434.096E-03        -24.6402        -24.6402
            3417     1.47078E+03     1.47078E+03     397.612E-03     397.612E-03        -24.3223        -24.3223
            3418     1.47009E+03     1.47009E+03         1.28687         1.28687        -23.7999        -23.7999
            3419     1.46960E+03     1.46960E+03         2.28402         2.28402        -23.0425        -23.0425
            3420     1.46932E+03     1.46932E+03         3.44056         3.44056        -22.0086        -22.0086
            3421     1.46928E+03     1.46928E+03         4.81457         4.81457        -20.6458        -20.6458
            3422     1.46951E+03     1.46951E+03         6.46676         6.46676        -18.8884        -18.8884
            3423     1.47004E+03     1.47004E+03         8.47114         8.47114        -16.6582        -16.6582
            3424     1.47091E+03     1.47091E+03         10.9063         10.9063        -13.8606        -13.8606
            3425     1.47216E+03     1.47216E+03         13.8770         13.8770        -10.3856        -10.3856
            3426     1.47381E+03     1.47381E+03         17.4940         17.4940        -6.10271        -6.10271
            3427     1.47592E+03     1.47592E+03         21.9188         21.9188    -861.931E-03    -861.931E-03
            3428     1.47848E+03     1.47848E+03         27.3192         27.3192         5.50880         5.50880
            3429     1.48150E+03     1.48150E+03         33.9609         33.9609         13.2090         13.2090
            3430     1.48494E+03     1.48494E+03         42.1100         42.1100         22.4474         22.4474
            3431     1.48868E+03     1.48868E+03         52.2212         52.2212         33.4752         33.4752
            3432     1.49254E+03     1.49254E+03         64.7279         64.7279         46.4867         46.4867
            3433     1.49618E+03     1.49618E+03         80.4006         80.4006         61.7466         61.7466
            3434     1.49906E+03     1.49906E+03         99.9415         99.9415         79.2325         79.2325
            3435     1.50049E+03     1.50049E+03         124.490         124.490         99.0166         99.0166
            3436     1.49922E+03     1.49922E+03         155.057         155.057         120.307         120.307
            3437     1.49459E+03     1.49459E+03         192.402         192.402         142.205         142.205
            3438     1.48516E+03     1.48516E+03         236.935         236.935         162.870         162.870
            3439     1.47127E+03     1.47127E+03         287.331         287.331         179.992         179.992
            3440     1.45333E+03     1.45333E+03         341.570         341.570         192.101         192.101
            3441     1.43267E+03     1.43267E+03         396.060         396.060         195.650         195.650
            3442     1.50640E+03     1.50640E+03        -12.1539        -12.1539         10.4111         10.4111
            3443     1.50521E+03     1.50521E+03        -14.1669        -14.1669         6.14793         6.14793
            3444     1.50330E+03     1.50330E+03        -15.0117        -15.0117         1.76365         1.76365
            3445     1.50085E+03     1.50085E+03        -14.9156        -14.9156        -2.46046        -2.46046
            3446     1.49807E+03     1.49807E+03        -14.1330        -14.1330        -6.34286        -6.34286
            3447     1.49512E+03     1.49512E+03        -12.9047        -12.9047        -9.78653        -9.78653
            3448     1.49212E+03     1.49212E+03        -11.4342        -11.4342        -12.7559        -12.7559
            3449     1.48918E+03     1.48918E+03        -9.88027        -9.88027        -15.2583        -15.2583
            3450     1.48634E+03     1.48634E+03        -8.35498        -8.35498        -17.3263        -17.3263
            3451     1.48363E+03     1.48363E+03        -6.93055        -6.93055        -19.0051        -19.0051
            3452     1.48108E+03     1.48108E+03        -5.64545        -5.64545        -20.3438        -20.3438
            3453     1.47868E+03     1.47868E+03        -4.51297        -4.51297        -21.3893        -21.3893
            3454     1.47644E+03     1.47644E+03        -3.52777        -3.52777        -22.1829        -22.1829
            3455     1.47434E+03     1.47434E+03        -2.67209        -2.67209        -22.7579        -22.7579
            3456     1.47238E+03     1.47238E+03        -1.91976        -1.91976        -23.1391        -23.1391
            3457     1.47056E+03     1.47056E+03        -1.23981        -1.23981        -23.3416        -23.3416
            3458     1.46889E+03     1.46889E+03    -597.824E-03    -597.824E-03        -23.3712        -23.3712
            3459     1.46738E+03     1.46738E+03     42.0067E-03     42.0067E-03        -23.2237        -23.2237
            3460     1.46604E+03     1.46604E+03     717.726E-03     717.726E-03        -22.8853        -22.8853
            3461     1.46489E+03     1.46489E+03         1.46800         1.46800        -22.3315        -22.3315
            3462     1.46396E+03     1.46396E+03         2.33519         2.33519        -21.5276        -21.5276
            3463     1.46329E+03     1.46329E+03         3.36299         3.36299        -20.4265        -20.4265
            3464     1.46291E+03     1.46291E+03         4.60284         4.60284        -18.9697        -18.9697
            3465     1.46288E+03     1.46288E+03         6.10900         6.10900        -17.0830        -17.0830
            3466     1.46325E+03     1.46325E+03         7.95152         7.95152        -14.6784        -14.6784
            3467     1.46409E+03     1.46409E+03         10.2052         10.2052        -11.6465        -11.6465
            3468     1.46547E+03     1.46547E+03         12.9764         12.9764        -7.86053        -7.86053
            3469     1.46744E+03     1.46744E+03         16.3779         16.3779        -3.16362        -3.16362
            3470     1.47009E+03     1.47009E+03         20.5871         20.5871         2.62502         2.62502
            3471     1.47347E+03     1.47347E+03         25.7856         25.7856         9.72514         9.72514
            3472     1.47761E+03     1.47761E+03         32.2917         32.2917         18.3936         18.3936
            3473     1.48252E+03     1.48252E+03         40.4138         40.4138         28.9207         28.9207
            3474     1.48808E+03     1.48808E+03         50.7514         50.7514         41.6641         41.6641
            3475     1.49412E+03     1.49412E+03         63.8498         63.8498         56.9302         56.9302
            3476     1.50017E+03     1.50017E+03         80.8432         80.8432         75.1652         75.1652
            3477     1.50545E+03     1.50545E+03         102.717         102.717         96.3639         96.3639
            3478     1.50890E+03     1.50890E+03         131.342         131.342         120.773         120.773
            3479     1.50823E+03     1.50823E+03         168.373         168.373         146.894         146.894
            3480     1.50271E+03     1.50271E+03         214.569         214.569         172.971         172.971
            3481     1.49021E+03     1.49021E+03         270.002         270.002         195.975         195.975
            3482     1.47194E+03     1.47194E+03         331.185         331.185         211.966         211.966
            3483     1.45011E+03     1.45011E+03         393.294         393.294         217.901         217.901
            3484     1.50170E+03     1.50170E+03        -8.49707        -8.49707         10.7920         10.7920
            3485     1.50136E+03     1.50136E+03        -10.1542        -10.1542         7.29088         7.29088
            3486     1.50035E+03     1.50035E+03        -10.9571        -10.9571         3.52672         3.52672
            3487     1.49877E+03     1.49877E+03        -11.0460        -11.0460    -238.938E-03    -238.938E-03
            3488     1.49676E+03     1.49676E+03        -10.5924        -10.5924        -3.81700        -3.81700
            3489     1.49443E+03     1.49443E+03        -9.76913        -9.76913        -7.08597        -7.08597
            3490     1.49189E+03     1.49189E+03        -8.72984        -8.72984        -9.98149        -9.98149
            3491     1.48923E+03     1.48923E+03        -7.59839        -7.59839        -12.4816        -12.4816
            3492     1.48651E+03     1.48651E+03        -6.46670        -6.46670        -14.5946        -14.5946
            3493     1.48376E+03     1.48376E+03        -5.39603        -5.39603        -16.3469        -16.3469
            3494     1.48103E+03     1.48103E+03        -4.42208        -4.42208        -17.7745        -17.7745
            3495     1.47834E+03     1.47834E+03        -3.55987        -3.55987        -18.9166        -18.9166
            3496     1.47569E+03     1.47569E+03        -2.80933        -2.80933        -19.8105        -19.8105
            3497     1.47311E+03     1.47311E+03        -2.15956        -2.15956        -20.4890        -20.4890
            3498     1.47059E+03     1.47059E+03        -1.59270        -1.59270        -20.9780        -20.9780
            3499     1.46816E+03     1.46816E+03        -1.08620        -1.08620        -21.2961        -21.2961
            3500     1.46583E+03     1.46583E+03    -615.130E-03    -615.130E-03        -21.4529        -21.4529
            3501     1.46361E+03     1.46361E+03    -152.459E-03    -152.459E-03        -21.4496        -21.4496
            3502     1.46154E+03     1.46154E+03     329.446E-03     329.446E-03        -21.2776        -21.2776
            3503     1.45964E+03     1.45964E+03     860.247E-03     860.247E-03        -20.9193        -20.9193
            3504     1.45795E+03     1.45795E+03         1.47013         1.47013        -20.3460        -20.3460
            3505     1.45651E+03     1.45651E+03         2.19327         2.19327        -19.5193        -19.5193
            3506     1.45538E+03     1.45538E+03         3.06530         3.06530        -18.3870        -18.3870
            3507     1.45462E+03     1.45462E+03         4.13024         4.13024        -16.8859        -16.8859
            3508     1.45430E+03     1.45430E+03         5.43513         5.43513        -14.9337        -14.9337
            3509     1.45450E+03     1.45450E+03         7.04434         7.04434        -12.4342        -12.4342
            3510     1.45533E+03     1.45533E+03         9.02715         9.02715        -9.26294        -9.26294
            3511     1.45689E+03     1.45689E+03         11.4890         11.4890        -5.27706        -5.27706
            3512     1.45930E+03     1.45930E+03         14.5416         14.5416    -288.943E-03    -288.943E-03
            3513     1.46268E+03     1.46268E+03         18.3754         18.3754         5.91581         5.91581
            3514     1.46718E+03     1.46718E+03         23.1829         23.1829         13.6207         13.6207
            3515     1.47289E+03     1.47289E+03         29.3397         29.3397         23.1548         23.1548
            3516     1.47990E+03     1.47990E+03         37.1964         37.1964         34.9352         34.9352
            3517     1.48815E+03     1.48815E+03         47.5463         47.5463         49.4775         49.4775
            3518     1.49751E+03     1.49751E+03         61.0667         61.0667         67.3025         67.3025
            3519     1.50738E+03     1.50738E+03         79.4921         79.4921         89.1933         89.1933
            3520     1.51666E+03     1.51666E+03         104.222         104.222         115.262         115.262
            3521     1.52352E+03     1.52352E+03         138.659         138.659         146.265         146.265
            3522     1.52340E+03     1.52340E+03         185.798         185.798         179.061         179.061
            3523     1.51584E+03     1.51584E+03         245.570         245.570         209.741         209.741
            3524     1.49836E+03     1.49836E+03         316.355         316.355         233.592         233.592
            3525     1.47380E+03     1.47380E+03         389.667         389.667         242.100         242.100
            3526     1.49755E+03     1.49755E+03        -5.59127        -5.59127         10.4091         10.4091
            3527     1.49799E+03     1.49799E+03        -6.81385        -6.81385         7.58313         7.58313
            3528     1.49780E+03     1.49780E+03        -7.45571        -7.45571         4.43583         4.43583
            3529     1.49701E+03     1.49701E+03        -7.59823        -7.59823         1.19637         1.19637
            3530     1.49569E+03     1.49569E+03        -7.35082        -7.35082        -1.95727        -1.95727
            3531     1.49394E+03     1.49394E+03        -6.82899        -6.82899        -4.90016        -4.90016
            3532     1.49182E+03     1.49182E+03        -6.13939        -6.13939        -7.55536        -7.55536
            3533     1.48941E+03     1.48941E+03        -5.37083        -5.37083        -9.88588        -9.88588
            3534     1.48677E+03     1.48677E+03        -4.59075        -4.59075        -11.8845        -11.8845
            3535     1.48397E+03     1.48397E+03        -3.84589        -3.84589        -13.5646        -13.5646
            3536     1.48104E+03     1.48104E+03        -3.16437        -3.16437        -14.9520        -14.9520
            3537     1.47802E+03     1.47802E+03        -2.55956        -2.55956        -16.0785        -16.0785
            3538     1.47494E+03     1.47494E+03        -2.03333        -2.03333        -16.9771        -16.9771
            3539     1.47183E+03     1.47183E+03        -1.57961        -1.57961        -17.6781        -17.6781
            3540     1.46871E+03     1.46871E+03        -1.18673        -1.18673        -18.2075        -18.2075
            3541     1.46561E+03     1.46561E+03    -839.754E-03    -839.754E-03        -18.5846        -18.5846
            3542     1.46255E+03     1.46255E+03    -521.433E-03    -521.433E-03        -18.8221        -18.8221
            3543     1.45956E+03     1.45956E+03    -213.617E-03    -213.617E-03        -18.9243        -18.9243
            3544     1.45667E+03     1.45667E+03     103.122E-03     103.122E-03        -18.8880        -18.8880
            3545     1.45392E+03     1.45392E+03     448.411E-03     448.411E-03        -18.7008        -18.7008
            3546     1.45135E+03     1.45135E+03     843.715E-03     843.715E-03        -18.3421        -18.3421
            3547     1.44901E+03     1.44901E+03         1.31104         1.31104        -17.7804        -17.7804
            3548     1.44696E+03     1.44696E+03         1.87625         1.87625        -16.9753        -16.9753
            3549     1.44527E+03     1.44527E+03         2.56682         2.56682        -15.8719        -15.8719
            3550     1.44403E+03     1.44403E+03         3.41824         3.41824        -14.4046        -14.4046
            3551     1.44335E+03     1.44335E+03         4.46949         4.46949        -12.4861        -12.4861
            3552     1.44332E+03     1.44332E+03         5.77614         5.77614        -10.0160        -10.0160
            3553     1.44411E+03     1.44411E+03         7.39996         7.39996        -6.85692        -6.85692
            3554     1.44587E+03     1.44587E+03         9.43900         9.43900        -2.85441        -2.85441
            3555     1.44881E+03     1.44881E+03         11.9999         11.9999         2.21185         2.21185
            3556     1.45311E+03     1.45311E+03         15.2758         15.2758         8.58681         8.58681
            3557     1.45905E+03     1.45905E+03         19.4632         19.4632         16.6353         16.6353
            3558     1.46684E+03     1.46684E+03         24.9856         24.9856         26.7666         26.7666
            3559     1.47680E+03     1.47680E+03         32.2276         32.2276         39.5924         39.5924
            3560     1.48896E+03     1.48896E+03         42.2186         42.2186         55.8446         55.8446
            3561     1.50347E+03     1.50347E+03         55.7694         55.7694         76.4644         76.4644
            3562     1.51957E+03     1.51957E+03         75.6063         75.6063         102.841         102.841
            3563     1.53597E+03     1.53597E+03         103.681         103.681         135.576         135.576
            3564     1.54909E+03     1.54909E+03         147.035         147.035         176.933         176.933
            3565     1.54867E+03     1.54867E+03         211.662         211.662         219.529         219.529
            3566     1.53615E+03     1.53615E+03         293.111         293.111         253.482         253.482
            3567     1.51169E+03     1.51169E+03         382.915         382.915         270.793         270.793
            3568     1.49406E+03     1.49406E+03        -3.32705        -3.32705         9.26182         9.26182
            3569     1.49531E+03     1.49531E+03        -4.11394        -4.11394         7.05886         7.05886
            3570     1.49593E+03     1.49593E+03        -4.54654        -4.54654         4.54321         4.54321
            3571     1.49590E+03     1.49590E+03        -4.66866        -4.66866         1.90340         1.90340
            3572     1.49524E+03     1.49524E+03        -4.54350        -4.54350    -707.778E-03    -707.778E-03
            3573     1.49399E+03     1.49399E+03        -4.24099        -4.24099        -3.17719        -3.17719
            3574     1.49223E+03     1.49223E+03        -3.82713        -3.82713        -5.43058        -5.43058
            3575     1.49001E+03     1.49001E+03        -3.35805        -3.35805        -7.42748        -7.42748
            3576     1.48741E+03     1.48741E+03        -2.87731        -2.87731        -9.15436        -9.15436
            3577     1.48448E+03     1.48448E+03        -2.41544        -2.41544        -10.6171        -10.6171
            3578     1.48129E+03     1.48129E+03        -1.99152        -1.99152        -11.8342        -11.8342
            3579     1.47789E+03     1.47789E+03        -1.61490        -1.61490        -12.8312        -12.8312
            3580     1.47432E+03     1.47432E+03        -1.28773        -1.28773        -13.6357        -13.6357
            3581     1.47062E+03     1.47062E+03        -1.00673        -1.00673        -14.2747        -14.2747
            3582     1.46684E+03     1.46684E+03    -765.184E-03    -765.184E-03        -14.7715        -14.7715
            3583     1.46300E+03     1.46300E+03    -553.948E-03    -553.948E-03        -15.1449        -15.1449
            3584     1.45914E+03     1.45914E+03    -362.740E-03    -362.740E-03        -15.4080        -15.4080
            3585     1.45530E+03     1.45530E+03    -180.242E-03    -180.242E-03        -15.5675        -15.5675
            3586     1.45151E+03     1.45151E+03     5.01415E-03     5.01415E-03        -15.6232        -15.6232
            3587     1.44781E+03     1.44781E+03     205.335E-03     205.335E-03        -15.5686        -15.5686
            3588     1.44424E+03     1.44424E+03     433.102E-03     433.102E-03        -15.3888        -15.3888
            3589     1.44086E+03     1.44086E+03     702.186E-03     702.186E-03        -15.0624        -15.0624
            3590     1.43772E+03     1.43772E+03         1.02714         1.02714        -14.5579        -14.5579
            3591     1.43492E+03     1.43492E+03         1.42548         1.42548        -13.8361        -13.8361
            3592     1.43253E+03     1.43253E+03         1.91686         1.91686        -12.8433        -12.8433
            3593     1.43066E+03     1.43066E+03         2.52663         2.52663        -11.5171        -11.5171
            3594     1.42946E+03     1.42946E+03         3.28527         3.28527        -9.77054        -9.77054
            3595     1.42907E+03     1.42907E+03         4.23472         4.23472        -7.50649        -7.50649
            3596     1.42971E+03     1.42971E+03         5.42773         5.42773        -4.58155        -4.58155
            3597     1.43159E+03     1.43159E+03         6.94317         6.94317    -841.265E-03    -841.265E-03
            3598     1.43503E+03     1.43503E+03         8.87984         8.87984         3.96239         3.96239
            3599     1.44036E+03     1.44036E+03         11.4076         11.4076         10.0885         10.0885
            3600     1.44802E+03     1.44802E+03         14.7222         14.7222         17.9940         17.9940
            3601     1.45846E+03     1.45846E+03         19.2477         19.2477         28.1506         28.1506
            3602     1.47237E+03     1.47237E+03         25.3924         25.3924         41.4513         41.4513
            3603     1.49015E+03     1.49015E+03         34.3952         34.3952         58.8658         58.8658
            3604     1.51269E+03     1.51269E+03         47.1717         47.1717         82.1520         82.1520
            3605     1.53933E+03     1.53933E+03         67.9789         67.9789         113.676         113.676
            3606     1.56956E+03     1.56956E+03         99.3122         99.3122         155.847         155.847
            3607     1.59574E+03     1.59574E+03         157.921         157.921         215.328         215.328
            3608     1.59214E+03     1.59214E+03         256.214         256.214         273.066         273.066
            3609     1.56712E+03     1.56712E+03         371.224         371.224         299.757         299.757
            3610     1.49136E+03     1.49136E+03        -1.64969        -1.64969         7.23396         7.23396
            3611     1.49357E+03     1.49357E+03        -2.06153        -2.06153         5.66176         5.66176
            3612     1.49507E+03     1.49507E+03        -2.29439        -2.29439         3.84011         3.84011
            3613     1.49581E+03     1.49581E+03        -2.36777        -2.36777         1.90834         1.90834
            3614     1.49577E+03     1.49577E+03        -2.31292        -2.31292    -18.1161E-03    -18.1161E-03
            3615     1.49498E+03     1.49498E+03        -2.16495        -2.16495        -1.85159        -1.85159
            3616     1.49349E+03     1.49349E+03        -1.95766        -1.95766        -3.53293        -3.53293
            3617     1.49137E+03     1.49137E+03        -1.72017        -1.72017        -5.02860        -5.02860
            3618     1.48870E+03     1.48870E+03        -1.47522        -1.47522        -6.32592        -6.32592
            3619     1.48555E+03     1.48555E+03        -1.23905        -1.23905        -7.42772        -7.42772
            3620     1.48201E+03     1.48201E+03        -1.02179        -1.02179        -8.34717        -8.34717
            3621     1.47813E+03     1.47813E+03    -828.688E-03    -828.688E-03        -9.10333        -9.10333
            3622     1.47398E+03     1.47398E+03    -661.024E-03    -661.024E-03        -9.71758        -9.71758
            3623     1.46963E+03     1.46963E+03    -517.413E-03    -517.413E-03        -10.2109        -10.2109
            3624     1.46510E+03     1.46510E+03    -394.445E-03    -394.445E-03        -10.6023        -10.6023
            3625     1.46046E+03     1.46046E+03    -287.690E-03    -287.690E-03        -10.9070        -10.9070
            3626     1.45573E+03     1.45573E+03    -191.831E-03    -191.831E-03        -11.1365        -11.1365
            3627     1.45095E+03     1.45095E+03    -101.398E-03    -101.398E-03        -11.2973        -11.2973
            3628     1.44617E+03     1.44617E+03    -10.4361E-03    -10.4361E-03        -11.3917        -11.3917
            3629     1.44141E+03     1.44141E+03     86.8996E-03     86.8996E-03        -11.4161        -11.4161
            3630     1.43673E+03     1.43673E+03     197.003E-03     197.003E-03        -11.3628        -11.3628
            3631     1.43217E+03     1.43217E+03     326.391E-03     326.391E-03        -11.2174        -11.2174
            3632     1.42780E+03     1.42780E+03     482.403E-03     482.403E-03        -10.9610        -10.9610
            3633     1.42368E+03     1.42368E+03     673.433E-03     673.433E-03        -10.5660        -10.5660
            3634     1.41990E+03     1.41990E+03     908.877E-03     908.877E-03        -9.99993        -9.99993
            3635     1.41658E+03     1.41658E+03         1.20164         1.20164        -9.21632        -9.21632
            3636     1.41384E+03     1.41384E+03         1.56519         1.56519        -8.16379        -8.16379
            3637     1.41186E+03     1.41186E+03         2.02256         2.02256        -6.76514        -6.76514
            3638     1.41084E+03     1.41084E+03         2.59551         2.59551        -4.93920        -4.93920
            3639     1.41104E+03     1.41104E+03         3.32952         3.32952        -2.55135        -2.55135
            3640     1.41279E+03     1.41279E+03         4.26570         4.26570     531.278E-03     531.278E-03
            3641     1.41651E+03     1.41651E+03         5.49967         5.49967         4.56288         4.56288
            3642     1.42271E+03     1.42271E+03         7.12823         7.12823         9.77578         9.77578
            3643     1.43213E+03     1.43213E+03         9.36024         9.36024         16.7000         16.7000
            3644     1.44559E+03     1.44559E+03         12.4925         12.4925         25.7875         25.7875
            3645     1.46442E+03     1.46442E+03         16.9915         16.9915         38.2724         38.2724
            3646     1.48989E+03     1.48989E+03         24.0294         24.0294         55.2104         55.2104
            3647     1.52469E+03     1.52469E+03         34.6722         34.6722         79.8122         79.8122
            3648     1.56956E+03     1.56956E+03         54.8783         54.8783         115.479         115.479
            3649     1.62922E+03     1.62922E+03         87.4156         87.4156         170.771         170.771
            3650     1.68795E+03     1.68795E+03         176.837         176.837         263.826         263.826
            3651     1.67823E+03     1.67823E+03         342.030         342.030         341.748         341.748
            3652     1.48969E+03     1.48969E+03    -578.819E-03    -578.819E-03         4.12206         4.12206
            3653     1.49308E+03     1.49308E+03    -729.813E-03    -729.813E-03         3.27088         3.27088
            3654     1.49560E+03     1.49560E+03    -816.700E-03    -816.700E-03         2.27850         2.27850
            3655     1.49715E+03     1.49715E+03    -845.927E-03    -845.927E-03         1.22224         1.22224
            3656     1.49771E+03     1.49771E+03    -828.524E-03    -828.524E-03     166.538E-03     166.538E-03
            3657     1.49729E+03     1.49729E+03    -776.950E-03    -776.950E-03    -839.556E-03    -839.556E-03
            3658     1.49596E+03     1.49596E+03    -703.453E-03    -703.453E-03        -1.76265        -1.76265
            3659     1.49381E+03     1.49381E+03    -618.523E-03    -618.523E-03        -2.58373        -2.58373
            3660     1.49093E+03     1.49093E+03    -530.532E-03    -530.532E-03        -3.29561        -3.29561
            3661     1.48742E+03     1.48742E+03    -445.358E-03    -445.358E-03        -3.89986        -3.89986
            3662     1.48339E+03     1.48339E+03    -366.830E-03    -366.830E-03        -4.40404        -4.40404
            3663     1.47891E+03     1.47891E+03    -296.832E-03    -296.832E-03        -4.81902        -4.81902
            3664     1.47409E+03     1.47409E+03    -235.975E-03    -235.975E-03        -5.15710        -5.15710
            3665     1.46897E+03     1.46897E+03    -183.707E-03    -183.707E-03        -5.43043        -5.43043
            3666     1.46362E+03     1.46362E+03    -138.963E-03    -138.963E-03        -5.64994        -5.64994
            3667     1.45808E+03     1.45808E+03    -100.039E-03    -100.039E-03        -5.82478        -5.82478
            3668     1.45240E+03     1.45240E+03    -65.2367E-03    -65.2367E-03        -5.96173        -5.96173
            3669     1.44662E+03     1.44662E+03    -32.4239E-03    -32.4239E-03        -6.06527        -6.06527
            3670     1.44076E+03     1.44076E+03     256.463E-06     256.463E-06        -6.13706        -6.13706
            3671     1.43487E+03     1.43487E+03     35.0949E-03     35.0949E-03        -6.17645        -6.17645
            3672     1.42897E+03     1.42897E+03     74.0747E-03     74.0747E-03        -6.17961        -6.17961
            3673     1.42312E+03     1.42312E+03     119.623E-03     119.623E-03        -6.14051        -6.14051
            3674     1.41735E+03     1.41735E+03     174.245E-03     174.245E-03        -6.04916        -6.04916
            3675     1.41174E+03     1.41174E+03     240.502E-03     240.502E-03        -5.89351        -5.89351
            3676     1.40636E+03     1.40636E+03     322.521E-03     322.521E-03        -5.65557        -5.65557
            3677     1.40131E+03     1.40131E+03     422.681E-03     422.681E-03        -5.31556        -5.31556
            3678     1.39671E+03     1.39671E+03     549.454E-03     549.454E-03        -4.84327        -4.84327
            3679     1.39270E+03     1.39270E+03     703.665E-03     703.665E-03        -4.20767        -4.20767
            3680     1.38950E+03     1.38950E+03     904.935E-03     904.935E-03        -3.35648        -3.35648
            3681     1.38735E+03     1.38735E+03         1.14838         1.14838        -2.24068        -2.24068
            3682     1.38657E+03     1.38657E+03         1.48194         1.48194    -762.144E-03    -762.144E-03
            3683     1.38757E+03     1.38757E+03         1.88452         1.88452         1.15874         1.15874
            3684     1.39090E+03     1.39090E+03         2.47617         2.47617         3.72870         3.72870
            3685     1.39731E+03     1.39731E+03         3.19873         3.19873         7.08245         7.08245
            3686     1.40783E+03     1.40783E+03         4.35770         4.35770         11.7203         11.7203
            3687     1.42385E+03     1.42385E+03         5.84785         5.84785         17.8874         17.8874
            3688     1.44763E+03     1.44763E+03         8.46244         8.46244         27.0111         27.0111
            3689     1.48210E+03     1.48210E+03         12.3498         12.3498         39.6438         39.6438
            3690     1.53350E+03     1.53350E+03         19.6581         19.6581         60.8487         60.8487
            3691     1.60831E+03     1.60831E+03         35.0464         35.0464         93.0059         93.0059
            3692     1.73253E+03     1.73253E+03         65.5145         65.5145         162.204         162.204
            3693     1.89117E+03     1.89117E+03         231.940         231.940         299.862         299.862
            3694         87.6546         87.6546        -654.922        -654.922        -83.7510        -83.7510
            3695         315.592         315.592        -266.192        -266.192        -215.485        -215.485
            3696         611.626         611.626        -82.7364        -82.7364        -232.980        -232.980
            3697         888.821         888.821        -13.5843        -13.5843        -191.843        -191.843
            3698     1.10503E+03     1.10503E+03         5.11223         5.11223        -135.566        -135.566
            3699         278.100         278.100        -483.351        -483.351        -190.598        -190.598
            3700         610.072         610.072        -267.555        -267.555        -376.030        -376.030
            3701         904.394         904.394        -157.564        -157.564        -371.990        -371.990
            3702     1.12328E+03     1.12328E+03        -97.7409        -97.7409        -288.594        -288.594
            3703     1.26943E+03     1.26943E+03        -61.7018        -61.7018        -195.901        -195.901
            3704         593.359         593.359        -275.124        -275.124        -314.130        -314.130
            3705     1.00410E+03     1.00410E+03        -269.893        -269.893        -440.500        -440.500
            3706     1.24431E+03     1.24431E+03        -226.225        -226.225        -381.713        -381.713
            3707     1.36888E+03     1.36888E+03        -166.011        -166.011        -273.294        -273.294
            3708     1.42961E+03     1.42961E+03        -111.561        -111.561        -175.514        -175.514
            3709     1.00661E+03     1.00661E+03        -90.0700        -90.0700        -418.676        -418.676
            3710     1.39072E+03     1.39072E+03        -259.125        -259.125        -399.890        -399.890
            3711     1.52017E+03     1.52017E+03        -249.500        -249.500        -295.839        -295.839
            3712     1.54363E+03     1.54363E+03        -186.470        -186.470        -193.679        -193.679
            3713     1.53274E+03     1.53274E+03        -123.743        -123.743        -116.775        -116.775
            3714     1.65726E+03     1.65726E+03         185.285         185.285         65.7886         65.7886
            3715     1.79436E+03     1.79436E+03         284.738         284.738         76.2291         76.2291
            3716     2.03983E+03     2.03983E+03         386.447         386.447         52.2845         52.2845
            3717     2.46514E+03     2.46514E+03         438.444         438.444        -47.9789        -47.9789
            3718     3.15356E+03     3.15356E+03         359.727         359.727        -270.205        -270.205
            3719     1.67550E+03     1.67550E+03         68.5439         68.5439         78.4200         78.4200
            3720     1.80234E+03     1.80234E+03         125.592         125.592         92.1336         92.1336
            3721     2.00207E+03     2.00207E+03         207.271         207.271         59.1406         59.1406
            3722     2.31571E+03     2.31571E+03         299.746         299.746        -93.1943        -93.1943
            3723     2.80436E+03     2.80436E+03         357.579         357.579        -461.999        -461.999
            3724     1.66931E+03     1.66931E+03        -36.4786        -36.4786         41.0808         41.0808
            3725     1.78091E+03     1.78091E+03        -31.4732        -31.4732         43.6265         43.6265
            3726     1.93291E+03     1.93291E+03         5.19793         5.19793         6.94001         6.94001
            3727     2.12031E+03     2.12031E+03         108.961         108.961        -144.356        -144.356
            3728     2.34225E+03     2.34225E+03         309.784         309.784        -544.490        -544.490
            3729     1.63412E+03     1.63412E+03        -92.7527        -92.7527        -11.2832        -11.2832
            3730     1.72270E+03     1.72270E+03        -128.578        -128.578        -31.6256        -31.6256
            3731     1.82983E+03     1.82983E+03        -145.397        -145.397        -82.7711        -82.7711
            3732     1.91207E+03     1.91207E+03        -78.2195        -78.2195        -213.478        -213.478
            3733     1.87078E+03     1.87078E+03         198.866         198.866        -538.685        -538.685
            3734     1.07569E+03     1.07569E+03        -61.8304        -61.8304         434.350         434.350
            3735     1.44970E+03     1.44970E+03        -256.493        -256.493         389.293         389.293
            3736     1.55965E+03     1.55965E+03        -250.909        -250.909         279.136         279.136
            3737     1.56727E+03     1.56727E+03        -187.455        -187.455         179.175         179.175
            3738     1.54604E+03     1.54604E+03        -123.936        -123.936         106.409         106.409
            3739         716.739         716.739        -208.453        -208.453         353.519         353.519
            3740     1.13740E+03     1.13740E+03        -269.972        -269.972         442.571         442.571
            3741     1.34876E+03     1.34876E+03        -242.441        -242.441         365.363         365.363
            3742     1.43946E+03     1.43946E+03        -180.802        -180.802         253.765         253.765
            3743     1.47337E+03     1.47337E+03        -121.555        -121.555         159.360         159.360
            3744         415.571         415.571        -382.463        -382.463         250.865         250.865
            3745         797.161         797.161        -270.459        -270.459         425.575         425.575
            3746     1.07513E+03     1.07513E+03        -196.867        -196.867         397.762         397.762
            3747     1.25187E+03     1.25187E+03        -138.505        -138.505         297.628         297.628
            3748     1.35582E+03     1.35582E+03        -92.4885        -92.4885         196.892         196.892
            3749         195.852         195.852        -555.342        -555.342         150.469         150.469
            3750         490.212         490.212        -268.748        -268.748         334.440         334.440
            3751         789.480         789.480        -130.683        -130.683         344.850         344.850
            3752     1.03408E+03     1.03408E+03        -68.2095        -68.2095         275.303         275.303
            3753     1.20831E+03     1.20831E+03        -38.8868        -38.8868         190.489         190.489
            3754         65.7934         65.7934        -685.711        -685.711         67.4345         67.4345
            3755         277.108         277.108        -269.242        -269.242         183.741         183.741
            3756         569.202         569.202        -72.5176        -72.5176         201.850         201.850
            3757         851.934         851.934     176.595E-03     176.595E-03         168.273         168.273
            3758     1.07767E+03     1.07767E+03         16.9535         16.9535         120.121         120.121
            3759     1.63588E+03     1.63588E+03        -95.2275        -95.2275         14.6426         14.6426
            3760     1.72431E+03     1.72431E+03        -130.699        -130.699         34.1703         34.1703
            3761     1.83129E+03     1.83129E+03        -147.123        -147.123         84.6776         84.6776
            3762     1.91373E+03     1.91373E+03        -79.5597        -79.5597         214.965         214.965
            3763     1.87291E+03     1.87291E+03         197.974         197.974         539.960         539.960
            3764     1.67062E+03     1.67062E+03        -38.3558        -38.3558        -37.9023        -37.9023
            3765     1.78212E+03     1.78212E+03        -32.9805        -32.9805        -41.1916        -41.1916
            3766     1.93406E+03     1.93406E+03         4.15117         4.15117        -5.10626        -5.10626
            3767     2.12163E+03     2.12163E+03         108.420         108.420         145.691         145.691
            3768     2.34429E+03     2.34429E+03         309.948         309.948         545.689         545.689
            3769     1.67634E+03     1.67634E+03         67.3454         67.3454        -75.3565        -75.3565
            3770     1.80309E+03     1.80309E+03         124.746         124.746        -89.6877        -89.6877
            3771     2.00277E+03     2.00277E+03         206.868         206.868        -57.2214        -57.2214
            3772     2.31658E+03     2.31658E+03         299.885         299.885         94.7124         94.7124
            3773     2.80602E+03     2.80602E+03         358.072         358.072         463.277         463.277
            3774     1.65765E+03     1.65765E+03         184.729         184.729        -62.7401        -62.7401
            3775     1.79470E+03     1.79470E+03         284.407         284.407        -73.6783        -73.6783
            3776     2.04012E+03     2.04012E+03         386.423         386.423        -50.1289        -50.1289
            3777     2.46557E+03     2.46557E+03         438.711         438.711         49.7909         49.7909
            3778     3.15452E+03     3.15452E+03         360.070         360.070         271.495         271.495
            3779     1.79601E+03     1.79601E+03         179.593         179.593        -535.036        -535.036
            3780     1.87903E+03     1.87903E+03        -107.040        -107.040        -226.355        -226.355
            3781     1.81293E+03     1.81293E+03        -167.441        -167.441        -99.7898        -99.7898
            3782     1.71332E+03     1.71332E+03        -142.723        -142.723        -46.5752        -46.5752
            3783     1.62907E+03     1.62907E+03        -101.709        -101.709        -23.1161        -23.1161
            3784     2.18422E+03     2.18422E+03         284.185         284.185        -555.568        -555.568
            3785     2.05333E+03     2.05333E+03         44.0457         44.0457        -165.623        -165.623
            3786     1.90494E+03     1.90494E+03        -55.7847        -55.7847        -20.4733        -20.4733
            3787     1.76830E+03     1.76830E+03        -75.6654        -75.6654         18.0106         18.0106
            3788     1.66314E+03     1.66314E+03        -65.1042        -65.1042         20.7866         20.7866
            3789     2.58631E+03     2.58631E+03         344.638         344.638        -522.993        -522.993
            3790     2.22404E+03     2.22404E+03         210.052         210.052        -118.837        -118.837
            3791     1.97408E+03     1.97408E+03         103.800         103.800         40.1015         40.1015
            3792     1.79917E+03     1.79917E+03         39.8487         39.8487         74.1502         74.1502
            3793     1.67917E+03     1.67917E+03         8.10402         8.10402         62.7188         62.7188
            3794     2.94897E+03     2.94897E+03         362.638         362.638        -416.379        -416.379
            3795     2.37761E+03     2.37761E+03         356.940         356.940        -80.9010        -80.9010
            3796     2.02017E+03     2.02017E+03         276.586         276.586         63.0857         63.0857
            3797     1.80335E+03     1.80335E+03         184.229         184.229         95.4571         95.4571
            3798     1.67252E+03     1.67252E+03         109.611         109.611         80.8114         80.8114
            3799     3.20615E+03     3.20615E+03         356.740         356.740        -233.246        -233.246
            3800     2.48890E+03     2.48890E+03         455.271         455.271        -42.7501        -42.7501
            3801     2.04629E+03     2.04629E+03         411.662         411.662         44.7069         44.7069
            3802     1.79279E+03     1.79279E+03         309.112         309.112         66.2301         66.2301
            3803     1.65364E+03     1.65364E+03         204.165         204.165         57.0208         57.0208
            3804     1.63384E+03     1.63384E+03        -93.0407        -93.0407         11.5765         11.5765
            3805     1.72230E+03     1.72230E+03        -128.992        -128.992         32.0658         32.0658
            3806     1.82926E+03     1.82926E+03        -145.890        -145.890         83.3498         83.3498
            3807     1.91145E+03     1.91145E+03        -78.8758        -78.8758         214.083         214.083
            3808     1.87018E+03     1.87018E+03         197.768         197.768         538.845         538.845
            3809     1.66915E+03     1.66915E+03        -36.9125        -36.9125        -40.7912        -40.7912
            3810     1.78065E+03     1.78065E+03        -32.0029        -32.0029        -43.1830        -43.1830
            3811     1.93247E+03     1.93247E+03         4.64233         4.64233        -6.35612        -6.35612
            3812     2.11957E+03     2.11957E+03         108.367         108.367         144.833         144.833
            3813     2.34121E+03     2.34121E+03         309.389         309.389         544.524         544.524
            3814     1.67550E+03     1.67550E+03         67.9840         67.9840        -78.1478        -78.1478
            3815     1.80221E+03     1.80221E+03         125.022         125.022        -91.6594        -91.6594
            3816     2.00170E+03     2.00170E+03         206.743         206.743        -58.5735        -58.5735
            3817     2.31487E+03     2.31487E+03         299.362         299.362         93.7399         93.7399
            3818     2.80275E+03     2.80275E+03         357.317         357.317         462.249         462.249
            3819     1.65744E+03     1.65744E+03         184.652         184.652        -65.6240        -65.6240
            3820     1.79444E+03     1.79444E+03         284.070         284.070        -75.8363        -75.8363
            3821     2.03951E+03     2.03951E+03         386.013         386.013        -51.6723        -51.6723
            3822     2.46425E+03     2.46425E+03         438.470         438.470         48.5698         48.5698
            3823     3.15145E+03     3.15145E+03         360.017         360.017         270.414         270.414
            3824     1.07759E+03     1.07759E+03        -62.7161        -62.7161         435.217         435.217
            3825     1.45206E+03     1.45206E+03        -258.287        -258.287         390.378         390.378
            3826     1.56212E+03     1.56212E+03        -253.090        -253.090         280.580         280.580
            3827     1.56992E+03     1.56992E+03        -190.017        -190.017         181.201         181.201
            3828     1.54895E+03     1.54895E+03        -127.009        -127.009         109.292         109.292
            3829         718.110         718.110        -209.978        -209.978         354.230         354.230
            3830     1.13949E+03     1.13949E+03        -272.083        -272.083         443.720         443.720
            3831     1.35119E+03     1.35119E+03        -244.856        -244.856         366.777         366.777
            3832     1.44221E+03     1.44221E+03        -183.559        -183.559         255.565         255.565
            3833     1.47658E+03     1.47658E+03        -124.836        -124.836         161.818         161.818
            3834         416.407         416.407        -384.695        -384.695         251.374         251.374
            3835         798.764         798.764        -272.819        -272.819         426.700         426.700
            3836     1.07729E+03     1.07729E+03        -199.408        -199.408         399.105         399.105
            3837     1.25456E+03     1.25456E+03        -141.377        -141.377         299.189         299.189
            3838     1.35918E+03     1.35918E+03        -95.9140        -95.9140         198.890         198.890
            3839         196.220         196.220        -558.272        -558.272         150.799         150.799
            3840         491.238         491.238        -271.285        -271.285         335.384         335.384
            3841         791.210         791.210        -133.241        -133.241         345.981         345.981
            3842     1.03656E+03     1.03656E+03        -71.0927        -71.0927         276.534         276.534
            3843     1.21169E+03     1.21169E+03        -42.3727        -42.3727         191.956         191.956
            3844         65.8381         65.8381        -689.181        -689.181         67.6268         67.6268
            3845         277.641         277.641        -271.890        -271.890         184.341         184.341
            3846         570.506         570.506        -75.0310        -75.0310         202.565         202.565
            3847         854.148         854.148        -2.65019        -2.65019         169.015         169.015
            3848     1.08096E+03     1.08096E+03         13.4763         13.4763         120.944         120.944
            3849     1.53560E+03     1.53560E+03        -126.801        -126.801        -119.570        -119.570
            3850     1.54608E+03     1.54608E+03        -188.964        -188.964        -195.664        -195.664
            3851     1.52224E+03     1.52224E+03        -251.558        -251.558        -297.243        -297.243
            3852     1.39247E+03     1.39247E+03        -260.884        -260.884        -400.742        -400.742
            3853     1.00794E+03     1.00794E+03        -91.3643        -91.3643        -419.026        -419.026
            3854     1.43276E+03     1.43276E+03        -114.844        -114.844        -177.757        -177.757
            3855     1.37138E+03     1.37138E+03        -168.719        -168.719        -274.951        -274.951
            3856     1.24628E+03     1.24628E+03        -228.596        -228.596        -382.969        -382.969
            3857     1.00560E+03     1.00560E+03        -272.136        -272.136        -441.400        -441.400
            3858         594.142         594.142        -277.267        -277.267        -314.418        -314.418
            3859     1.27267E+03     1.27267E+03        -65.0966        -65.0966        -197.504        -197.504
            3860     1.12563E+03     1.12563E+03        -100.531        -100.531        -289.830        -289.830
            3861         906.013         906.013        -160.051        -160.051        -373.009        -373.009
            3862         611.011         611.011        -270.063        -270.063        -376.788        -376.788
            3863         278.390         278.390        -486.272        -486.272        -190.717        -190.717
            3864     1.10824E+03     1.10824E+03         1.68489         1.68489        -136.387        -136.387
            3865         890.951         890.951        -16.3634        -16.3634        -192.488        -192.488
            3866         612.843         612.843        -85.2175        -85.2175        -233.519        -233.519
            3867         316.044         316.044        -268.840        -268.840        -215.866        -215.866
            3868         87.6366         87.6366        -658.425        -658.425        -83.7386        -83.7386


  Minimum               -24.5594        -24.5594    -1.03679E+03    -1.03679E+03        -833.613        -833.613
         At Node              28              28              28              28             590             590

  Maximum            3.75739E+03     3.75739E+03         489.081         489.081         828.527         828.527
         At Node              27              27             585             585             574             574

           Total     5.71699E+06     5.71699E+06     92.4757E+03     92.4757E+03     2.74106E+03     2.74106E+03


