********************************************************************************
Field Output Report, written Thu Feb 22 21:47:41 2024

Source 1
---------

   ODB: C:/Users/Isabel Haycock/OneDrive - Imperial College London/Fourth Year/FYP/Isabel Haycock/06 - FE models/Specimen_2/Plate_hole_1.odb
   Step: load
   Frame: Increment      6: Step Time =   0.6000

Loc 1 : Nodal values at shell < composite > < elset = ASSEMBLY_PLATE_1-1_COMPOSITELAYUP-1-1 > from source 1 : SNEG, (fraction = -1.0), Layer = 1
Loc 2 : Nodal values at shell < composite > < elset = ASSEMBLY_PLATE_1-1_COMPOSITELAYUP-1-1 > from source 1 : SPOS, (fraction = 1.0), Layer = 8

Output sorted by column "Node Label".

Field Output reported at nodes for part: PLATE_1-1
   Computation algorithm: EXTRAPOLATE_COMPUTE_AVERAGE
   Averaged at nodes
   Averaging regions: ODB_REGIONS

      Node Label           S.S11           S.S11           S.S22           S.S22           S.S12           S.S12
                          @Loc 1          @Loc 2          @Loc 1          @Loc 2          @Loc 1          @Loc 2
-----------------------------------------------------------------------------------------------------------------
               1     1.03326E+03     1.03326E+03        -48.0083        -48.0083        -21.2763        -21.2763
               2         982.938         982.938         1.33199         1.33199    -61.1292E-03    -61.1292E-03
               3         983.113         983.113     6.59803E-03     6.59803E-03    -6.87559E-03    -6.87559E-03
               4         993.990         993.990    -61.7659E-03    -61.7659E-03         2.07767         2.07767
               5     1.03368E+03     1.03368E+03        -47.8386        -47.8386         20.5081         20.5081
               6         982.937         982.937         1.33219         1.33219     61.1236E-03     61.1236E-03
               7         791.949         791.949         21.9730         21.9730        -3.04453        -3.04453
               8         990.383         990.383    -75.5117E-03    -75.5117E-03        -1.74929        -1.74929
               9     1.03536E+03     1.03536E+03        -50.0033        -50.0033         23.3314         23.3314
              10     1.05166E+03     1.05166E+03         103.313         103.313         1.17791         1.17791
              11         994.184         994.184    -64.3269E-03    -64.3269E-03        -2.07745        -2.07745
              12         983.112         983.112     6.59946E-03     6.59946E-03     6.87710E-03     6.87710E-03
              13         924.247         924.247         281.052         281.052        -61.2383        -61.2383
              14     1.50239E+03     1.50239E+03         207.819         207.819        -242.775        -242.775
              15     1.03424E+03     1.03424E+03        -50.3195        -50.3195        -24.7067        -24.7067
              16         990.508         990.508    -78.7450E-03    -78.7450E-03         1.75097         1.75097
              17     1.05127E+03     1.05127E+03         104.616         104.616        -2.99263        -2.99263
              18         924.252         924.252         281.044         281.044         61.2241         61.2241
              19         794.891         794.891         19.1234         19.1234        -3.04058        -3.04058
              20     1.50239E+03     1.50239E+03         207.819         207.819         242.775         242.775
              21        -16.1930        -16.1930        -692.557        -692.557     588.143E-03     588.143E-03
              22         815.511         815.511         186.841         186.841        -399.796        -399.796
              23     2.50624E+03     2.50624E+03         159.311         159.311     282.280E-03     282.280E-03
              24         828.104         828.104         192.289         192.289         405.361         405.361
              25         829.597         829.597         192.514         192.514         406.160         406.160
              26         800.735         800.735         184.260         184.260        -395.570        -395.570
              27     2.51115E+03     2.51115E+03         157.584         157.584         11.6909         11.6909
              28        -16.3068        -16.3068        -695.560        -695.560     639.290E-03     639.290E-03
              29     1.01403E+03     1.01403E+03        -38.5266        -38.5266        -24.8873        -24.8873
              30     1.00286E+03     1.00286E+03        -32.4102        -32.4102        -27.2742        -27.2742
              31         994.000         994.000        -25.9885        -25.9885        -27.3648        -27.3648
              32         987.416         987.416        -20.0991        -20.0991        -26.0885        -26.0885
              33         982.732         982.732        -15.0279        -15.0279        -24.1380        -24.1380
              34         979.526         979.526        -10.8080        -10.8080        -21.9571        -21.9571
              35         977.418         977.418        -7.35416        -7.35416        -19.7936        -19.7936
              36         976.110         976.110        -4.55752        -4.55752        -17.7703        -17.7703
              37         975.378         975.378        -2.30986        -2.30986        -15.9387        -15.9387
              38         975.056         975.056    -517.575E-03    -517.575E-03        -14.3098        -14.3098
              39         975.022         975.022     898.359E-03     898.359E-03        -12.8747        -12.8747
              40         975.188         975.188         2.00289         2.00289        -11.6144        -11.6144
              41         975.490         975.490         2.84960         2.84960        -10.5072        -10.5072
              42         975.880         975.880         3.48267         3.48267        -9.53132        -9.53132
              43         976.326         976.326         3.93889         3.93889        -8.66696        -8.66696
              44         976.801         976.801         4.24905         4.24905        -7.89663        -7.89663
              45         977.288         977.288         4.43910         4.43910        -7.20559        -7.20559
              46         977.774         977.774         4.53105         4.53105        -6.58159        -6.58159
              47         978.248         978.248         4.54362         4.54362        -6.01465        -6.01465
              48         978.704         978.704         4.49273         4.49273        -5.49669        -5.49669
              49         979.139         979.139         4.39197         4.39197        -5.02125        -5.02125
              50         979.548         979.548         4.25289         4.25289        -4.58317        -4.58317
              51         979.930         979.930         4.08529         4.08529        -4.17831        -4.17831
              52         980.284         980.284         3.89747         3.89747        -3.80335        -3.80335
              53         980.611         980.611         3.69640         3.69640        -3.45555        -3.45555
              54         980.911         980.911         3.48792         3.48792        -3.13267        -3.13267
              55         981.184         981.184         3.27690         3.27690        -2.83276        -2.83276
              56         981.432         981.432         3.06736         3.06736        -2.55414        -2.55414
              57         981.655         981.655         2.86257         2.86257        -2.29527        -2.29527
              58         981.856         981.856         2.66523         2.66523        -2.05472        -2.05472
              59         982.035         982.035         2.47747         2.47747        -1.83115        -1.83115
              60         982.195         982.195         2.30100         2.30100        -1.62324        -1.62324
              61         982.335         982.335         2.13717         2.13717        -1.42970        -1.42970
              62         982.458         982.458         1.98701         1.98701        -1.24924        -1.24924
              63         982.565         982.565         1.85133         1.85133        -1.08058        -1.08058
              64         982.656         982.656         1.73070         1.73070    -922.430E-03    -922.430E-03
              65         982.734         982.734         1.62556         1.62556    -773.493E-03    -773.493E-03
              66         982.797         982.797         1.53623         1.53623    -632.467E-03    -632.467E-03
              67         982.849         982.849         1.46291         1.46291    -498.044E-03    -498.044E-03
              68         982.888         982.888         1.40575         1.40575    -368.907E-03    -368.907E-03
              69         982.916         982.916         1.36485         1.36485    -243.742E-03    -243.742E-03
              70         982.932         982.932         1.34023         1.34023    -121.558E-03    -121.558E-03
              71         983.053         983.053         1.19914         1.19914    -66.2546E-03    -66.2546E-03
              72         983.162         983.162         1.06596         1.06596    -69.3794E-03    -69.3794E-03
              73         983.267         983.267     928.222E-03     928.222E-03    -70.8963E-03    -70.8963E-03
              74         983.363         983.363     789.186E-03     789.186E-03    -70.7236E-03    -70.7236E-03
              75         983.445         983.445     652.199E-03     652.199E-03    -68.8304E-03    -68.8304E-03
              76         983.507         983.507     520.648E-03     520.648E-03    -65.2135E-03    -65.2135E-03
              77         983.544         983.544     397.875E-03     397.875E-03    -59.9197E-03    -59.9197E-03
              78         983.552         983.552     287.103E-03     287.103E-03    -53.0242E-03    -53.0242E-03
              79         983.525         983.525     191.339E-03     191.339E-03    -44.6719E-03    -44.6719E-03
              80         983.460         983.460     113.301E-03     113.301E-03    -35.0124E-03    -35.0124E-03
              81         983.353         983.353     55.2717E-03     55.2717E-03    -24.3378E-03    -24.3378E-03
              82         983.201         983.201     19.0536E-03     19.0536E-03    -12.8430E-03    -12.8430E-03
              83         983.126         983.126     6.73683E-03     6.73683E-03    -12.6120E-03    -12.6120E-03
              84         983.163         983.163     6.93454E-03     6.93454E-03    -24.7089E-03    -24.7089E-03
              85         983.224         983.224     7.13257E-03     7.13257E-03    -37.6324E-03    -37.6324E-03
              86         983.312         983.312     7.46854E-03     7.46854E-03    -51.1053E-03    -51.1053E-03
              87         983.427         983.427     7.90122E-03     7.90122E-03    -65.3666E-03    -65.3666E-03
              88         983.571         983.571     8.42865E-03     8.42865E-03    -80.6130E-03    -80.6130E-03
              89         983.747         983.747     9.05322E-03     9.05322E-03    -97.0464E-03    -97.0464E-03
              90         983.957         983.957     9.76919E-03     9.76919E-03    -114.866E-03    -114.866E-03
              91         984.203         984.203     10.5769E-03     10.5769E-03    -134.267E-03    -134.267E-03
              92         984.490         984.490     11.4698E-03     11.4698E-03    -155.445E-03    -155.445E-03
              93         984.820         984.820     12.4432E-03     12.4432E-03    -178.583E-03    -178.583E-03
              94         985.198         985.198     13.4871E-03     13.4871E-03    -203.858E-03    -203.858E-03
              95         985.629         985.629     14.5897E-03     14.5897E-03    -231.426E-03    -231.426E-03
              96         986.116         986.116     15.7335E-03     15.7335E-03    -261.421E-03    -261.421E-03
              97         986.665         986.665     16.8956E-03     16.8956E-03    -293.942E-03    -293.942E-03
              98         987.282         987.282     18.0458E-03     18.0458E-03    -329.042E-03    -329.042E-03
              99         987.970         987.970     19.1436E-03     19.1436E-03    -366.708E-03    -366.708E-03
             100         988.735         988.735     20.1389E-03     20.1389E-03    -406.847E-03    -406.847E-03
             101         989.582         989.582     20.9635E-03     20.9635E-03    -449.255E-03    -449.255E-03
             102         990.515         990.515     21.5379E-03     21.5379E-03    -493.591E-03    -493.591E-03
             103         991.537         991.537     21.7527E-03     21.7527E-03    -539.331E-03    -539.331E-03
             104         992.650         992.650     21.4876E-03     21.4876E-03    -585.734E-03    -585.734E-03
             105         993.855         993.855     20.5756E-03     20.5756E-03    -631.781E-03    -631.781E-03
             106         995.149         995.149     18.8456E-03     18.8456E-03    -676.120E-03    -676.120E-03
             107         996.528         996.528     16.0585E-03     16.0585E-03    -716.998E-03    -716.998E-03
             108         997.982         997.982     11.9921E-03     11.9921E-03    -752.202E-03    -752.202E-03
             109         999.497         999.497     6.33588E-03     6.33588E-03    -778.989E-03    -778.989E-03
             110     1.00105E+03     1.00105E+03    -1.15699E-03    -1.15699E-03    -794.043E-03    -794.043E-03
             111     1.00263E+03     1.00263E+03    -10.8236E-03    -10.8236E-03    -793.460E-03    -793.460E-03
             112     1.00418E+03     1.00418E+03    -22.8533E-03    -22.8533E-03    -772.762E-03    -772.762E-03
             113     1.00566E+03     1.00566E+03    -37.4719E-03    -37.4719E-03    -727.037E-03    -727.037E-03
             114     1.00702E+03     1.00702E+03    -54.6387E-03    -54.6387E-03    -651.097E-03    -651.097E-03
             115     1.00820E+03     1.00820E+03    -74.1840E-03    -74.1840E-03    -539.910E-03    -539.910E-03
             116     1.00912E+03     1.00912E+03    -95.5558E-03    -95.5558E-03    -389.026E-03    -389.026E-03
             117     1.00970E+03     1.00970E+03    -117.766E-03    -117.766E-03    -195.433E-03    -195.433E-03
             118     1.00985E+03     1.00985E+03    -139.422E-03    -139.422E-03     41.6842E-03     41.6842E-03
             119     1.00949E+03     1.00949E+03    -158.355E-03    -158.355E-03     319.732E-03     319.732E-03
             120     1.00855E+03     1.00855E+03    -172.198E-03    -172.198E-03     631.767E-03     631.767E-03
             121     1.00697E+03     1.00697E+03    -177.809E-03    -177.809E-03     965.504E-03     965.504E-03
             122     1.00472E+03     1.00472E+03    -172.392E-03    -172.392E-03         1.30282         1.30282
             123     1.00182E+03     1.00182E+03    -153.367E-03    -153.367E-03         1.62031         1.62031
             124         998.346         998.346    -118.970E-03    -118.970E-03         1.88852         1.88852
             125         994.847         994.847    -179.633E-03    -179.633E-03         3.83189         3.83189
             126         996.743         996.743    -523.512E-03    -523.512E-03         6.89204         6.89204
             127         998.969         998.969        -1.08942        -1.08942         9.16034         9.16034
             128     1.00149E+03     1.00149E+03        -1.91413        -1.91413         10.8218         10.8218
             129     1.00431E+03     1.00431E+03        -3.08201        -3.08201         11.9958         11.9958
             130     1.00749E+03     1.00749E+03        -4.72114        -4.72114         12.7204         12.7204
             131     1.01105E+03     1.01105E+03        -7.00341        -7.00341         12.9430         12.9430
             132     1.01505E+03     1.01505E+03        -10.1412        -10.1412         12.5007         12.5007
             133     1.01941E+03     1.01941E+03        -14.3729        -14.3729         11.0780         11.0780
             134     1.02391E+03     1.02391E+03        -19.9003        -19.9003         8.17017         8.17017
             135     1.02794E+03     1.02794E+03        -26.7653        -26.7653         3.05891         3.05891
             136     1.03028E+03     1.03028E+03        -34.5628        -34.5628        -5.01617        -5.01617
             137     1.01455E+03     1.01455E+03        -38.4233        -38.4233         24.1170         24.1170
             138     1.00346E+03     1.00346E+03        -32.4439        -32.4439         26.6433         26.6433
             139         994.625         994.625        -26.1228        -26.1228         26.8939         26.8939
             140         988.005         988.005        -20.2841        -20.2841         25.7694         25.7694
             141         983.251         983.251        -15.2229        -15.2229         23.9406         23.9406
             142         979.963         979.963        -10.9890        -10.9890         21.8475         21.8475
             143         977.778         977.778        -7.51128        -7.51128         19.7424         19.7424
             144         976.404         976.404        -4.68906        -4.68906         17.7567         17.7567
             145         975.616         975.616        -2.41756        -2.41756         15.9482         15.9482
             146         975.248         975.248    -604.787E-03    -604.787E-03         14.3329         14.3329
             147         975.178         975.178     828.162E-03     828.162E-03         12.9051         12.9051
             148         975.315         975.315         1.94643         1.94643         11.6482         11.6482
             149         975.594         975.594         2.80410         2.80410         10.5419         10.5419
             150         975.966         975.966         3.44584         3.44584         9.56539         9.56539
             151         976.397         976.397         3.90888         3.90888         8.69942         8.69942
             152         976.860         976.860         4.22439         4.22439         7.92697         7.92697
             153         977.338         977.338         4.41868         4.41868         7.23355         7.23355
             154         977.815         977.815         4.51399         4.51399         6.60707         6.60707
             155         978.283         978.283         4.52923         4.52923         6.03766         6.03766
             156         978.734         978.734         4.48051         4.48051         5.51730         5.51730
             157         979.163         979.163         4.38152         4.38152         5.03959         5.03959
             158         979.568         979.568         4.24390         4.24390         4.59938         4.59938
             159         979.947         979.947         4.07753         4.07753         4.19255         4.19255
             160         980.299         980.299         3.89076         3.89076         3.81578         3.81578
             161         980.623         980.623         3.69059         3.69059         3.46634         3.46634
             162         980.921         980.921         3.48289         3.48289         3.14197         3.14197
             163         981.192         981.192         3.27256         3.27256         2.84073         2.84073
             164         981.439         981.439         3.06362         3.06362         2.56092         2.56092
             165         981.661         981.661         2.85937         2.85937         2.30099         2.30099
             166         981.861         981.861         2.66250         2.66250         2.05952         2.05952
             167         982.039         982.039         2.47515         2.47515         1.83513         1.83513
             168         982.198         982.198         2.29906         2.29906         1.62651         1.62651
             169         982.337         982.337         2.13556         2.13556         1.43235         1.43235
             170         982.460         982.460         1.98570         1.98570         1.25137         1.25137
             171         982.566         982.566         1.85027         1.85027         1.08226         1.08226
             172         982.657         982.657         1.72987         1.72987     923.724E-03     923.724E-03
             173         982.734         982.734         1.62494         1.62494     774.469E-03     774.469E-03
             174         982.798         982.798         1.53579         1.53579     633.180E-03     633.180E-03
             175         982.849         982.849         1.46264         1.46264     498.540E-03     498.540E-03
             176         982.888         982.888         1.40564         1.40564     369.228E-03     369.228E-03
             177         982.915         982.915         1.36489         1.36489     243.918E-03     243.918E-03
             178         982.932         982.932         1.34038         1.34038     121.611E-03     121.611E-03
             179         982.815         982.815         1.46685         1.46685     53.5079E-03     53.5079E-03
             180         982.701         982.701         1.58835         1.58835     43.7208E-03     43.7208E-03
             181         982.610         982.610         1.68344         1.68344     32.3975E-03     32.3975E-03
             182         982.546         982.546         1.74875         1.74875     19.9352E-03     19.9352E-03
             183         982.513         982.513         1.78199         1.78199     6.76853E-03     6.76853E-03
             184         982.513         982.513         1.78196         1.78196    -6.64261E-03    -6.64261E-03
             185         982.546         982.546         1.74868         1.74868    -19.8276E-03    -19.8276E-03
             186         982.610         982.610         1.68334         1.68334    -32.3295E-03    -32.3295E-03
             187         982.702         982.702         1.58821         1.58821    -43.6962E-03    -43.6962E-03
             188         982.816         982.816         1.46667         1.46667    -53.4975E-03    -53.4975E-03
             189         813.722         813.722         11.4197         11.4197         53.8293         53.8293
             190         872.208         872.208        -15.2313        -15.2313         84.6309         84.6309
             191         936.841         936.841        -40.3613        -40.3613         86.1913         86.1913
             192         986.875         986.875        -53.6901        -53.6901         68.5961         68.5961
             193     1.01660E+03     1.01660E+03        -54.8129        -54.8129         45.0796         45.0796
             194     1.01117E+03     1.01117E+03        -54.7222        -54.7222        -49.7496        -49.7496
             195         968.334         968.334        -49.1054        -49.1054        -76.1249        -76.1249
             196         899.223         899.223        -25.9840        -25.9840        -86.4854        -86.4854
             197         826.594         826.594         5.48174         5.48174        -60.6749        -60.6749
             198         991.320         991.320    -219.715E-03    -219.715E-03        -3.19378        -3.19378
             199         993.422         993.422    -639.501E-03    -639.501E-03        -5.65516        -5.65516
             200         995.939         995.939        -1.32417        -1.32417        -7.37493        -7.37493
             201         998.820         998.820        -2.30299        -2.30299        -8.55187        -8.55187
             202     1.00206E+03     1.00206E+03        -3.65294        -3.65294        -9.31388        -9.31388
             203     1.00570E+03     1.00570E+03        -5.49497        -5.49497        -9.70514        -9.70514
             204     1.00975E+03     1.00975E+03        -7.99431        -7.99431        -9.67695        -9.67695
             205     1.01424E+03     1.01424E+03        -11.3569        -11.3569        -9.06812        -9.06812
             206     1.01910E+03     1.01910E+03        -15.8153        -15.8153        -7.56285        -7.56285
             207     1.02409E+03     1.02409E+03        -21.5659        -21.5659        -4.65296        -4.65296
             208     1.02858E+03     1.02858E+03        -28.6452        -28.6452     385.221E-03     385.221E-03
             209     1.03133E+03     1.03133E+03        -36.6486        -36.6486         8.32950         8.32950
             210     1.05673E+03     1.05673E+03        -43.7594        -43.7594         2.23627         2.23627
             211     1.07030E+03     1.07030E+03        -20.1867        -20.1867        -20.8195        -20.8195
             212     1.07023E+03     1.07023E+03         26.0585         26.0585        -37.3211        -37.3211
             213     1.05890E+03     1.05890E+03         78.8854         78.8854        -30.4207        -30.4207
             214     1.05864E+03     1.05864E+03         79.3406         79.3406         32.7974         32.7974
             215     1.06970E+03     1.06970E+03         26.9815         26.9815         39.7705         39.7705
             216     1.06948E+03     1.06948E+03        -18.8029        -18.8029         23.4066         23.4066
             217     1.05560E+03     1.05560E+03        -41.9457        -41.9457     543.901E-03     543.901E-03
             218         988.552         988.552     24.0630E-03     24.0630E-03         2.12907         2.12907
             219         982.888         982.888     125.033E-03     125.033E-03         1.95510         1.95510
             220         978.065         978.065     218.542E-03     218.542E-03         1.52304         1.52304
             221         974.734         974.734     284.589E-03     284.589E-03     878.771E-03     878.771E-03
             222         973.355         973.355     307.637E-03     307.637E-03     115.851E-03     115.851E-03
             223         974.087         974.087     281.746E-03     281.746E-03    -643.067E-03    -643.067E-03
             224         976.748         976.748     212.864E-03     212.864E-03        -1.27532        -1.27532
             225         980.858         980.858     116.577E-03     116.577E-03        -1.68740        -1.68740
             226         985.742         985.742     12.8355E-03     12.8355E-03        -1.83336        -1.83336
             227     1.03011E+03     1.03011E+03        -34.6347        -34.6347         5.12804         5.12804
             228     1.02782E+03     1.02782E+03        -26.8400        -26.8400        -2.97808        -2.97808
             229     1.02382E+03     1.02382E+03        -19.9803        -19.9803        -8.10094        -8.10094
             230     1.01935E+03     1.01935E+03        -14.4585        -14.4585        -11.0167        -11.0167
             231     1.01501E+03     1.01501E+03        -10.2290        -10.2290        -12.4486        -12.4486
             232     1.01104E+03     1.01104E+03        -7.08761        -7.08761        -12.9019        -12.9019
             233     1.00749E+03     1.00749E+03        -4.79571        -4.79571        -12.6902        -12.6902
             234     1.00434E+03     1.00434E+03        -3.14238        -3.14238        -11.9744        -11.9744
             235     1.00154E+03     1.00154E+03        -1.95825        -1.95825        -10.8064        -10.8064
             236         999.047         999.047        -1.11740        -1.11740        -9.14871        -9.14871
             237         996.860         996.860    -538.211E-03    -538.211E-03        -6.88331        -6.88331
             238         995.014         995.014    -185.461E-03    -185.461E-03        -3.82820        -3.82820
             239         998.402         998.402    -118.815E-03    -118.815E-03        -1.88644        -1.88644
             240     1.00187E+03     1.00187E+03    -153.502E-03    -153.502E-03        -1.61769        -1.61769
             241     1.00477E+03     1.00477E+03    -172.409E-03    -172.409E-03        -1.30013        -1.30013
             242     1.00701E+03     1.00701E+03    -177.857E-03    -177.857E-03    -962.804E-03    -962.804E-03
             243     1.00859E+03     1.00859E+03    -172.143E-03    -172.143E-03    -629.131E-03    -629.131E-03
             244     1.00952E+03     1.00952E+03    -158.292E-03    -158.292E-03    -317.260E-03    -317.260E-03
             245     1.00988E+03     1.00988E+03    -139.311E-03    -139.311E-03    -39.4229E-03    -39.4229E-03
             246     1.00972E+03     1.00972E+03    -117.646E-03    -117.646E-03     197.432E-03     197.432E-03
             247     1.00914E+03     1.00914E+03    -95.4299E-03    -95.4299E-03     390.758E-03     390.758E-03
             248     1.00822E+03     1.00822E+03    -74.0604E-03    -74.0604E-03     541.373E-03     541.373E-03
             249     1.00704E+03     1.00704E+03    -54.5309E-03    -54.5309E-03     652.316E-03     652.316E-03
             250     1.00567E+03     1.00567E+03    -37.3734E-03    -37.3734E-03     728.038E-03     728.038E-03
             251     1.00418E+03     1.00418E+03    -22.7757E-03    -22.7757E-03     773.581E-03     773.581E-03
             252     1.00263E+03     1.00263E+03    -10.7558E-03    -10.7558E-03     794.126E-03     794.126E-03
             253     1.00106E+03     1.00106E+03    -1.10669E-03    -1.10669E-03     794.588E-03     794.588E-03
             254         999.502         999.502     6.37933E-03     6.37933E-03     779.436E-03     779.436E-03
             255         997.985         997.985     12.0234E-03     12.0234E-03     752.572E-03     752.572E-03
             256         996.531         996.531     16.0860E-03     16.0860E-03     717.307E-03     717.307E-03
             257         995.152         995.152     18.8654E-03     18.8654E-03     676.380E-03     676.380E-03
             258         993.857         993.857     20.5936E-03     20.5936E-03     632.002E-03     632.002E-03
             259         992.652         992.652     21.5007E-03     21.5007E-03     585.924E-03     585.924E-03
             260         991.538         991.538     21.7651E-03     21.7651E-03     539.494E-03     539.494E-03
             261         990.516         990.516     21.5472E-03     21.5472E-03     493.732E-03     493.732E-03
             262         989.583         989.583     20.9725E-03     20.9725E-03     449.378E-03     449.378E-03
             263         988.736         988.736     20.1459E-03     20.1459E-03     406.953E-03     406.953E-03
             264         987.970         987.970     19.1503E-03     19.1503E-03     366.800E-03     366.800E-03
             265         987.282         987.282     18.0512E-03     18.0512E-03     329.122E-03     329.122E-03
             266         986.666         986.666     16.9007E-03     16.9007E-03     294.013E-03     294.013E-03
             267         986.116         986.116     15.7376E-03     15.7376E-03     261.482E-03     261.482E-03
             268         985.628         985.628     14.5936E-03     14.5936E-03     231.479E-03     231.479E-03
             269         985.198         985.198     13.4904E-03     13.4904E-03     203.904E-03     203.904E-03
             270         984.820         984.820     12.4463E-03     12.4463E-03     178.623E-03     178.623E-03
             271         984.489         984.489     11.4724E-03     11.4724E-03     155.479E-03     155.479E-03
             272         984.203         984.203     10.5794E-03     10.5794E-03     134.296E-03     134.296E-03
             273         983.956         983.956     9.77137E-03     9.77137E-03     114.890E-03     114.890E-03
             274         983.747         983.747     9.05528E-03     9.05528E-03     97.0673E-03     97.0673E-03
             275         983.571         983.571     8.43050E-03     8.43050E-03     80.6303E-03     80.6303E-03
             276         983.427         983.427     7.90298E-03     7.90298E-03     65.3806E-03     65.3806E-03
             277         983.311         983.311     7.47016E-03     7.47016E-03     51.1162E-03     51.1162E-03
             278         983.224         983.224     7.13414E-03     7.13414E-03     37.6405E-03     37.6405E-03
             279         983.162         983.162     6.93604E-03     6.93604E-03     24.7142E-03     24.7142E-03
             280         983.125         983.125     6.73831E-03     6.73831E-03     12.6147E-03     12.6147E-03
             281         983.200         983.200     19.0578E-03     19.0578E-03     12.8458E-03     12.8458E-03
             282         983.352         983.352     55.2836E-03     55.2836E-03     24.3429E-03     24.3429E-03
             283         983.460         983.460     113.325E-03     113.325E-03     35.0198E-03     35.0198E-03
             284         983.525         983.525     191.380E-03     191.380E-03     44.6813E-03     44.6813E-03
             285         983.551         983.551     287.163E-03     287.163E-03     53.0352E-03     53.0352E-03
             286         983.544         983.544     397.958E-03     397.958E-03     59.9318E-03     59.9318E-03
             287         983.506         983.506     520.756E-03     520.756E-03     65.2266E-03     65.2266E-03
             288         983.444         983.444     652.333E-03     652.333E-03     68.8435E-03     68.8435E-03
             289         983.363         983.363     789.346E-03     789.346E-03     70.7368E-03     70.7368E-03
             290         983.267         983.267     928.406E-03     928.406E-03     70.9074E-03     70.9074E-03
             291         983.162         983.162         1.06616         1.06616     69.3893E-03     69.3893E-03
             292         983.053         983.053         1.19935         1.19935     66.2446E-03     66.2446E-03
             293         929.084         929.084         269.559         269.559        -61.6330        -61.6330
             294         938.769         938.769         246.418         246.418        -61.2894        -61.2894
             295         948.180         948.180         223.246         223.246        -59.3305        -59.3305
             296         957.093         957.093         200.522         200.522        -56.4140        -56.4140
             297         965.294         965.294         178.615         178.615        -52.6129        -52.6129
             298         972.638         972.638         157.841         157.841        -48.1109        -48.1109
             299         979.037         979.037         138.439         138.439        -43.0813        -43.0813
             300         984.434         984.434         120.580         120.580        -37.7465        -37.7465
             301         988.865         988.865         104.339         104.339        -32.3002        -32.3002
             302         992.357         992.357         89.7367         89.7367        -26.9179        -26.9179
             303         995.016         995.016         76.7287         76.7287        -21.7462        -21.7462
             304         996.917         996.917         65.2361         65.2361        -16.8818        -16.8818
             305         998.177         998.177         55.1566         55.1566        -12.4026        -12.4026
             306         998.881         998.881         46.3693         46.3693        -8.33777        -8.33777
             307         999.131         999.131         38.7575         38.7575        -4.70825        -4.70825
             308         998.999         998.999         32.1962         32.1962        -1.50115        -1.50115
             309         998.564         998.564         26.5751         26.5751         1.29812         1.29812
             310         997.881         997.881         21.7810         21.7810         3.72310         3.72310
             311         997.004         997.004         17.7172         17.7172         5.80554         5.80554
             312         995.975         995.975         14.2871         14.2871         7.58606         7.58606
             313         994.832         994.832         11.4073         11.4073         9.10208         9.10208
             314         993.604         993.604         8.99645         8.99645         10.3941         10.3941
             315         992.316         992.316         6.98294         6.98294         11.4996         11.4996
             316         990.992         990.992         5.29700         5.29700         12.4561         12.4561
             317         989.651         989.651         3.87571         3.87571         13.2989         13.2989
             318         988.312         988.312         2.65733         2.65733         14.0630         14.0630
             319         986.995         986.995         1.58408         1.58408         14.7815         14.7815
             320         985.721         985.721     598.183E-03     598.183E-03         15.4881         15.4881
             321         984.513         984.513    -356.986E-03    -356.986E-03         16.2154         16.2154
             322         983.401         983.401        -1.33996        -1.33996         16.9967         16.9967
             323         982.422         982.422        -2.41137        -2.41137         17.8654         17.8654
             324         981.626         981.626        -3.63669        -3.63669         18.8541         18.8541
             325         981.079         981.079        -5.08777        -5.08777         19.9936         19.9936
             326         980.871         980.871        -6.84534        -6.84534         21.3090         21.3090
             327         981.123         981.123        -9.00157        -9.00157         22.8135         22.8135
             328         982.001         982.001        -11.6598        -11.6598         24.4969         24.4969
             329         983.728         983.728        -14.9347        -14.9347         26.3066         26.3066
             330         986.593         986.593        -18.9346        -18.9346         28.1151         28.1151
             331         990.959         990.959        -23.7373        -23.7373         29.6730         29.6730
             332         997.222         997.222        -29.2977        -29.2977         30.5425         30.5425
             333     1.00573E+03     1.00573E+03        -35.3241        -35.3241         30.0541         30.0541
             334     1.01651E+03     1.01651E+03        -40.9899        -40.9899         27.3073         27.3073
             335         993.995         993.995    -134.836E-03    -134.836E-03        -1.52720        -1.52720
             336         996.723         996.723    -171.072E-03    -171.072E-03        -1.22436        -1.22436
             337         998.798         998.798    -192.039E-03    -192.039E-03    -868.081E-03    -868.081E-03
             338     1.00014E+03     1.00014E+03    -199.207E-03    -199.207E-03    -487.832E-03    -487.832E-03
             339     1.00073E+03     1.00073E+03    -195.534E-03    -195.534E-03    -106.981E-03    -106.981E-03
             340     1.00059E+03     1.00059E+03    -183.332E-03    -183.332E-03     256.375E-03     256.375E-03
             341         999.753         999.753    -166.281E-03    -166.281E-03     589.925E-03     589.925E-03
             342         998.292         998.292    -146.036E-03    -146.036E-03     886.689E-03     886.689E-03
             343         996.283         996.283    -125.575E-03    -125.575E-03         1.14394         1.14394
             344         993.803         993.803    -105.158E-03    -105.158E-03         1.36232         1.36232
             345         990.926         990.926    -87.1110E-03    -87.1110E-03         1.54455         1.54455
             346         987.721         987.721    -70.1068E-03    -70.1068E-03         1.69467         1.69467
             347         984.245         984.245    -56.5903E-03    -56.5903E-03         1.81720         1.81720
             348         980.550         980.550    -43.4426E-03    -43.4426E-03         1.91665         1.91665
             349         976.676         976.676    -34.3312E-03    -34.3312E-03         1.99707         1.99707
             350         972.659         972.659    -23.7306E-03    -23.7306E-03         2.06187         2.06187
             351         968.527         968.527    -17.9549E-03    -17.9549E-03         2.11365         2.11365
             352         964.303         964.303    -7.73559E-03    -7.73559E-03         2.15414         2.15414
             353         960.009         960.009    -4.10379E-03    -4.10379E-03         2.18416         2.18416
             354         955.666         955.666     8.43410E-03     8.43410E-03         2.20357         2.20357
             355         951.295         951.295     10.7917E-03     10.7917E-03         2.21137         2.21137
             356         946.923         946.923     29.0430E-03     29.0430E-03         2.20544         2.20544
             357         942.578         942.578     30.4063E-03     30.4063E-03         2.18286         2.18286
             358         938.298         938.298     59.0806E-03     59.0806E-03         2.13914         2.13914
             359         934.130         934.130     58.8657E-03     58.8657E-03         2.06915         2.06915
             360         930.132         930.132     105.256E-03     105.256E-03         1.96505         1.96505
             361         926.382         926.382     101.553E-03     101.553E-03         1.81883         1.81883
             362         922.974         922.974     178.092E-03     178.092E-03         1.61679         1.61679
             363         920.032         920.032     166.702E-03     166.702E-03         1.34708         1.34708
             364         917.713         917.713     296.601E-03     296.601E-03     983.775E-03     983.775E-03
             365         916.221         916.221     268.698E-03     268.698E-03     510.213E-03     510.213E-03
             366         915.823         915.823     500.068E-03     500.068E-03    -128.934E-03    -128.934E-03
             367         916.876         916.876     435.499E-03     435.499E-03    -953.699E-03    -953.699E-03
             368         919.863         919.863     882.152E-03     882.152E-03        -2.10046        -2.10046
             369         925.462         925.462     727.296E-03     727.296E-03        -3.57817        -3.57817
             370         934.658         934.658         1.70800         1.70800        -5.78029        -5.78029
             371         948.914         948.914         1.29327         1.29327        -8.63246        -8.63246
             372         970.698         970.698         3.92470         3.92470        -13.5098        -13.5098
             373     1.00386E+03     1.00386E+03         2.61106         2.61106        -19.9221        -19.9221
             374     1.05742E+03     1.05742E+03         12.4966         12.4966        -34.4590        -34.4590
             375     1.14619E+03     1.14619E+03         7.31723         7.31723        -54.6944        -54.6944
             376     1.35189E+03     1.35189E+03         96.7348         96.7348        -153.066        -153.066
             377     1.31518E+03     1.31518E+03         252.925         252.925        -258.298        -258.298
             378     1.09811E+03     1.09811E+03         291.831         291.831        -241.508        -241.508
             379     1.03857E+03     1.03857E+03         286.602         286.602        -203.110        -203.110
             380         997.738         997.738         286.270         286.270        -182.618        -182.618
             381         975.932         975.932         284.248         284.248        -161.446        -161.446
             382         959.961         959.961         283.232         283.232        -145.475        -145.475
             383         949.673         949.673         282.404         282.404        -130.077        -130.077
             384         941.822         941.822         281.840         281.840        -116.893        -116.893
             385         936.301         936.301         281.512         281.512        -104.316        -104.316
             386         931.977         931.977         281.257         281.257        -92.9026        -92.9026
             387         928.785         928.785         281.149         281.149        -81.9779        -81.9779
             388         926.248         926.248         281.053         281.053        -71.7434        -71.7434
             389     1.03092E+03     1.03092E+03        -36.8143        -36.8143        -8.85582        -8.85582
             390     1.02833E+03     1.02833E+03        -28.9296        -28.9296    -881.914E-03    -881.914E-03
             391     1.02399E+03     1.02399E+03        -21.9149        -21.9149         4.24620         4.24620
             392     1.01910E+03     1.01910E+03        -16.1696        -16.1696         7.26595         7.26595
             393     1.01429E+03     1.01429E+03        -11.6752        -11.6752         8.87118         8.87118
             394     1.00982E+03     1.00982E+03        -8.25686        -8.25686         9.55755         9.55755
             395     1.00577E+03     1.00577E+03        -5.69817        -5.69817         9.64024         9.64024
             396     1.00214E+03     1.00214E+03        -3.80102        -3.80102         9.28504         9.28504
             397         998.892         998.892        -2.40349        -2.40349         8.54514         8.54514
             398         996.011         996.011        -1.38539        -1.38539         7.38001         7.38001
             399         993.502         993.502    -670.052E-03    -670.052E-03         5.66371         5.66371
             400         991.427         991.427    -230.021E-03    -230.021E-03         3.19883         3.19883
             401         986.191         986.191     1.92569E-03     1.92569E-03         1.84956         1.84956
             402         981.647         981.647     95.9425E-03     95.9425E-03         1.75376         1.75376
             403         977.635         977.635     188.272E-03     188.272E-03         1.43197         1.43197
             404         974.694         974.694     261.491E-03     261.491E-03     909.238E-03     909.238E-03
             405         973.261         973.261     306.987E-03     306.987E-03     242.614E-03     242.614E-03
             406         973.581         973.581     305.823E-03     305.823E-03    -476.190E-03    -476.190E-03
             407         975.645         975.645     264.564E-03     264.564E-03        -1.14224        -1.14224
             408         979.213         979.213     197.353E-03     197.353E-03        -1.67638        -1.67638
             409         983.880         983.880     107.068E-03     107.068E-03        -2.01999        -2.01999
             410         989.131         989.131     14.5479E-03     14.5479E-03        -2.14391        -2.14391
             411     1.05642E+03     1.05642E+03         88.2324         88.2324         27.5531         27.5531
             412     1.06751E+03     1.06751E+03         45.0868         45.0868         39.7107         39.7107
             413     1.07301E+03     1.07301E+03    -145.092E-03    -145.092E-03         31.9086         31.9086
             414     1.06774E+03     1.06774E+03        -31.6263        -31.6263         13.2190         13.2190
             415     1.05399E+03     1.05399E+03        -46.3574        -46.3574        -5.96898        -5.96898
             416     1.05547E+03     1.05547E+03        -42.1159        -42.1159    -384.263E-03    -384.263E-03
             417     1.06942E+03     1.06942E+03        -19.1269        -19.1269        -23.2404        -23.2404
             418     1.06976E+03     1.06976E+03         26.4800         26.4800        -39.6890        -39.6890
             419     1.05884E+03     1.05884E+03         78.7363         78.7363        -32.9361        -32.9361
             420         929.088         929.088         269.554         269.554         61.6156         61.6156
             421         938.770         938.770         246.417         246.417         61.2641         61.2641
             422         948.177         948.177         223.252         223.252         59.2966         59.2966
             423         957.086         957.086         200.536         200.536         56.3723         56.3723
             424         965.284         965.284         178.637         178.637         52.5650         52.5650
             425         972.624         972.624         157.873         157.873         48.0594         48.0594
             426         979.022         979.022         138.479         138.479         43.0284         43.0284
             427         984.417         984.417         120.629         120.629         37.6950         37.6950
             428         988.849         988.849         104.394         104.394         32.2522         32.2522
             429         992.343         992.343         89.7972         89.7972         26.8753         26.8753
             430         995.006         995.006         76.7923         76.7923         21.7103         21.7103
             431         996.910         996.910         65.3011         65.3011         16.8534         16.8534
             432         998.176         998.176         55.2213         55.2213         12.3823         12.3823
             433         998.885         998.885         46.4324         46.4324         8.32569         8.32569
             434         999.140         999.140         38.8180         38.8180         4.70449         4.70449
             435         999.013         999.013         32.2531         32.2531         1.50529         1.50529
             436         998.582         998.582         26.6279         26.6279        -1.28624        -1.28624
             437         997.903         997.903         21.8294         21.8294        -3.70407        -3.70407
             438         997.029         997.029         17.7612         17.7612        -5.77967        -5.77967
             439         996.002         996.002         14.3267         14.3267        -7.55395        -7.55395
             440         994.859         994.859         11.4430         11.4430        -9.06407        -9.06407
             441         993.630         993.630         9.02862         9.02862        -10.3508        -10.3508
             442         992.340         992.340         7.01233         7.01233        -11.4512        -11.4512
             443         991.011         991.011         5.32432         5.32432        -12.4032        -12.4032
             444         989.665         989.665         3.90203         3.90203        -13.2418        -13.2418
             445         988.318         988.318         2.68374         2.68374        -14.0022        -14.0022
             446         986.991         986.991         1.61203         1.61203        -14.7175        -14.7175
             447         985.704         985.704     629.281E-03     629.281E-03        -15.4213        -15.4213
             448         984.479         984.479    -320.708E-03    -320.708E-03        -16.1467        -16.1467
             449         983.347         983.347        -1.29619        -1.29619        -16.9274        -16.9274
             450         982.342         982.342        -2.35723        -2.35723        -17.7970        -17.7970
             451         981.514         981.514        -3.56894        -3.56894        -18.7894        -18.7894
             452         980.928         980.928        -5.00257        -5.00257        -19.9365        -19.9365
             453         980.670         980.670        -6.73878        -6.73878        -21.2658        -21.2658
             454         980.862         980.862        -8.86970        -8.86970        -22.7936        -22.7936
             455         981.669         981.669        -11.5005        -11.5005        -24.5150        -24.5150
             456         983.313         983.313        -14.7487        -14.7487        -26.3833        -26.3833
             457         986.092         986.092        -18.7316        -18.7316        -28.2796        -28.2796
             458         990.382         990.382        -23.5404        -23.5404        -29.9589        -29.9589
             459         996.604         996.604        -29.1469        -29.1469        -30.9789        -30.9789
             460     1.00513E+03     1.00513E+03        -35.2682        -35.2682        -30.6459        -30.6459
             461     1.01600E+03     1.01600E+03        -41.0658        -41.0658        -28.0277        -28.0277
             462     1.01338E+03     1.01338E+03        -57.1837        -57.1837        -52.1727        -52.1727
             463         970.900         970.900        -51.7506        -51.7506        -78.0507        -78.0507
             464         902.017         902.017        -28.7507        -28.7507        -87.8348        -87.8348
             465         829.494         829.494         2.65632         2.65632        -61.3639        -61.3639
             466         816.672         816.672         8.56469         8.56469         54.4654         54.4654
             467         875.109         875.109        -18.0585        -18.0585         85.8189         85.8189
             468         939.602         939.602        -43.1114        -43.1114         87.8708         87.8708
             469         989.390         989.390        -56.3094        -56.3094         70.7158         70.7158
             470     1.01878E+03     1.01878E+03        -57.2595        -57.2595         47.5921         47.5921
             471         922.506         922.506         281.039         281.039        -49.9613        -49.9613
             472         921.170         921.170         281.055         281.055        -38.4160        -38.4160
             473         920.244         920.244         281.071         281.071        -27.2326        -27.2326
             474         919.668         919.668         281.091         281.091        -16.2618        -16.2618
             475         919.389         919.389         281.097         281.097        -5.44341        -5.44341
             476         919.392         919.392         281.093         281.093         5.35100         5.35100
             477         919.675         919.675         281.080         281.080         16.1805         16.1805
             478         920.252         920.252         281.056         281.056         27.1681         27.1681
             479         921.179         921.179         281.039         281.039         38.3707         38.3707
             480         922.515         922.515         281.027         281.027         49.9341         49.9341
             481         926.250         926.250         281.048         281.048         71.7351         71.7351
             482         928.786         928.786         281.147         281.147         81.9721         81.9721
             483         931.978         931.978         281.256         281.256         92.8983         92.8983
             484         936.302         936.302         281.512         281.512         104.312         104.312
             485         941.823         941.823         281.840         281.840         116.890         116.890
             486         949.674         949.674         282.404         282.404         130.075         130.075
             487         959.962         959.962         283.232         283.232         145.473         145.473
             488         975.932         975.932         284.248         284.248         161.444         161.444
             489         997.739         997.739         286.270         286.270         182.616         182.616
             490     1.03857E+03     1.03857E+03         286.602         286.602         203.109         203.109
             491     1.09811E+03     1.09811E+03         291.831         291.831         241.507         241.507
             492     1.31518E+03     1.31518E+03         252.924         252.924         258.297         258.297
             493     1.35189E+03     1.35189E+03         96.7347         96.7347         153.066         153.066
             494     1.14620E+03     1.14620E+03         7.31719         7.31719         54.6940         54.6940
             495     1.05742E+03     1.05742E+03         12.4966         12.4966         34.4587         34.4587
             496     1.00386E+03     1.00386E+03         2.61102         2.61102         19.9219         19.9219
             497         970.700         970.700         3.92466         3.92466         13.5096         13.5096
             498         948.916         948.916         1.29324         1.29324         8.63239         8.63239
             499         934.660         934.660         1.70797         1.70797         5.78028         5.78028
             500         925.464         925.464     727.269E-03     727.269E-03         3.57822         3.57822
             501         919.865         919.865     882.130E-03     882.130E-03         2.10056         2.10056
             502         916.878         916.878     435.481E-03     435.481E-03     953.832E-03     953.832E-03
             503         915.824         915.824     500.054E-03     500.054E-03     129.096E-03     129.096E-03
             504         916.222         916.222     268.689E-03     268.689E-03    -510.029E-03    -510.029E-03
             505         917.714         917.714     296.594E-03     296.594E-03    -983.576E-03    -983.576E-03
             506         920.033         920.033     166.698E-03     166.698E-03        -1.34687        -1.34687
             507         922.974         922.974     178.090E-03     178.090E-03        -1.61658        -1.61658
             508         926.382         926.382     101.553E-03     101.553E-03        -1.81862        -1.81862
             509         930.132         930.132     105.257E-03     105.257E-03        -1.96484        -1.96484
             510         934.128         934.128     58.8667E-03     58.8667E-03        -2.06894        -2.06894
             511         938.296         938.296     59.0828E-03     59.0828E-03        -2.13893        -2.13893
             512         942.576         942.576     30.4072E-03     30.4072E-03        -2.18265        -2.18265
             513         946.920         946.920     29.0461E-03     29.0461E-03        -2.20524        -2.20524
             514         951.292         951.292     10.7918E-03     10.7918E-03        -2.21117        -2.21117
             515         955.662         955.662     8.43793E-03     8.43793E-03        -2.20336        -2.20336
             516         960.005         960.005    -4.10519E-03    -4.10519E-03        -2.18395        -2.18395
             517         964.299         964.299    -7.73102E-03    -7.73102E-03        -2.15393        -2.15393
             518         968.522         968.522    -17.9582E-03    -17.9582E-03        -2.11344        -2.11344
             519         972.654         972.654    -23.7249E-03    -23.7249E-03        -2.06165        -2.06165
             520         976.671         976.671    -34.3356E-03    -34.3356E-03        -1.99685        -1.99685
             521         980.544         980.544    -43.4335E-03    -43.4335E-03        -1.91642        -1.91642
             522         984.239         984.239    -56.5899E-03    -56.5899E-03        -1.81698        -1.81698
             523         987.714         987.714    -70.0855E-03    -70.0855E-03        -1.69446        -1.69446
             524         990.919         990.919    -87.0866E-03    -87.0866E-03        -1.54436        -1.54436
             525         993.796         993.796    -105.102E-03    -105.102E-03        -1.36220        -1.36220
             526         996.276         996.276    -125.486E-03    -125.486E-03        -1.14395        -1.14395
             527         998.285         998.285    -145.907E-03    -145.907E-03    -886.893E-03    -886.893E-03
             528         999.746         999.746    -166.086E-03    -166.086E-03    -590.433E-03    -590.433E-03
             529     1.00058E+03     1.00058E+03    -183.126E-03    -183.126E-03    -257.260E-03    -257.260E-03
             530     1.00073E+03     1.00073E+03    -195.272E-03    -195.272E-03     105.646E-03     105.646E-03
             531     1.00014E+03     1.00014E+03    -199.048E-03    -199.048E-03     486.087E-03     486.087E-03
             532         998.802         998.802    -191.952E-03    -191.952E-03     866.095E-03     866.095E-03
             533         996.731         996.731    -171.209E-03    -171.209E-03         1.22242         1.22242
             534         994.006         994.006    -135.343E-03    -135.343E-03         1.52645         1.52645
             535         15.8825         15.8825        -489.363        -489.363        -2.29593        -2.29593
             536         135.239         135.239        -181.173        -181.173        -6.16327        -6.16327
             537         326.252         326.252        -34.1649        -34.1649        -7.01464        -7.01464
             538         522.866         522.866         17.9636         17.9636        -6.10846        -6.10846
             539         685.869         685.869         26.3768         26.3768        -4.39929        -4.39929
             540     1.06149E+03     1.06149E+03        -76.5952        -76.5952        -39.7035        -39.7035
             541     1.10018E+03     1.10018E+03        -115.189        -115.189        -71.2226        -71.2226
             542     1.13670E+03     1.13670E+03        -150.744        -150.744        -122.171        -122.171
             543     1.12805E+03     1.12805E+03        -139.574        -139.574        -201.840        -201.840
             544         959.877         959.877         36.4081         36.4081        -324.978        -324.978
             545         483.521         483.521         36.1576         36.1576        -257.751        -257.751
             546         225.298         225.298        -182.071        -182.071        -119.378        -119.378
             547         73.1316         73.1316        -422.282        -422.282        -21.6049        -21.6049
             548         2.60467         2.60467        -613.150        -613.150         12.9161         12.9161
             549     1.09733E+03     1.09733E+03         159.630         159.630         1.03543         1.03543
             550     1.19110E+03     1.19110E+03         237.358         237.358     887.152E-03     887.152E-03
             551     1.36765E+03     1.36765E+03         308.907         308.907     775.272E-03     775.272E-03
             552     1.68190E+03     1.68190E+03         330.178         330.178     657.615E-03     657.615E-03
             553     2.19374E+03     2.19374E+03         240.250         240.250     435.179E-03     435.179E-03
             554     2.38837E+03     2.38837E+03         186.614         186.614        -277.342        -277.342
             555     2.07200E+03     2.07200E+03         247.748         247.748        -474.150        -474.150
             556     1.64475E+03     1.64475E+03         290.562         290.562        -549.672        -549.672
             557     1.20335E+03     1.20335E+03         270.784         270.784        -511.345        -511.345
             558         970.951         970.951         39.6367         39.6367         326.927         326.927
             559     1.13562E+03     1.13562E+03        -138.834        -138.834         199.432         199.432
             560     1.14096E+03     1.14096E+03        -150.319        -150.319         119.282         119.282
             561     1.10235E+03     1.10235E+03        -114.798        -114.798         68.9913         68.9913
             562     1.06252E+03     1.06252E+03        -76.2457        -76.2457         38.2055         38.2055
             563        -4.04395        -4.04395        -645.824        -645.824        -14.9999        -14.9999
             564         39.7540         39.7540        -502.251        -502.251    -63.0150E-03    -63.0150E-03
             565         133.283         133.283        -306.376        -306.376         60.1861         60.1861
             566         293.832         293.832        -103.236        -103.236         160.894         160.894
             567         529.616         529.616         69.4661         69.4661         281.506         281.506
             568     1.06422E+03     1.06422E+03        -78.1072        -78.1072         40.3232         40.3232
             569     1.10397E+03     1.10397E+03        -116.320        -116.320         70.4499         70.4499
             570     1.14253E+03     1.14253E+03        -151.554        -151.554         120.251         120.251
             571     1.13724E+03     1.13724E+03        -139.745        -139.745         200.086         200.086
             572         972.534         972.534         39.3939         39.3939         327.600         327.600
             573     1.20494E+03     1.20494E+03         270.382         270.382         512.154         512.154
             574     1.64650E+03     1.64650E+03         290.970         290.970         550.550         550.550
             575     2.07356E+03     2.07356E+03         248.121         248.121         474.955         474.955
             576     2.38929E+03     2.38929E+03         186.822         186.822         277.985         277.985
             577         949.400         949.400         32.6265         32.6265        -323.746        -323.746
             578     1.12350E+03     1.12350E+03        -143.897        -143.897        -204.471        -204.471
             579     1.13459E+03     1.13459E+03        -153.887        -153.887        -125.630        -125.630
             580     1.09950E+03     1.09950E+03        -117.609        -117.609        -74.5495        -74.5495
             581     1.06177E+03     1.06177E+03        -78.8209        -78.8209        -43.0129        -43.0129
             582     1.09700E+03     1.09700E+03         161.237         161.237        -3.23471        -3.23471
             583     1.19115E+03     1.19115E+03         239.046         239.046        -3.42482        -3.42482
             584     1.36853E+03     1.36853E+03         310.185         310.185        -2.39278        -2.39278
             585     1.68401E+03     1.68401E+03         330.636         330.636     830.267E-03     830.267E-03
             586     2.19760E+03     2.19760E+03         239.390         239.390         7.39785         7.39785
             587     2.43537E+03     2.43537E+03         176.300         176.300        -238.382        -238.382
             588     2.20378E+03     2.20378E+03         226.291         226.291        -426.916        -426.916
             589     1.87148E+03     1.87148E+03         277.039         277.039        -533.962        -533.962
             590     1.49684E+03     1.49684E+03         296.492         296.492        -553.850        -553.850
             591     1.13300E+03     1.13300E+03         265.473         265.473        -500.889        -500.889
             592     1.20292E+03     1.20292E+03         269.859         269.859         511.182         511.182
             593     1.64397E+03     1.64397E+03         290.453         290.453         549.507         549.507
             594     2.07062E+03     2.07062E+03         247.555         247.555         474.139         474.139
             595     2.38631E+03     2.38631E+03         186.840         186.840         277.302         277.302
             596         688.038         688.038         24.0471         24.0471        -4.37319        -4.37319
             597         524.252         524.252         16.0878         16.0878        -6.05604        -6.05604
             598         326.982         326.982        -35.8380        -35.8380        -6.93898        -6.93898
             599         135.444         135.444        -182.993        -182.993        -6.07987        -6.07987
             600         15.8170         15.8170        -491.865        -491.865        -2.22942        -2.22942
             601        -4.10946        -4.10946        -648.592        -648.592        -15.0805        -15.0805
             602         39.7925         39.7925        -504.455        -504.455    -160.466E-03    -160.466E-03
             603         133.538         133.538        -307.853        -307.853         60.2045         60.2045
             604         294.397         294.397        -103.999        -103.999         161.156         161.156
             605         530.633         530.633         69.3128         69.3128         282.020         282.020
             606         484.230         484.230         35.5187         35.5187        -257.847        -257.847
             607         225.507         225.507        -183.475        -183.475        -119.277        -119.277
             608         73.1209         73.1209        -424.473        -424.473        -21.3699        -21.3699
             609         2.50245         2.50245        -615.946        -615.946         13.1171         13.1171
             610     1.01972E+03     1.01972E+03        -33.7726        -33.7726        -12.7041        -12.7041
             611     1.01065E+03     1.01065E+03        -30.3578        -30.3578        -16.9423        -16.9423
             612     1.00264E+03     1.00264E+03        -25.8791        -25.8791        -19.2074        -19.2074
             613         996.027         996.027        -21.1479        -21.1479        -19.9486        -19.9486
             614         990.820         990.820        -16.6690        -16.6690        -19.6856        -19.6856
             615         986.868         986.868        -12.6745        -12.6745        -18.8284        -18.8284
             616         983.958         983.958        -9.23851        -9.23851        -17.6713        -17.6713
             617         981.875         981.875        -6.34797        -6.34797        -16.3982        -16.3982
             618         980.434         980.434        -3.95647        -3.95647        -15.1189        -15.1189
             619         979.483         979.483        -2.00408        -2.00408        -13.8924        -13.8924
             620         978.900         978.900    -431.187E-03    -431.187E-03        -12.7472        -12.7472
             621         978.592         978.592     818.136E-03     818.136E-03        -11.6929        -11.6929
             622         978.486         978.486         1.79351         1.79351        -10.7292        -10.7292
             623         978.526         978.526         2.53859         2.53859        -9.85015        -9.85015
             624         978.668         978.668         3.09109         3.09109        -9.04783        -9.04783
             625         978.880         978.880         3.48363         3.48363        -8.31371        -8.31371
             626         979.138         979.138         3.74415         3.74415        -7.63973        -7.63973
             627         979.423         979.423         3.89665         3.89665        -7.01875        -7.01875
             628         979.721         979.721         3.96164         3.96164        -6.44462        -6.44462
             629         980.020         980.020         3.95660         3.95660        -5.91223        -5.91223
             630         980.315         980.315         3.89641         3.89641        -5.41738        -5.41738
             631         980.600         980.600         3.79365         3.79365        -4.95661        -4.95661
             632         980.870         980.870         3.65895         3.65895        -4.52713        -4.52713
             633         981.124         981.124         3.50121         3.50121        -4.12658        -4.12658
             634         981.360         981.360         3.32789         3.32789        -3.75299        -3.75299
             635         981.578         981.578         3.14516         3.14516        -3.40465        -3.40465
             636         981.777         981.777         2.95811         2.95811        -3.08003        -3.08003
             637         981.958         981.958         2.77094         2.77094        -2.77769        -2.77769
             638         982.122         982.122         2.58702         2.58702        -2.49628        -2.49628
             639         982.269         982.269         2.40909         2.40909        -2.23448        -2.23448
             640         982.400         982.400         2.23934         2.23934        -1.99098        -1.99098
             641         982.516         982.516         2.07949         2.07949        -1.76446        -1.76446
             642         982.618         982.618         1.93087         1.93087        -1.55359        -1.55359
             643         982.708         982.708         1.79453         1.79453        -1.35702        -1.35702
             644         982.785         982.785         1.67125         1.67125        -1.17339        -1.17339
             645         982.851         982.851         1.56159         1.56159        -1.00129        -1.00129
             646         982.907         982.907         1.46600         1.46600    -839.326E-03    -839.326E-03
             647         982.953         982.953         1.38476         1.38476    -686.076E-03    -686.076E-03
             648         982.990         982.990         1.31809         1.31809    -540.105E-03    -540.105E-03
             649         983.018         983.018         1.26612         1.26612    -399.968E-03    -399.968E-03
             650         983.037         983.037         1.22896         1.22896    -264.218E-03    -264.218E-03
             651         983.049         983.049         1.20661         1.20661    -131.757E-03    -131.757E-03
             652     1.02054E+03     1.02054E+03        -28.3284        -28.3284        -4.38723        -4.38723
             653     1.01347E+03     1.01347E+03        -26.7883        -26.7883        -9.18804        -9.18804
             654     1.00683E+03     1.00683E+03        -23.9260        -23.9260        -12.4181        -12.4181
             655     1.00095E+03     1.00095E+03        -20.4039        -20.4039        -14.3295        -14.3295
             656         995.987         995.987        -16.7358        -16.7358        -15.2158        -15.2158
             657         991.958         991.958        -13.2373        -13.2373        -15.3852        -15.3852
             658         988.786         988.786        -10.0727        -10.0727        -15.0869        -15.0869
             659         986.352         986.352        -7.30875        -7.30875        -14.5086        -14.5086
             660         984.527         984.527        -4.95341        -4.95341        -13.7772        -13.7772
             661         983.194         983.194        -2.98566        -2.98566        -12.9762        -12.9762
             662         982.249         982.249        -1.36968        -1.36968        -12.1566        -12.1566
             663         981.607         981.607    -64.9664E-03    -64.9664E-03        -11.3485        -11.3485
             664         981.198         981.198     969.523E-03     969.523E-03        -10.5684        -10.5684
             665         980.964         980.964         1.77245         1.77245        -9.82394        -9.82394
             666         980.860         980.860         2.37927         2.37927        -9.11819        -9.11819
             667         980.853         980.853         2.82163         2.82163        -8.45129        -8.45129
             668         980.913         980.913         3.12747         3.12747        -7.82200        -7.82200
             669         981.020         981.020         3.32111         3.32111        -7.22856        -7.22856
             670         981.158         981.158         3.42361         3.42361        -6.66905        -6.66905
             671         981.313         981.313         3.45300         3.45300        -6.14168        -6.14168
             672         981.476         981.476         3.42468         3.42468        -5.64483        -5.64483
             673         981.642         981.642         3.35165         3.35165        -5.17708        -5.17708
             674         981.804         981.804         3.24488         3.24488        -4.73717        -4.73717
             675         981.959         981.959         3.11353         3.11353        -4.32397        -4.32397
             676         982.106         982.106         2.96522         2.96522        -3.93641        -3.93641
             677         982.243         982.243         2.80623         2.80623        -3.57346        -3.57346
             678         982.368         982.368         2.64173         2.64173        -3.23410        -3.23410
             679         982.483         982.483         2.47591         2.47591        -2.91726        -2.91726
             680         982.586         982.586         2.31215         2.31215        -2.62183        -2.62183
             681         982.679         982.679         2.15319         2.15319        -2.34668        -2.34668
             682         982.761         982.761         2.00115         2.00115        -2.09058        -2.09058
             683         982.834         982.834         1.85774         1.85774        -1.85226        -1.85226
             684         982.897         982.897         1.72425         1.72425        -1.63041        -1.63041
             685         982.953         982.953         1.60169         1.60169        -1.42365        -1.42365
             686         983.000         983.000         1.49081         1.49081        -1.23058        -1.23058
             687         983.041         983.041         1.39216         1.39216        -1.04974        -1.04974
             688         983.074         983.074         1.30614         1.30614    -879.660E-03    -879.660E-03
             689         983.102         983.102         1.23303         1.23303    -718.837E-03    -718.837E-03
             690         983.124         983.124         1.17302         1.17302    -565.753E-03    -565.753E-03
             691         983.141         983.141         1.12625         1.12625    -418.874E-03    -418.874E-03
             692         983.153         983.153         1.09280         1.09280    -276.661E-03    -276.661E-03
             693         983.160         983.160         1.07269         1.07269    -137.953E-03    -137.953E-03
             694     1.01920E+03     1.01920E+03        -22.8358        -22.8358         1.69700         1.69700
             695     1.01402E+03     1.01402E+03        -22.7209        -22.7209        -3.10004        -3.10004
             696     1.00879E+03     1.00879E+03        -21.1332        -21.1332        -6.73043        -6.73043
             697     1.00388E+03     1.00388E+03        -18.6974        -18.6974        -9.29986        -9.29986
             698         999.485         999.485        -15.8622        -15.8622        -10.9631        -10.9631
             699         995.719         995.719        -12.9589        -12.9589        -11.9075        -11.9075
             700         992.592         992.592        -10.1947        -10.1947        -12.3199        -12.3199
             701         990.064         990.064        -7.68515        -7.68515        -12.3562        -12.3562
             702         988.063         988.063        -5.48248        -5.48248        -12.1387        -12.1387
             703         986.511         986.511        -3.59853        -3.59853        -11.7560        -11.7560
             704         985.328         985.328        -2.02202        -2.02202        -11.2708        -11.2708
             705         984.446         984.446    -728.742E-03    -728.742E-03        -10.7256        -10.7256
             706         983.803         983.803     311.152E-03     311.152E-03        -10.1492        -10.1492
             707         983.346         983.346         1.12942         1.12942        -9.56043        -9.56043
             708         983.034         983.034         1.75706         1.75706        -8.97170        -8.97170
             709         982.831         982.831         2.22316         2.22316        -8.39113        -8.39113
             710         982.711         982.711         2.55410         2.55410        -7.82406        -7.82406
             711         982.651         982.651         2.77342         2.77342        -7.27408        -7.27408
             712         982.634         982.634         2.90170         2.90170        -6.74360        -6.74360
             713         982.646         982.646         2.95678         2.95678        -6.23430        -6.23430
             714         982.679         982.679         2.95389         2.95389        -5.74730        -5.74730
             715         982.724         982.724         2.90600         2.90600        -5.28336        -5.28336
             716         982.775         982.775         2.82398         2.82398        -4.84293        -4.84293
             717         982.829         982.829         2.71692         2.71692        -4.42618        -4.42618
             718         982.883         982.883         2.59235         2.59235        -4.03306        -4.03306
             719         982.935         982.935         2.45646         2.45646        -3.66331        -3.66331
             720         982.983         982.983         2.31430         2.31430        -3.31646        -3.31646
             721         983.027         983.027         2.16996         2.16996        -2.99187        -2.99187
             722         983.067         983.067         2.02673         2.02673        -2.68874        -2.68874
             723         983.102         983.102         1.88723         1.88723        -2.40612        -2.40612
             724         983.133         983.133         1.75350         1.75350        -2.14294        -2.14294
             725         983.159         983.159         1.62716         1.62716        -1.89799        -1.89799
             726         983.182         983.182         1.50945         1.50945        -1.67001        -1.67001
             727         983.201         983.201         1.40130         1.40130        -1.45763        -1.45763
             728         983.217         983.217         1.30341         1.30341        -1.25942        -1.25942
             729         983.230         983.230         1.21630         1.21630        -1.07390        -1.07390
             730         983.241         983.241         1.14033         1.14033    -899.559E-03    -899.559E-03
             731         983.250         983.250         1.07577         1.07577    -734.843E-03    -734.843E-03
             732         983.256         983.256         1.02277         1.02277    -578.177E-03    -578.177E-03
             733         983.261         983.261     981.472E-03     981.472E-03    -427.968E-03    -427.968E-03
             734         983.265         983.265     951.931E-03     951.931E-03    -282.614E-03    -282.614E-03
             735         983.267         983.267     934.165E-03     934.165E-03    -140.923E-03    -140.923E-03
             736     1.01666E+03     1.01666E+03        -17.8172        -17.8172         5.81541         5.81541
             737     1.01313E+03     1.01313E+03        -18.6107        -18.6107         1.43870         1.43870
             738     1.00923E+03     1.00923E+03        -17.9796        -17.9796        -2.21049        -2.21049
             739     1.00533E+03     1.00533E+03        -16.4220        -16.4220        -5.06998        -5.06998
             740     1.00166E+03     1.00166E+03        -14.3413        -14.3413        -7.18980        -7.18980
             741         998.358         998.358        -12.0375        -12.0375        -8.66530        -8.66530
             742         995.487         995.487        -9.72728        -9.72728        -9.61295        -9.61295
             743         993.059         993.059        -7.54814        -7.54814        -10.1485        -10.1485
             744         991.051         991.051        -5.57892        -5.57892        -10.3721        -10.3721
             745         989.419         989.419        -3.85599        -3.85599        -10.3661        -10.3661
             746         988.112         988.112        -2.38772        -2.38772        -10.1939        -10.1939
             747         987.078         987.078        -1.16520        -1.16520        -9.90368        -9.90368
             748         986.269         986.269    -169.465E-03    -169.465E-03        -9.53136        -9.53136
             749         985.641         985.641     623.329E-03     623.329E-03        -9.10358        -9.10358
             750         985.157         985.157         1.23881         1.23881        -8.64002        -8.64002
             751         984.786         984.786         1.70225         1.70225        -8.15543        -8.15543
             752         984.504         984.504         2.03749         2.03749        -7.66090        -7.66090
             753         984.289         984.289         2.26622         2.26622        -7.16487        -7.16487
             754         984.125         984.125         2.40774         2.40774        -6.67380        -6.67380
             755            984.            984.         2.47894         2.47894        -6.19267        -6.19267
             756         983.903         983.903         2.49434         2.49434        -5.72528        -5.72528
             757         983.828         983.828         2.46630         2.46630        -5.27452        -5.27452
             758         983.767         983.767         2.40523         2.40523        -4.84250        -4.84250
             759         983.717         983.717         2.31979         2.31979        -4.43073        -4.43073
             760         983.676         983.676         2.21717         2.21717        -4.04015        -4.04015
             761         983.640         983.640         2.10324         2.10324        -3.67127        -3.67127
             762         983.608         983.608         1.98277         1.98277        -3.32421        -3.32421
             763         983.579         983.579         1.85962         1.85962        -2.99875        -2.99875
             764         983.552         983.552         1.73687         1.73687        -2.69440        -2.69440
             765         983.528         983.528         1.61695         1.61695        -2.41042        -2.41042
             766         983.505         983.505         1.50178         1.50178        -2.14590        -2.14590
             767         983.484         983.484         1.39282         1.39282        -1.89973        -1.89973
             768         983.464         983.464         1.29122         1.29122        -1.67070        -1.67070
             769         983.445         983.445         1.19783         1.19783        -1.45747        -1.45747
             770         983.429         983.429         1.11328         1.11328        -1.25863        -1.25863
             771         983.414         983.414         1.03803         1.03803        -1.07270        -1.07270
             772         983.401         983.401     972.400E-03     972.400E-03    -898.139E-03    -898.139E-03
             773         983.389         983.389     916.623E-03     916.623E-03    -733.379E-03    -733.379E-03
             774         983.380         983.380     870.848E-03     870.848E-03    -576.820E-03    -576.820E-03
             775         983.373         983.373     835.173E-03     835.173E-03    -426.840E-03    -426.840E-03
             776         983.368         983.368     809.658E-03     809.658E-03    -281.810E-03    -281.810E-03
             777         983.364         983.364     794.316E-03     794.316E-03    -140.526E-03    -140.526E-03
             778     1.01366E+03     1.01366E+03        -13.5358        -13.5358         8.38631         8.38631
             779     1.01143E+03     1.01143E+03        -14.7791        -14.7791         4.60503         4.60503
             780     1.00871E+03     1.00871E+03        -14.7758        -14.7758         1.19404         1.19404
             781     1.00578E+03     1.00578E+03        -13.8841        -13.8841        -1.69877        -1.69877
             782     1.00287E+03     1.00287E+03        -12.4276        -12.4276        -4.02925        -4.02925
             783     1.00013E+03     1.00013E+03        -10.6715        -10.6715        -5.82232        -5.82232
             784         997.638         997.638        -8.81422        -8.81422        -7.13541        -7.13541
             785         995.443         995.443        -6.99658        -6.99658        -8.04107        -8.04107
             786         993.553         993.553        -5.30781        -5.30781        -8.61330        -8.61330
             787         991.952         991.952        -3.79842        -3.79842        -8.91932        -8.91932
             788         990.613         990.613        -2.49028        -2.49028        -9.01710        -9.01710
             789         989.503         989.503        -1.38611        -1.38611        -8.95436        -8.95436
             790         988.587         988.587    -476.482E-03    -476.482E-03        -8.76991        -8.76991
             791         987.833         987.833     255.131E-03     255.131E-03        -8.49468        -8.49468
             792         987.212         987.212     828.656E-03     828.656E-03        -8.15341        -8.15341
             793         986.699         986.699         1.26512         1.26512        -7.76573        -7.76573
             794         986.272         986.272         1.58505         1.58505        -7.34729        -7.34729
             795         985.915         985.915         1.80764         1.80764        -6.91056        -6.91056
             796         985.612         985.612         1.95023         1.95023        -6.46544        -6.46544
             797         985.354         985.354         2.02815         2.02815        -6.01978        -6.01978
             798         985.130         985.130         2.05464         2.05464        -5.57975        -5.57975
             799         984.934         984.934         2.04104         2.04104        -5.15015        -5.15015
             800         984.761         984.761         1.99690         1.99690        -4.73459        -4.73459
             801         984.607         984.607         1.93015         1.93015        -4.33577        -4.33577
             802         984.468         984.468         1.84738         1.84738        -3.95554        -3.95554
             803         984.343         984.343         1.75393         1.75393        -3.59512        -3.59512
             804         984.229         984.229         1.65415         1.65415        -3.25515        -3.25515
             805         984.126         984.126         1.55154         1.55154        -2.93580        -2.93580
             806         984.031         984.031         1.44886         1.44886        -2.63687        -2.63687
             807         983.946         983.946         1.34831         1.34831        -2.35784        -2.35784
             808         983.868         983.868         1.25158         1.25158        -2.09792        -2.09792
             809         983.797         983.797         1.15999         1.15999        -1.85614        -1.85614
             810         983.734         983.734         1.07453         1.07453        -1.63133        -1.63133
             811         983.678         983.678     995.958E-03     995.958E-03        -1.42222        -1.42222
             812         983.628         983.628     924.815E-03     924.815E-03        -1.22743        -1.22743
             813         983.584         983.584     861.498E-03     861.498E-03        -1.04548        -1.04548
             814         983.547         983.547     806.285E-03     806.285E-03    -874.873E-03    -874.873E-03
             815         983.515         983.515     759.365E-03     759.365E-03    -714.032E-03    -714.032E-03
             816         983.490         983.490     720.865E-03     720.865E-03    -561.369E-03    -561.369E-03
             817         983.470         983.470     690.863E-03     690.863E-03    -415.268E-03    -415.268E-03
             818         983.456         983.456     669.408E-03     669.408E-03    -274.102E-03    -274.102E-03
             819         983.448         983.448     656.510E-03     656.510E-03    -136.690E-03    -136.690E-03
             820     1.01062E+03     1.01062E+03        -10.0266        -10.0266         9.80125         9.80125
             821     1.00939E+03     1.00939E+03        -11.3894        -11.3894         6.64131         6.64131
             822     1.00765E+03     1.00765E+03        -11.7323        -11.7323         3.59074         3.59074
             823     1.00561E+03     1.00561E+03        -11.2973        -11.2973     836.530E-03     836.530E-03
             824     1.00344E+03     1.00344E+03        -10.3275        -10.3275        -1.52577        -1.52577
             825     1.00129E+03     1.00129E+03        -9.03677        -9.03677        -3.46430        -3.46430
             826         999.240         999.240        -7.59837        -7.59837        -4.99091        -4.99091
             827         997.357         997.357        -6.14009        -6.14009        -6.14088        -6.14088
             828         995.667         995.667        -4.75059        -4.75059        -6.96141        -6.96141
             829         994.175         994.175        -3.48440        -3.48440        -7.50284        -7.50284
             830         992.872         992.872        -2.37048        -2.37048        -7.81339        -7.81339
             831         991.743         991.743        -1.41894        -1.41894        -7.93681        -7.93681
             832         990.768         990.768    -627.340E-03    -627.340E-03        -7.91122        -7.91122
             833         989.925         989.925     14.6803E-03     14.6803E-03        -7.76924        -7.76924
             834         989.195         989.195     521.873E-03     521.873E-03        -7.53823        -7.53823
             835         988.559         988.559     910.916E-03     910.916E-03        -7.24103        -7.24103
             836         988.003         988.003         1.19879         1.19879        -6.89644        -6.89644
             837         987.513         987.513         1.40173         1.40173        -6.51989        -6.51989
             838         987.078         987.078         1.53466         1.53466        -6.12392        -6.12392
             839         986.690         986.690         1.61085         1.61085        -5.71860        -5.71860
             840         986.341         986.341         1.64189         1.64189        -5.31198        -5.31198
             841         986.027         986.027         1.63769         1.63769        -4.91035        -4.91035
             842         985.741         985.741         1.60662         1.60662        -4.51856        -4.51856
             843         985.482         985.482         1.55565         1.55565        -4.14023        -4.14023
             844         985.245         985.245         1.49051         1.49051        -3.77796        -3.77796
             845         985.029         985.029         1.41588         1.41588        -3.43352        -3.43352
             846         984.833         984.833         1.33554         1.33554        -3.10798        -3.10798
             847         984.654         984.654         1.25251         1.25251        -2.80184        -2.80184
             848         984.491         984.491         1.16918         1.16918        -2.51512        -2.51512
             849         984.344         984.344         1.08742         1.08742        -2.24749        -2.24749
             850         984.211         984.211         1.00869         1.00869        -1.99829        -1.99829
             851         984.091         984.091     934.097E-03     934.097E-03        -1.76664        -1.76664
             852         983.984         983.984     864.487E-03     864.487E-03        -1.55147        -1.55147
             853         983.890         983.890     800.481E-03     800.481E-03        -1.35156        -1.35156
             854         983.807         983.807     742.536E-03     742.536E-03        -1.16557        -1.16557
             855         983.734         983.734     690.975E-03     690.975E-03    -992.103E-03    -992.103E-03
             856         983.673         983.673     646.025E-03     646.025E-03    -829.669E-03    -829.669E-03
             857         983.621         983.621     607.836E-03     607.836E-03    -676.753E-03    -676.753E-03
             858         983.580         983.580     576.505E-03     576.505E-03    -531.803E-03    -531.803E-03
             859         983.548         983.548     552.095E-03     552.095E-03    -393.243E-03    -393.243E-03
             860         983.525         983.525     534.640E-03     534.640E-03    -259.492E-03    -259.492E-03
             861         983.511         983.511     524.151E-03     524.151E-03    -129.417E-03    -129.417E-03
             862     1.00774E+03     1.00774E+03        -7.21928        -7.21928         10.3522         10.3522
             863     1.00730E+03     1.00730E+03        -8.48552        -8.48552         7.76334         7.76334
             864     1.00638E+03     1.00638E+03        -8.96465        -8.96465         5.11406         5.11406
             865     1.00511E+03     1.00511E+03        -8.81019        -8.81019         2.59485         2.59485
             866     1.00364E+03     1.00364E+03        -8.19464        -8.19464     327.891E-03     327.891E-03
             867     1.00207E+03     1.00207E+03        -7.28154        -7.28154        -1.62236        -1.62236
             868     1.00049E+03     1.00049E+03        -6.20972        -6.20972        -3.23309        -3.23309
             869         998.960         998.960        -5.08822        -5.08822        -4.51110        -4.51110
             870         997.516         997.516        -3.99524        -3.99524        -5.48068        -5.48068
             871         996.178         996.178        -2.98273        -2.98273        -6.17582        -6.17582
             872         994.955         994.955        -2.08052        -2.08052        -6.63424        -6.63424
             873         993.845         993.845        -1.30219        -1.30219        -6.89358        -6.89358
             874         992.840         992.840    -649.520E-03    -649.520E-03        -6.98929        -6.98929
             875         991.932         991.932    -116.712E-03    -116.712E-03        -6.95334        -6.95334
             876         991.111         991.111     306.628E-03     306.628E-03        -6.81391        -6.81391
             877         990.366         990.366     633.181E-03     633.181E-03        -6.59525        -6.59525
             878         989.690         989.690     876.351E-03     876.351E-03        -6.31794        -6.31794
             879         989.073         989.073         1.04925         1.04925        -5.99915        -5.99915
             880         988.510         988.510         1.16408         1.16408        -5.65307        -5.65307
             881         987.994         987.994         1.23180         1.23180        -5.29123        -5.29123
             882         987.521         987.521         1.26202         1.26202        -4.92287        -4.92287
             883         987.088         987.088         1.26297         1.26297        -4.55528        -4.55528
             884         986.689         986.689         1.24161         1.24161        -4.19411        -4.19411
             885         986.324         986.324         1.20372         1.20372        -3.84360        -3.84360
             886         985.990         985.990         1.15406         1.15406        -3.50683        -3.50683
             887         985.684         985.684         1.09649         1.09649        -3.18595        -3.18595
             888         985.404         985.404         1.03414         1.03414        -2.88230        -2.88230
             889         985.150         985.150     969.462E-03     969.462E-03        -2.59659        -2.59659
             890         984.919         984.919     904.426E-03     904.426E-03        -2.32903        -2.32903
             891         984.711         984.711     840.552E-03     840.552E-03        -2.07939        -2.07939
             892         984.523         984.523     779.013E-03     779.013E-03        -1.84714        -1.84714
             893         984.355         984.355     720.704E-03     720.704E-03        -1.63148        -1.63148
             894         984.205         984.205     666.295E-03     666.295E-03        -1.43143        -1.43143
             895         984.073         984.073     616.280E-03     616.280E-03        -1.24585        -1.24585
             896         983.957         983.957     571.016E-03     571.016E-03        -1.07347        -1.07347
             897         983.857         983.857     530.755E-03     530.755E-03    -912.952E-03    -912.952E-03
             898         983.772         983.772     495.668E-03     495.668E-03    -762.907E-03    -762.907E-03
             899         983.701         983.701     465.869E-03     465.869E-03    -621.885E-03    -621.885E-03
             900         983.644         983.644     441.429E-03     441.429E-03    -488.413E-03    -488.413E-03
             901         983.600         983.600     422.391E-03     422.391E-03    -360.998E-03    -360.998E-03
             902         983.569         983.569     408.779E-03     408.779E-03    -238.136E-03    -238.136E-03
             903         983.550         983.550     400.603E-03     400.603E-03    -118.788E-03    -118.788E-03
             904     1.00514E+03     1.00514E+03        -5.00339        -5.00339         10.2239         10.2239
             905     1.00535E+03     1.00535E+03        -6.05131        -6.05131         8.13040         8.13040
             906     1.00513E+03     1.00513E+03        -6.52464        -6.52464         5.87945         5.87945
             907     1.00456E+03     1.00456E+03        -6.51732        -6.51732         3.64800         3.64800
             908     1.00373E+03     1.00373E+03        -6.14534        -6.14534         1.56329         1.56329
             909     1.00272E+03     1.00272E+03        -5.52601        -5.52601    -293.049E-03    -293.049E-03
             910     1.00159E+03     1.00159E+03        -4.76402        -4.76402        -1.87842        -1.87842
             911     1.00042E+03     1.00042E+03        -3.94427        -3.94427        -3.17921        -3.17921
             912         999.233         999.233        -3.13060        -3.13060        -4.20280        -4.20280
             913         998.068         998.068        -2.36655        -2.36655        -4.96966        -4.96966
             914         996.941         996.941        -1.67896        -1.67896        -5.50778        -5.50778
             915         995.864         995.864        -1.08121        -1.08121        -5.84835        -5.84835
             916         994.842         994.842    -577.030E-03    -577.030E-03        -6.02283        -6.02283
             917         993.878         993.878    -163.523E-03    -163.523E-03        -6.06114        -6.06114
             918         992.972         992.972     166.287E-03     166.287E-03        -5.99055        -5.99055
             919         992.123         992.123     421.585E-03     421.585E-03        -5.83525        -5.83525
             920         991.328         991.328     612.411E-03     612.411E-03        -5.61611        -5.61611
             921         990.586         990.586     748.762E-03     748.762E-03        -5.35083        -5.35083
             922         989.894         989.894     840.043E-03     840.043E-03        -5.05414        -5.05414
             923         989.250         989.250     894.754E-03     894.754E-03        -4.73809        -4.73809
             924         988.653         988.653     920.364E-03     920.364E-03        -4.41241        -4.41241
             925         988.100         988.100     923.290E-03     923.290E-03        -4.08475        -4.08475
             926         987.589         987.589     908.944E-03     908.944E-03        -3.76105        -3.76105
             927         987.118         987.118     881.821E-03     881.821E-03        -3.44580        -3.44580
             928         986.686         986.686     845.612E-03     845.612E-03        -3.14226        -3.14226
             929         986.290         986.290     803.305E-03     803.305E-03        -2.85271        -2.85271
             930         985.929         985.929     757.297E-03     757.297E-03        -2.57860        -2.57860
             931         985.600         985.600     709.487E-03     709.487E-03        -2.32075        -2.32075
             932         985.303         985.303     661.368E-03     661.368E-03        -2.07943        -2.07943
             933         985.034         985.034     614.095E-03     614.095E-03        -1.85451        -1.85451
             934         984.793         984.793     568.557E-03     568.557E-03        -1.64553        -1.64553
             935         984.578         984.578     525.423E-03     525.423E-03        -1.45178        -1.45178
             936         984.387         984.387     485.193E-03     485.193E-03        -1.27235        -1.27235
             937         984.219         984.219     448.232E-03     448.232E-03        -1.10620        -1.10620
             938         984.072         984.072     414.800E-03     414.800E-03    -952.165E-03    -952.165E-03
             939         983.945         983.945     385.079E-03     385.079E-03    -809.020E-03    -809.020E-03
             940         983.838         983.838     359.193E-03     359.193E-03    -675.472E-03    -675.472E-03
             941         983.749         983.749     337.217E-03     337.217E-03    -550.195E-03    -550.195E-03
             942         983.677         983.677     319.199E-03     319.199E-03    -431.833E-03    -431.833E-03
             943         983.622         983.622     305.166E-03     305.166E-03    -319.016E-03    -319.016E-03
             944         983.583         983.583     295.132E-03     295.132E-03    -210.367E-03    -210.367E-03
             945         983.560         983.560     289.109E-03     289.109E-03    -104.968E-03    -104.968E-03
             946     1.00286E+03     1.00286E+03        -3.27193        -3.27193         9.50373         9.50373
             947     1.00367E+03     1.00367E+03        -4.04734        -4.04734         7.83526         7.83526
             948     1.00410E+03     1.00410E+03        -4.43237        -4.43237         5.96812         5.96812
             949     1.00417E+03     1.00417E+03        -4.48142        -4.48142         4.05700         4.05700
             950     1.00393E+03     1.00393E+03        -4.26839        -4.26839         2.22190         2.22190
             951     1.00343E+03     1.00343E+03        -3.87162        -3.87162     546.993E-03     546.993E-03
             952     1.00274E+03     1.00274E+03        -3.36363        -3.36363    -916.059E-03    -916.059E-03
             953     1.00190E+03     1.00190E+03        -2.80522        -2.80522        -2.14305        -2.14305
             954     1.00096E+03     1.00096E+03        -2.24300        -2.24300        -3.13025        -3.13025
             955         999.957         999.957        -1.70992        -1.70992        -3.88862        -3.88862
             956         998.918         998.918        -1.22672        -1.22672        -4.43822        -4.43822
             957         997.867         997.867    -804.498E-03    -804.498E-03        -4.80418        -4.80418
             958         996.821         996.821    -447.014E-03    -447.014E-03        -5.01348        -5.01348
             959         995.794         995.794    -153.029E-03    -153.029E-03        -5.09282        -5.09282
             960         994.796         994.796     81.9287E-03     81.9287E-03        -5.06724        -5.06724
             961         993.835         993.835     264.096E-03     264.096E-03        -4.95933        -4.95933
             962         992.916         992.916     400.475E-03     400.475E-03        -4.78887        -4.78887
             963         992.042         992.042     498.124E-03     498.124E-03        -4.57274        -4.57274
             964         991.218         991.218     563.729E-03     563.729E-03        -4.32510        -4.32510
             965         990.443         990.443     603.356E-03     603.356E-03        -4.05754        -4.05754
             966         989.719         989.719     622.341E-03     622.341E-03        -3.77940        -3.77940
             967         989.045         989.045     625.267E-03     625.267E-03        -3.49806        -3.49806
             968         988.421         988.421     615.992E-03     615.992E-03        -3.21922        -3.21922
             969         987.845         987.845     597.717E-03     597.717E-03        -2.94717        -2.94717
             970         987.315         987.315     573.058E-03     573.058E-03        -2.68503        -2.68503
             971         986.831         986.831     544.131E-03     544.131E-03        -2.43497        -2.43497
             972         986.390         986.390     512.622E-03     512.622E-03        -2.19839        -2.19839
             973         985.989         985.989     479.864E-03     479.864E-03        -1.97606        -1.97606
             974         985.627         985.627     446.898E-03     446.898E-03        -1.76826        -1.76826
             975         985.301         985.301     414.527E-03     414.527E-03        -1.57489        -1.57489
             976         985.010         985.010     383.363E-03     383.363E-03        -1.39554        -1.39554
             977         984.750         984.750     353.867E-03     353.867E-03        -1.22959        -1.22959
             978         984.520         984.520     326.376E-03     326.376E-03        -1.07623        -1.07623
             979         984.319         984.319     301.139E-03     301.139E-03    -934.526E-03    -934.526E-03
             980         984.143         984.143     278.328E-03     278.328E-03    -803.455E-03    -803.455E-03
             981         983.992         983.992     258.063E-03     258.063E-03    -681.925E-03    -681.925E-03
             982         983.864         983.864     240.423E-03     240.423E-03    -568.796E-03    -568.796E-03
             983         983.758         983.758     225.458E-03     225.458E-03    -462.902E-03    -462.902E-03
             984         983.673         983.673     213.193E-03     213.193E-03    -363.056E-03    -363.056E-03
             985         983.608         983.608     203.638E-03     203.638E-03    -268.055E-03    -268.055E-03
             986         983.562         983.562     196.805E-03     196.805E-03    -176.689E-03    -176.689E-03
             987         983.534         983.534     192.705E-03     192.705E-03    -88.2187E-03    -88.2187E-03
             988     1.00096E+03     1.00096E+03        -1.94056        -1.94056         8.19617         8.19617
             989     1.00239E+03     1.00239E+03        -2.44041        -2.44041         6.90612         6.90612
             990     1.00345E+03     1.00345E+03        -2.70183        -2.70183         5.41985         5.41985
             991     1.00413E+03     1.00413E+03        -2.75451        -2.75451         3.86479         3.86479
             992     1.00444E+03     1.00444E+03        -2.64132        -2.64132         2.34422         2.34422
             993     1.00443E+03     1.00443E+03        -2.40950        -2.40950     934.681E-03     934.681E-03
             994     1.00412E+03     1.00412E+03        -2.10387        -2.10387    -313.786E-03    -313.786E-03
             995     1.00358E+03     1.00358E+03        -1.76273        -1.76273        -1.37409        -1.37409
             996     1.00284E+03     1.00284E+03        -1.41606        -1.41606        -2.23781        -2.23781
             997     1.00196E+03     1.00196E+03        -1.08525        -1.08525        -2.91001        -2.91001
             998     1.00098E+03     1.00098E+03    -784.154E-03    -784.154E-03        -3.40501        -3.40501
             999         999.921         999.921    -520.278E-03    -520.278E-03        -3.74244        -3.74244
            1000         998.823         998.823    -296.473E-03    -296.473E-03        -3.94444        -3.94444
            1001         997.708         997.708    -112.218E-03    -112.218E-03        -4.03346        -4.03346
            1002         996.597         996.597     35.1089E-03     35.1089E-03        -4.03093        -4.03093
            1003         995.507         995.507     149.352E-03     149.352E-03        -3.95639        -3.95639
            1004         994.449         994.449     234.878E-03     234.878E-03        -3.82702        -3.82702
            1005         993.434         993.434     296.124E-03     296.124E-03        -3.65759        -3.65759
            1006         992.468         992.468     337.304E-03     337.304E-03        -3.46044        -3.46044
            1007         991.555         991.555     362.244E-03     362.244E-03        -3.24568        -3.24568
            1008         990.700         990.700     374.307E-03     374.307E-03        -3.02143        -3.02143
            1009         989.904         989.904     376.377E-03     376.377E-03        -2.79410        -2.79410
            1010         989.165         989.165     370.879E-03     370.879E-03        -2.56860        -2.56860
            1011         988.484         988.484     359.816E-03     359.816E-03        -2.34861        -2.34861
            1012         987.860         987.860     344.821E-03     344.821E-03        -2.13679        -2.13679
            1013         987.290         987.290     327.209E-03     327.209E-03        -1.93497        -1.93497
            1014         986.771         986.771     308.024E-03     308.024E-03        -1.74432        -1.74432
            1015         986.302         986.302     288.090E-03     288.090E-03        -1.56547        -1.56547
            1016         985.879         985.879     268.045E-03     268.045E-03        -1.39864        -1.39864
            1017         985.500         985.500     248.378E-03     248.378E-03        -1.24373        -1.24373
            1018         985.162         985.162     229.463E-03     229.463E-03        -1.10038        -1.10038
            1019         984.861         984.861     211.576E-03     211.576E-03    -968.046E-03    -968.046E-03
            1020         984.596         984.596     194.920E-03     194.920E-03    -846.057E-03    -846.057E-03
            1021         984.365         984.365     179.642E-03     179.642E-03    -733.626E-03    -733.626E-03
            1022         984.163         984.163     165.843E-03     165.843E-03    -629.897E-03    -629.897E-03
            1023         983.991         983.991     153.593E-03     153.593E-03    -533.965E-03    -533.965E-03
            1024         983.845         983.845     142.938E-03     142.938E-03    -444.890E-03    -444.890E-03
            1025         983.725         983.725     133.903E-03     133.903E-03    -361.710E-03    -361.710E-03
            1026         983.628         983.628     126.507E-03     126.507E-03    -283.454E-03    -283.454E-03
            1027         983.554         983.554     120.746E-03     120.746E-03    -209.152E-03    -209.152E-03
            1028         983.502         983.502     116.606E-03     116.606E-03    -137.812E-03    -137.812E-03
            1029         983.471         983.471     114.122E-03     114.122E-03    -68.8831E-03    -68.8831E-03
            1030         999.500         999.500    -961.961E-03    -961.961E-03         6.22992         6.22992
            1031     1.00165E+03     1.00165E+03        -1.22329        -1.22329         5.31145         5.31145
            1032     1.00338E+03     1.00338E+03        -1.36388        -1.36388         4.23474         4.23474
            1033     1.00467E+03     1.00467E+03        -1.39773        -1.39773         3.09469         3.09469
            1034     1.00551E+03     1.00551E+03        -1.34591        -1.34591         1.96954         1.96954
            1035     1.00592E+03     1.00592E+03        -1.23208        -1.23208     918.646E-03     918.646E-03
            1036     1.00594E+03     1.00594E+03        -1.07909        -1.07909    -17.8973E-03    -17.8973E-03
            1037     1.00563E+03     1.00563E+03    -906.750E-03    -906.750E-03    -817.481E-03    -817.481E-03
            1038     1.00503E+03     1.00503E+03    -730.634E-03    -730.634E-03        -1.47175        -1.47175
            1039     1.00421E+03     1.00421E+03    -562.039E-03    -562.039E-03        -1.98323        -1.98323
            1040     1.00321E+03     1.00321E+03    -408.242E-03    -408.242E-03        -2.36177        -2.36177
            1041     1.00209E+03     1.00209E+03    -273.316E-03    -273.316E-03        -2.62172        -2.62172
            1042     1.00089E+03     1.00089E+03    -158.803E-03    -158.803E-03        -2.77957        -2.77957
            1043         999.647         999.647    -64.5239E-03    -64.5239E-03        -2.85227        -2.85227
            1044         998.387         998.387     10.8491E-03     10.8491E-03        -2.85603        -2.85603
            1045         997.138         997.138     69.2754E-03     69.2754E-03        -2.80571        -2.80571
            1046         995.919         995.919     113.002E-03     113.002E-03        -2.71435        -2.71435
            1047         994.744         994.744     144.315E-03     144.315E-03        -2.59314        -2.59314
            1048         993.624         993.624     165.384E-03     165.384E-03        -2.45140        -2.45140
            1049         992.566         992.566     178.180E-03     178.180E-03        -2.29675        -2.29675
            1050         991.575         991.575     184.428E-03     184.428E-03        -2.13527        -2.13527
            1051         990.653         990.653     185.609E-03     185.609E-03        -1.97171        -1.97171
            1052         989.800         989.800     182.960E-03     182.960E-03        -1.80970        -1.80970
            1053         989.016         989.016     177.504E-03     177.504E-03        -1.65194        -1.65194
            1054         988.299         988.299     170.069E-03     170.069E-03        -1.50035        -1.50035
            1055         987.647         987.647     161.322E-03     161.322E-03        -1.35624        -1.35624
            1056         987.056         987.056     151.791E-03     151.791E-03        -1.22043        -1.22043
            1057         986.523         986.523     141.889E-03     141.889E-03        -1.09333        -1.09333
            1058         986.045         986.045     131.936E-03     131.936E-03    -975.080E-03    -975.080E-03
            1059         985.618         985.618     122.177E-03     122.177E-03    -865.556E-03    -865.556E-03
            1060         985.238         985.238     112.796E-03     112.796E-03    -764.475E-03    -764.475E-03
            1061         984.902         984.902     103.930E-03     103.930E-03    -671.416E-03    -671.416E-03
            1062         984.606         984.606     95.6801E-03     95.6801E-03    -585.863E-03    -585.863E-03
            1063         984.349         984.349     88.1165E-03     88.1165E-03    -507.231E-03    -507.231E-03
            1064         984.126         984.126     81.2895E-03     81.2895E-03    -434.888E-03    -434.888E-03
            1065         983.935         983.935     75.2314E-03     75.2314E-03    -368.167E-03    -368.167E-03
            1066         983.775         983.775     69.9646E-03     69.9646E-03    -306.383E-03    -306.383E-03
            1067         983.642         983.642     65.5010E-03     65.5010E-03    -248.837E-03    -248.837E-03
            1068         983.536         983.536     61.8491E-03     61.8491E-03    -194.822E-03    -194.822E-03
            1069         983.455         983.455     59.0215E-03     59.0215E-03    -143.637E-03    -143.637E-03
            1070         983.398         983.398     56.9772E-03     56.9772E-03    -94.6086E-03    -94.6086E-03
            1071         983.364         983.364     55.7055E-03     55.7055E-03    -47.4445E-03    -47.4445E-03
            1072         998.620         998.620    -338.276E-03    -338.276E-03         3.47861         3.47861
            1073     1.00162E+03     1.00162E+03    -433.464E-03    -433.464E-03         2.98023         2.98023
            1074     1.00412E+03     1.00412E+03    -485.475E-03    -485.475E-03         2.39174         2.39174
            1075     1.00604E+03     1.00604E+03    -499.277E-03    -499.277E-03         1.76623         1.76623
            1076     1.00738E+03     1.00738E+03    -482.140E-03    -482.140E-03         1.14729         1.14729
            1077     1.00816E+03     1.00816E+03    -442.438E-03    -442.438E-03     568.190E-03     568.190E-03
            1078     1.00842E+03     1.00842E+03    -388.420E-03    -388.420E-03     51.6007E-03     51.6007E-03
            1079     1.00824E+03     1.00824E+03    -327.182E-03    -327.182E-03    -389.534E-03    -389.534E-03
            1080     1.00767E+03     1.00767E+03    -264.421E-03    -264.421E-03    -750.412E-03    -750.412E-03
            1081     1.00680E+03     1.00680E+03    -204.204E-03    -204.204E-03        -1.03228        -1.03228
            1082     1.00570E+03     1.00570E+03    -149.219E-03    -149.219E-03        -1.24064        -1.24064
            1083     1.00444E+03     1.00444E+03    -100.938E-03    -100.938E-03        -1.38350        -1.38350
            1084     1.00306E+03     1.00306E+03    -59.9467E-03    -59.9467E-03        -1.47011        -1.47011
            1085     1.00163E+03     1.00163E+03    -26.1848E-03    -26.1848E-03        -1.50991        -1.50991
            1086     1.00017E+03     1.00017E+03     817.914E-06     817.914E-06        -1.51200        -1.51200
            1087         998.720         998.720     21.7627E-03     21.7627E-03        -1.48462        -1.48462
            1088         997.309         997.309     37.4583E-03     37.4583E-03        -1.43502        -1.43502
            1089         995.952         995.952     48.7224E-03     48.7224E-03        -1.36938        -1.36938
            1090         994.662         994.662     56.3356E-03     56.3356E-03        -1.29281        -1.29281
            1091         993.449         993.449     61.0013E-03     61.0013E-03        -1.20949        -1.20949
            1092         992.316         992.316     63.3385E-03     63.3385E-03        -1.12271        -1.12271
            1093         991.267         991.267     63.8736E-03     63.8736E-03        -1.03505        -1.03505
            1094         990.301         990.301     63.0486E-03     63.0486E-03    -948.439E-03    -948.439E-03
            1095         989.417         989.417     61.2262E-03     61.2262E-03    -864.313E-03    -864.313E-03
            1096         988.613         988.613     58.7012E-03     58.7012E-03    -783.682E-03    -783.682E-03
            1097         987.884         987.884     55.7089E-03     55.7089E-03    -707.221E-03    -707.221E-03
            1098         987.227         987.227     52.4361E-03     52.4361E-03    -635.338E-03    -635.338E-03
            1099         986.637         986.637     49.0285E-03     49.0285E-03    -568.233E-03    -568.233E-03
            1100         986.110         986.110     45.5988E-03     45.5988E-03    -505.948E-03    -505.948E-03
            1101         985.642         985.642     42.2330E-03     42.2330E-03    -448.402E-03    -448.402E-03
            1102         985.227         985.227     38.9959E-03     38.9959E-03    -395.420E-03    -395.420E-03
            1103         984.861         984.861     35.9358E-03     35.9358E-03    -346.762E-03    -346.762E-03
            1104         984.542         984.542     33.0872E-03     33.0872E-03    -302.140E-03    -302.140E-03
            1105         984.264         984.264     30.4757E-03     30.4757E-03    -261.229E-03    -261.229E-03
            1106         984.024         984.024     28.1177E-03     28.1177E-03    -223.683E-03    -223.683E-03
            1107         983.820         983.820     26.0261E-03     26.0261E-03    -189.140E-03    -189.140E-03
            1108         983.649         983.649     24.2063E-03     24.2063E-03    -157.231E-03    -157.231E-03
            1109         983.508         983.508     22.6665E-03     22.6665E-03    -127.578E-03    -127.578E-03
            1110         983.395         983.395     21.4038E-03     21.4038E-03    -99.8041E-03    -99.8041E-03
            1111         983.309         983.309     20.4342E-03     20.4342E-03    -73.5230E-03    -73.5230E-03
            1112         983.249         983.249     19.7605E-03     19.7605E-03    -48.3741E-03    -48.3741E-03
            1113         983.213         983.213     19.2725E-03     19.2725E-03    -24.4429E-03    -24.4429E-03
            1114     1.00192E+03     1.00192E+03        -40.6568        -40.6568         38.9483         38.9483
            1115         989.775         989.775        -31.6377        -31.6377         37.8431         37.8431
            1116         981.437         981.437        -23.7002        -23.7002         34.8495         34.8495
            1117         976.040         976.040        -17.1766        -17.1766         31.1573         31.1573
            1118         972.752         972.752        -11.9928        -11.9928         27.4281         27.4281
            1119         970.910         970.910        -7.91736        -7.91736         23.9749         23.9749
            1120         970.038         970.038        -4.72613        -4.72613         20.9160         20.9160
            1121         969.804         969.804        -2.22690        -2.22690         18.2698         18.2698
            1122         969.985         969.985    -272.171E-03    -272.171E-03         16.0088         16.0088
            1123         970.431         970.431         1.25222         1.25222         14.0878         14.0878
            1124         971.040         971.040         2.43222         2.43222         12.4574         12.4574
            1125         971.743         971.743         3.33422         3.33422         11.0709         11.0709
            1126         972.495         972.495         4.00957         4.00957         9.88638         9.88638
            1127         973.263         973.263         4.49907         4.49907         8.86824         8.86824
            1128         974.029         974.029         4.83552         4.83552         7.98658         7.98658
            1129         974.776         974.776         5.04589         5.04589         7.21683         7.21683
            1130         975.496         975.496         5.15260         5.15260         6.53908         6.53908
            1131         976.182         976.182         5.17458         5.17458         5.93729         5.93729
            1132         976.831         976.831         5.12793         5.12793         5.39866         5.39866
            1133         977.441         977.441         5.02642         5.02642         4.91305         4.91305
            1134         978.010         978.010         4.88188         4.88188         4.47242         4.47242
            1135         978.538         978.538         4.70444         4.70444         4.07042         4.07042
            1136         979.027         979.027         4.50282         4.50282         3.70204         3.70204
            1137         979.477         979.477         4.28445         4.28445         3.36327         3.36327
            1138         979.890         979.890         4.05566         4.05566         3.05090         3.05090
            1139         980.267         980.267         3.82183         3.82183         2.76230         2.76230
            1140         980.609         980.609         3.58747         3.58747         2.49529         2.49529
            1141         980.920         980.920         3.35633         3.35633         2.24803         2.24803
            1142         981.200         981.200         3.13155         3.13155         2.01887         2.01887
            1143         981.451         981.451         2.91568         2.91568         1.80636         1.80636
            1144         981.676         981.676         2.71080         2.71080         1.60915         1.60915
            1145         981.876         981.876         2.51859         2.51859         1.42598         1.42598
            1146         982.053         982.053         2.34036         2.34036         1.25562         1.25562
            1147         982.208         982.208         2.17715         2.17715         1.09688         1.09688
            1148         982.343         982.343         2.02976         2.02976     948.602E-03     948.602E-03
            1149         982.458         982.458         1.89880         1.89880     809.614E-03     809.614E-03
            1150         982.556         982.556         1.78470         1.78470     678.766E-03     678.766E-03
            1151         982.637         982.637         1.68779         1.68779     554.904E-03     554.904E-03
            1152         982.702         982.702         1.60830         1.60830     436.874E-03     436.874E-03
            1153         982.752         982.752         1.54640         1.54640     323.524E-03     323.524E-03
            1154         982.787         982.787         1.50219         1.50219     213.699E-03     213.699E-03
            1155         982.808         982.808         1.47568         1.47568     106.516E-03     106.516E-03
            1156         977.705         977.705        -37.1723        -37.1723         54.4584         54.4584
            1157         967.835         967.835        -26.0584        -26.0584         47.6111         47.6111
            1158         962.672         962.672        -17.6801        -17.6801         40.5574         40.5574
            1159         960.436         960.436        -11.5233        -11.5233         34.1632         34.1632
            1160         959.930         959.930        -6.99598        -6.99598         28.7071         28.7071
            1161         960.407         960.407        -3.63948        -3.63948         24.1759         24.1759
            1162         961.417         961.417        -1.11930        -1.11930         20.4585         20.4585
            1163         962.697         962.697     790.367E-03     790.367E-03         17.4215         17.4215
            1164         964.089         964.089         2.24664         2.24664         14.9403         14.9403
            1165         965.505         965.505         3.35683         3.35683         12.9071         12.9071
            1166         966.893         966.893         4.19721         4.19721         11.2329         11.2329
            1167         968.226         968.226         4.82239         4.82239         9.84562         9.84562
            1168         969.489         969.489         5.27315         5.27315         8.68728         8.68728
            1169         970.677         970.677         5.58063         5.58063         7.71181         7.71181
            1170         971.789         971.789         5.76953         5.76953         6.88273         6.88273
            1171         972.824         972.824         5.85999         5.85999         6.17115         6.17115
            1172         973.785         973.785         5.86884         5.86884         5.55436         5.55436
            1173         974.677         974.677         5.81045         5.81045         5.01447         5.01447
            1174         975.501         975.501         5.69723         5.69723         4.53746         4.53746
            1175         976.261         976.261         5.54002         5.54002         4.11236         4.11236
            1176         976.962         976.962         5.34830         5.34830         3.73058         3.73058
            1177         977.606         977.606         5.13040         5.13040         3.38539         3.38539
            1178         978.196         978.196         4.89361         4.89361         3.07150         3.07150
            1179         978.736         978.736         4.64428         4.64428         2.78475         2.78475
            1180         979.229         979.229         4.38790         4.38790         2.52181         2.52181
            1181         979.677         979.677         4.12922         4.12922         2.28003         2.28003
            1182         980.084         980.084         3.87230         3.87230         2.05720         2.05720
            1183         980.452         980.452         3.62056         3.62056         1.85150         1.85150
            1184         980.784         980.784         3.37688         3.37688         1.66137         1.66137
            1185         981.082         981.082         3.14365         3.14365         1.48543         1.48543
            1186         981.348         981.348         2.92285         2.92285         1.32244         1.32244
            1187         981.585         981.585         2.71606         2.71606         1.17127         1.17127
            1188         981.795         981.795         2.52457         2.52457         1.03084         1.03084
            1189         981.979         981.979         2.34938         2.34938     900.110E-03     900.110E-03
            1190         982.139         982.139         2.19127         2.19127     778.093E-03     778.093E-03
            1191         982.276         982.276         2.05085         2.05085     663.808E-03     663.808E-03
            1192         982.393         982.393         1.92855         1.92855     556.288E-03     556.288E-03
            1193         982.489         982.489         1.82472         1.82472     454.577E-03     454.577E-03
            1194         982.567         982.567         1.73959         1.73959     357.724E-03     357.724E-03
            1195         982.626         982.626         1.67332         1.67332     264.782E-03     264.782E-03
            1196         982.668         982.668         1.62603         1.62603     174.808E-03     174.808E-03
            1197         982.693         982.693         1.59775         1.59775     87.0829E-03     87.0829E-03
            1198         940.809         940.809        -25.4258        -25.4258         64.0956         64.0956
            1199         938.776         938.776        -15.1549        -15.1549         51.2561         51.2561
            1200         940.184         940.184        -8.44374        -8.44374         40.8805         40.8805
            1201         943.072         943.072        -3.99265        -3.99265         32.7795         32.7795
            1202         946.444         946.444    -951.117E-03    -951.117E-03         26.5137         26.5137
            1203         949.837         949.837         1.19555         1.19555         21.6620         21.6620
            1204         953.047         953.047         2.74998         2.74998         17.8824         17.8824
            1205         955.995         955.995         3.89914         3.89914         14.9167         14.9167
            1206         958.666         958.666         4.75730         4.75730         12.5698         12.5698
            1207         961.069         961.069         5.39799         5.39799         10.6967         10.6967
            1208         963.227         963.227         5.86897         5.86897         9.18811         9.18811
            1209         965.166         965.166         6.20310         6.20310         7.96167         7.96167
            1210         966.911         966.911         6.42383         6.42383         6.95475         6.95475
            1211         968.486         968.486         6.54898         6.54898         6.11962         6.11962
            1212         969.911         969.911         6.59280         6.59280         5.41958         5.41958
            1213         971.203         971.203         6.56727         6.56727         4.82642         4.82642
            1214         972.377         972.377         6.48287         6.48287         4.31832         4.31832
            1215         973.446         973.446         6.34895         6.34895         3.87843         3.87843
            1216         974.420         974.420         6.17403         6.17403         3.49367         3.49367
            1217         975.308         975.308         5.96591         5.96591         3.15393         3.15393
            1218         976.119         976.119         5.73169         5.73169         2.85134         2.85134
            1219         976.858         976.858         5.47786         5.47786         2.57977         2.57977
            1220         977.532         977.532         5.21028         5.21028         2.33446         2.33446
            1221         978.146         978.146         4.93420         4.93420         2.11164         2.11164
            1222         978.703         978.703         4.65431         4.65431         1.90837         1.90837
            1223         979.209         979.209         4.37472         4.37472         1.72227         1.72227
            1224         979.668         979.668         4.09902         4.09902         1.55142         1.55142
            1225         980.082         980.082         3.83029         3.83029         1.39423         1.39423
            1226         980.455         980.455         3.57117         3.57117         1.24936         1.24936
            1227         980.789         980.789         3.32386         3.32386         1.11564         1.11564
            1228         981.089         981.089         3.09022         3.09022     992.051E-03     992.051E-03
            1229         981.355         981.355         2.87173         2.87173     877.654E-03     877.654E-03
            1230         981.590         981.590         2.66964         2.66964     771.583E-03     771.583E-03
            1231         981.797         981.797         2.48489         2.48489     673.018E-03     673.018E-03
            1232         981.977         981.977         2.31826         2.31826     581.176E-03     581.176E-03
            1233         982.131         982.131         2.17033         2.17033     495.297E-03     495.297E-03
            1234         982.262         982.262         2.04154         2.04154     414.636E-03     414.636E-03
            1235         982.371         982.371         1.93221         1.93221     338.466E-03     338.466E-03
            1236         982.458         982.458         1.84258         1.84258     266.066E-03     266.066E-03
            1237         982.525         982.525         1.77283         1.77283     196.725E-03     196.725E-03
            1238         982.573         982.573         1.72307         1.72307     129.738E-03     129.738E-03
            1239         982.601         982.601         1.69332         1.69332     64.5721E-03     64.5721E-03
            1240         896.642         896.642        -6.97272        -6.97272         59.7684         59.7684
            1241         907.657         907.657        -1.19884        -1.19884         44.3879         44.3879
            1242         917.958         917.958         1.94533         1.94533         33.5953         33.5953
            1243         926.878         926.878         3.76997         3.76997         25.9222         25.9222
            1244         934.408         934.408         4.90911         4.90911         20.3579         20.3579
            1245         940.724         940.724         5.66773         5.66773         16.2441         16.2441
            1246         946.028         946.028         6.20241         6.20241         13.1526         13.1526
            1247         950.505         950.505         6.59292         6.59292         10.7932         10.7932
            1248         954.308         954.308         6.88155         6.88155         8.96841         8.96841
            1249         957.563         957.563         7.09022         7.09022         7.53889         7.53889
            1250         960.372         960.372         7.23091         7.23091         6.40590         6.40590
            1251         962.813         962.813         7.31055         7.31055         5.49741         5.49741
            1252         964.951         964.951         7.33391         7.33391         4.76071         4.76071
            1253         966.837         966.837         7.30503         7.30503         4.15641         4.15641
            1254         968.511         968.511         7.22791         7.22791         3.65505         3.65505
            1255         970.004         970.004         7.10683         7.10683         3.23424         3.23424
            1256         971.343         971.343         6.94640         6.94640         2.87699         2.87699
            1257         972.548         972.548         6.75153         6.75153         2.57028         2.57028
            1258         973.637         973.637         6.52731         6.52731         2.30413         2.30413
            1259         974.621         974.621         6.27889         6.27889         2.07086         2.07086
            1260         975.514         975.514         6.01135         6.01135         1.86454         1.86454
            1261         976.324         976.324         5.72962         5.72962         1.68056         1.68056
            1262         977.059         977.059         5.43837         5.43837         1.51537         1.51537
            1263         977.726         977.726         5.14194         5.14194         1.36618         1.36618
            1264         978.331         978.331         4.84433         4.84433         1.23077         1.23077
            1265         978.879         978.879         4.54911         4.54911         1.10740         1.10740
            1266         979.374         979.374         4.25950         4.25950     994.655E-03     994.655E-03
            1267         979.821         979.821         3.97828         3.97828     891.366E-03     891.366E-03
            1268         980.223         980.223         3.70788         3.70788     796.559E-03     796.559E-03
            1269         980.584         980.584         3.45035         3.45035     709.395E-03     709.395E-03
            1270         980.906         980.906         3.20743         3.20743     629.139E-03     629.139E-03
            1271         981.193         981.193         2.98054         2.98054     555.130E-03     555.130E-03
            1272         981.446         981.446         2.77084         2.77084     486.763E-03     486.763E-03
            1273         981.669         981.669         2.57927         2.57927     423.473E-03     423.473E-03
            1274         981.863         981.863         2.40656         2.40656     364.727E-03     364.727E-03
            1275         982.030         982.030         2.25328         2.25328     310.012E-03     310.012E-03
            1276         982.171         982.171         2.11985         2.11985     258.837E-03     258.837E-03
            1277         982.288         982.288         2.00660         2.00660     210.721E-03     210.721E-03
            1278         982.382         982.382         1.91376         1.91376     165.199E-03     165.199E-03
            1279         982.455         982.455         1.84149         1.84149     121.815E-03     121.815E-03
            1280         982.506         982.506         1.78990         1.78990     80.1259E-03     80.1259E-03
            1281         982.536         982.536         1.75902         1.75902     39.7929E-03     39.7929E-03
            1282         858.793         858.793         10.9936         10.9936         36.5313         36.5313
            1283         883.298         883.298         10.7554         10.7554         25.5931         25.5931
            1284         901.564         901.564         10.1490         10.1490         18.6311         18.6311
            1285         915.426         915.426         9.57072         9.57072         13.9637         13.9637
            1286         926.167         926.167         9.11098         9.11098         10.7111         10.7111
            1287         934.643         934.643         8.77444         8.77444         8.38027         8.38027
            1288         941.444         941.444         8.53977         8.53977         6.66910         6.66910
            1289         946.982         946.982         8.37859         8.37859         5.38921         5.38921
            1290         951.555         951.555         8.26452         8.26452         4.41506         4.41506
            1291         955.379         955.379         8.17483         8.17483         3.66292         3.66292
            1292         958.614         958.614         8.09173         8.09173         3.07400         3.07400
            1293         961.381         961.381         8.00168         8.00168         2.60709         2.60709
            1294         963.771         963.771         7.89524         7.89524         2.23223         2.23223
            1295         965.854         965.854         7.76623         7.76623         1.92766         1.92766
            1296         967.683         967.683         7.61131         7.61131         1.67719         1.67719
            1297         969.301         969.301         7.42930         7.42930         1.46878         1.46878
            1298         970.742         970.742         7.22081         7.22081         1.29331         1.29331
            1299         972.030         972.030         6.98769         6.98769         1.14393         1.14393
            1300         973.187         973.187         6.73275         6.73275         1.01539         1.01539
            1301         974.229         974.229         6.45939         6.45939     903.680E-03     903.680E-03
            1302         975.171         975.171         6.17138         6.17138     805.735E-03     805.735E-03
            1303         976.022         976.022         5.87263         5.87263     719.182E-03     719.182E-03
            1304         976.794         976.794         5.56704         5.56704     642.180E-03     642.180E-03
            1305         977.492         977.492         5.25836         5.25836     573.290E-03     573.290E-03
            1306         978.124         978.124         4.95015         4.95015     511.378E-03     511.378E-03
            1307         978.696         978.696         4.64567         4.64567     455.538E-03     455.538E-03
            1308         979.212         979.212         4.34785         4.34785     405.036E-03     405.036E-03
            1309         979.678         979.678         4.05932         4.05932     359.268E-03     359.268E-03
            1310         980.097         980.097         3.78236         3.78236     317.725E-03     317.725E-03
            1311         980.472         980.472         3.51891         3.51891     279.972E-03     279.972E-03
            1312         980.808         980.808         3.27064         3.27064     245.632E-03     245.632E-03
            1313         981.106         981.106         3.03893         3.03893     214.364E-03     214.364E-03
            1314         981.370         981.370         2.82489         2.82489     185.865E-03     185.865E-03
            1315         981.601         981.601         2.62944         2.62944     159.855E-03     159.855E-03
            1316         981.802         981.802         2.45327         2.45327     136.074E-03     136.074E-03
            1317         981.976         981.976         2.29695         2.29695     114.282E-03     114.282E-03
            1318         982.123         982.123         2.16089         2.16089     94.2525E-03     94.2525E-03
            1319         982.245         982.245         2.04539         2.04539     75.7733E-03     75.7733E-03
            1320         982.343         982.343         1.95068         1.95068     58.6452E-03     58.6452E-03
            1321         982.418         982.418         1.87692         1.87692     42.6825E-03     42.6825E-03
            1322         982.471         982.471         1.82421         1.82421     27.7130E-03     27.7130E-03
            1323         982.503         982.503         1.79256         1.79256     13.6122E-03     13.6122E-03
            1324         845.605         845.605         17.5927         17.5927        -2.48635        -2.48635
            1325         875.518         875.518         14.7224         14.7224        -2.16934        -2.16934
            1326         896.593         896.593         12.7077         12.7077        -1.84308        -1.84308
            1327         912.099         912.099         11.2970         11.2970        -1.57222        -1.57222
            1328         923.859         923.859         10.3111         10.3111        -1.35055        -1.35055
            1329         932.995         932.995         9.63099         9.63099        -1.17105        -1.17105
            1330         940.240         940.240         9.16250         9.16250        -1.02405        -1.02405
            1331         946.085         946.085         8.83956         8.83956    -903.512E-03    -903.512E-03
            1332         950.875         950.875         8.61030         8.61030    -803.652E-03    -803.652E-03
            1333         954.855         954.855         8.43778         8.43778    -720.581E-03    -720.581E-03
            1334         958.205         958.205         8.29388         8.29388    -650.902E-03    -650.902E-03
            1335         961.058         961.058         8.15895         8.15895    -592.120E-03    -592.120E-03
            1336         963.513         963.513         8.01885         8.01885    -542.112E-03    -542.112E-03
            1337         965.645         965.645         7.86449         7.86449    -499.229E-03    -499.229E-03
            1338         967.513         967.513         7.69023         7.69023    -462.085E-03    -462.085E-03
            1339         969.162         969.162         7.49340         7.49340    -429.571E-03    -429.571E-03
            1340         970.626         970.626         7.27340         7.27340    -400.764E-03    -400.764E-03
            1341         971.934         971.934         7.03130         7.03130    -374.925E-03    -374.925E-03
            1342         973.107         973.107         6.76925         6.76925    -351.447E-03    -351.447E-03
            1343         974.162         974.162         6.49020         6.49020    -329.850E-03    -329.850E-03
            1344         975.114         975.114         6.19759         6.19759    -309.749E-03    -309.749E-03
            1345         975.975         975.975         5.89505         5.89505    -290.846E-03    -290.846E-03
            1346         976.753         976.753         5.58632         5.58632    -272.911E-03    -272.911E-03
            1347         977.458         977.458         5.27500         5.27500    -255.772E-03    -255.772E-03
            1348         978.096         978.096         4.96454         4.96454    -239.298E-03    -239.298E-03
            1349         978.672         978.672         4.65811         4.65811    -223.398E-03    -223.398E-03
            1350         979.193         979.193         4.35861         4.35861    -208.005E-03    -208.005E-03
            1351         979.662         979.662         4.06861         4.06861    -193.071E-03    -193.071E-03
            1352         980.083         980.083         3.79036         3.79036    -178.561E-03    -178.561E-03
            1353         980.461         980.461         3.52578         3.52578    -164.450E-03    -164.450E-03
            1354         980.799         980.799         3.27651         3.27651    -150.712E-03    -150.712E-03
            1355         981.098         981.098         3.04391         3.04391    -137.326E-03    -137.326E-03
            1356         981.364         981.364         2.82910         2.82910    -124.264E-03    -124.264E-03
            1357         981.596         981.596         2.63296         2.63296    -111.493E-03    -111.493E-03
            1358         981.799         981.799         2.45620         2.45620    -98.9746E-03    -98.9746E-03
            1359         981.973         981.973         2.29935         2.29935    -86.6605E-03    -86.6605E-03
            1360         982.120         982.120         2.16282         2.16282    -74.4930E-03    -74.4930E-03
            1361         982.243         982.243         2.04691         2.04691    -62.4037E-03    -62.4037E-03
            1362         982.341         982.341         1.95182         1.95182    -50.3125E-03    -50.3125E-03
            1363         982.417         982.417         1.87772         1.87772    -38.1270E-03    -38.1270E-03
            1364         982.471         982.471         1.82468         1.82468    -25.7411E-03    -25.7411E-03
            1365         982.503         982.503         1.79269         1.79269    -13.0632E-03    -13.0632E-03
            1366         867.885         867.885         6.65742         6.65742        -42.0123        -42.0123
            1367         889.728         889.728         7.60598         7.60598        -30.4309        -30.4309
            1368         906.197         906.197         7.83241         7.83241        -22.8140        -22.8140
            1369         918.856         918.856         7.83413         7.83413        -17.5563        -17.5563
            1370         928.767         928.767         7.78514         7.78514        -13.8056        -13.8056
            1371         936.657         936.657         7.74472         7.74472        -11.0583        -11.0583
            1372         943.032         943.032         7.72839         7.72839        -9.00349        -9.00349
            1373         948.257         948.257         7.73052         7.73052        -7.43862        -7.43862
            1374         952.594         952.594         7.74072         7.74072        -6.22847        -6.22847
            1375         956.238         956.238         7.74668         7.74668        -5.27951        -5.27951
            1376         959.333         959.333         7.73806         7.73806        -4.52595        -4.52595
            1377         961.989         961.989         7.70648         7.70648        -3.92025        -3.92025
            1378         964.291         964.291         7.64629         7.64629        -3.42767        -3.42767
            1379         966.303         966.303         7.55408         7.55408        -3.02235        -3.02235
            1380         968.074         968.074         7.42859         7.42859        -2.68486        -2.68486
            1381         969.645         969.645         7.27024         7.27024        -2.40046        -2.40046
            1382         971.046         971.046         7.08086         7.08086        -2.15790        -2.15790
            1383         972.301         972.301         6.86328         6.86328        -1.94855        -1.94855
            1384         973.429         973.429         6.62105         6.62105        -1.76577        -1.76577
            1385         974.447         974.447         6.35818         6.35818        -1.60443        -1.60443
            1386         975.367         975.367         6.07892         6.07892        -1.46056        -1.46056
            1387         976.200         976.200         5.78753         5.78753        -1.33112        -1.33112
            1388         976.955         976.955         5.48824         5.48824        -1.21372        -1.21372
            1389         977.638         977.638         5.18502         5.18502        -1.10652        -1.10652
            1390         978.257         978.257         4.88160         4.88160        -1.00809        -1.00809
            1391         978.817         978.817         4.58139         4.58139    -917.285E-03    -917.285E-03
            1392         979.322         979.322         4.28743         4.28743    -833.213E-03    -833.213E-03
            1393         979.778         979.778         4.00241         4.00241    -755.139E-03    -755.139E-03
            1394         980.188         980.188         3.72866         3.72866    -682.459E-03    -682.459E-03
            1395         980.555         980.555         3.46819         3.46819    -614.658E-03    -614.658E-03
            1396         980.882         980.882         3.22267         3.22267    -551.284E-03    -551.284E-03
            1397         981.174         981.174         2.99349         2.99349    -491.930E-03    -491.930E-03
            1398         981.431         981.431         2.78178         2.78178    -436.217E-03    -436.217E-03
            1399         981.657         981.657         2.58843         2.58843    -383.780E-03    -383.780E-03
            1400         981.853         981.853         2.41416         2.41416    -334.264E-03    -334.264E-03
            1401         982.022         982.022         2.25950         2.25950    -287.317E-03    -287.317E-03
            1402         982.165         982.165         2.12486         2.12486    -242.583E-03    -242.583E-03
            1403         982.284         982.284         2.01053         2.01053    -199.702E-03    -199.702E-03
            1404         982.379         982.379         1.91671         1.91671    -158.307E-03    -158.307E-03
            1405         982.453         982.453         1.84355         1.84355    -118.021E-03    -118.021E-03
            1406         982.505         982.505         1.79111         1.79111    -78.4570E-03    -78.4570E-03
            1407         982.536         982.536         1.75938         1.75938    -39.3172E-03    -39.3172E-03
            1408         915.347         915.347        -14.8793        -14.8793        -62.3049        -62.3049
            1409         921.207         921.207        -7.27869        -7.27869        -47.7407        -47.7407
            1410         927.965         927.965        -2.72160        -2.72160        -37.0877        -37.0877
            1411         934.406         934.406     170.533E-03     170.533E-03        -29.2589        -29.2589
            1412         940.176         940.176         2.10652         2.10652        -23.4221        -23.4221
            1413         945.219         945.219         3.46496         3.46496        -19.0106        -19.0106
            1414         949.588         949.588         4.45257         4.45257        -15.6311        -15.6311
            1415         953.365         953.365         5.18951         5.18951        -13.0104        -13.0104
            1416         956.638         956.638         5.74481         5.74481        -10.9544        -10.9544
            1417         959.485         959.485         6.16087         6.16087        -9.32375        -9.32375
            1418         961.975         961.975         6.46381         6.46381        -8.01662        -8.01662
            1419         964.166         964.166         6.67130         6.67130        -6.95780        -6.95780
            1420         966.105         966.105         6.79588         6.79588        -6.09090        -6.09090
            1421         967.830         967.830         6.84757         6.84757        -5.37339        -5.37339
            1422         969.373         969.373         6.83486         6.83486        -4.77285        -4.77285
            1423         970.758         970.758         6.76551         6.76551        -4.26447        -4.26447
            1424         972.007         972.007         6.64684         6.64684        -3.82916        -3.82916
            1425         973.137         973.137         6.48589         6.48589        -3.45219        -3.45219
            1426         974.161         974.161         6.28943         6.28943        -3.12219        -3.12219
            1427         975.091         975.091         6.06392         6.06392        -2.83035        -2.83035
            1428         975.935         975.935         5.81551         5.81551        -2.56985        -2.56985
            1429         976.703         976.703         5.54993         5.54993        -2.33541        -2.33541
            1430         977.401         977.401         5.27250         5.27250        -2.12291        -2.12291
            1431         978.036         978.036         4.98808         4.98808        -1.92914        -1.92914
            1432         978.611         978.611         4.70102         4.70102        -1.75157        -1.75157
            1433         979.132         979.132         4.41523         4.41523        -1.58822        -1.58822
            1434         979.603         979.603         4.13411         4.13411        -1.43747        -1.43747
            1435         980.028         980.028         3.86063         3.86063        -1.29800        -1.29800
            1436         980.410         980.410         3.59732         3.59732        -1.16871        -1.16871
            1437         980.753         980.753         3.34632         3.34632        -1.04864        -1.04864
            1438         981.059         981.059         3.10941         3.10941    -936.972E-03    -936.972E-03
            1439         981.330         981.330         2.88805         2.88805    -832.926E-03    -832.926E-03
            1440         981.571         981.571         2.68341         2.68341    -735.794E-03    -735.794E-03
            1441         981.781         981.781         2.49643         2.49643    -644.898E-03    -644.898E-03
            1442         981.964         981.964         2.32783         2.32783    -559.577E-03    -559.577E-03
            1443         982.122         982.122         2.17816         2.17816    -479.183E-03    -479.183E-03
            1444         982.255         982.255         2.04783         2.04783    -403.071E-03    -403.071E-03
            1445         982.366         982.366         1.93714         1.93714    -330.598E-03    -330.598E-03
            1446         982.455         982.455         1.84628         1.84628    -261.115E-03    -261.115E-03
            1447         982.523         982.523         1.77540         1.77540    -193.969E-03    -193.969E-03
            1448         982.571         982.571         1.72456         1.72456    -128.505E-03    -128.505E-03
            1449         982.600         982.600         1.69375         1.69375    -64.2201E-03    -64.2201E-03
            1450         963.955         963.955        -32.9555        -32.9555        -58.6951        -58.6951
            1451         956.992         956.992        -22.0219        -22.0219        -49.3441        -49.3441
            1452         954.408         954.408        -14.2702        -14.2702        -40.8844        -40.8844
            1453         954.208         954.208        -8.79989        -8.79989        -33.7881        -33.7881
            1454         955.225         955.225        -4.86723        -4.86723        -28.0183        -28.0183
            1455         956.826         956.826        -1.98668        -1.98668        -23.3755        -23.3755
            1456         958.667         958.667     162.618E-03     162.618E-03        -19.6484        -19.6484
            1457         960.563         960.563         1.78730         1.78730        -16.6508        -16.6508
            1458         962.416         962.416         3.02525         3.02525        -14.2300        -14.2300
            1459         964.181         964.181         3.96839         3.96839        -12.2638        -12.2638
            1460         965.834         965.834         4.68073         4.68073        -10.6561        -10.6561
            1461         967.372         967.372         5.20752         5.20752        -9.33115        -9.33115
            1462         968.795         968.795         5.58244         5.58244        -8.22993        -8.22993
            1463         970.108         970.108         5.83120         5.83120        -7.30605        -7.30605
            1464         971.318         971.318         5.97443         5.97443        -6.52322        -6.52322
            1465         972.433         972.433         6.02914         6.02914        -5.85302        -5.85302
            1466         973.459         973.459         6.00981         6.00981        -5.27322        -5.27322
            1467         974.403         974.403         5.92898         5.92898        -4.76643        -4.76643
            1468         975.270         975.270         5.79774         5.79774        -4.31907        -4.31907
            1469         976.067         976.067         5.62586         5.62586        -3.92054        -3.92054
            1470         976.797         976.797         5.42208         5.42208        -3.56259        -3.56259
            1471         977.467         977.467         5.19411         5.19411        -3.23875        -3.23875
            1472         978.079         978.079         4.94882         4.94882        -2.94400        -2.94400
            1473         978.637         978.637         4.69222         4.69222        -2.67437        -2.67437
            1474         979.146         979.146         4.42957         4.42957        -2.42672        -2.42672
            1475         979.607         979.607         4.16543         4.16543        -2.19856        -2.19856
            1476         980.026         980.026         3.90371         3.90371        -1.98783        -1.98783
            1477         980.404         980.404         3.64774         3.64774        -1.79284        -1.79284
            1478         980.744         980.744         3.40033         3.40033        -1.61216        -1.61216
            1479         981.049         981.049         3.16380         3.16380        -1.44451        -1.44451
            1480         981.322         981.322         2.94008         2.94008        -1.28878        -1.28878
            1481         981.564         981.564         2.73070         2.73070        -1.14391        -1.14391
            1482         981.777         981.777         2.53692         2.53692        -1.00892        -1.00892
            1483         981.965         981.965         2.35972         2.35972    -882.865E-03    -882.865E-03
            1484         982.128         982.128         2.19983         2.19983    -764.822E-03    -764.822E-03
            1485         982.268         982.268         2.05784         2.05784    -653.878E-03    -653.878E-03
            1486         982.386         982.386         1.93417         1.93417    -549.129E-03    -549.129E-03
            1487         982.485         982.485         1.82910         1.82910    -449.671E-03    -449.671E-03
            1488         982.564         982.564         1.74286         1.74286    -354.600E-03    -354.600E-03
            1489         982.624         982.624         1.67557         1.67557    -263.008E-03    -263.008E-03
            1490         982.667         982.667         1.62731         1.62731    -173.990E-03    -173.990E-03
            1491         982.693         982.693         1.59808         1.59808    -86.8537E-03    -86.8537E-03
            1492         997.408         997.408        -40.0467        -40.0467        -42.0964        -42.0964
            1493         985.620         985.620        -30.5598        -30.5598        -39.8484        -39.8484
            1494         977.891         977.891        -22.5107        -22.5107        -36.0019        -36.0019
            1495         973.145         973.145        -16.0701        -16.0701        -31.7353        -31.7353
            1496         970.442         970.442        -11.0422        -11.0422        -27.6515        -27.6515
            1497         969.082         969.082        -7.13241        -7.13241        -23.9905        -23.9905
            1498         968.592         968.592        -4.09026        -4.09026        -20.8151        -20.8151
            1499         968.658         968.658        -1.71695        -1.71695        -18.1078        -18.1078
            1500         969.072         969.072     135.433E-03     135.433E-03        -15.8188        -15.8188
            1501         969.698         969.698         1.57798         1.57798        -13.8892        -13.8892
            1502         970.447         970.447         2.69332         2.69332        -12.2615        -12.2615
            1503         971.260         971.260         3.54446         3.54446        -10.8837        -10.8837
            1504         972.099         972.099         4.17993         4.17993        -9.71134        -9.71134
            1505         972.937         972.937         4.63815         4.63815        -8.70675        -8.70675
            1506         973.758         973.758         4.95000         4.95000        -7.83906        -7.83906
            1507         974.550         974.550         5.14095         5.14095        -7.08310        -7.08310
            1508         975.306         975.306         5.23223         5.23223        -6.41861        -6.41861
            1509         976.023         976.023         5.24186         5.24186        -5.82935        -5.82935
            1510         976.697         976.697         5.18523         5.18523        -5.30245        -5.30245
            1511         977.327         977.327         5.07555         5.07555        -4.82770        -4.82770
            1512         977.914         977.914         4.92424         4.92424        -4.39707        -4.39707
            1513         978.457         978.457         4.74112         4.74112        -4.00424        -4.00424
            1514         978.958         978.958         4.53468         4.53468        -3.64420        -3.64420
            1515         979.419         979.419         4.31217         4.31217        -3.31299        -3.31299
            1516         979.841         979.841         4.07979         4.07979        -3.00743        -3.00743
            1517         980.226         980.226         3.84282         3.84282        -2.72496        -2.72496
            1518         980.575         980.575         3.60568         3.60568        -2.46343        -2.46343
            1519         980.891         980.891         3.37210         3.37210        -2.22102        -2.22102
            1520         981.177         981.177         3.14515         3.14515        -1.99617        -1.99617
            1521         981.432         981.432         2.92736         2.92736        -1.78745        -1.78745
            1522         981.661         981.661         2.72078         2.72078        -1.59356        -1.59356
            1523         981.864         981.864         2.52705         2.52705        -1.41328        -1.41328
            1524         982.043         982.043         2.34749         2.34749        -1.24541        -1.24541
            1525         982.200         982.200         2.18310         2.18310        -1.08882        -1.08882
            1526         982.337         982.337         2.03467         2.03467    -942.356E-03    -942.356E-03
            1527         982.454         982.454         1.90278         1.90278    -804.901E-03    -804.901E-03
            1528         982.553         982.553         1.78787         1.78787    -675.325E-03    -675.325E-03
            1529         982.635         982.635         1.69024         1.69024    -552.500E-03    -552.500E-03
            1530         982.701         982.701         1.61010         1.61010    -435.295E-03    -435.295E-03
            1531         982.751         982.751         1.54760         1.54760    -322.579E-03    -322.579E-03
            1532         982.787         982.787         1.50282         1.50282    -213.220E-03    -213.220E-03
            1533         982.808         982.808         1.47577         1.47577    -106.368E-03    -106.368E-03
            1534         987.371         987.371     26.1614E-03     26.1614E-03        -3.35455        -3.35455
            1535         990.629         990.629     44.1353E-03     44.1353E-03        -5.97720        -5.97720
            1536         993.914         993.914     17.6609E-03     17.6609E-03        -7.90095        -7.90095
            1537         997.304         997.304    -122.634E-03    -122.634E-03        -9.37567        -9.37567
            1538     1.00090E+03     1.00090E+03    -478.020E-03    -478.020E-03        -10.5800        -10.5800
            1539     1.00484E+03     1.00484E+03        -1.18919        -1.18919        -11.6160        -11.6160
            1540     1.00927E+03     1.00927E+03        -2.45163        -2.45163        -12.5090        -12.5090
            1541     1.01435E+03     1.01435E+03        -4.53914        -4.53914        -13.1869        -13.1869
            1542     1.02027E+03     1.02027E+03        -7.83160        -7.83160        -13.4321        -13.4321
            1543     1.02713E+03     1.02713E+03        -12.8349        -12.8349        -12.7834        -12.7834
            1544     1.03478E+03     1.03478E+03        -20.1300        -20.1300        -10.3891        -10.3891
            1545     1.04238E+03     1.04238E+03        -30.1318        -30.1318        -4.83611        -4.83611
            1546         983.203         983.203     315.915E-03     315.915E-03        -3.09061        -3.09061
            1547         987.621         987.621     853.511E-03     853.511E-03        -5.52830        -5.52830
            1548         991.608         991.608         1.61842         1.61842        -7.37688        -7.37688
            1549         995.378         995.378         2.51244         2.51244        -8.90361        -8.90361
            1550         999.135         999.135         3.43748         3.43748        -10.3143        -10.3143
            1551     1.00309E+03     1.00309E+03         4.28071         4.28071        -11.7598        -11.7598
            1552     1.00749E+03     1.00749E+03         4.89079         4.89079        -13.3474        -13.3474
            1553     1.01261E+03     1.01261E+03         5.04134         5.04134        -15.1379        -15.1379
            1554     1.01882E+03     1.01882E+03         4.37116         4.37116        -17.1178        -17.1178
            1555     1.02659E+03     1.02659E+03         2.28616         2.28616        -19.1231        -19.1231
            1556     1.03646E+03     1.03646E+03        -2.18667        -2.18667        -20.6359        -20.6359
            1557     1.04884E+03     1.04884E+03        -10.5173        -10.5173        -20.3616        -20.3616
            1558         979.692         979.692     585.576E-03     585.576E-03        -2.33487        -2.33487
            1559         985.058         985.058         1.60963         1.60963        -4.18060        -4.18060
            1560         989.561         989.561         3.12327         3.12327        -5.60532        -5.60532
            1561         993.533         993.533         5.01564         5.01564        -6.83778        -6.83778
            1562         997.255         997.255         7.21739         7.21739        -8.06353        -8.06353
            1563     1.00098E+03     1.00098E+03         9.68503         9.68503        -9.43798        -9.43798
            1564     1.00499E+03     1.00499E+03         12.3831         12.3831        -11.1067        -11.1067
            1565     1.00958E+03     1.00958E+03         15.2602         15.2602        -13.2204        -13.2204
            1566     1.01517E+03     1.01517E+03         18.2070         18.2070        -15.9460        -15.9460
            1567     1.02238E+03     1.02238E+03         20.9740         20.9740        -19.4636        -19.4636
            1568     1.03216E+03     1.03216E+03         22.9747         22.9747        -23.9134        -23.9134
            1569     1.04603E+03     1.04603E+03         22.8154         22.8154        -29.1629        -29.1629
            1570         977.429         977.429     778.704E-03     778.704E-03        -1.17129        -1.17129
            1571         983.410         983.410         2.15236         2.15236        -2.08391        -2.08391
            1572         988.218         988.218         4.20790         4.20790        -2.78263        -2.78263
            1573         992.264         992.264         6.83223         6.83223        -3.40246        -3.40246
            1574         995.870         995.870         9.98909         9.98909        -4.05589        -4.05589
            1575         999.310         999.310         13.7070         13.7070        -4.84384        -4.84384
            1576     1.00284E+03     1.00284E+03         18.0746         18.0746        -5.87129        -5.87129
            1577     1.00675E+03     1.00675E+03         23.2433         23.2433        -7.26480        -7.26480
            1578     1.01140E+03     1.01140E+03         29.4383         29.4383        -9.19518        -9.19518
            1579     1.01731E+03     1.01731E+03         36.9751         36.9751        -11.9131        -11.9131
            1580     1.02535E+03     1.02535E+03         46.2715         46.2715        -15.8238        -15.8238
            1581     1.03712E+03     1.03712E+03         57.7785         57.7785        -21.6253        -21.6253
            1582         976.833         976.833     851.377E-03     851.377E-03     226.981E-03     226.981E-03
            1583         983.019         983.019         2.35695         2.35695     445.031E-03     445.031E-03
            1584         987.914         987.914         4.61772         4.61772     650.545E-03     650.545E-03
            1585         991.956         991.956         7.52066         7.52066     836.801E-03     836.801E-03
            1586         995.483         995.483         11.0434         11.0434     999.065E-03     999.065E-03
            1587         998.772         998.772         15.2447         15.2447         1.13367         1.13367
            1588     1.00207E+03     1.00207E+03         20.2658         20.2658         1.23790         1.23790
            1589     1.00565E+03     1.00565E+03         26.3480         26.3480         1.31003         1.31003
            1590     1.00982E+03     1.00982E+03         33.8715         33.8715         1.34912         1.34912
            1591     1.01505E+03     1.01505E+03         43.4303         43.4303         1.35519         1.35519
            1592     1.02204E+03     1.02204E+03         55.9943         55.9943         1.32944         1.32944
            1593     1.03212E+03     1.03212E+03         73.3076         73.3076         1.27233         1.27233
            1594         978.065         978.065     786.964E-03     786.964E-03         1.63290         1.63290
            1595         984.017         984.017         2.17621         2.17621         2.98837         2.98837
            1596         988.777         988.777         4.25617         4.25617         4.10388         4.10388
            1597         992.760         992.760         6.91230         6.91230         5.10092         5.10092
            1598         996.292         996.292         10.1069         10.1069         6.08263         6.08263
            1599         999.650         999.650         13.8672         13.8672         7.14255         7.14255
            1600     1.00309E+03     1.00309E+03         18.2804         18.2804         8.38042         8.38042
            1601     1.00691E+03     1.00691E+03         23.4969         23.4969         9.91925         9.91925
            1602     1.01146E+03     1.01146E+03         29.7409         29.7409         11.9283         11.9283
            1603     1.01728E+03     1.01728E+03         37.3270         37.3270         14.6582         14.6582
            1604     1.02524E+03     1.02524E+03         46.6712         46.6712         18.5153         18.5153
            1605     1.03692E+03     1.03692E+03         58.2246         58.2246         24.2029         24.2029
            1606         980.987         980.987     602.054E-03     602.054E-03         2.81938         2.81938
            1607         986.289         986.289         1.65724         1.65724         5.12826         5.12826
            1608         990.694         990.694         3.21963         3.21963         6.98696         6.98696
            1609         994.539         994.539         5.17544         5.17544         8.61076         8.61076
            1610         998.109         998.109         7.45246         7.45246         10.1759         10.1759
            1611     1.00167E+03     1.00167E+03         10.0045         10.0045         11.8306         11.8306
            1612     1.00549E+03     1.00549E+03         12.7935         12.7935         13.7154         13.7154
            1613     1.00989E+03     1.00989E+03         15.7656         15.7656         15.9777         15.9777
            1614     1.01530E+03     1.01530E+03         18.8097         18.8097         18.7832         18.7832
            1615     1.02232E+03     1.02232E+03         21.6741         21.6741         22.3124         22.3124
            1616     1.03192E+03     1.03192E+03         23.7717         23.7717         26.7063         26.7063
            1617     1.04562E+03     1.04562E+03         23.7044         23.7044         31.8349         31.8349
            1618         985.196         985.196     340.528E-03     340.528E-03         3.61323         3.61323
            1619         989.513         989.513     924.688E-03     924.688E-03         6.54782         6.54782
            1620         993.345         993.345         1.76249         1.76249         8.85897         8.85897
            1621         996.915         996.915         2.75130         2.75130         10.8004         10.8004
            1622     1.00044E+03     1.00044E+03         3.78871         3.78871         12.5689         12.5689
            1623     1.00414E+03     1.00414E+03         4.75772         4.75772         14.3083         14.3083
            1624     1.00826E+03     1.00826E+03         5.50311         5.50311         16.1211         16.1211
            1625     1.01309E+03     1.01309E+03         5.79483         5.79483         18.0653         18.0653
            1626     1.01901E+03     1.01901E+03         5.26847         5.26847         20.1267         20.1267
            1627     1.02650E+03     1.02650E+03         3.32742         3.32742         22.1425         22.1425
            1628     1.03609E+03     1.03609E+03        -1.00343        -1.00343         23.5971         23.5971
            1629     1.04821E+03     1.04821E+03        -9.19319        -9.19319         23.1959         23.1959
            1630         990.125         990.125     58.8300E-03     58.8300E-03         3.93051         3.93051
            1631         993.233         993.233     138.648E-03     138.648E-03         7.09716         7.09716
            1632         996.298         996.298     208.958E-03     208.958E-03         9.52328         9.52328
            1633         999.409         999.409     194.423E-03     194.423E-03         11.4451         11.4451
            1634     1.00268E+03     1.00268E+03    -12.1331E-03    -12.1331E-03         13.0325         13.0325
            1635     1.00626E+03     1.00626E+03    -557.026E-03    -557.026E-03         14.3809         14.3809
            1636     1.01031E+03     1.01031E+03        -1.64110        -1.64110         15.5113         15.5113
            1637     1.01500E+03     1.01500E+03        -3.54310        -3.54310         16.3493         16.3493
            1638     1.02052E+03     1.02052E+03        -6.64740        -6.64740         16.6773         16.6773
            1639     1.02699E+03     1.02699E+03        -11.4640        -11.4640         16.0360         16.0360
            1640     1.03428E+03     1.03428E+03        -18.5760        -18.5760         13.5789         13.5789
            1641     1.04152E+03     1.04152E+03        -28.3981        -28.3981         7.89782         7.89782
            1642         983.049         983.049         1.20684         1.20684     131.755E-03     131.755E-03
            1643         983.037         983.037         1.22921         1.22921     264.245E-03     264.245E-03
            1644         983.017         983.017         1.26639         1.26639     400.033E-03     400.033E-03
            1645         982.989         982.989         1.31836         1.31836     540.202E-03     540.202E-03
            1646         982.952         982.952         1.38504         1.38504     686.202E-03     686.202E-03
            1647         982.906         982.906         1.46629         1.46629     839.478E-03     839.478E-03
            1648         982.850         982.850         1.56190         1.56190         1.00147         1.00147
            1649         982.784         982.784         1.67158         1.67158         1.17359         1.17359
            1650         982.707         982.707         1.79489         1.79489         1.35726         1.35726
            1651         982.618         982.618         1.93127         1.93127         1.55386         1.55386
            1652         982.515         982.515         2.07992         2.07992         1.76476         1.76476
            1653         982.399         982.399         2.23983         2.23983         1.99132         1.99132
            1654         982.268         982.268         2.40963         2.40963         2.23486         2.23486
            1655         982.121         982.121         2.58762         2.58762         2.49671         2.49671
            1656         981.957         981.957         2.77160         2.77160         2.77817         2.77817
            1657         981.776         981.776         2.95885         2.95885         3.08057         3.08057
            1658         981.577         981.577         3.14597         3.14597         3.40527         3.40527
            1659         981.359         981.359         3.32878         3.32878         3.75368         3.75368
            1660         981.122         981.122         3.50218         3.50218         4.12734         4.12734
            1661         980.868         980.868         3.65999         3.65999         4.52797         4.52797
            1662         980.598         980.598         3.79475         3.79475         4.95754         4.95754
            1663         980.313         980.313         3.89755         3.89755         5.41838         5.41838
            1664         980.018         980.018         3.95775         3.95775         5.91330         5.91330
            1665         979.718         979.718         3.96274         3.96274         6.44572         6.44572
            1666         979.421         979.421         3.89765         3.89765         7.01983         7.01983
            1667         979.136         979.136         3.74495         3.74495         7.64071         7.64071
            1668         978.878         978.878         3.48412         3.48412         8.31445         8.31445
            1669         978.666         978.666         3.09112         3.09112         9.04811         9.04811
            1670         978.524         978.524         2.53797         2.53797         9.84966         9.84966
            1671         978.485         978.485         1.79204         1.79204         10.7274         10.7274
            1672         978.591         978.591     815.642E-03     815.642E-03         11.6892         11.6892
            1673         978.899         978.899    -434.845E-03    -434.845E-03         12.7404         12.7404
            1674         979.481         979.481        -2.00879        -2.00879         13.8811         13.8811
            1675         980.432         980.432        -3.96177        -3.96177         15.1011         15.1011
            1676         981.869         981.869        -6.35247        -6.35247         16.3714         16.3714
            1677         983.945         983.945        -9.23959        -9.23959         17.6327         17.6327
            1678         986.840         986.840        -12.6674        -12.6674         18.7761         18.7761
            1679         990.764         990.764        -16.6466        -16.6466         19.6209         19.6209
            1680         995.926         995.926        -21.1041        -21.1041         19.8817         19.8817
            1681     1.00248E+03     1.00248E+03        -25.8164        -25.8164         19.1594         19.1594
            1682     1.01044E+03     1.01044E+03        -30.3003        -30.3003         16.9445         16.9445
            1683     1.01952E+03     1.01952E+03        -33.7719        -33.7719         12.7660         12.7660
            1684         983.160         983.160         1.07289         1.07289     137.972E-03     137.972E-03
            1685         983.153         983.153         1.09302         1.09302     276.701E-03     276.701E-03
            1686         983.141         983.141         1.12648         1.12648     418.944E-03     418.944E-03
            1687         983.124         983.124         1.17326         1.17326     565.854E-03     565.854E-03
            1688         983.102         983.102         1.23328         1.23328     718.968E-03     718.968E-03
            1689         983.074         983.074         1.30640         1.30640     879.819E-03     879.819E-03
            1690         983.040         983.040         1.39244         1.39244         1.04993         1.04993
            1691         983.000         983.000         1.49111         1.49111         1.23079         1.23079
            1692         982.952         982.952         1.60202         1.60202         1.42390         1.42390
            1693         982.897         982.897         1.72462         1.72462         1.63069         1.63069
            1694         982.833         982.833         1.85814         1.85814         1.85257         1.85257
            1695         982.760         982.760         2.00160         2.00160         2.09093         2.09093
            1696         982.678         982.678         2.15368         2.15368         2.34707         2.34707
            1697         982.585         982.585         2.31270         2.31270         2.62228         2.62228
            1698         982.482         982.482         2.47652         2.47652         2.91775         2.91775
            1699         982.367         982.367         2.64241         2.64241         3.23465         3.23465
            1700         982.242         982.242         2.80698         2.80698         3.57407         3.57407
            1701         982.105         982.105         2.96604         2.96604         3.93709         3.93709
            1702         981.958         981.958         3.11442         3.11442         4.32471         4.32471
            1703         981.802         981.802         3.24584         3.24584         4.73798         4.73798
            1704         981.640         981.640         3.35268         3.35268         5.17795         5.17795
            1705         981.475         981.475         3.42576         3.42576         5.64574         5.64574
            1706         981.311         981.311         3.45412         3.45412         6.14261         6.14261
            1707         981.156         981.156         3.42473         3.42473         6.66997         6.66997
            1708         981.018         981.018         3.32220         3.32220         7.22939         7.22939
            1709         980.911         980.911         3.12847         3.12847         7.82266         7.82266
            1710         980.851         980.851         2.82249         2.82249         8.45161         8.45161
            1711         980.858         980.858         2.37992         2.37992         9.11797         9.11797
            1712         980.961         980.961         1.77283         1.77283         9.82286         9.82286
            1713         981.194         981.194     969.612E-03     969.612E-03         10.5660         10.5660
            1714         981.604         981.604    -65.1527E-03    -65.1527E-03         11.3443         11.3443
            1715         982.244         982.244        -1.36995        -1.36995         12.1496         12.1496
            1716         983.187         983.187        -2.98564        -2.98564         12.9655         12.9655
            1717         984.517         984.517        -4.95222        -4.95222         13.7617         13.7617
            1718         986.335         986.335        -7.30500        -7.30500         14.4873         14.4873
            1719         988.760         988.760        -10.0642        -10.0642         15.0593         15.0593
            1720         991.915         991.915        -13.2212        -13.2212         15.3526         15.3526
            1721         995.921         995.921        -16.7100        -16.7100         15.1830         15.1830
            1722     1.00086E+03     1.00086E+03        -20.3699        -20.3699         14.3053         14.3053
            1723     1.00671E+03     1.00671E+03        -23.8933        -23.8933         12.4151         12.4151
            1724     1.01334E+03     1.01334E+03        -26.7769        -26.7769         9.21139         9.21139
            1725     1.02043E+03     1.02043E+03        -28.3509        -28.3509         4.42267         4.42267
            1726         983.266         983.266     934.351E-03     934.351E-03     140.947E-03     140.947E-03
            1727         983.264         983.264     952.123E-03     952.123E-03     282.663E-03     282.663E-03
            1728         983.261         983.261     981.672E-03     981.672E-03     428.044E-03     428.044E-03
            1729         983.256         983.256         1.02298         1.02298     578.283E-03     578.283E-03
            1730         983.249         983.249         1.07599         1.07599     734.980E-03     734.980E-03
            1731         983.241         983.241         1.14057         1.14057     899.727E-03     899.727E-03
            1732         983.230         983.230         1.21655         1.21655         1.07410         1.07410
            1733         983.217         983.217         1.30369         1.30369         1.25965         1.25965
            1734         983.201         983.201         1.40160         1.40160         1.45789         1.45789
            1735         983.181         983.181         1.50978         1.50978         1.67032         1.67032
            1736         983.159         983.159         1.62753         1.62753         1.89834         1.89834
            1737         983.132         983.132         1.75390         1.75390         2.14333         2.14333
            1738         983.101         983.101         1.88767         1.88767         2.40656         2.40656
            1739         983.066         983.066         2.02723         2.02723         2.68923         2.68923
            1740         983.026         983.026         2.17052         2.17052         2.99242         2.99242
            1741         982.982         982.982         2.31492         2.31492         3.31707         3.31707
            1742         982.934         982.934         2.45714         2.45714         3.66399         3.66399
            1743         982.882         982.882         2.59310         2.59310         4.03382         4.03382
            1744         982.828         982.828         2.71774         2.71774         4.42702         4.42702
            1745         982.774         982.774         2.82487         2.82487         4.84384         4.84384
            1746         982.723         982.723         2.90697         2.90697         5.28435         5.28435
            1747         982.678         982.678         2.95493         2.95493         5.74834         5.74834
            1748         982.645         982.645         2.95788         2.95788         6.23537         6.23537
            1749         982.632         982.632         2.90286         2.90286         6.74468         6.74468
            1750         982.649         982.649         2.77462         2.77462         7.27509         7.27509
            1751         982.709         982.709         2.55533         2.55533         7.82492         7.82492
            1752         982.829         982.829         2.22441         2.22441         8.39170         8.39170
            1753         983.031         983.031         1.75834         1.75834         8.97180         8.97180
            1754         983.343         983.343         1.13076         1.13076         9.55980         9.55980
            1755         983.799         983.799     312.628E-03     312.628E-03         10.1475         10.1475
            1756         984.441         984.441    -726.956E-03    -726.956E-03         10.7224         10.7224
            1757         985.321         985.321        -2.01963        -2.01963         11.2656         11.2656
            1758         986.500         986.500        -3.59504        -3.59504         11.7484         11.7484
            1759         988.048         988.048        -5.47712        -5.47712         12.1282         12.1282
            1760         990.042         990.042        -7.67688        -7.67688         12.3428         12.3428
            1761         992.560         992.560        -10.1823        -10.1823         12.3043         12.3043
            1762         995.674         995.674        -12.9418        -12.9418         11.8920         11.8920
            1763         999.424         999.424        -15.8411        -15.8411         10.9517         10.9517
            1764     1.00380E+03     1.00380E+03        -18.6764        -18.6764         9.29771         9.29771
            1765     1.00871E+03     1.00871E+03        -21.1206        -21.1206         6.74050         6.74050
            1766     1.01393E+03     1.01393E+03        -22.7238        -22.7238         3.11863         3.11863
            1767     1.01912E+03     1.01912E+03        -22.8543        -22.8543        -1.67856        -1.67856
            1768         983.364         983.364     794.477E-03     794.477E-03     140.552E-03     140.552E-03
            1769         983.367         983.367     809.823E-03     809.823E-03     281.862E-03     281.862E-03
            1770         983.372         983.372     835.345E-03     835.345E-03     426.921E-03     426.921E-03
            1771         983.380         983.380     871.028E-03     871.028E-03     576.930E-03     576.930E-03
            1772         983.389         983.389     916.813E-03     916.813E-03     733.520E-03     733.520E-03
            1773         983.400         983.400     972.603E-03     972.603E-03     898.311E-03     898.311E-03
            1774         983.413         983.413         1.03825         1.03825         1.07291         1.07291
            1775         983.428         983.428         1.11352         1.11352         1.25887         1.25887
            1776         983.445         983.445         1.19809         1.19809         1.45775         1.45775
            1777         983.463         983.463         1.29151         1.29151         1.67102         1.67102
            1778         983.483         983.483         1.39314         1.39314         1.90010         1.90010
            1779         983.504         983.504         1.50213         1.50213         2.14631         2.14631
            1780         983.527         983.527         1.61735         1.61735         2.41089         2.41089
            1781         983.552         983.552         1.73731         1.73731         2.69492         2.69492
            1782         983.578         983.578         1.86011         1.86011         2.99934         2.99934
            1783         983.607         983.607         1.98332         1.98332         3.32487         3.32487
            1784         983.639         983.639         2.10384         2.10384         3.67201         3.67201
            1785         983.675         983.675         2.21784         2.21784         4.04097         4.04097
            1786         983.717         983.717         2.32054         2.32054         4.43164         4.43164
            1787         983.766         983.766         2.40604         2.40604         4.84350         4.84350
            1788         983.827         983.827         2.46720         2.46720         5.27560         5.27560
            1789         983.902         983.902         2.49532         2.49532         5.72644         5.72644
            1790         983.999         983.999         2.48001         2.48001         6.19389         6.19389
            1791         984.124         984.124         2.40891         2.40891         6.67505         6.67505
            1792         984.287         984.287         2.26749         2.26749         7.16610         7.16610
            1793         984.502         984.502         2.03889         2.03889         7.66205         7.66205
            1794         984.784         984.784         1.70380         1.70380         8.15639         8.15639
            1795         985.154         985.154         1.24057         1.24057         8.64066         8.64066
            1796         985.637         985.637     625.392E-03     625.392E-03         9.10373         9.10373
            1797         986.264         986.264    -166.960E-03    -166.960E-03         9.53082         9.53082
            1798         987.072         987.072        -1.16205        -1.16205         9.90220         9.90220
            1799         988.104         988.104        -2.38360        -2.38360         10.1912         10.1912
            1800         989.407         989.407        -3.85048        -3.85048         10.3622         10.3622
            1801         991.035         991.035        -5.57150        -5.57150         10.3670         10.3670
            1802         993.036         993.036        -7.53830        -7.53830         10.1426         10.1426
            1803         995.456         995.456        -9.71476        -9.71476         9.60750         9.60750
            1804         998.318         998.318        -12.0228        -12.0228         8.66206         8.66206
            1805     1.00161E+03     1.00161E+03        -14.3262        -14.3262         7.19118         7.19118
            1806     1.00528E+03     1.00528E+03        -16.4103        -16.4103         5.07761         5.07761
            1807     1.00917E+03     1.00917E+03        -17.9752        -17.9752         2.22373         2.22373
            1808     1.01307E+03     1.01307E+03        -18.6158        -18.6158        -1.42318        -1.42318
            1809     1.01660E+03     1.01660E+03        -17.8296        -17.8296        -5.80206        -5.80206
            1810         983.447         983.447     656.645E-03     656.645E-03     136.716E-03     136.716E-03
            1811         983.456         983.456     669.546E-03     669.546E-03     274.155E-03     274.155E-03
            1812         983.470         983.470     691.007E-03     691.007E-03     415.349E-03     415.349E-03
            1813         983.489         983.489     721.016E-03     721.016E-03     561.479E-03     561.479E-03
            1814         983.515         983.515     759.525E-03     759.525E-03     714.173E-03     714.173E-03
            1815         983.546         983.546     806.455E-03     806.455E-03     875.045E-03     875.045E-03
            1816         983.584         983.584     861.681E-03     861.681E-03         1.04569         1.04569
            1817         983.627         983.627     925.015E-03     925.015E-03         1.22767         1.22767
            1818         983.677         983.677     996.177E-03     996.177E-03         1.42251         1.42251
            1819         983.734         983.734         1.07477         1.07477         1.63166         1.63166
            1820         983.797         983.797         1.16026         1.16026         1.85651         1.85651
            1821         983.867         983.867         1.25188         1.25188         2.09835         2.09835
            1822         983.945         983.945         1.34864         1.34864         2.35832         2.35832
            1823         984.031         984.031         1.44924         1.44924         2.63741         2.63741
            1824         984.125         984.125         1.55196         1.55196         2.93641         2.93641
            1825         984.229         984.229         1.65462         1.65462         3.25584         3.25584
            1826         984.342         984.342         1.75445         1.75445         3.59589         3.59589
            1827         984.468         984.468         1.84796         1.84796         3.95640         3.95640
            1828         984.606         984.606         1.93080         1.93080         4.33672         4.33672
            1829         984.761         984.761         1.99762         1.99762         4.73565         4.73565
            1830         984.933         984.933         2.04185         2.04185         5.15130         5.15130
            1831         985.129         985.129         2.05554         2.05554         5.58101         5.58101
            1832         985.353         985.353         2.02915         2.02915         6.02112         6.02112
            1833         985.611         985.611         1.95136         1.95136         6.46686         6.46686
            1834         985.914         985.914         1.80892         1.80892         6.91202         6.91202
            1835         986.271         986.271         1.58652         1.58652         7.34876         7.34876
            1836         986.697         986.697         1.26684         1.26684         7.76715         7.76715
            1837         987.210         987.210     830.702E-03     830.702E-03         8.15470         8.15470
            1838         987.830         987.830     257.619E-03     257.619E-03         8.49576         8.49576
            1839         988.582         988.582    -473.402E-03    -473.402E-03         8.77068         8.77068
            1840         989.497         989.497        -1.38223        -1.38223         8.95476         8.95476
            1841         990.605         990.605        -2.48534        -2.48534         9.01711         9.01711
            1842         991.941         991.941        -3.79215        -3.79215         8.91904         8.91904
            1843         993.538         993.538        -5.29996        -5.29996         8.61304         8.61304
            1844         995.423         995.423        -6.98705        -6.98705         8.04144         8.04144
            1845         997.612         997.612        -8.80330        -8.80330         7.13733         7.13733
            1846     1.00010E+03     1.00010E+03        -10.6601        -10.6601         5.82697         5.82697
            1847     1.00284E+03     1.00284E+03        -12.4175        -12.4175         4.03757         4.03757
            1848     1.00574E+03     1.00574E+03        -13.8774        -13.8774         1.71082         1.71082
            1849     1.00866E+03     1.00866E+03        -14.7744        -14.7744        -1.17945        -1.17945
            1850     1.01138E+03     1.01138E+03        -14.7833        -14.7833        -4.59037        -4.59037
            1851     1.01362E+03     1.01362E+03        -13.5442        -13.5442        -8.37348        -8.37348
            1852         983.511         983.511     524.260E-03     524.260E-03     129.442E-03     129.442E-03
            1853         983.525         983.525     534.751E-03     534.751E-03     259.543E-03     259.543E-03
            1854         983.547         983.547     552.210E-03     552.210E-03     393.322E-03     393.322E-03
            1855         983.579         983.579     576.626E-03     576.626E-03     531.909E-03     531.909E-03
            1856         983.621         983.621     607.964E-03     607.964E-03     676.889E-03     676.889E-03
            1857         983.672         983.672     646.163E-03     646.163E-03     829.836E-03     829.836E-03
            1858         983.734         983.734     691.125E-03     691.125E-03     992.303E-03     992.303E-03
            1859         983.806         983.806     742.699E-03     742.699E-03         1.16581         1.16581
            1860         983.889         983.889     800.660E-03     800.660E-03         1.35184         1.35184
            1861         983.984         983.984     864.685E-03     864.685E-03         1.55179         1.55179
            1862         984.091         984.091     934.317E-03     934.317E-03         1.76701         1.76701
            1863         984.210         984.210         1.00893         1.00893         1.99871         1.99871
            1864         984.344         984.344         1.08769         1.08769         2.24796         2.24796
            1865         984.491         984.491         1.16949         1.16949         2.51566         2.51566
            1866         984.654         984.654         1.25286         1.25286         2.80245         2.80245
            1867         984.833         984.833         1.33593         1.33593         3.10867         3.10867
            1868         985.029         985.029         1.41632         1.41632         3.43429         3.43429
            1869         985.245         985.245         1.49100         1.49100         3.77883         3.77883
            1870         985.481         985.481         1.55620         1.55620         4.14120         4.14120
            1871         985.741         985.741         1.60724         1.60724         4.51964         4.51964
            1872         986.026         986.026         1.63839         1.63839         4.91155         4.91155
            1873         986.341         986.341         1.64268         1.64268         5.31330         5.31330
            1874         986.690         986.690         1.61175         1.61175         5.72004         5.72004
            1875         987.078         987.078         1.53570         1.53570         6.12547         6.12547
            1876         987.513         987.513         1.40295         1.40295         6.52156         6.52156
            1877         988.002         988.002         1.20023         1.20023         6.89821         6.89821
            1878         988.558         988.558     912.642E-03     912.642E-03         7.24288         7.24288
            1879         989.193         989.193     523.978E-03     523.978E-03         7.54015         7.54015
            1880         989.922         989.922     17.2739E-03     17.2739E-03         7.77121         7.77121
            1881         990.764         990.764    -624.112E-03    -624.112E-03         7.91325         7.91325
            1882         991.738         991.738        -1.41492        -1.41492         7.93895         7.93895
            1883         992.866         992.866        -2.36549        -2.36549         7.81574         7.81574
            1884         994.166         994.166        -3.47830        -3.47830         7.50562         7.50562
            1885         995.655         995.655        -4.74334        -4.74334         6.96498         6.96498
            1886         997.342         997.342        -6.13184        -6.13184         6.14575         6.14575
            1887         999.220         999.220        -7.58958        -7.58958         4.99772         4.99772
            1888     1.00126E+03     1.00126E+03        -9.02836        -9.02836         3.47360         3.47360
            1889     1.00341E+03     1.00341E+03        -10.3206        -10.3206         1.53779         1.53779
            1890     1.00558E+03     1.00558E+03        -11.2932        -11.2932    -822.216E-03    -822.216E-03
            1891     1.00762E+03     1.00762E+03        -11.7317        -11.7317        -3.57532        -3.57532
            1892     1.00936E+03     1.00936E+03        -11.3923        -11.3923        -6.62632        -6.62632
            1893     1.01059E+03     1.01059E+03        -10.0322        -10.0322        -9.78790        -9.78790
            1894         983.550         983.550     400.687E-03     400.687E-03     118.812E-03     118.812E-03
            1895         983.568         983.568     408.864E-03     408.864E-03     238.185E-03     238.185E-03
            1896         983.600         983.600     422.480E-03     422.480E-03     361.072E-03     361.072E-03
            1897         983.644         983.644     441.523E-03     441.523E-03     488.513E-03     488.513E-03
            1898         983.701         983.701     465.968E-03     465.968E-03     622.012E-03     622.012E-03
            1899         983.772         983.772     495.775E-03     495.775E-03     763.063E-03     763.063E-03
            1900         983.857         983.857     530.870E-03     530.870E-03     913.140E-03     913.140E-03
            1901         983.957         983.957     571.142E-03     571.142E-03         1.07369         1.07369
            1902         984.072         984.072     616.419E-03     616.419E-03         1.24611         1.24611
            1903         984.205         984.205     666.450E-03     666.450E-03         1.43173         1.43173
            1904         984.354         984.354     720.876E-03     720.876E-03         1.63183         1.63183
            1905         984.523         984.523     779.206E-03     779.206E-03         1.84753         1.84753
            1906         984.710         984.710     840.768E-03     840.768E-03         2.07984         2.07984
            1907         984.919         984.919     904.669E-03     904.669E-03         2.32954         2.32954
            1908         985.150         985.150     969.736E-03     969.736E-03         2.59718         2.59718
            1909         985.404         985.404         1.03444         1.03444         2.88296         2.88296
            1910         985.684         985.684         1.09684         1.09684         3.18670         3.18670
            1911         985.990         985.990         1.15445         1.15445         3.50768         3.50768
            1912         986.324         986.324         1.20416         1.20416         3.84455         3.84455
            1913         986.689         986.689         1.24211         1.24211         4.19517         4.19517
            1914         987.087         987.087         1.26355         1.26355         4.55647         4.55647
            1915         987.521         987.521         1.26268         1.26268         4.92419         4.92419
            1916         987.994         987.994         1.23257         1.23257         5.29270         5.29270
            1917         988.510         988.510         1.16498         1.16498         5.65470         5.65470
            1918         989.073         989.073         1.05033         1.05033         6.00095         6.00095
            1919         989.689         989.689     877.649E-03     877.649E-03         6.31992         6.31992
            1920         990.366         990.366     634.767E-03     634.767E-03         6.59744         6.59744
            1921         991.110         991.110     308.583E-03     308.583E-03         6.81634         6.81634
            1922         991.931         991.931    -114.287E-03    -114.287E-03         6.95604         6.95604
            1923         992.838         992.838    -646.515E-03    -646.515E-03         6.99234         6.99234
            1924         993.841         993.841        -1.29848        -1.29848         6.89709         6.89709
            1925         994.951         994.951        -2.07603        -2.07603         6.63837         6.63837
            1926         996.172         996.172        -2.97739        -2.97739         6.18082         6.18082
            1927         997.508         997.508        -3.98915        -3.98915         5.48687         5.48687
            1928         998.950         998.950        -5.08160        -5.08160         4.51886         4.51886
            1929     1.00048E+03     1.00048E+03        -6.20306        -6.20306         3.24276         3.24276
            1930     1.00206E+03     1.00206E+03        -7.27549        -7.27549         1.63415         1.63415
            1931     1.00363E+03     1.00363E+03        -8.19000        -8.19000    -314.066E-03    -314.066E-03
            1932     1.00510E+03     1.00510E+03        -8.80752        -8.80752        -2.57951        -2.57951
            1933     1.00636E+03     1.00636E+03        -8.96425        -8.96425        -5.09809        -5.09809
            1934     1.00728E+03     1.00728E+03        -8.48707        -8.48707        -7.74791        -7.74791
            1935     1.00772E+03     1.00772E+03        -7.22282        -7.22282        -10.3384        -10.3384
            1936         983.559         983.559     289.170E-03     289.170E-03     104.990E-03     104.990E-03
            1937         983.582         983.582     295.194E-03     295.194E-03     210.411E-03     210.411E-03
            1938         983.621         983.621     305.231E-03     305.231E-03     319.082E-03     319.082E-03
            1939         983.677         983.677     319.267E-03     319.267E-03     431.923E-03     431.923E-03
            1940         983.748         983.748     337.290E-03     337.290E-03     550.309E-03     550.309E-03
            1941         983.838         983.838     359.271E-03     359.271E-03     675.613E-03     675.613E-03
            1942         983.945         983.945     385.164E-03     385.164E-03     809.189E-03     809.189E-03
            1943         984.071         984.071     414.893E-03     414.893E-03     952.365E-03     952.365E-03
            1944         984.218         984.218     448.334E-03     448.334E-03         1.10643         1.10643
            1945         984.386         984.386     485.307E-03     485.307E-03         1.27262         1.27262
            1946         984.577         984.577     525.550E-03     525.550E-03         1.45209         1.45209
            1947         984.793         984.793     568.699E-03     568.699E-03         1.64589         1.64589
            1948         985.034         985.034     614.255E-03     614.255E-03         1.85492         1.85492
            1949         985.302         985.302     661.548E-03     661.548E-03         2.07990         2.07990
            1950         985.600         985.600     709.690E-03     709.690E-03         2.32129         2.32129
            1951         985.929         985.929     757.526E-03     757.526E-03         2.57921         2.57921
            1952         986.290         986.290     803.565E-03     803.565E-03         2.85340         2.85340
            1953         986.686         986.686     845.907E-03     845.907E-03         3.14304         3.14304
            1954         987.118         987.118     882.157E-03     882.157E-03         3.44668         3.44668
            1955         987.589         987.589     909.329E-03     909.329E-03         3.76205         3.76205
            1956         988.100         988.100     923.734E-03     923.734E-03         4.08588         4.08588
            1957         988.653         988.653     920.882E-03     920.882E-03         4.41368         4.41368
            1958         989.251         989.251     895.363E-03     895.363E-03         4.73953         4.73953
            1959         989.894         989.894     840.771E-03     840.771E-03         5.05575         5.05575
            1960         990.586         990.586     749.641E-03     749.641E-03         5.35266         5.35266
            1961         991.328         991.328     613.487E-03     613.487E-03         5.61819         5.61819
            1962         992.123         992.123     422.912E-03     422.912E-03         5.83762         5.83762
            1963         992.973         992.973     167.934E-03     167.934E-03         5.99327         5.99327
            1964         993.879         993.879    -161.479E-03    -161.479E-03         6.06428         6.06428
            1965         994.842         994.842    -574.505E-03    -574.505E-03         6.02651         6.02651
            1966         995.863         995.863        -1.07813        -1.07813         5.85271         5.85271
            1967         996.939         996.939        -1.67529        -1.67529         5.51301         5.51301
            1968         998.065         998.065        -2.36231        -2.36231         4.97597         4.97597
            1969         999.230         999.230        -3.12589        -3.12589         4.21045         4.21045
            1970     1.00041E+03     1.00041E+03        -3.93934        -3.93934         3.18843         3.18843
            1971     1.00159E+03     1.00159E+03        -4.75924        -4.75924         1.88937         1.88937
            1972     1.00271E+03     1.00271E+03        -5.52187        -5.52187     305.757E-03     305.757E-03
            1973     1.00373E+03     1.00373E+03        -6.14226        -6.14226        -1.54903        -1.54903
            1974     1.00456E+03     1.00456E+03        -6.51562        -6.51562        -3.63259        -3.63259
            1975     1.00513E+03     1.00513E+03        -6.52423        -6.52423        -5.86356        -5.86356
            1976     1.00534E+03     1.00534E+03        -6.05190        -6.05190        -8.11480        -8.11480
            1977     1.00513E+03     1.00513E+03        -5.00473        -5.00473        -10.2100        -10.2100
            1978         983.534         983.534     192.746E-03     192.746E-03     88.2371E-03     88.2371E-03
            1979         983.561         983.561     196.847E-03     196.847E-03     176.726E-03     176.726E-03
            1980         983.607         983.607     203.682E-03     203.682E-03     268.111E-03     268.111E-03
            1981         983.673         983.673     213.239E-03     213.239E-03     363.132E-03     363.132E-03
            1982         983.758         983.758     225.507E-03     225.507E-03     462.999E-03     462.999E-03
            1983         983.864         983.864     240.475E-03     240.475E-03     568.916E-03     568.916E-03
            1984         983.992         983.992     258.120E-03     258.120E-03     682.069E-03     682.069E-03
            1985         984.143         984.143     278.390E-03     278.390E-03     803.626E-03     803.626E-03
            1986         984.318         984.318     301.208E-03     301.208E-03     934.727E-03     934.727E-03
            1987         984.520         984.520     326.453E-03     326.453E-03         1.07646         1.07646
            1988         984.750         984.750     353.953E-03     353.953E-03         1.22986         1.22986
            1989         985.009         985.009     383.460E-03     383.460E-03         1.39585         1.39585
            1990         985.301         985.301     414.636E-03     414.636E-03         1.57524         1.57524
            1991         985.627         985.627     447.020E-03     447.020E-03         1.76867         1.76867
            1992         985.989         985.989     480.003E-03     480.003E-03         1.97653         1.97653
            1993         986.390         986.390     512.779E-03     512.779E-03         2.19892         2.19892
            1994         986.831         986.831     544.310E-03     544.310E-03         2.43558         2.43558
            1995         987.316         987.316     573.262E-03     573.262E-03         2.68572         2.68572
            1996         987.845         987.845     597.950E-03     597.950E-03         2.94795         2.94795
            1997         988.421         988.421     616.261E-03     616.261E-03         3.22010         3.22010
            1998         989.046         989.046     625.580E-03     625.580E-03         3.49907         3.49907
            1999         989.720         989.720     622.710E-03     622.710E-03         3.78055         3.78055
            2000         990.444         990.444     603.796E-03     603.796E-03         4.05885         4.05885
            2001         991.219         991.219     564.259E-03     564.259E-03         4.32660         4.32660
            2002         992.044         992.044     498.772E-03     498.772E-03         4.57447         4.57447
            2003         992.917         992.917     401.275E-03     401.275E-03         4.79086         4.79086
            2004         993.836         993.836     265.091E-03     265.091E-03         4.96166         4.96166
            2005         994.798         994.798     83.1682E-03     83.1682E-03         5.06998         5.06998
            2006         995.796         995.796    -151.489E-03    -151.489E-03         5.09605         5.09605
            2007         996.823         996.823    -445.121E-03    -445.121E-03         5.01733         5.01733
            2008         997.869         997.869    -802.209E-03    -802.209E-03         4.80880         4.80880
            2009         998.920         998.920        -1.22403        -1.22403         4.44378         4.44378
            2010         999.959         999.959        -1.70686        -1.70686         3.89531         3.89531
            2011     1.00096E+03     1.00096E+03        -2.23968        -2.23968         3.13824         3.13824
            2012     1.00190E+03     1.00190E+03        -2.80183        -2.80183         2.15248         2.15248
            2013     1.00274E+03     1.00274E+03        -3.36045        -3.36045     926.981E-03     926.981E-03
            2014     1.00343E+03     1.00343E+03        -3.86894        -3.86894    -534.654E-03    -534.654E-03
            2015     1.00393E+03     1.00393E+03        -4.26649        -4.26649        -2.20834        -2.20834
            2016     1.00417E+03     1.00417E+03        -4.48042        -4.48042        -4.04257        -4.04257
            2017     1.00411E+03     1.00411E+03        -4.43215        -4.43215        -5.95316        -5.95316
            2018     1.00368E+03     1.00368E+03        -4.04729        -4.04729        -7.82030        -7.82030
            2019     1.00287E+03     1.00287E+03        -3.27139        -3.27139        -9.48999        -9.48999
            2020         983.470         983.470     114.146E-03     114.146E-03     68.8975E-03     68.8975E-03
            2021         983.501         983.501     116.631E-03     116.631E-03     137.841E-03     137.841E-03
            2022         983.553         983.553     120.772E-03     120.772E-03     209.196E-03     209.196E-03
            2023         983.627         983.627     126.535E-03     126.535E-03     283.513E-03     283.513E-03
            2024         983.724         983.724     133.932E-03     133.932E-03     361.787E-03     361.787E-03
            2025         983.845         983.845     142.969E-03     142.969E-03     444.984E-03     444.984E-03
            2026         983.990         983.990     153.628E-03     153.628E-03     534.079E-03     534.079E-03
            2027         984.163         984.163     165.880E-03     165.880E-03     630.032E-03     630.032E-03
            2028         984.364         984.364     179.683E-03     179.683E-03     733.784E-03     733.784E-03
            2029         984.596         984.596     194.966E-03     194.966E-03     846.242E-03     846.242E-03
            2030         984.861         984.861     211.627E-03     211.627E-03     968.260E-03     968.260E-03
            2031         985.161         985.161     229.521E-03     229.521E-03         1.10062         1.10062
            2032           985.5           985.5     248.444E-03     248.444E-03         1.24401         1.24401
            2033         985.879         985.879     268.119E-03     268.119E-03         1.39896         1.39896
            2034         986.302         986.302     288.174E-03     288.174E-03         1.56584         1.56584
            2035         986.772         986.772     308.120E-03     308.120E-03         1.74474         1.74474
            2036         987.290         987.290     327.317E-03     327.317E-03         1.93545         1.93545
            2037         987.860         987.860     344.945E-03     344.945E-03         2.13734         2.13734
            2038         988.485         988.485     359.959E-03     359.959E-03         2.34924         2.34924
            2039         989.166         989.166     371.045E-03     371.045E-03         2.56932         2.56932
            2040         989.904         989.904     376.571E-03     376.571E-03         2.79493         2.79493
            2041         990.702         990.702     374.537E-03     374.537E-03         3.02238         3.02238
            2042         991.557         991.557     362.520E-03     362.520E-03         3.24677         3.24677
            2043         992.469         992.469     337.641E-03     337.641E-03         3.46171         3.46171
            2044         993.436         993.436     296.539E-03     296.539E-03         3.65907         3.65907
            2045         994.451         994.451     235.394E-03     235.394E-03         3.82876         3.82876
            2046         995.509         995.509     149.997E-03     149.997E-03         3.95844         3.95844
            2047         996.600         996.600     35.9155E-03     35.9155E-03         4.03338         4.03338
            2048         997.712         997.712    -111.216E-03    -111.216E-03         4.03639         4.03639
            2049         998.827         998.827    -295.243E-03    -295.243E-03         3.94798         3.94798
            2050         999.926         999.926    -518.803E-03    -518.803E-03         3.74672         3.74672
            2051     1.00098E+03     1.00098E+03    -782.431E-03    -782.431E-03         3.41017         3.41017
            2052     1.00197E+03     1.00197E+03        -1.08332        -1.08332         2.91619         2.91619
            2053     1.00285E+03     1.00285E+03        -1.41399        -1.41399         2.24513         2.24513
            2054     1.00359E+03     1.00359E+03        -1.76067        -1.76067         1.38263         1.38263
            2055     1.00413E+03     1.00413E+03        -2.10197        -2.10197     323.527E-03     323.527E-03
            2056     1.00444E+03     1.00444E+03        -2.40796        -2.40796    -923.835E-03    -923.835E-03
            2057     1.00446E+03     1.00446E+03        -2.64028        -2.64028        -2.33248        -2.33248
            2058     1.00415E+03     1.00415E+03        -2.75406        -2.75406        -3.85240        -3.85240
            2059     1.00347E+03     1.00347E+03        -2.70184        -2.70184        -5.40707        -5.40707
            2060     1.00242E+03     1.00242E+03        -2.44033        -2.44033        -6.89300        -6.89300
            2061     1.00098E+03     1.00098E+03        -1.93902        -1.93902        -8.18344        -8.18344
            2062         983.364         983.364     55.7175E-03     55.7175E-03     47.4545E-03     47.4545E-03
            2063         983.398         983.398     56.9895E-03     56.9895E-03     94.6286E-03     94.6286E-03
            2064         983.455         983.455     59.0343E-03     59.0343E-03     143.668E-03     143.668E-03
            2065         983.536         983.536     61.8625E-03     61.8625E-03     194.864E-03     194.864E-03
            2066         983.642         983.642     65.5153E-03     65.5153E-03     248.890E-03     248.890E-03
            2067         983.774         983.774     69.9800E-03     69.9800E-03     306.448E-03     306.448E-03
            2068         983.935         983.935     75.2481E-03     75.2481E-03     368.246E-03     368.246E-03
            2069         984.125         984.125     81.3079E-03     81.3079E-03     434.982E-03     434.982E-03
            2070         984.348         984.348     88.1369E-03     88.1369E-03     507.342E-03     507.342E-03
            2071         984.606         984.606     95.7027E-03     95.7027E-03     585.992E-03     585.992E-03
            2072         984.901         984.901     103.956E-03     103.956E-03     671.565E-03     671.565E-03
            2073         985.237         985.237     112.824E-03     112.824E-03     764.647E-03     764.647E-03
            2074         985.617         985.617     122.209E-03     122.209E-03     865.755E-03     865.755E-03
            2075         986.045         986.045     131.973E-03     131.973E-03     975.307E-03     975.307E-03
            2076         986.523         986.523     141.931E-03     141.931E-03         1.09359         1.09359
            2077         987.057         987.057     151.838E-03     151.838E-03         1.22073         1.22073
            2078         987.648         987.648     161.376E-03     161.376E-03         1.35658         1.35658
            2079         988.300         988.300     170.131E-03     170.131E-03         1.50074         1.50074
            2080         989.017         989.017     177.575E-03     177.575E-03         1.65238         1.65238
            2081         989.801         989.801     183.043E-03     183.043E-03         1.81021         1.81021
            2082         990.654         990.654     185.706E-03     185.706E-03         1.97230         1.97230
            2083         991.576         991.576     184.544E-03     184.544E-03         2.13595         2.13595
            2084         992.568         992.568     178.320E-03     178.320E-03         2.29754         2.29754
            2085         993.626         993.626     165.556E-03     165.556E-03         2.45233         2.45233
            2086         994.747         994.747     144.528E-03     144.528E-03         2.59423         2.59423
            2087         995.922         995.922     113.268E-03     113.268E-03         2.71564         2.71564
            2088         997.142         997.142     69.6102E-03     69.6102E-03         2.80725         2.80725
            2089         998.392         998.392     11.2687E-03     11.2687E-03         2.85790         2.85790
            2090         999.652         999.652    -64.0012E-03    -64.0012E-03         2.85453         2.85453
            2091     1.00090E+03     1.00090E+03    -158.163E-03    -158.163E-03         2.78232         2.78232
            2092     1.00210E+03     1.00210E+03    -272.549E-03    -272.549E-03         2.62506         2.62506
            2093     1.00322E+03     1.00322E+03    -407.354E-03    -407.354E-03         2.36580         2.36580
            2094     1.00422E+03     1.00422E+03    -561.049E-03    -561.049E-03         1.98806         1.98806
            2095     1.00504E+03     1.00504E+03    -729.592E-03    -729.592E-03         1.47746         1.47746
            2096     1.00564E+03     1.00564E+03    -905.718E-03    -905.718E-03     824.091E-03     824.091E-03
            2097     1.00596E+03     1.00596E+03        -1.07817        -1.07817     25.3864E-03     25.3864E-03
            2098     1.00594E+03     1.00594E+03        -1.23135        -1.23135    -910.387E-03    -910.387E-03
            2099     1.00553E+03     1.00553E+03        -1.34547        -1.34547        -1.96068        -1.96068
            2100     1.00470E+03     1.00470E+03        -1.39760        -1.39760        -3.08544        -3.08544
            2101     1.00341E+03     1.00341E+03        -1.36403        -1.36403        -4.22529        -4.22529
            2102     1.00168E+03     1.00168E+03        -1.22343        -1.22343        -5.30184        -5.30184
            2103         999.539         999.539    -960.728E-03    -960.728E-03        -6.22017        -6.22017
            2104         983.212         983.212     19.2766E-03     19.2766E-03     24.4482E-03     24.4482E-03
            2105         983.248         983.248     19.7648E-03     19.7648E-03     48.3843E-03     48.3843E-03
            2106         983.309         983.309     20.4386E-03     20.4386E-03     73.5386E-03     73.5386E-03
            2107         983.395         983.395     21.4085E-03     21.4085E-03     99.8253E-03     99.8253E-03
            2108         983.507         983.507     22.6715E-03     22.6715E-03     127.605E-03     127.605E-03
            2109         983.648         983.648     24.2116E-03     24.2116E-03     157.265E-03     157.265E-03
            2110         983.820         983.820     26.0319E-03     26.0319E-03     189.181E-03     189.181E-03
            2111         984.024         984.024     28.1241E-03     28.1241E-03     223.731E-03     223.731E-03
            2112         984.263         984.263     30.4827E-03     30.4827E-03     261.285E-03     261.285E-03
            2113         984.541         984.541     33.0951E-03     33.0951E-03     302.206E-03     302.206E-03
            2114         984.861         984.861     35.9445E-03     35.9445E-03     346.839E-03     346.839E-03
            2115         985.226         985.226     39.0058E-03     39.0058E-03     395.509E-03     395.509E-03
            2116         985.641         985.641     42.2441E-03     42.2441E-03     448.504E-03     448.504E-03
            2117         986.110         986.110     45.6114E-03     45.6114E-03     506.067E-03     506.067E-03
            2118         986.637         986.637     49.0428E-03     49.0428E-03     568.369E-03     568.369E-03
            2119         987.227         987.227     52.4524E-03     52.4524E-03     635.493E-03     635.493E-03
            2120         987.884         987.884     55.7275E-03     55.7275E-03     707.400E-03     707.400E-03
            2121         988.613         988.613     58.7224E-03     58.7224E-03     783.888E-03     783.888E-03
            2122         989.418         989.418     61.2509E-03     61.2509E-03     864.549E-03     864.549E-03
            2123         990.302         990.302     63.0773E-03     63.0773E-03     948.710E-03     948.710E-03
            2124         991.268         991.268     63.9074E-03     63.9074E-03         1.03536         1.03536
            2125         992.318         992.318     63.3789E-03     63.3789E-03         1.12308         1.12308
            2126         993.451         993.451     61.0504E-03     61.0504E-03         1.20991         1.20991
            2127         994.665         994.665     56.3961E-03     56.3961E-03         1.29331         1.29331
            2128         995.955         995.955     48.7976E-03     48.7976E-03         1.36996         1.36996
            2129         997.313         997.313     37.5528E-03     37.5528E-03         1.43572         1.43572
            2130         998.725         998.725     21.8818E-03     21.8818E-03         1.48546         1.48546
            2131     1.00017E+03     1.00017E+03     967.890E-06     967.890E-06         1.51302         1.51302
            2132     1.00163E+03     1.00163E+03    -25.9981E-03    -25.9981E-03         1.51116         1.51116
            2133     1.00307E+03     1.00307E+03    -59.7176E-03    -59.7176E-03         1.47163         1.47163
            2134     1.00445E+03     1.00445E+03    -100.664E-03    -100.664E-03         1.38536         1.38536
            2135     1.00572E+03     1.00572E+03    -148.903E-03    -148.903E-03         1.24290         1.24290
            2136     1.00682E+03     1.00682E+03    -203.854E-03    -203.854E-03         1.03499         1.03499
            2137     1.00769E+03     1.00769E+03    -264.054E-03    -264.054E-03     753.608E-03     753.608E-03
            2138     1.00826E+03     1.00826E+03    -326.827E-03    -326.827E-03     393.235E-03     393.235E-03
            2139     1.00845E+03     1.00845E+03    -388.102E-03    -388.102E-03    -47.4267E-03    -47.4267E-03
            2140     1.00819E+03     1.00819E+03    -442.205E-03    -442.205E-03    -563.599E-03    -563.599E-03
            2141     1.00741E+03     1.00741E+03    -482.003E-03    -482.003E-03        -1.14240        -1.14240
            2142     1.00608E+03     1.00608E+03    -499.288E-03    -499.288E-03        -1.76117        -1.76117
            2143     1.00416E+03     1.00416E+03    -485.565E-03    -485.565E-03        -2.38665        -2.38665
            2144     1.00167E+03     1.00167E+03    -433.639E-03    -433.639E-03        -2.97519        -2.97519
            2145         998.672         998.672    -337.829E-03    -337.829E-03        -3.47381        -3.47381
            2146         931.344         931.344         269.014         269.014        -72.1523        -72.1523
            2147         941.413         941.413         244.724         244.724        -71.6739        -71.6739
            2148         951.192         951.192         220.365         220.365        -69.2455        -69.2455
            2149         960.332         960.332         196.540         196.540        -65.5843        -65.5843
            2150         968.617         968.617         173.703         173.703        -60.8711        -60.8711
            2151         975.887         975.887         152.218         152.218        -55.2996        -55.2996
            2152         982.031         982.031         132.370         132.370        -49.1562        -49.1562
            2153         987.066         987.066         114.306         114.306        -42.7063        -42.7063
            2154         991.009         991.009         98.0924         98.0924        -36.2044        -36.2044
            2155         993.986         993.986         83.6950         83.6950        -29.8683        -29.8683
            2156         996.093         996.093         71.0289         71.0289        -23.8492        -23.8492
            2157         997.478         997.478         59.9705         59.9705        -18.2686        -18.2686
            2158         998.254         998.254         50.3723         50.3723        -13.1808        -13.1808
            2159         998.544         998.544         42.0912         42.0912        -8.62316        -8.62316
            2160         998.443         998.443         34.9757         34.9757        -4.58877        -4.58877
            2161         998.041         998.041         28.8943         28.8943        -1.06339        -1.06339
            2162         997.405         997.405         23.7154         23.7154         1.98953         1.98953
            2163         996.595         996.595         19.3279         19.3279         4.60818         4.60818
            2164         995.657         995.657         15.6237         15.6237         6.83935         6.83935
            2165         994.629         994.629         12.5111         12.5111         8.72826         8.72826
            2166         993.541         993.541         9.90227         9.90227         10.3217         10.3217
            2167         992.419         992.419         7.72108         7.72108         11.6636         11.6636
            2168         991.285         991.285         5.89472         5.89472         12.7964         12.7964
            2169         990.156         990.156         4.35796         4.35796         13.7595         13.7595
            2170         989.051         989.051         3.04799         3.04799         14.5900         14.5900
            2171         987.988         987.988         1.90635         1.90635         15.3222         15.3222
            2172         986.985         986.985     875.628E-03     875.628E-03         15.9884         15.9884
            2173         986.065         986.065    -99.8900E-03    -99.8900E-03         16.6186         16.6186
            2174         985.255         985.255        -1.07645        -1.07645         17.2409         17.2409
            2175         984.590         984.590        -2.11102        -2.11102         17.8810         17.8810
            2176         984.111         984.111        -3.26278        -3.26278         18.5617         18.5617
            2177         983.874         983.874        -4.59382        -4.59382         19.3012         19.3012
            2178         983.952         983.952        -6.16968        -6.16968         20.1107         20.1107
            2179         984.436         984.436        -8.05975        -8.05975         20.9890         20.9890
            2180         985.445         985.445        -10.3347        -10.3347         21.9148         21.9148
            2181         987.127         987.127        -13.0632        -13.0632         22.8354         22.8354
            2182         989.663         989.663        -16.2981        -16.2981         23.6468         23.6468
            2183         993.258         993.258        -20.0573        -20.0573         24.1727         24.1727
            2184         998.119         998.119        -24.2729        -24.2729         24.1308         24.1308
            2185     1.00440E+03     1.00440E+03        -28.7261        -28.7261         23.1247         23.1247
            2186     1.01211E+03     1.01211E+03        -32.9351        -32.9351         20.6469         20.6469
            2187     1.02096E+03     1.02096E+03        -36.1158        -36.1158         16.2296         16.2296
            2188         934.077         934.077         268.425         268.425        -82.4835        -82.4835
            2189         944.658         944.658         242.730         242.730        -81.8672        -81.8672
            2190         954.802         954.802         216.967         216.967        -78.8554        -78.8554
            2191         964.182         964.182         191.854         191.854        -74.3686        -74.3686
            2192         972.504         972.504         167.949         167.949        -68.5739        -68.5739
            2193         979.575         979.575         145.714         145.714        -61.8249        -61.8249
            2194         985.362         985.362         125.423         125.423        -54.4562        -54.4562
            2195         989.847         989.847         107.236         107.236        -46.8340        -46.8340
            2196         993.184         993.184         91.1479         91.1479        -39.2740        -39.2740
            2197         995.484         995.484         77.0769         77.0769        -32.0067        -32.0067
            2198         996.947         996.947         64.8737         64.8737        -25.2212        -25.2212
            2199         997.718         997.718         54.3530         54.3530        -19.0047        -19.0047
            2200         997.961         997.961         45.3360         45.3360        -13.4234        -13.4234
            2201         997.797         997.797         37.6309         37.6309        -8.47503        -8.47503
            2202         997.336         997.336         31.0788         31.0788        -4.14999        -4.14999
            2203         996.660         996.660         25.5189         25.5189    -404.962E-03    -404.962E-03
            2204         995.837         995.837         20.8225         20.8225         2.80381         2.80381
            2205         994.918         994.918         16.8641         16.8641         5.53263         5.53263
            2206         993.943         993.943         13.5423         13.5423         7.83488         7.83488
            2207         992.941         992.941         10.7597         10.7597         9.76609         9.76609
            2208         991.936         991.936         8.43552         8.43552         11.3775         11.3775
            2209         990.947         990.947         6.49261         6.49261         12.7183         12.7183
            2210         989.988         989.988         4.86413         4.86413         13.8329         13.8329
            2211         989.074         989.074         3.48610         3.48610         14.7624         14.7624
            2212         988.219         988.219         2.30044         2.30044         15.5437         15.5437
            2213         987.438         987.438         1.25059         1.25059         16.2099         16.2099
            2214         986.748         986.748     282.841E-03     282.841E-03         16.7906         16.7906
            2215         986.171         986.171    -656.299E-03    -656.299E-03         17.3116         17.3116
            2216         985.733         985.733        -1.61970        -1.61970         17.7950         17.7950
            2217         985.469         985.469        -2.66101        -2.66101         18.2587         18.2587
            2218         985.422         985.422        -3.83457        -3.83457         18.7152         18.7152
            2219         985.645         985.645        -5.19543        -5.19543         19.1695         19.1695
            2220         986.208         986.208        -6.79861        -6.79861         19.6165         19.6165
            2221         987.192         987.192        -8.69642        -8.69642         20.0352         20.0352
            2222         988.698         988.698        -10.9346        -10.9346         20.3825         20.3825
            2223         990.840         990.840        -13.5422        -13.5422         20.5821         20.5821
            2224         993.741         993.741        -16.5181        -16.5181         20.5140         20.5140
            2225         997.518         997.518        -19.8023        -19.8023         19.9983         19.9983
            2226     1.00225E+03     1.00225E+03        -23.2391        -23.2391         18.7934         18.7934
            2227     1.00792E+03     1.00792E+03        -26.5243        -26.5243         16.5978         16.5978
            2228     1.01438E+03     1.01438E+03        -29.1572        -29.1572         13.1137         13.1137
            2229     1.02131E+03     1.02131E+03        -30.4703        -30.4703         8.07439         8.07439
            2230         937.659         937.659         267.707         267.707        -93.3841        -93.3841
            2231         948.759         948.759         240.289         240.289        -92.5249        -92.5249
            2232         959.377         959.377         212.759         212.759        -88.8290        -88.8290
            2233         968.964         968.964         186.065         186.065        -83.2367        -83.2367
            2234         977.205         977.205         160.934         160.934        -76.1506        -76.1506
            2235         983.953         983.953         137.863         137.863        -67.9568        -67.9568
            2236         989.113         989.113         117.196         117.196        -59.1784        -59.1784
            2237         992.868         992.868         98.9912         98.9912        -50.2678        -50.2678
            2238         995.335         995.335         83.1972         83.1972        -41.5795        -41.5795
            2239         996.799         996.799         69.6294         69.6294        -33.4083        -33.4083
            2240         997.447         997.447         58.0496         58.0496        -25.8900        -25.8900
            2241         997.510         997.510         48.2257         48.2257        -19.1352        -19.1352
            2242         997.143         997.143         39.9052         39.9052        -13.1456        -13.1456
            2243         996.491         996.491         32.8887         32.8887        -7.91780        -7.91780
            2244         995.654         995.654         26.9732         26.9732        -3.39724        -3.39724
            2245         994.712         994.712         22.0054         22.0054     468.145E-03     468.145E-03
            2246         993.721         993.721         17.8351         17.8351         3.74817         3.74817
            2247         992.723         992.723         14.3479         14.3479         6.50735         6.50735
            2248         991.745         991.745         11.4338         11.4338         8.81282         8.81282
            2249         990.807         990.807         9.00602         9.00602         10.7255         10.7255
            2250         989.923         989.923         6.98215         6.98215         12.3032         12.3032
            2251         989.104         989.104         5.29360         5.29360         13.5974         13.5974
            2252         988.357         988.357         3.87525         3.87525         14.6548         14.6548
            2253         987.690         987.690         2.66983         2.66983         15.5165         15.5165
            2254         987.111         987.111         1.62216         1.62216         16.2184         16.2184
            2255         986.632         986.632     681.103E-03     681.103E-03         16.7914         16.7914
            2256         986.267         986.267    -203.663E-03    -203.663E-03         17.2616         17.2616
            2257         986.034         986.034        -1.08079        -1.08079         17.6500         17.6500
            2258         985.956         985.956        -1.99892        -1.99892         17.9726         17.9726
            2259         986.065         986.065        -3.00606        -3.00606         18.2395         18.2395
            2260         986.400         986.400        -4.14979        -4.14979         18.4539         18.4539
            2261         987.008         987.008        -5.47598        -5.47598         18.6101         18.6101
            2262         987.948         987.948        -7.02663        -7.02663         18.6904         18.6904
            2263         989.286         989.286        -8.83622        -8.83622         18.6620         18.6620
            2264         991.096         991.096        -10.9248        -10.9248         18.4700         18.4700
            2265         993.455         993.455        -13.2878        -13.2878         18.0333         18.0333
            2266         996.430         996.430        -15.8802        -15.8802         17.2363         17.2363
            2267     1.00006E+03     1.00006E+03        -18.5929        -18.5929         15.9289         15.9289
            2268     1.00434E+03     1.00434E+03        -21.2262        -21.2262         13.9292         13.9292
            2269     1.00915E+03     1.00915E+03        -23.4564        -23.4564         11.0509         11.0509
            2270     1.01430E+03     1.01430E+03        -24.8366        -24.8366         7.13594         7.13594
            2271     1.01942E+03     1.01942E+03        -24.7405        -24.7405         2.07768         2.07768
            2272         942.229         942.229         266.888         266.888        -104.933        -104.933
            2273         954.106         954.106         237.229         237.229        -103.805        -103.805
            2274         965.164         965.164         207.495         207.495        -99.0965        -99.0965
            2275         974.901         974.901         178.896         178.896        -92.1615        -92.1615
            2276         982.924         982.924         152.321         152.321        -83.3691        -83.3691
            2277         988.992         988.992         128.453         128.453        -73.4535        -73.4535
            2278         993.292         993.292         107.502         107.502        -63.0491        -63.0491
            2279         995.920         995.920         89.5083         89.5083        -52.7152        -52.7152
            2280         997.296         997.296         74.2452         74.2452        -42.9169        -42.9169
            2281         997.667         997.667         61.4022         61.4022        -33.8675        -33.8675
            2282         997.368         997.368         50.6650         50.6650        -25.7488        -25.7488
            2283         996.613         996.613         41.6867         41.6867        -18.5634        -18.5634
            2284         995.593         995.593         34.2102         34.2102        -12.3154        -12.3154
            2285         994.437         994.437         27.9682         27.9682        -6.93056        -6.93056
            2286         993.238         993.238         22.7745         22.7745        -2.34347        -2.34347
            2287         992.061         992.061         18.4438         18.4438         1.53572         1.53572
            2288         990.945         990.945         14.8445         14.8445         4.78740         4.78740
            2289         989.917         989.917         11.8500         11.8500         7.49430         7.49430
            2290         988.988         988.988         9.36590         9.36590         9.73030         9.73030
            2291         988.167         988.167         7.30302         7.30302         11.5642         11.5642
            2292         987.455         987.455         5.59084         5.59084         13.0568         13.0568
            2293         986.854         986.854         4.16281         4.16281         14.2621         14.2621
            2294         986.361         986.361         2.96284         2.96284         15.2270         15.2270
            2295         985.978         985.978         1.93737         1.93737         15.9918         15.9918
            2296         985.707         985.707         1.03836         1.03836         16.5906         16.5906
            2297         985.553         985.553     218.946E-03     218.946E-03         17.0511         17.0511
            2298         985.525         985.525    -565.078E-03    -565.078E-03         17.3955         17.3955
            2299         985.638         985.638        -1.35751        -1.35751         17.6399         17.6399
            2300         985.908         985.908        -2.20078        -2.20078         17.7942         17.7942
            2301         986.363         986.363        -3.13654        -3.13654         17.8616         17.8616
            2302         987.033         987.033        -4.20429        -4.20429         17.8378         17.8378
            2303         987.957         987.957        -5.43992        -5.43992         17.7090         17.7090
            2304         989.178         989.178        -6.87263        -6.87263         17.4504         17.4504
            2305         990.745         990.745        -8.52017        -8.52017         17.0228         17.0228
            2306         992.705         992.705        -10.3817        -10.3817         16.3706         16.3706
            2307         995.099         995.099        -12.4274        -12.4274         15.4186         15.4186
            2308         997.950         997.950        -14.5846        -14.5846         14.0722         14.0722
            2309     1.00124E+03     1.00124E+03        -16.7215        -16.7215         12.2203         12.2203
            2310     1.00492E+03     1.00492E+03        -18.6269        -18.6269         9.74929         9.74929
            2311     1.00883E+03     1.00883E+03        -20.0043        -20.0043         6.56446         6.56446
            2312     1.01274E+03     1.01274E+03        -20.4517        -20.4517         2.61616         2.61616
            2313     1.01631E+03     1.01631E+03        -19.4714        -19.4714        -2.03378        -2.03378
            2314         948.424         948.424         265.837         265.837        -117.366        -117.366
            2315         960.991         960.991         233.367         233.367        -115.678        -115.678
            2316         972.611         972.611         200.817         200.817        -109.752        -109.752
            2317         982.351         982.351         169.861         169.861        -100.850        -100.850
            2318         989.717         989.717         141.781         141.781        -89.9581        -89.9581
            2319         994.805         994.805         117.139         117.139        -77.9170        -77.9170
            2320         997.627         997.627         96.2210         96.2210        -65.6403        -65.6403
            2321         998.813         998.813         78.7587         78.7587        -53.8778        -53.8778
            2322         998.690         998.690         64.3483         64.3483        -42.9757        -42.9757
            2323         997.778         997.778         52.5447         52.5447        -33.2395        -33.2395
            2324         996.374         996.374         42.8479         42.8479        -24.6623        -24.6623
            2325         994.746         994.746         34.9161         34.9161        -17.2566        -17.2566
            2326         993.059         993.059         28.3848         28.3848        -10.9127        -10.9127
            2327         991.425         991.425         23.0228         23.0228        -5.54240        -5.54240
            2328         989.916         989.916         18.5954         18.5954        -1.02552        -1.02552
            2329         988.567         988.567         14.9496         14.9496         2.74171         2.74171
            2330         987.398         987.398         11.9363         11.9363         5.86331         5.86331
            2331         986.411         986.411         9.45234         9.45234         8.43054         8.43054
            2332         985.605         985.605         7.39996         7.39996         10.5262         10.5262
            2333         984.969         984.969         5.70651         5.70651         12.2229         12.2229
            2334         984.493         984.493         4.30372         4.30372         13.5835         13.5835
            2335         984.167         984.167         3.13696         3.13696         14.6624         14.6624
            2336         983.980         983.980         2.15451         2.15451         15.5056         15.5056
            2337         983.925         983.925         1.31176         1.31176         16.1515         16.1515
            2338         983.998         983.998     565.699E-03     565.699E-03         16.6311         16.6311
            2339         984.196         984.196    -123.210E-03    -123.210E-03         16.9688         16.9688
            2340         984.523         984.523    -793.814E-03    -793.814E-03         17.1825         17.1825
            2341         984.987         984.987        -1.48316        -1.48316         17.2834         17.2834
            2342         985.599         985.599        -2.22755        -2.22755         17.2759         17.2759
            2343         986.378         986.378        -3.06124        -3.06124         17.1578         17.1578
            2344         987.344         987.344        -4.01575        -4.01575         16.9187         16.9187
            2345         988.526         988.526        -5.11739        -5.11739         16.5401         16.5401
            2346         989.953         989.953        -6.38412        -6.38412         15.9933         15.9933
            2347         991.653         991.653        -7.82046        -7.82046         15.2394         15.2394
            2348         993.651         993.651        -9.41085        -9.41085         14.2276         14.2276
            2349         995.958         995.958        -11.1103        -11.1103         12.8967         12.8967
            2350         998.566         998.566        -12.8347        -12.8347         11.1776         11.1776
            2351     1.00143E+03     1.00143E+03        -14.4475        -14.4475         9.00131         9.00131
            2352     1.00446E+03     1.00446E+03        -15.7538        -15.7538         6.31273         6.31273
            2353     1.00751E+03     1.00751E+03        -16.4910        -16.4910         3.08829         3.08829
            2354     1.01036E+03     1.01036E+03        -16.3368        -16.3368    -627.310E-03    -627.310E-03
            2355     1.01272E+03     1.01272E+03        -14.9326        -14.9326        -4.68563        -4.68563
            2356         956.512         956.512         264.606         264.606        -130.747        -130.747
            2357         970.287         970.287         228.285         228.285        -128.451        -128.451
            2358         982.272         982.272         192.100         192.100        -120.440        -120.440
            2359         991.574         991.574         158.447         158.447        -109.071        -109.071
            2360         997.907         997.907         128.682         128.682        -95.3149        -95.3149
            2361     1.00104E+03     1.00104E+03         103.703         103.703        -80.7098        -80.7098
            2362     1.00192E+03     1.00192E+03         83.2453         83.2453        -66.4891        -66.4891
            2363     1.00098E+03     1.00098E+03         66.8097         66.8097        -53.2565        -53.2565
            2364         999.079         999.079         53.7259         53.7259        -41.5494        -41.5494
            2365         996.649         996.649         43.2318         43.2318        -31.3234        -31.3234
            2366         994.070         994.070         34.8589         34.8589        -22.5968        -22.5968
            2367         991.564         991.564         28.0911         28.0911        -15.1951        -15.1951
            2368         989.259         989.259         22.6382         22.6382        -8.98949        -8.98949
            2369         987.232         987.232         18.1954         18.1954        -3.81328        -3.81328
            2370         985.506         985.506         14.5843         14.5843     472.747E-03     472.747E-03
            2371         984.091         984.091         11.6267         11.6267         4.00146         4.00146
            2372         982.971         982.971         9.20997         9.20997         6.88773         6.88773
            2373         982.128         982.128         7.22603         7.22603         9.23172         9.23172
            2374         981.536         981.536         5.60031         5.60031         11.1206         11.1206
            2375         981.172         981.172         4.26270         4.26270         12.6277         12.6277
            2376         981.009         981.009         3.16045         3.16045         13.8163         13.8163
            2377         981.028         981.028         2.24393         2.24393         14.7388         14.7388
            2378         981.207         981.207         1.47242         1.47242         15.4390         15.4390
            2379         981.532         981.532     806.990E-03     806.990E-03         15.9519         15.9519
            2380         981.990         981.990     213.106E-03     213.106E-03         16.3053         16.3053
            2381         982.573         982.573    -342.949E-03    -342.949E-03         16.5194         16.5194
            2382         983.278         983.278    -892.728E-03    -892.728E-03         16.6079         16.6079
            2383         984.105         984.105        -1.46719        -1.46719         16.5773         16.5773
            2384         985.059         985.059        -2.09555        -2.09555         16.4276         16.4276
            2385         986.149         986.149        -2.80523        -2.80523         16.1520         16.1520
            2386         987.387         987.387        -3.62001        -3.62001         15.7364         15.7364
            2387         988.787         988.787        -4.55813        -4.55813         15.1593         15.1593
            2388         990.366         990.366        -5.62871        -5.62871         14.3921         14.3921
            2389         992.134         992.134        -6.82746        -6.82746         13.3987         13.3987
            2390         994.097         994.097        -8.13041        -8.13041         12.1374         12.1374
            2391         996.247         996.247        -9.48747        -9.48747         10.5629         10.5629
            2392         998.554         998.554        -10.8138        -10.8138         8.63220         8.63220
            2393     1.00096E+03     1.00096E+03        -11.9848        -11.9848         6.31292         6.31292
            2394     1.00337E+03     1.00337E+03        -12.8298        -12.8298         3.59526         3.59526
            2395     1.00565E+03     1.00565E+03        -13.1365        -13.1365     512.369E-03     512.369E-03
            2396     1.00762E+03     1.00762E+03        -12.6627        -12.6627        -2.83938        -2.83938
            2397     1.00908E+03     1.00908E+03        -11.1669        -11.1669        -6.27219        -6.27219
            2398         968.150         968.150         262.792         262.792        -145.624        -145.624
            2399         982.709         982.709         221.391         221.391        -141.752        -141.752
            2400         994.932         994.932         180.559         180.559        -131.172        -131.172
            2401     1.00332E+03     1.00332E+03         143.520         143.520        -115.882        -115.882
            2402     1.00706E+03     1.00706E+03         112.623         112.623        -98.5041        -98.5041
            2403     1.00755E+03     1.00755E+03         87.8346         87.8346        -81.0667        -81.0667
            2404     1.00528E+03     1.00528E+03         68.6627         68.6627        -64.7432        -64.7432
            2405     1.00177E+03     1.00177E+03         54.0126         54.0126        -50.5512        -50.5512
            2406         997.738         997.738         42.6309         42.6309        -38.3322        -38.3322
            2407         993.703         993.703         33.8602         33.8602        -28.0941        -28.0941
            2408         989.975         989.975         26.9404         26.9404        -19.5419        -19.5419
            2409         986.682         986.682         21.5057         21.5057        -12.4717        -12.4717
            2410         983.901         983.901         17.1545         17.1545        -6.64586        -6.64586
            2411         981.626         981.626         13.6796         13.6796        -1.87032        -1.87032
            2412         979.843         979.843         10.8676         10.8676         2.02612         2.02612
            2413         978.507         978.507         8.59659         8.59659         5.19042         5.19042
            2414         977.577         977.577         6.74756         6.74756         7.74333         7.74333
            2415         977.003         977.003         5.24484         5.24484         9.78971         9.78971
            2416         976.741         976.741         4.01710         4.01710         11.4143         11.4143
            2417         976.750         976.750         3.01413         3.01413         12.6904         12.6904
            2418         976.993         976.993         2.18899         2.18899         13.6767         13.6767
            2419         977.435         977.435         1.50527         1.50527         14.4228         14.4228
            2420         978.049         978.049     928.499E-03     928.499E-03         14.9679         14.9679
            2421         978.811         978.811     429.383E-03     429.383E-03         15.3436         15.3436
            2422         979.703         979.703    -20.4551E-03    -20.4551E-03         15.5728         15.5728
            2423         980.711         980.711    -446.922E-03    -446.922E-03         15.6721         15.6721
            2424         981.823         981.823    -875.471E-03    -875.471E-03         15.6505         15.6505
            2425         983.033         983.033        -1.33004        -1.33004         15.5110         15.5110
            2426         984.338         984.338        -1.83361        -1.83361         15.2497         15.2497
            2427         985.739         985.739        -2.40679        -2.40679         14.8564         14.8564
            2428         987.237         987.237        -3.06696        -3.06696         14.3148         14.3148
            2429         988.836         988.836        -3.82578        -3.82578         13.6027         13.6027
            2430         990.537         990.537        -4.68659        -4.68659         12.6928         12.6928
            2431         992.338         992.338        -5.64018        -5.64018         11.5543         11.5543
            2432         994.229         994.229        -6.66053        -6.66053         10.1549         10.1549
            2433         996.190         996.190        -7.69897        -7.69897         8.46475         8.46475
            2434         998.180         998.180        -8.68011        -8.68011         6.46303         6.46303
            2435     1.00014E+03     1.00014E+03        -9.49719        -9.49719         4.14533         4.14533
            2436     1.00198E+03     1.00198E+03        -10.0131        -10.0131         1.53616         1.53616
            2437     1.00360E+03     1.00360E+03        -10.0655        -10.0655        -1.29890        -1.29890
            2438     1.00485E+03     1.00485E+03        -9.48259        -9.48259        -4.23679        -4.23679
            2439     1.00562E+03     1.00562E+03        -8.11097        -8.11097        -7.08651        -7.08651
            2440         983.953         983.953         260.420         260.420        -161.803        -161.803
            2441     1.00035E+03     1.00035E+03         211.537         211.537        -156.256        -156.256
            2442     1.01208E+03     1.01208E+03         164.269         164.269        -140.441        -140.441
            2443     1.01719E+03     1.01719E+03         124.304         124.304        -120.025        -120.025
            2444     1.01735E+03     1.01735E+03         92.7445         92.7445        -98.1461        -98.1461
            2445     1.01281E+03     1.01281E+03         69.6694         69.6694        -77.4138        -77.4138
            2446     1.00663E+03     1.00663E+03         53.1006         53.1006        -59.9604        -59.9604
            2447     1.00004E+03     1.00004E+03         40.7562         40.7562        -45.2912        -45.2912
            2448         993.780         993.780         31.7011         31.7011        -33.3362        -33.3362
            2449         988.253         988.253         24.7729         24.7729        -23.5770        -23.5770
            2450         983.549         983.549         19.5163         19.5163        -15.6657        -15.6657
            2451         979.718         979.718         15.4001         15.4001        -9.25898        -9.25898
            2452         976.691         976.691         12.1880         12.1880        -4.07771        -4.07771
            2453         974.409         974.409         9.62861         9.62861     97.7599E-03     97.7599E-03
            2454         972.778         972.778         7.59245         7.59245         3.45724         3.45724
            2455         971.720         971.720         5.95180         5.95180         6.14407         6.14407
            2456         971.151         971.151         4.63161         4.63161         8.28381         8.28381
            2457         971.000         971.000         3.56129         3.56129         9.97211         9.97211
            2458         971.203         971.203         2.69424         2.69424         11.2922         11.2922
            2459         971.703         971.703         1.98740         1.98740         12.3086         12.3086
            2460         972.450         972.450         1.40917         1.40917         13.0761         13.0761
            2461         973.404         973.404     930.096E-03     930.096E-03         13.6372         13.6372
            2462         974.528         974.528     526.272E-03     526.272E-03         14.0268         14.0268
            2463         975.792         975.792     174.823E-03     174.823E-03         14.2705         14.2705
            2464         977.173         977.173    -144.479E-03    -144.479E-03         14.3875         14.3875
            2465         978.649         978.649    -451.476E-03    -451.476E-03         14.3895         14.3895
            2466         980.204         980.204    -764.657E-03    -764.657E-03         14.2823         14.2823
            2467         981.826         981.826        -1.10208        -1.10208         14.0651         14.0651
            2468         983.504         983.504        -1.48037        -1.48037         13.7314         13.7314
            2469         985.228         985.228        -1.91457        -1.91457         13.2690         13.2690
            2470         986.993         986.993        -2.41647        -2.41647         12.6607         12.6607
            2471         988.789         988.789        -2.99326        -2.99326         11.8846         11.8846
            2472         990.606         990.606        -3.64478        -3.64478         10.9161         10.9161
            2473         992.432         992.432        -4.36082        -4.36082         9.72956         9.72956
            2474         994.244         994.244        -5.11719        -5.11719         8.30136         8.30136
            2475         996.013         996.013        -5.87270        -5.87270         6.61448         6.61448
            2476         997.697         997.697        -6.56540        -6.56540         4.66411         4.66411
            2477         999.239         999.239        -7.11198        -7.11198         2.46579         2.46579
            2478     1.00057E+03     1.00057E+03        -7.40887        -7.40887     63.3968E-03     63.3968E-03
            2479     1.00160E+03     1.00160E+03        -7.33960        -7.33960        -2.46051        -2.46051
            2480     1.00226E+03     1.00226E+03        -6.78855        -6.78855        -4.97808        -4.97808
            2481     1.00246E+03     1.00246E+03        -5.66198        -5.66198        -7.31185        -7.31185
            2482     1.00926E+03     1.00926E+03         255.967         255.967        -181.011        -181.011
            2483     1.02561E+03     1.02561E+03         196.070         196.070        -169.613        -169.613
            2484     1.03405E+03     1.03405E+03         141.646         141.646        -147.082        -147.082
            2485     1.03445E+03     1.03445E+03         98.3760         98.3760        -118.694        -118.694
            2486     1.02577E+03     1.02577E+03         69.3103         69.3103        -91.0365        -91.0365
            2487     1.01483E+03     1.01483E+03         50.4932         50.4932        -69.1135        -69.1135
            2488     1.00407E+03     1.00407E+03         37.1999         37.1999        -51.4352        -51.4352
            2489         994.361         994.361         28.1232         28.1232        -37.6033        -37.6033
            2490         986.211         986.211         21.4361         21.4361        -26.6961        -26.6961
            2491         979.535         979.535         16.5921         16.5921        -18.0827        -18.0827
            2492         974.299         974.299         12.9021         12.9021        -11.2753        -11.2753
            2493         970.301         970.301         10.1064         10.1064        -5.86383        -5.86383
            2494         967.398         967.398         7.92185         7.92185        -1.57478        -1.57478
            2495         965.416         965.416         6.21587         6.21587         1.83636         1.83636
            2496         964.218         964.218         4.85931         4.85931         4.53355         4.53355
            2497         963.671         963.671         3.78030         3.78030         6.66440         6.66440
            2498         963.670         963.670         2.91332         2.91332         8.33232         8.33232
            2499         964.117         964.117         2.21680         2.21680         9.62929         9.62929
            2500         964.934         964.934         1.65361         1.65361         10.6226         10.6226
            2501         966.052         966.052         1.19756         1.19756         11.3707         11.3707
            2502         967.414         967.414     824.936E-03     824.936E-03         11.9175         11.9175
            2503         968.971         968.971     517.308E-03     517.308E-03         12.2996         12.2996
            2504         970.685         970.685     257.390E-03     257.390E-03         12.5443         12.5443
            2505         972.519         972.519     30.4397E-03     30.4397E-03         12.6724         12.6724
            2506         974.446         974.446    -177.890E-03    -177.890E-03         12.6978         12.6978
            2507         976.441         976.441    -380.732E-03    -380.732E-03         12.6287         12.6287
            2508         978.483         978.483    -591.064E-03    -591.064E-03         12.4673         12.4673
            2509         980.553         980.553    -821.009E-03    -821.009E-03         12.2106         12.2106
            2510         982.634         982.634        -1.08207        -1.08207         11.8502         11.8502
            2511         984.710         984.710        -1.38419        -1.38419         11.3733         11.3733
            2512         986.763         986.763        -1.73511        -1.73511         10.7626         10.7626
            2513         988.776         988.776        -2.13879        -2.13879         9.99800         9.99800
            2514         990.727         990.727        -2.59389        -2.59389         9.05775         9.05775
            2515         992.593         992.593        -3.09132        -3.09132         7.92099         7.92099
            2516         994.343         994.343        -3.61215        -3.61215         6.57099         6.57099
            2517         995.941         995.941        -4.12486        -4.12486         4.99936         4.99936
            2518         997.345         997.345        -4.58413        -4.58413         3.21173         3.21173
            2519         998.505         998.505        -4.93010        -4.93010         1.23366         1.23366
            2520         999.367         999.367        -5.09102        -5.09102    -882.275E-03    -882.275E-03
            2521         999.878         999.878        -4.98898        -4.98898        -3.05130        -3.05130
            2522         999.990         999.990        -4.55038        -4.55038        -5.15296        -5.15296
            2523         999.679         999.679        -3.72090        -3.72090        -7.03230        -7.03230
            2524     1.04625E+03     1.04625E+03         248.257         248.257        -200.399        -200.399
            2525     1.06303E+03     1.06303E+03         171.497         171.497        -182.849        -182.849
            2526     1.06566E+03     1.06566E+03         105.705         105.705        -144.420        -144.420
            2527     1.04829E+03     1.04829E+03         66.3898         66.3898        -104.637        -104.637
            2528     1.02811E+03     1.02811E+03         45.3802         45.3802        -76.3767        -76.3767
            2529     1.01030E+03     1.01030E+03         31.4371         31.4371        -55.2432        -55.2432
            2530         995.202         995.202         22.8789         22.8789        -39.6183        -39.6183
            2531         983.284         983.284         16.8565         16.8565        -27.9296        -27.9296
            2532         973.949         973.949         12.7488         12.7488        -18.9970        -18.9970
            2533         966.934         966.934         9.72827         9.72827        -12.1729        -12.1729
            2534         961.777         961.777         7.51811         7.51811        -6.85838        -6.85838
            2535         958.188         958.188         5.83558         5.83558        -2.73764        -2.73764
            2536         955.861         955.861         4.54811         4.54811     495.749E-03     495.749E-03
            2537         954.575         954.575         3.54256         3.54256         3.01542         3.01542
            2538         954.129         954.129         2.75220         2.75220         4.98759         4.98759
            2539         954.368         954.368         2.12451         2.12451         6.51581         6.51581
            2540         955.158         955.158         1.62394         1.62394         7.69619         7.69619
            2541         956.392         956.392         1.22256         1.22256         8.59375         8.59375
            2542         957.980         957.980     899.880E-03     899.880E-03         9.26685         9.26685
            2543         959.849         959.849     639.012E-03     639.012E-03         9.75720         9.75720
            2544         961.937         961.937     426.774E-03     426.774E-03         10.1009         10.1009
            2545         964.193         964.193     251.497E-03     251.497E-03         10.3239         10.3239
            2546         966.576         966.576     103.438E-03     103.438E-03         10.4475         10.4475
            2547         969.050         969.050    -26.6545E-03    -26.6545E-03         10.4860         10.4860
            2548         971.584         971.584    -147.057E-03    -147.057E-03         10.4491         10.4491
            2549         974.152         974.152    -265.979E-03    -265.979E-03         10.3415         10.3415
            2550         976.729         976.729    -391.082E-03    -391.082E-03         10.1630         10.1630
            2551         979.292         979.292    -529.913E-03    -529.913E-03         9.90919         9.90919
            2552         981.818         981.818    -689.324E-03    -689.324E-03         9.57142         9.57142
            2553         984.285         984.285    -875.412E-03    -875.412E-03         9.13714         9.13714
            2554         986.666         986.666        -1.09262        -1.09262         8.59076         8.59076
            2555         988.935         988.935        -1.34313        -1.34313         7.91448         7.91448
            2556         991.060         991.060        -1.62542        -1.62542         7.09000         7.09000
            2557         993.006         993.006        -1.93323        -1.93323         6.10066         6.10066
            2558         994.735         994.735        -2.25368        -2.25368         4.93448         4.93448
            2559         996.203         996.203        -2.56628        -2.56628         3.58811         3.58811
            2560         997.367         997.367        -2.84171        -2.84171         2.07122         2.07122
            2561         998.182         998.182        -3.04227        -3.04227     411.769E-03     411.769E-03
            2562         998.607         998.607        -3.12352        -3.12352        -1.33966        -1.33966
            2563         998.613         998.613        -3.03848        -3.03848        -3.10619        -3.10619
            2564         998.184         998.184        -2.74445        -2.74445        -4.78435        -4.78435
            2565         997.332         997.332        -2.21175        -2.21175        -6.24658        -6.24658
            2566     1.12052E+03     1.12052E+03         228.848         228.848        -228.672        -228.672
            2567     1.12734E+03     1.12734E+03         118.412         118.412        -176.889        -176.889
            2568     1.08829E+03     1.08829E+03         58.4340         58.4340        -114.654        -114.654
            2569     1.04841E+03     1.04841E+03         36.6026         36.6026        -77.5722        -77.5722
            2570     1.01838E+03     1.01838E+03         23.0717         23.0717        -53.6542        -53.6542
            2571         995.074         995.074         15.9443         15.9443        -37.1419        -37.1419
            2572         977.994         977.994         11.2428         11.2428        -25.7714        -25.7714
            2573         965.351         965.351         8.23885         8.23885        -17.3866        -17.3866
            2574         956.306         956.306         6.15300         6.15300        -11.2812        -11.2812
            2575         949.969         949.969         4.66812         4.66812        -6.62720        -6.62720
            2576         945.783         945.783         3.58773         3.58773        -3.12147        -3.12147
            2577         943.265         943.265         2.77028         2.77028    -408.676E-03    -408.676E-03
            2578         942.068         942.068         2.15194         2.15194         1.66723         1.66723
            2579         941.909         941.909         1.66806         1.66806         3.27656         3.27656
            2580         942.573         942.573         1.29155         1.29155         4.50856         4.50856
            2581         943.882         943.882     991.758E-03     991.758E-03         5.45338         5.45338
            2582         945.699         945.699     754.305E-03     754.305E-03         6.16551         6.16551
            2583         947.911         947.911     563.718E-03     563.718E-03         6.69665         6.69665
            2584         950.429         950.429     411.084E-03     411.084E-03         7.08128         7.08128
            2585         953.179         953.179     287.753E-03     287.753E-03         7.35046         7.35046
            2586         956.101         956.101     187.504E-03     187.504E-03         7.52595         7.52595
            2587         959.148         959.148     104.724E-03     104.724E-03         7.62623         7.62623
            2588         962.278         962.278     34.5441E-03     34.5441E-03         7.66395         7.66395
            2589         965.458         965.458    -27.3829E-03    -27.3829E-03         7.64868         7.64868
            2590         968.658         968.658    -85.3063E-03    -85.3063E-03         7.58565         7.58565
            2591         971.852         971.852    -143.122E-03    -143.122E-03         7.47710         7.47710
            2592         975.015         975.015    -204.793E-03    -204.793E-03         7.32158         7.32158
            2593         978.122         978.122    -273.965E-03    -273.965E-03         7.11467         7.11467
            2594         981.146         981.146    -354.180E-03    -354.180E-03         6.84876         6.84876
            2595         984.057         984.057    -448.387E-03    -448.387E-03         6.51357         6.51357
            2596         986.824         986.824    -558.860E-03    -558.860E-03         6.09653         6.09653
            2597         989.409         989.409    -686.513E-03    -686.513E-03         5.58371         5.58371
            2598         991.771         991.771    -830.500E-03    -830.500E-03         4.96096         4.96096
            2599         993.863         993.863    -987.293E-03    -987.293E-03         4.21577         4.21577
            2600         995.635         995.635        -1.15013        -1.15013         3.33967         3.33967
            2601         997.036         997.036        -1.30810        -1.30810         2.33116         2.33116
            2602         998.014         998.014        -1.44599        -1.44599         1.19928         1.19928
            2603         998.524         998.524        -1.54424        -1.54424    -32.9470E-03    -32.9470E-03
            2604         998.531         998.531        -1.58019        -1.58019        -1.32515        -1.32515
            2605         998.020         998.020        -1.53029        -1.53029        -2.61788        -2.61788
            2606         997.000         997.000        -1.37354        -1.37354        -3.83285        -3.83285
            2607         995.515         995.515        -1.09597        -1.09597        -4.87515        -4.87515
            2608     1.26323E+03     1.26323E+03         155.284         155.284        -200.828        -200.828
            2609     1.15747E+03     1.15747E+03         43.8301         43.8301        -108.896        -108.896
            2610     1.07440E+03     1.07440E+03         23.3469         23.3469        -62.4644        -62.4644
            2611     1.02431E+03     1.02431E+03         13.0588         13.0588        -40.8915        -40.8915
            2612         989.868         989.868         8.16420         8.16420        -26.6585        -26.6585
            2613         966.751         966.751         5.57491         5.57491        -18.1762        -18.1762
            2614         950.791         950.791         3.83142         3.83142        -12.0498        -12.0498
            2615         940.026         940.026         2.84363         2.84363        -7.90653        -7.90653
            2616         932.950         932.950         2.07472         2.07472        -4.79035        -4.79035
            2617         928.626         928.626         1.59839         1.59839        -2.53542        -2.53542
            2618         926.360         926.360         1.20824         1.20824    -806.953E-03    -806.953E-03
            2619         925.662         925.662     944.458E-03     944.458E-03     486.095E-03     486.095E-03
            2620         926.163         926.163     726.053E-03     726.053E-03         1.48198         1.48198
            2621         927.583         927.583     567.655E-03     567.655E-03         2.23442         2.23442
            2622         929.707         929.707     436.949E-03     436.949E-03         2.80902         2.80902
            2623         932.370         932.370     337.437E-03     337.437E-03         3.23879         3.23879
            2624         935.439         935.439     255.913E-03     255.913E-03         3.55869         3.55869
            2625         938.813         938.813     191.937E-03     191.937E-03         3.78958         3.78958
            2626         942.407         942.407     139.822E-03     139.822E-03         3.95166         3.95166
            2627         946.159         946.159     98.0355E-03     98.0355E-03         4.05822         4.05822
            2628         950.014         950.014     63.8194E-03     63.8194E-03         4.12127         4.12127
            2629         953.932         953.932     35.4961E-03     35.4961E-03         4.14888         4.14888
            2630         957.879         957.879     11.3983E-03     11.3983E-03         4.14773         4.14773
            2631         961.825         961.825    -10.0728E-03    -10.0728E-03         4.12184         4.12184
            2632         965.746         965.746    -30.2349E-03    -30.2349E-03         4.07375         4.07375
            2633         969.618         969.618    -50.6019E-03    -50.6019E-03         4.00389         4.00389
            2634         973.419         973.419    -72.4094E-03    -72.4094E-03         3.91113         3.91113
            2635         977.123         977.123    -97.0695E-03    -97.0695E-03         3.79246         3.79246
            2636         980.703         980.703    -125.717E-03    -125.717E-03         3.64334         3.64334
            2637         984.125         984.125    -159.483E-03    -159.483E-03         3.45766         3.45766
            2638         987.351         987.351    -199.085E-03    -199.085E-03         3.22814         3.22814
            2639         990.334         990.334    -244.895E-03    -244.895E-03         2.94670         2.94670
            2640         993.022         993.022    -296.516E-03    -296.516E-03         2.60520         2.60520
            2641         995.355         995.355    -352.705E-03    -352.705E-03         2.19648         2.19648
            2642         997.266         997.266    -410.914E-03    -410.914E-03         1.71567         1.71567
            2643         998.689         998.689    -467.243E-03    -467.243E-03         1.16194         1.16194
            2644         999.557         999.557    -516.084E-03    -516.084E-03     540.368E-03     540.368E-03
            2645         999.814         999.814    -550.458E-03    -550.458E-03    -135.936E-03    -135.936E-03
            2646         999.420         999.420    -562.147E-03    -562.147E-03    -844.252E-03    -844.252E-03
            2647         998.359         998.359    -542.855E-03    -542.855E-03        -1.55129        -1.55129
            2648         996.655         996.655    -485.298E-03    -485.298E-03        -2.21350        -2.21350
            2649         994.374         994.374    -384.536E-03    -384.536E-03        -2.77781        -2.77781
            2650     1.04096E+03     1.04096E+03        -32.5365        -32.5365         2.17955         2.17955
            2651     1.03431E+03     1.03431E+03        -22.5922        -22.5922         8.49975         8.49975
            2652     1.02714E+03     1.02714E+03        -15.0270        -15.0270         11.5688         11.5688
            2653      1.0205E+03      1.0205E+03        -9.62730        -9.62730         12.7183         12.7183
            2654     1.01464E+03     1.01464E+03        -5.93312        -5.93312         12.8072         12.8072
            2655     1.00956E+03     1.00956E+03        -3.49188        -3.49188         12.3388         12.3388
            2656     1.00511E+03     1.00511E+03        -1.93724        -1.93724         11.5712         11.5712
            2657     1.00115E+03     1.00115E+03    -992.477E-03    -992.477E-03         10.6055         10.6055
            2658         997.548         997.548    -454.585E-03    -454.585E-03         9.43531         9.43531
            2659         994.175         994.175    -175.663E-03    -175.663E-03         7.97004         7.97004
            2660         990.936         990.936    -49.5604E-03    -49.5604E-03         6.03729         6.03729
            2661         987.766         987.766    -5.90941E-03    -5.90941E-03         3.38839         3.38839
            2662     1.04821E+03     1.04821E+03        -19.3143        -19.3143         15.7044         15.7044
            2663     1.03709E+03     1.03709E+03        -9.38772        -9.38772         18.1378         18.1378
            2664     1.02758E+03     1.02758E+03        -3.22829        -3.22829         17.9897         17.9897
            2665     1.01980E+03     1.01980E+03     294.926E-03     294.926E-03         16.7697         16.7697
            2666     1.01345E+03     1.01345E+03         2.09071         2.09071         15.2113         15.2113
            2667     1.00818E+03     1.00818E+03         2.79397         2.79397         13.6321         13.6321
            2668     1.00366E+03     1.00366E+03         2.82577         2.82577         12.1352         12.1352
            2669         999.625         999.625         2.46361         2.46361         10.7099         10.7099
            2670         995.833         995.833         1.89713         1.89713         9.27596         9.27596
            2671         992.082         992.082         1.26584         1.26584         7.69570         7.69570
            2672         988.172         988.172     684.030E-03     684.030E-03         5.76697         5.76697
            2673         983.900         983.900     257.387E-03     257.387E-03         3.21975         3.21975
            2674     1.04917E+03     1.04917E+03         4.83208         4.83208         27.1331         27.1331
            2675     1.03523E+03     1.03523E+03         10.4876         10.4876         24.2888         24.2888
            2676     1.02486E+03     1.02486E+03         12.4098         12.4098         20.8130         20.8130
            2677     1.01705E+03     1.01705E+03         12.3278         12.3278         17.5885         17.5885
            2678     1.01097E+03     1.01097E+03         11.2171         11.2171         14.8654         14.8654
            2679     1.00602E+03     1.00602E+03         9.61574         9.61574         12.6334         12.6334
            2680     1.00177E+03     1.00177E+03         7.81805         7.81805         10.7999         10.7999
            2681         997.884         997.884         5.99450         5.99450         9.24358         9.24358
            2682         994.086         994.086         4.25604         4.25604         7.82759         7.82759
            2683         990.113         990.113         2.69327         2.69327         6.39340         6.39340
            2684         985.685         985.685         1.40430         1.40430         4.74476         4.74476
            2685         980.477         980.477     515.013E-03     515.013E-03         2.63558         2.63558
            2686     1.04337E+03     1.04337E+03         36.4186         36.4186         29.7705         29.7705
            2687     1.02963E+03     1.02963E+03         33.1636         33.1636         23.1004         23.1004
            2688     1.02020E+03     1.02020E+03         28.6489         28.6489         17.9502         17.9502
            2689     1.01336E+03     1.01336E+03         24.0048         24.0048         14.1136         14.1136
            2690     1.00810E+03     1.00810E+03         19.6452         19.6452         11.2693         11.2693
            2691     1.00377E+03     1.00377E+03         15.6826         15.6826         9.14500         9.14500
            2692         999.969         999.969         12.1315         12.1315         7.52832         7.52832
            2693         996.360         996.360         8.97820         8.97820         6.25151         6.25151
            2694         992.665         992.665         6.21618         6.21618         5.17110         5.17110
            2695         988.601         988.601         3.86544         3.86544         4.15100         4.15100
            2696         983.839         983.839         1.99078         1.99078         3.04442         3.04442
            2697         977.966         977.966     722.734E-03     722.734E-03         1.67962         1.67962
            2698     1.03509E+03     1.03509E+03         64.5999         64.5999         18.8803         18.8803
            2699     1.02373E+03     1.02373E+03         51.2972         51.2972         12.9875         12.9875
            2700     1.01604E+03     1.01604E+03         40.6888         40.6888         9.15440         9.15440
            2701     1.01041E+03     1.01041E+03         32.2112         32.2112         6.58953         6.58953
            2702     1.00598E+03     1.00598E+03         25.3234         25.3234         4.82851         4.82851
            2703     1.00224E+03     1.00224E+03         19.6323         19.6323         3.59958         3.59958
            2704         998.830         998.830         14.8594         14.8594         2.72957         2.72957
            2705         995.471         995.471         10.8186         10.8186         2.09984         2.09984
            2706         991.901         991.901         7.39963         7.39963         1.62407         1.62407
            2707         987.837         987.837         4.56164         4.56164         1.23247         1.23247
            2708         982.934         982.934         2.33726         2.33726     863.611E-03     863.611E-03
            2709         976.743         976.743     847.199E-03     847.199E-03     460.030E-03     460.030E-03
            2710     1.03180E+03     1.03180E+03         74.2603         74.2603        -3.24921        -3.24921
            2711     1.02182E+03     1.02182E+03         56.6423         56.6423        -3.50329        -3.50329
            2712     1.01490E+03     1.01490E+03         43.8529         43.8529        -3.50115        -3.50115
            2713     1.00973E+03     1.00973E+03         34.1438         34.1438        -3.40676        -3.40676
            2714     1.00560E+03     1.00560E+03         26.5180         26.5180        -3.26173        -3.26173
            2715     1.00206E+03     1.00206E+03         20.3656         20.3656        -3.08408        -3.08408
            2716         998.792         998.792         15.2967         15.2967        -2.87721        -2.87721
            2717         995.530         995.530         11.0638         11.0638        -2.63595        -2.63595
            2718         992.030         992.030         7.52204         7.52204        -2.34725        -2.34725
            2719         988.016         988.016         4.61031         4.61031        -1.98680        -1.98680
            2720         983.157         983.157         2.34892         2.34892        -1.51319        -1.51319
            2721         977.026         977.026     847.181E-03     847.181E-03    -858.894E-03    -858.894E-03
            2722     1.03725E+03     1.03725E+03         57.2157         57.2157        -24.7550        -24.7550
            2723     1.02564E+03     1.02564E+03         45.4536         45.4536        -19.4243        -19.4243
            2724     1.01769E+03     1.01769E+03         36.1756         36.1756        -15.7498        -15.7498
            2725     1.01185E+03     1.01185E+03         28.7195         28.7195        -13.0991        -13.0991
            2726     1.00727E+03     1.00727E+03         22.6191         22.6191        -11.1175        -11.1175
            2727     1.00342E+03     1.00342E+03         17.5436         17.5436        -9.57708        -9.57708
            2728         999.965         999.965         13.2642         13.2642        -8.31895        -8.31895
            2729         996.609         996.609         9.63100         9.63100        -7.22062        -7.22062
            2730         993.102         993.102         6.55769         6.55769        -6.17423        -6.17423
            2731         989.182         989.182         4.01685         4.01685        -5.06791        -5.06791
            2732         984.545         984.545         2.04212         2.04212        -3.76531        -3.76531
            2733         978.825         978.825     734.564E-03     734.564E-03        -2.09395        -2.09395
            2734     1.04580E+03     1.04580E+03         22.7790         22.7790        -31.8203        -31.8203
            2735     1.03222E+03     1.03222E+03         22.5016         22.5016        -26.8200        -26.8200
            2736     1.02269E+03     1.02269E+03         20.3475         20.3475        -22.5929        -22.5929
            2737     1.01569E+03     1.01569E+03         17.5701         17.5701        -19.2009        -19.2009
            2738     1.01028E+03     1.01028E+03         14.6677         14.6677        -16.4911        -16.4911
            2739     1.00587E+03     1.00587E+03         11.8567         11.8567        -14.2923        -14.2923
            2740     1.00204E+03     1.00204E+03         9.23314         9.23314        -12.4441        -12.4441
            2741         998.484         998.484         6.84490         6.84490        -10.8013        -10.8013
            2742         994.950         994.950         4.72741         4.72741        -9.22051        -9.22051
            2743         991.191         991.191         2.92359         2.92359        -7.54411        -7.54411
            2744         986.951         986.951         1.49737         1.49737        -5.57870        -5.57870
            2745         981.945         981.945     542.805E-03     542.805E-03        -3.08648        -3.08648
            2746     1.04818E+03     1.04818E+03        -9.73569        -9.73569        -22.9773        -22.9773
            2747     1.03612E+03     1.03612E+03        -1.76505        -1.76505        -23.3693        -23.3693
            2748     1.02661E+03     1.02661E+03         2.46031         2.46031        -21.9877        -21.9877
            2749     1.01919E+03     1.01919E+03         4.39393         4.39393        -20.0729        -20.0729
            2750     1.01331E+03     1.01331E+03         4.97920         4.97920        -18.1079        -18.1079
            2751     1.00849E+03     1.00849E+03         4.78225         4.78225        -16.2418        -16.2418
            2752     1.00439E+03     1.00439E+03         4.15057         4.15057        -14.4870        -14.4870
            2753     1.00072E+03     1.00072E+03         3.30433         3.30433        -12.7846        -12.7846
            2754         997.244         997.244         2.39231         2.39231        -11.0310        -11.0310
            2755         993.761         993.761         1.52536         1.52536        -9.07926        -9.07926
            2756         990.083         990.083     796.311E-03     796.311E-03        -6.72859        -6.72859
            2757         986.026         986.026     292.162E-03     292.162E-03        -3.72231        -3.72231
            2758     1.04138E+03     1.04138E+03        -28.6132        -28.6132        -7.71124        -7.71124
            2759     1.03416E+03     1.03416E+03        -18.8635        -18.8635        -13.3787        -13.3787
            2760     1.02693E+03     1.02693E+03        -11.8127        -11.8127        -15.8511        -15.8511
            2761     1.02051E+03     1.02051E+03        -7.02696        -7.02696        -16.5294        -16.5294
            2762     1.01503E+03     1.01503E+03        -3.92141        -3.92141        -16.2484        -16.2484
            2763     1.01038E+03     1.01038E+03        -1.99112        -1.99112        -15.4567        -15.4567
            2764     1.00636E+03     1.00636E+03    -860.875E-03    -860.875E-03        -14.3652        -14.3652
            2765     1.00281E+03     1.00281E+03    -258.792E-03    -258.792E-03        -13.0457        -13.0457
            2766         999.581         999.581     10.2602E-03     10.2602E-03        -11.4758        -11.4758
            2767         996.533         996.533     86.9429E-03     86.9429E-03        -9.55984        -9.55984
            2768         993.566         993.566     72.1870E-03     72.1870E-03        -7.12911        -7.12911
            2769         990.612         990.612     33.4845E-03     33.4845E-03        -3.95155        -3.95155
            2770         927.183         927.183         270.047         270.047         50.2199         50.2199
            2771         936.470         936.470         247.945         247.945         49.9372         49.9372
            2772         945.560         945.560         225.824         225.824         48.4073         48.4073
            2773         954.221         954.221         204.100         204.100         46.1292         46.1292
            2774         962.298         962.298         183.065         183.065         43.1845         43.1845
            2775         969.657         969.657         162.981         162.981         39.6717         39.6717
            2776         976.200         976.200         144.065         144.065         35.7356         35.7356
            2777         981.879         981.879         126.470         126.470         31.5210         31.5210
            2778         986.673         986.673         110.297         110.297         27.1798         27.1798
            2779         990.612         990.612         95.5850         95.5850         22.8473         22.8473
            2780         993.734         993.734         82.3298         82.3298         18.6368         18.6368
            2781         996.113         996.113         70.4887         70.4887         14.6401         14.6401
            2782         997.818         997.818         59.9924         59.9924         10.9177         10.9177
            2783         998.932         998.932         50.7554         50.7554         7.51226         7.51226
            2784         999.530         999.530         42.6797         42.6797         4.44004         4.44004
            2785         999.687         999.687         35.6660         35.6660         1.70618         1.70618
            2786         999.471         999.471         29.6115         29.6115    -701.713E-03    -701.713E-03
            2787         998.940         998.940         24.4187         24.4187        -2.80118        -2.80118
            2788         998.150         998.150         19.9917         19.9917        -4.61928        -4.61928
            2789         997.144         997.144         16.2418         16.2418        -6.18441        -6.18441
            2790         995.964         995.964         13.0840         13.0840        -7.52920        -7.52920
            2791         994.642         994.642         10.4400         10.4400        -8.68567        -8.68567
            2792         993.207         993.207         8.23566         8.23566        -9.68733        -9.68733
            2793         991.684         991.684         6.40272         6.40272        -10.5666        -10.5666
            2794         990.093         990.093         4.87632         4.87632        -11.3564        -11.3564
            2795         988.451         988.451         3.59589         3.59589        -12.0893        -12.0893
            2796         986.775         986.775         2.50340         2.50340        -12.7987        -12.7987
            2797         985.080         985.080         1.54320         1.54320        -13.5186        -13.5186
            2798         983.381         983.381     660.470E-03     660.470E-03        -14.2857        -14.2857
            2799         981.697         981.697    -199.667E-03    -199.667E-03        -15.1389        -15.1389
            2800         980.047         980.047        -1.09413        -1.09413        -16.1215        -16.1215
            2801         978.462         978.462        -2.08399        -2.08399        -17.2815        -17.2815
            2802         976.982         976.982        -3.23760        -3.23760        -18.6726        -18.6726
            2803         975.668         975.668        -4.63508        -4.63508        -20.3542        -20.3542
            2804         974.608         974.608        -6.37391        -6.37391        -22.3905        -22.3905
            2805         973.938         973.938        -8.57782        -8.57782        -24.8459        -24.8459
            2806         973.865         973.865        -11.4056        -11.4056        -27.7743        -27.7743
            2807         974.700         974.700        -15.0650        -15.0650        -31.1970        -31.1970
            2808         976.917         976.917        -19.8144        -19.8144        -35.0539        -35.0539
            2809         981.212         981.212        -25.9546        -25.9546        -39.1065        -39.1065
            2810         988.527         988.527        -33.6877        -33.6877        -42.7523        -42.7523
            2811         999.935         999.935        -42.8491        -42.8491        -44.8134        -44.8134
            2812         925.679         925.679         270.456         270.456         38.5838         38.5838
            2813         934.664         934.664         249.179         249.179         38.3546         38.3546
            2814         943.475         943.475         227.903         227.903         37.1971         37.1971
            2815         951.927         951.927         206.979         206.979         35.5041         35.5041
            2816         959.880         959.880         186.653         186.653         33.3174         33.3174
            2817         967.215         967.215         167.148         167.148         30.7162         30.7162
            2818         973.844         973.844         148.651         148.651         27.7866         27.7866
            2819         979.701         979.701         131.314         131.314         24.6366         24.6366
            2820         984.763         984.763         115.235         115.235         21.3686         21.3686
            2821         989.021         989.021         100.476         100.476         18.0822         18.0822
            2822         992.506         992.506         87.0550         87.0550         14.8639         14.8639
            2823         995.253         995.253         74.9573         74.9573         11.7821         11.7821
            2824         997.321         997.321         64.1416         64.1416         8.89124         8.89124
            2825         998.769         998.769         54.5457         54.5457         6.22418         6.22418
            2826         999.663         999.663         46.0955         46.0955         3.80293         3.80293
            2827     1.00007E+03     1.00007E+03         38.7062         38.7062         1.63207         1.63207
            2828     1.00005E+03     1.00005E+03         32.2908         32.2908    -290.461E-03    -290.461E-03
            2829         999.657         999.657         26.7592         26.7592        -1.97801        -1.97801
            2830         998.951         998.951         22.0241         22.0241        -3.44697        -3.44697
            2831         997.976         997.976         17.9993         17.9993        -4.71988        -4.71988
            2832         996.774         996.774         14.6038         14.6038        -5.82009        -5.82009
            2833         995.379         995.379         11.7595         11.7595        -6.77378        -6.77378
            2834         993.823         993.823         9.39404         9.39404        -7.60698        -7.60698
            2835         992.129         992.129         7.43870         7.43870        -8.34709        -8.34709
            2836         990.317         990.317         5.82988         5.82988        -9.02145        -9.02145
            2837         988.404         988.404         4.50770         4.50770        -9.65868        -9.65868
            2838         986.399         986.399         3.41635         3.41635        -10.2884        -10.2884
            2839         984.311         984.311         2.50299         2.50299        -10.9427        -10.9427
            2840         982.143         982.143         1.71744         1.71744        -11.6565        -11.6565
            2841         979.898         979.898         1.01094         1.01094        -12.4697        -12.4697
            2842         977.576         977.576     334.942E-03     334.942E-03        -13.4284        -13.4284
            2843         975.175         975.175    -360.880E-03    -360.880E-03        -14.5875        -14.5875
            2844         972.698         972.698        -1.13159        -1.13159        -16.0136        -16.0136
            2845         970.154         970.154        -2.04114        -2.04114        -17.7883        -17.7883
            2846         967.562         967.562        -3.16960        -3.16960        -20.0134        -20.0134
            2847         964.973         964.973        -4.62280        -4.62280        -22.8152        -22.8152
            2848         962.481         962.481        -6.55044        -6.55044        -26.3505        -26.3505
            2849         960.271         960.271        -9.16933        -9.16933        -30.8083        -30.8083
            2850         958.685         958.685        -12.8090        -12.8090        -36.4024        -36.4024
            2851         958.354         958.354        -17.9626        -17.9626        -43.3343        -43.3343
            2852         960.444         960.444        -25.3809        -25.3809        -51.6419        -51.6419
            2853         966.949         966.949        -35.9695        -35.9695        -60.8528        -60.8528
            2854         924.646         924.646         270.759         270.759         27.2914         27.2914
            2855         933.407         933.407         250.065         250.065         27.0955         27.0955
            2856         942.022         942.022         229.381         229.381         26.2647         26.2647
            2857         950.316         950.316         209.022         209.022         25.0694         25.0694
            2858         958.167         958.167         189.202         189.202         23.5463         23.5463
            2859         965.469         965.469         170.116         170.116         21.7370         21.7370
            2860         972.133         972.133         151.936         151.936         19.7060         19.7060
            2861         978.098         978.098         134.801         134.801         17.5171         17.5171
            2862         983.321         983.321         118.815         118.815         15.2423         15.2423
            2863         987.792         987.792         104.047         104.047         12.9467         12.9467
            2864         991.515         991.515         90.5304         90.5304         10.6893         10.6893
            2865         994.518         994.518         78.2677         78.2677         8.52016         8.52016
            2866         996.837         996.837         67.2359         67.2359         6.47556         6.47556
            2867         998.525         998.525         57.3917         57.3917         4.58354         4.58354
            2868         999.635         999.635         48.6751         48.6751         2.85818         2.85818
            2869     1.00022E+03     1.00022E+03         41.0163         41.0163         1.30762         1.30762
            2870     1.00035E+03     1.00035E+03         34.3371         34.3371    -70.7060E-03    -70.7060E-03
            2871     1.00007E+03     1.00007E+03         28.5571         28.5571        -1.28266        -1.28266
            2872         999.432         999.432         23.5932         23.5932        -2.34086        -2.34086
            2873         998.486         998.486         19.3646         19.3646        -3.25924        -3.25924
            2874         997.273         997.273         15.7918         15.7918        -4.05537        -4.05537
            2875         995.828         995.828         12.7994         12.7994        -4.74706        -4.74706
            2876         994.182         994.182         10.3153         10.3153        -5.35396        -5.35396
            2877         992.360         992.360         8.27253         8.27253        -5.89568        -5.89568
            2878         990.380         990.380         6.60823         6.60823        -6.39315        -6.39315
            2879         988.253         988.253         5.26452         5.26452        -6.86778        -6.86778
            2880         985.986         985.986         4.18791         4.18791        -7.34276        -7.34276
            2881         983.579         983.579         3.32949         3.32949        -7.84320        -7.84320
            2882         981.025         981.025         2.64439         2.64439        -8.39757        -8.39757
            2883         978.308         978.308         2.09152         2.09152        -9.03883        -9.03883
            2884         975.406         975.406         1.63285         1.63285        -9.80656        -9.80656
            2885         972.286         972.286         1.23247         1.23247        -10.7495        -10.7495
            2886         968.906         968.906     855.069E-03     855.069E-03        -11.9292        -11.9292
            2887         965.212         965.212     463.234E-03     463.234E-03        -13.4255        -13.4255
            2888         961.136         961.136     13.7042E-03     13.7042E-03        -15.3441        -15.3441
            2889         956.599         956.599    -550.626E-03    -550.626E-03        -17.8274        -17.8274
            2890         951.515         951.515        -1.31144        -1.31144        -21.0723        -21.0723
            2891         945.798         945.798        -2.39969        -2.39969        -25.3543        -25.3543
            2892         939.396         939.396        -4.03140        -4.03140        -31.0687        -31.0687
            2893         932.362         932.362        -6.59324        -6.59324        -38.7838        -38.7838
            2894         925.047         925.047        -10.8013        -10.8013        -49.3335        -49.3335
            2895         918.665         918.665        -18.0415        -18.0415        -63.8050        -63.8050
            2896         923.994         923.994         270.963         270.963         16.2315         16.2315
            2897         932.618         932.618         250.638         250.638         16.0623         16.0623
            2898         941.105         941.105         230.328         230.328         15.5215         15.5215
            2899         949.297         949.297         210.326         210.326         14.7791         14.7791
            2900         957.080         957.080         190.827         190.827         13.8494         13.8494
            2901         964.354         964.354         172.009         172.009         12.7642         12.7642
            2902         971.034         971.034         154.033         154.033         11.5539         11.5539
            2903         977.055         977.055         137.034         137.034         10.2602         10.2602
            2904         982.375         982.375         121.114         121.114         8.92053         8.92053
            2905         986.970         986.970         106.348         106.348         7.57372         7.57372
            2906         990.839         990.839         92.7770         92.7770         6.25316         6.25316
            2907         993.997         993.997         80.4146         80.4146         4.98645         4.98645
            2908         996.475         996.475         69.2494         69.2494         3.79620         3.79620
            2909         998.314         998.314         59.2487         59.2487         2.69627         2.69627
            2910         999.561         999.561         50.3634         50.3634         1.69704         1.69704
            2911     1.00027E+03     1.00027E+03         42.5314         42.5314     800.798E-03     800.798E-03
            2912     1.00049E+03     1.00049E+03         35.6828         35.6828     7.93392E-03     7.93392E-03
            2913     1.00028E+03     1.00028E+03         29.7415         29.7415    -687.030E-03    -687.030E-03
            2914         999.691         999.691         24.6297         24.6297        -1.29018        -1.29018
            2915         998.766         998.766         20.2684         20.2684        -1.81116        -1.81116
            2916         997.546         997.546         16.5808         16.5808        -2.25952        -2.25952
            2917         996.070         996.070         13.4924         13.4924        -2.64669        -2.64669
            2918         994.367         994.367         10.9325         10.9325        -2.98374        -2.98374
            2919         992.462         992.462         8.83461         8.83461        -3.28280        -3.28280
            2920         990.370         990.370         7.13718         7.13718        -3.55586        -3.55586
            2921         988.102         988.102         5.78357         5.78357        -3.81581        -3.81581
            2922         985.661         985.661         4.72247         4.72247        -4.07605        -4.07605
            2923         983.039         983.039         3.90791         3.90791        -4.35149        -4.35149
            2924         980.221         980.221         3.29944         3.29944        -4.65871        -4.65871
            2925         977.180         977.180         2.86219         2.86219        -5.01729        -5.01729
            2926         973.875         973.875         2.56689         2.56689        -5.45068        -5.45068
            2927         970.248         970.248         2.39005         2.39005        -5.98832        -5.98832
            2928         966.222         966.222         2.31379         2.31379        -6.66791        -6.66791
            2929         961.689         961.689         2.32594         2.32594        -7.53952        -7.53952
            2930         956.506         956.506         2.41908         2.41908        -8.67102        -8.67102
            2931         950.480         950.480         2.59020         2.59020        -10.1577        -10.1577
            2932         943.348         943.348         2.83659         2.83659        -12.1362        -12.1362
            2933         934.745         934.745         3.15265         3.15265        -14.8104        -14.8104
            2934         924.162         924.162         3.51333         3.51333        -18.4922        -18.4922
            2935         910.870         910.870         3.85114         3.85114        -23.6861        -23.6861
            2936         893.801         893.801         3.98499         3.98499        -31.2455        -31.2455
            2937         871.390         871.390         3.41022         3.41022        -42.7773        -42.7773
            2938         923.679         923.679         271.062         271.062         5.31975         5.31975
            2939         932.237         932.237         250.912         250.912         5.18006         5.18006
            2940         940.665         940.665         230.778         230.778         4.92735         4.92735
            2941         948.809         948.809         210.944         210.944         4.61479         4.61479
            2942         956.561         956.561         191.594         191.594         4.25536         4.25536
            2943         963.822         963.822         172.900         172.900         3.85571         3.85571
            2944         970.510         970.510         155.017         155.017         3.43202         3.43202
            2945         976.559         976.559         138.078         138.078         2.99437         2.99437
            2946         981.922         981.922         122.186         122.186         2.55758         2.55758
            2947         986.575         986.575         107.418         107.418         2.13183         2.13183
            2948         990.510         990.510         93.8182         93.8182         1.72711         1.72711
            2949         993.740         993.740         81.4067         81.4067         1.35111         1.35111
            2950         996.291         996.291         70.1768         70.1768         1.00817         1.00817
            2951         998.198         998.198         60.1013         60.1013     702.340E-03     702.340E-03
            2952         999.507         999.507         51.1356         51.1356     433.446E-03     433.446E-03
            2953     1.00027E+03     1.00027E+03         43.2222         43.2222     202.190E-03     202.190E-03
            2954     1.00053E+03     1.00053E+03         36.2938         36.2938     5.66373E-03     5.66373E-03
            2955     1.00036E+03     1.00036E+03         30.2775         30.2775    -157.733E-03    -157.733E-03
            2956         999.787         999.787         25.0968         25.0968    -292.060E-03    -292.060E-03
            2957         998.870         998.870         20.6745         20.6745    -400.087E-03    -400.087E-03
            2958         997.648         997.648         16.9342         16.9342    -485.996E-03    -485.996E-03
            2959         996.158         996.158         13.8020         13.8020    -552.881E-03    -552.881E-03
            2960         994.430         994.430         11.2078         11.2078    -604.527E-03    -604.527E-03
            2961         992.487         992.487         9.08508         9.08508    -643.884E-03    -643.884E-03
            2962         990.347         990.347         7.37282         7.37282    -674.185E-03    -674.185E-03
            2963         988.018         988.018         6.01481         6.01481    -698.068E-03    -698.068E-03
            2964         985.501         985.501         4.96058         4.96058    -718.276E-03    -718.276E-03
            2965         982.787         982.787         4.16532         4.16532    -737.167E-03    -737.167E-03
            2966         979.857         979.857         3.59047         3.59047    -757.177E-03    -757.177E-03
            2967         976.678         976.678         3.20367         3.20367    -780.546E-03    -780.546E-03
            2968         973.203         973.203         2.97957         2.97957    -809.670E-03    -809.670E-03
            2969         969.362         969.362         2.89992         2.89992    -846.927E-03    -846.927E-03
            2970         965.062         965.062         2.95489         2.95489    -895.061E-03    -895.061E-03
            2971         960.173         960.173         3.14327         3.14327    -956.980E-03    -956.980E-03
            2972         954.520         954.520         3.47508         3.47508        -1.03642        -1.03642
            2973         947.857         947.857         3.97168         3.97168        -1.13742        -1.13742
            2974         939.839         939.839         4.67160         4.67160        -1.26590        -1.26590
            2975         929.973         929.973         5.62953         5.62953        -1.42786        -1.42786
            2976         917.525         917.525         6.92996         6.92996        -1.63294        -1.63294
            2977         901.370         901.370         8.68365         8.68365        -1.88794        -1.88794
            2978         879.679         879.679         11.0627         11.0627        -2.19881        -2.19881
            2979         849.179         849.179         14.3129         14.3129        -2.50024        -2.50024
            2980         923.679         923.679         271.062         271.062        -5.52770        -5.52770
            2981         932.241         932.241         250.904         250.904        -5.61197        -5.61197
            2982         940.675         940.675         230.761         230.761        -5.56520        -5.56520
            2983         948.825         948.825         210.916         210.916        -5.43317        -5.43317
            2984         956.582         956.582         191.552         191.552        -5.22204        -5.22204
            2985         963.849         963.849         172.844         172.844        -4.93272        -4.93272
            2986         970.542         970.542         154.946         154.946        -4.57772        -4.57772
            2987         976.593         976.593         137.993         137.993        -4.16544        -4.16544
            2988         981.957         981.957         122.088         122.088        -3.71139        -3.71139
            2989         986.609         986.609         107.309         107.309        -3.22834        -3.22834
            2990         990.541         990.541         93.7022         93.7022        -2.73053        -2.73053
            2991         993.766         993.766         81.2858         81.2858        -2.23097        -2.23097
            2992         996.309         996.309         70.0541         70.0541        -1.73992        -1.73992
            2993         998.208         998.208         59.9794         59.9794        -1.26748        -1.26748
            2994         999.509         999.509         51.0169         51.0169    -819.148E-03    -819.148E-03
            2995     1.00026E+03     1.00026E+03         43.1085         43.1085    -400.844E-03    -400.844E-03
            2996     1.00052E+03     1.00052E+03         36.1866         36.1866    -13.9562E-03    -13.9562E-03
            2997     1.00034E+03     1.00034E+03         30.1776         30.1776     339.600E-03     339.600E-03
            2998         999.761         999.761         25.0046         25.0046     661.414E-03     661.414E-03
            2999         998.840         998.840         20.5900         20.5900     952.650E-03     952.650E-03
            3000         997.617         997.617         16.8568         16.8568         1.21687         1.21687
            3001         996.129         996.129         13.7310         13.7310         1.45741         1.45741
            3002         994.406         994.406         11.1417         11.1417         1.67922         1.67922
            3003         992.471         992.471         9.02232         9.02232         1.88729         1.88729
            3004         990.344         990.344         7.31118         7.31118         2.08791         2.08791
            3005         988.032         988.032         5.95168         5.95168         2.28784         2.28784
            3006         985.539         985.539         4.89259         4.89259         2.49529         2.49529
            3007         982.855         982.855         4.08835         4.08835         2.71973         2.71973
            3008         979.965         979.965         3.49915         3.49915         2.97282         2.97282
            3009         976.838         976.838         3.09122         3.09122         3.26886         3.26886
            3010         973.430         973.430         2.83690         2.83690         3.62620         3.62620
            3011         969.678         969.678         2.71507         2.71507         4.06847         4.06847
            3012         965.497         965.497         2.71128         2.71128         4.62739         4.62739
            3013         960.769         960.769         2.81819         2.81819         5.34570         5.34570
            3014         955.338         955.338         3.03557         3.03557         6.28360         6.28360
            3015         948.986         948.986         3.37054         3.37054         7.52610         7.52610
            3016         941.418         941.418         3.83624         3.83624         9.19993         9.19993
            3017         932.219         932.219         4.44955         4.44955         11.4945         11.4945
            3018         920.797         920.797         5.22223         5.22223         14.7132         14.7132
            3019         906.294         906.294         6.14106         6.14106         19.3500         19.3500
            3020         887.423         887.423         7.10849         7.10849         26.2864         26.2864
            3021         862.346         862.346         7.72016         7.72016         37.2069         37.2069
            3022         923.993         923.993         270.966         270.966        -16.4089        -16.4089
            3023         932.631         932.631         250.622         250.622        -16.4276        -16.4276
            3024         941.132         941.132         230.288         230.288        -16.0609        -16.0609
            3025         949.340         949.340         210.257         210.257        -15.4704        -15.4704
            3026         957.139         957.139         190.722         190.722        -14.6645        -14.6645
            3027         964.427         964.427         171.866         171.866        -13.6703        -13.6703
            3028         971.119         971.119         153.851         153.851        -12.5151        -12.5151
            3029         977.148         977.148         136.814         136.814        -11.2395        -11.2395
            3030         982.469         982.469         120.861         120.861        -9.88158        -9.88158
            3031         987.060         987.060         106.068         106.068        -8.48304        -8.48304
            3032         990.920         990.920         92.4766         92.4766        -7.08109        -7.08109
            3033         994.064         994.064         80.1018         80.1018        -5.70810        -5.70810
            3034         996.524         996.524         68.9319         68.9319        -4.39185        -4.39185
            3035         998.341         998.341         58.9334         58.9334        -3.15135        -3.15135
            3036         999.566         999.566         50.0564         50.0564        -2.00185        -2.00185
            3037     1.00025E+03     1.00025E+03         42.2377         42.2377    -949.828E-03    -949.828E-03
            3038     1.00045E+03     1.00045E+03         35.4058         35.4058     693.589E-06     693.589E-06
            3039     1.00023E+03     1.00023E+03         29.4836         29.4836     852.456E-03     852.456E-03
            3040         999.622         999.622         24.3918         24.3918         1.60950         1.60950
            3041         998.688         998.688         20.0503         20.0503         2.28028         2.28028
            3042         997.466         997.466         16.3814         16.3814         2.87382         2.87382
            3043         995.994         995.994         13.3092         13.3092         3.40179         3.40179
            3044         994.304         994.304         10.7623         10.7623         3.87614         3.87614
            3045         992.420         992.420         8.67319         8.67319         4.31061         4.31061
            3046         990.360         990.360         6.97907         6.97907         4.71949         4.71949
            3047         988.137         988.137         5.62201         5.62201         5.11878         5.11878
            3048         985.755         985.755         4.54912         4.54912         5.52595         5.52595
            3049         983.211         983.211         3.71231         3.71231         5.96107         5.96107
            3050         980.495         980.495         3.06837         3.06837         6.44741         6.44741
            3051         977.585         977.585         2.57861         2.57861         7.01307         7.01307
            3052         974.450         974.450         2.20861         2.20861         7.69253         7.69253
            3053         971.047         971.047         1.92753         1.92753         8.52967         8.52967
            3054         967.317         967.317         1.70714         1.70714         9.58109         9.58109
            3055         963.184         963.184         1.52007         1.52007         10.9223         10.9223
            3056         958.548         958.548         1.33664         1.33664         12.6549         12.6549
            3057         953.284         953.284         1.11971         1.11971         14.9210         14.9210
            3058         947.238         947.238     813.871E-03     813.871E-03         17.9202         17.9202
            3059         940.225         940.225     328.245E-03     328.245E-03         21.9450         21.9450
            3060         932.041         932.041    -503.441E-03    -503.441E-03         27.4252         27.4252
            3061         922.509         922.509        -1.99435        -1.99435         35.0209         35.0209
            3062         911.633         911.633        -4.78649        -4.78649         45.7443         45.7443
            3063         900.084         900.084        -10.1983        -10.1983         61.0646         61.0646
            3064         924.646         924.646         270.766         270.766        -27.4282        -27.4282
            3065         933.425         933.425         250.051         250.051        -27.3736        -27.3736
            3066         942.060         942.060         229.335         229.335        -26.6735        -26.6735
            3067         950.374         950.374         208.937         208.937        -25.5916        -25.5916
            3068         958.247         958.247         189.070         189.070        -24.1597        -24.1597
            3069         965.567         965.567         169.934         169.934        -22.4155        -22.4155
            3070         972.246         972.246         151.703         151.703        -20.4213        -20.4213
            3071         978.219         978.219         134.519         134.519        -18.2405        -18.2405
            3072         983.444         983.444         118.491         118.491        -15.9464        -15.9464
            3073         987.909         987.909         103.689         103.689        -13.6066        -13.6066
            3074         991.618         991.618         90.1468         90.1468        -11.2837        -11.2837
            3075         994.601         994.601         77.8692         77.8692        -9.03161        -9.03161
            3076         996.896         996.896         66.8324         66.8324        -6.89082        -6.89082
            3077         998.555         998.555         56.9921         56.9921        -4.89338        -4.89338
            3078         999.635         999.635         48.2871         48.2871        -3.05688        -3.05688
            3079     1.00020E+03     1.00020E+03         40.6458         40.6458        -1.39261        -1.39261
            3080     1.00030E+03     1.00030E+03         33.9886         33.9886     99.6033E-03     99.6033E-03
            3081         999.991         999.991         28.2332         28.2332         1.42366         1.42366
            3082         999.337         999.337         23.2951         23.2951         2.59092         2.59092
            3083         998.380         998.380         19.0920         19.0920         3.61449         3.61449
            3084         997.163         997.163         15.5431         15.5431         4.51171         4.51171
            3085         995.724         995.724         12.5717         12.5717         5.30050         5.30050
            3086         994.094         994.094         10.1046         10.1046         6.00112         6.00112
            3087         992.299         992.299         8.07353         8.07353         6.63415         6.63415
            3088         990.358         990.358         6.41440         6.41440         7.22187         7.22187
            3089         988.286         988.286         5.06779         5.06779         7.78749         7.78749
            3090         986.092         986.092         3.97836         3.97836         8.35645         8.35645
            3091         983.780         983.780         3.09484         3.09484         8.95659         8.95659
            3092         981.347         981.347         2.36925         2.36925         9.61979         9.61979
            3093         978.788         978.788         1.75634         1.75634         10.3831         10.3831
            3094         976.088         976.088         1.21247         1.21247         11.2910         11.2910
            3095         973.232         973.232     693.974E-03     693.974E-03         12.3980         12.3980
            3096         970.198         970.198     154.824E-03     154.824E-03         13.7729         13.7729
            3097         966.962         966.962    -457.514E-03    -457.514E-03         15.5030         15.5030
            3098         963.505         963.505        -1.20779        -1.20779         17.7020         17.7020
            3099         959.814         959.814        -2.18423        -2.18423         20.5189         20.5189
            3100         955.908         955.908        -3.51360        -3.51360         24.1518         24.1518
            3101         951.863         951.863        -5.39371        -5.39371         28.8618         28.8618
            3102         947.881         947.881        -8.13621        -8.13621         34.9931         34.9931
            3103         944.425         944.425        -12.2639        -12.2639         42.9685         42.9685
            3104         942.490         942.490        -18.6342        -18.6342         53.2285         53.2285
            3105         944.035         944.035        -28.5536        -28.5536         65.9605         65.9605
            3106         925.678         925.678         270.464         270.464        -38.6790        -38.6790
            3107         934.681         934.681         249.166         249.166        -38.5450        -38.5450
            3108         943.511         943.511         227.860         227.860        -37.4737        -37.4737
            3109         951.983         951.983         206.897         206.897        -35.8553        -35.8553
            3110         959.955         959.955         186.527         186.527        -33.7274        -33.7274
            3111         967.308         967.308         166.973         166.973        -31.1662        -31.1662
            3112         973.949         973.949         148.429         148.429        -28.2565        -28.2565
            3113         979.813         979.813         131.046         131.046        -25.1066        -25.1066
            3114         984.874         984.874         114.928         114.928        -21.8202        -21.8202
            3115         989.126         989.126         100.139         100.139        -18.4993        -18.4993
            3116         992.596         992.596         86.6961         86.6961        -15.2332        -15.2332
            3117         995.322         995.322         74.5866         74.5866        -12.0934        -12.0934
            3118         997.365         997.365         63.7682         63.7682        -9.13733        -9.13733
            3119         998.785         998.785         54.1780         54.1780        -6.40046        -6.40046
            3120         999.651         999.651         45.7401         45.7401        -3.90719        -3.90719
            3121     1.00003E+03     1.00003E+03         38.3685         38.3685        -1.66388        -1.66388
            3122         999.982         999.982         31.9745         31.9745     329.984E-03     329.984E-03
            3123         999.570         999.570         26.4665         26.4665         2.08678         2.08678
            3124         998.848         998.848         21.7559         21.7559         3.62217         3.62217
            3125         997.863         997.863         17.7553         17.7553         4.95836         4.95836
            3126         996.658         996.658         14.3822         14.3822         6.11854         6.11854
            3127         995.269         995.269         11.5578         11.5578         7.12904         7.12904
            3128         993.726         993.726         9.20865         9.20865         8.01618         8.01618
            3129         992.057         992.057         7.26501         7.26501         8.80783         8.80783
            3130         990.280         990.280         5.66226         5.66226         9.53192         9.53192
            3131         988.415         988.415         4.33933         4.33933         10.2178         10.2178
            3132         986.473         986.473         3.23897         3.23897         10.8959         10.8959
            3133         984.467         984.467         2.30653         2.30653         11.5992         11.5992
            3134         982.403         982.403         1.48950         1.48950         12.3636         12.3636
            3135         980.291         980.291     736.083E-03     736.083E-03         13.2299         13.2299
            3136         978.137         978.137    -6.27539E-03    -6.27539E-03         14.2447         14.2447
            3137         975.952         975.952    -793.179E-03    -793.179E-03         15.4632         15.4632
            3138         973.754         973.754        -1.68673        -1.68673         16.9509         16.9509
            3139         971.572         971.572        -2.76007        -2.76007         18.7867         18.7867
            3140         969.458         969.458        -4.10551        -4.10551         21.0651         21.0651
            3141         967.502         967.502        -5.84410        -5.84410         23.8988         23.8988
            3142         965.858         965.858        -8.14482        -8.14482         27.4163         27.4163
            3143         964.791         964.791        -11.2434        -11.2434         31.7544         31.7544
            3144         964.748         964.748        -15.4829        -15.4829         37.0266         37.0266
            3145         966.475         966.475        -21.3290        -21.3290         43.2478         43.2478
            3146         971.168         971.168        -29.3793        -29.3793         50.1399         50.1399
            3147         980.604         980.604        -40.1516        -40.1516         56.8345         56.8345
            3148         927.180         927.180         270.053         270.053        -50.2712        -50.2712
            3149         936.478         936.478         247.935         247.935        -50.0343        -50.0343
            3150         945.580         945.580         225.794         225.794        -48.5462        -48.5462
            3151         954.253         954.253         204.045         204.045        -46.3041        -46.3041
            3152         962.343         962.343         182.982         182.982        -43.3873        -43.3873
            3153         969.712         969.712         162.868         162.868        -39.8924        -39.8924
            3154         976.262         976.262         143.922         143.922        -35.9638        -35.9638
            3155         981.944         981.944         126.300         126.300        -31.7463        -31.7463
            3156         986.737         986.737         110.103         110.103        -27.3931        -27.3931
            3157         990.669         990.669         95.3733         95.3733        -23.0410        -23.0410
            3158         993.781         993.781         82.1063         82.1063        -18.8048        -18.8048
            3159         996.146         996.146         70.2595         70.2595        -14.7781        -14.7781
            3160         997.834         997.834         59.7630         59.7630        -11.0228        -11.0228
            3161         998.930         998.930         50.5309         50.5309        -7.58320        -7.58320
            3162         999.510         999.510         42.4640         42.4640        -4.47634        -4.47634
            3163         999.651         999.651         35.4621         35.4621        -1.70839        -1.70839
            3164         999.418         999.418         29.4215         29.4215     732.602E-03     732.602E-03
            3165         998.875         998.875         24.2438         24.2438         2.86365         2.86365
            3166         998.075         998.075         19.8323         19.8323         4.71166         4.71166
            3167         997.064         997.064         16.0975         16.0975         6.30487         6.30487
            3168         995.882         995.882         12.9537         12.9537         7.67590         7.67590
            3169         994.563         994.563         10.3222         10.3222         8.85686         8.85686
            3170         993.137         993.137         8.12812         8.12812         9.88134         9.88134
            3171         991.628         991.628         6.30276         6.30276         10.7819         10.7819
            3172         990.057         990.057         4.78067         4.78067         11.5917         11.5917
            3173         988.444         988.444         3.50067         3.50067         12.3434         12.3434
            3174         986.805         986.805         2.40395         2.40395         13.0703         13.0703
            3175         985.157         985.157         1.43396         1.43396         13.8069         13.8069
            3176         983.517         983.517     534.709E-03     534.709E-03         14.5893         14.5893
            3177         981.907         981.907    -350.151E-03    -350.151E-03         15.4562         15.4562
            3178         980.351         980.351        -1.27938        -1.27938         16.4500         16.4500
            3179         978.884         978.884        -2.31637        -2.31637         17.6171         17.6171
            3180         977.554         977.554        -3.53223        -3.53223         19.0084         19.0084
            3181         976.430         976.430        -5.01044        -5.01044         20.6787         20.6787
            3182         975.613         975.613        -6.85168        -6.85168         22.6838         22.6838
            3183         975.254         975.254        -9.18279        -9.18279         25.0746         25.0746
            3184         975.574         975.574        -12.1620        -12.1620         27.8830         27.8830
            3185         976.904         976.904        -15.9907        -15.9907         31.0943         31.0943
            3186         979.718         979.718        -20.9003        -20.9003         34.5930         34.5930
            3187         984.678         984.678        -27.1285        -27.1285         38.0678         38.0678
            3188         992.613         992.613        -34.7530        -34.7530         40.8581         40.8581
            3189     1.00438E+03     1.00438E+03        -43.4433        -43.4433         41.7716         41.7716
            3190     1.02112E+03     1.02112E+03        -36.0412        -36.0412        -16.1360        -16.1360
            3191     1.01229E+03     1.01229E+03        -32.9496        -32.9496        -20.6280        -20.6280
            3192     1.00454E+03     1.00454E+03        -28.7566        -28.7566        -23.1633        -23.1633
            3193         998.199         998.199        -24.2909        -24.2909        -24.1915        -24.1915
            3194         993.296         993.296        -20.0580        -20.0580        -24.2326        -24.2326
            3195         989.676         989.676        -16.2869        -16.2869        -23.6954        -23.6954
            3196         987.127         987.127        -13.0464        -13.0464        -22.8710        -22.8710
            3197         985.440         985.440        -10.3167        -10.3167        -21.9394        -21.9394
            3198         984.430         984.430        -8.04292        -8.04292        -21.0050        -21.0050
            3199         983.946         983.946        -6.15513        -6.15513        -20.1206        -20.1206
            3200         983.870         983.870        -4.58179        -4.58179        -19.3070        -19.3070
            3201         984.107         984.107        -3.25319        -3.25319        -18.5647        -18.5647
            3202         984.588         984.588        -2.10354        -2.10354        -17.8822        -17.8822
            3203         985.255         985.255        -1.07074        -1.07074        -17.2410        -17.2410
            3204         986.065         986.065    -95.5680E-03    -95.5680E-03        -16.6180        -16.6180
            3205         986.985         986.985     878.857E-03     878.857E-03        -15.9874        -15.9874
            3206         987.988         987.988         1.90877         1.90877        -15.3209        -15.3209
            3207         989.052         989.052         3.04981         3.04981        -14.5886        -14.5886
            3208         990.157         990.157         4.35936         4.35936        -13.7580        -13.7580
            3209         991.286         991.286         5.89584         5.89584        -12.7948        -12.7948
            3210         992.420         992.420         7.72202         7.72202        -11.6620        -11.6620
            3211         993.542         993.542         9.90309         9.90309        -10.3200        -10.3200
            3212         994.629         994.629         12.5118         12.5118        -8.72650        -8.72650
            3213         995.657         995.657         15.6244         15.6244        -6.83749        -6.83749
            3214         996.595         996.595         19.3286         19.3286        -4.60624        -4.60624
            3215         997.405         997.405         23.7161         23.7161        -1.98746        -1.98746
            3216         998.040         998.040         28.8949         28.8949         1.06557         1.06557
            3217         998.443         998.443         34.9761         34.9761         4.59108         4.59108
            3218         998.543         998.543         42.0915         42.0915         8.62557         8.62557
            3219         998.253         998.253         50.3724         50.3724         13.1834         13.1834
            3220         997.477         997.477         59.9702         59.9702         18.2712         18.2712
            3221         996.092         996.092         71.0283         71.0283         23.8520         23.8520
            3222         993.985         993.985         83.6939         83.6939         29.8710         29.8710
            3223         991.008         991.008         98.0908         98.0908         36.2072         36.2072
            3224         987.065         987.065         114.303         114.303         42.7091         42.7091
            3225         982.031         982.031         132.367         132.367         49.1589         49.1589
            3226         975.887         975.887         152.214         152.214         55.3021         55.3021
            3227         968.618         968.618         173.697         173.697         60.8731         60.8731
            3228         960.333         960.333         196.534         196.534         65.5855         65.5855
            3229         951.194         951.194         220.357         220.357         69.2454         69.2454
            3230         941.416         941.416         244.715         244.715         71.6716         71.6716
            3231         931.346         931.346         269.007         269.007         72.1463         72.1463
            3232     1.02135E+03     1.02135E+03        -30.3570        -30.3570        -8.03662        -8.03662
            3233     1.01446E+03     1.01446E+03        -29.1170        -29.1170        -13.0822        -13.0822
            3234     1.00801E+03     1.00801E+03        -26.5218        -26.5218        -16.5969        -16.5969
            3235     1.00232E+03     1.00232E+03        -23.2457        -23.2457        -18.8153        -18.8153
            3236         997.565         997.565        -19.8056        -19.8056        -20.0299        -20.0299
            3237         993.768         993.768        -16.5151        -16.5151        -20.5460        -20.5460
            3238         990.853         990.853        -13.5345        -13.5345        -20.6096        -20.6096
            3239         988.703         988.703        -10.9244        -10.9244        -20.4040        -20.4040
            3240         987.193         987.193        -8.68572        -8.68572        -20.0511        -20.0511
            3241         986.207         986.207        -6.78852        -6.78852        -19.6278        -19.6278
            3242         985.644         985.644        -5.18658        -5.18658        -19.1773        -19.1773
            3243         985.421         985.421        -3.82714        -3.82714        -18.7204        -18.7204
            3244         985.469         985.469        -2.65499        -2.65499        -18.2620        -18.2620
            3245         985.733         985.733        -1.61493        -1.61493        -17.7970        -17.7970
            3246         986.171         986.171    -652.601E-03    -652.601E-03        -17.3127        -17.3127
            3247         986.749         986.749     285.681E-03     285.681E-03        -16.7911        -16.7911
            3248         987.439         987.439         1.25275         1.25275        -16.2100        -16.2100
            3249         988.220         988.220         2.30210         2.30210        -15.5435        -15.5435
            3250         989.075         989.075         3.48739         3.48739        -14.7621        -14.7621
            3251         989.989         989.989         4.86516         4.86516        -13.8324        -13.8324
            3252         990.947         990.947         6.49346         6.49346        -12.7177        -12.7177
            3253         991.936         991.936         8.43626         8.43626        -11.3768        -11.3768
            3254         992.941         992.941         10.7604         10.7604        -9.76529        -9.76529
            3255         993.943         993.943         13.5429         13.5429        -7.83398        -7.83398
            3256         994.918         994.918         16.8647         16.8647        -5.53160        -5.53160
            3257         995.837         995.837         20.8230         20.8230        -2.80267        -2.80267
            3258         996.659         996.659         25.5193         25.5193     406.245E-03     406.245E-03
            3259         997.335         997.335         31.0791         31.0791         4.15141         4.15141
            3260         997.796         997.796         37.6311         37.6311         8.47660         8.47660
            3261         997.960         997.960         45.3359         45.3359         13.4251         13.4251
            3262         997.717         997.717         54.3527         54.3527         19.0065         19.0065
            3263         996.946         996.946         64.8730         64.8730         25.2231         25.2231
            3264         995.483         995.483         77.0758         77.0758         32.0087         32.0087
            3265         993.184         993.184         91.1462         91.1462         39.2761         39.2761
            3266         989.846         989.846         107.234         107.234         46.8361         46.8361
            3267         985.362         985.362         125.420         125.420         54.4582         54.4582
            3268         979.576         979.576         145.711         145.711         61.8266         61.8266
            3269         972.505         972.505         167.944         167.944         68.5752         68.5752
            3270         964.183         964.183         191.848         191.848         74.3690         74.3690
            3271         954.804         954.804         216.961         216.961         78.8545         78.8545
            3272         944.661         944.661         242.724         242.724         81.8643         81.8643
            3273         934.079         934.079         268.422         268.422         82.4786         82.4786
            3274     1.01942E+03     1.01942E+03        -24.6517        -24.6517        -2.09420        -2.09420
            3275     1.01434E+03     1.01434E+03        -24.7831        -24.7831        -7.12683        -7.12683
            3276     1.00921E+03     1.00921E+03        -23.4335        -23.4335        -11.0452        -11.0452
            3277     1.00439E+03     1.00439E+03        -21.2195        -21.2195        -13.9346        -13.9346
            3278     1.00010E+03     1.00010E+03        -18.5911        -18.5911        -15.9431        -15.9431
            3279         996.459         996.459        -15.8781        -15.8781        -17.2543        -17.2543
            3280         993.474         993.474        -13.2838        -13.2838        -18.0514        -18.0514
            3281         991.107         991.107        -10.9190        -10.9190        -18.4859        -18.4859
            3282         989.292         989.292        -8.82963        -8.82963        -18.6748        -18.6748
            3283         987.951         987.951        -7.01999        -7.01999        -18.7003        -18.7003
            3284         987.010         987.010        -5.46981        -5.46981        -18.6173        -18.6173
            3285         986.401         986.401        -4.14439        -4.14439        -18.4590        -18.4590
            3286         986.066         986.066        -3.00150        -3.00150        -18.2430        -18.2430
            3287         985.957         985.957        -1.99520        -1.99520        -17.9748        -17.9748
            3288         986.034         986.034        -1.07782        -1.07782        -17.6513        -17.6513
            3289         986.268         986.268    -201.336E-03    -201.336E-03        -17.2622        -17.2622
            3290         986.633         986.633     682.915E-03     682.915E-03        -16.7916        -16.7916
            3291         987.112         987.112         1.62356         1.62356        -16.2182        -16.2182
            3292         987.690         987.690         2.67094         2.67094        -15.5161        -15.5161
            3293         988.357         988.357         3.87614         3.87614        -14.6542        -14.6542
            3294         989.104         989.104         5.29434         5.29434        -13.5966        -13.5966
            3295         989.924         989.924         6.98279         6.98279        -12.3023        -12.3023
            3296         990.807         990.807         9.00658         9.00658        -10.7246        -10.7246
            3297         991.745         991.745         11.4343         11.4343        -8.81175        -8.81175
            3298         992.723         992.723         14.3483         14.3483        -6.50618        -6.50618
            3299         993.721         993.721         17.8355         17.8355        -3.74687        -3.74687
            3300         994.711         994.711         22.0057         22.0057    -466.740E-03    -466.740E-03
            3301         995.653         995.653         26.9734         26.9734         3.39876         3.39876
            3302         996.490         996.490         32.8888         32.8888         7.91943         7.91943
            3303         997.142         997.142         39.9050         39.9050         13.1473         13.1473
            3304         997.509         997.509         48.2253         48.2253         19.1370         19.1370
            3305         997.447         997.447         58.0489         58.0489         25.8919         25.8919
            3306         996.799         996.799         69.6282         69.6282         33.4102         33.4102
            3307         995.335         995.335         83.1956         83.1956         41.5814         41.5814
            3308         992.868         992.868         98.9890         98.9890         50.2696         50.2696
            3309         989.113         989.113         117.193         117.193         59.1800         59.1800
            3310         983.953         983.953         137.860         137.860         67.9581         67.9581
            3311         977.206         977.206         160.930         160.930         76.1512         76.1512
            3312         968.966         968.966         186.060         186.060         83.2365         83.2365
            3313         959.380         959.380         212.754         212.754         88.8276         88.8276
            3314         948.761         948.761         240.285         240.285         92.5221         92.5221
            3315         937.660         937.660         267.704         267.704         93.3801         93.3801
            3316     1.01631E+03     1.01631E+03        -19.4235        -19.4235         1.99171         1.99171
            3317     1.01276E+03     1.01276E+03        -20.4092        -20.4092        -2.62741        -2.62741
            3318     1.00885E+03     1.00885E+03        -19.9772        -19.9772        -6.56571        -6.56571
            3319     1.00495E+03     1.00495E+03        -18.6127        -18.6127        -9.75128        -9.75128
            3320     1.00127E+03     1.00127E+03        -16.7146        -16.7146        -12.2263        -12.2263
            3321         997.974         997.974        -14.5805        -14.5805        -14.0816        -14.0816
            3322         995.118         995.118        -12.4239        -12.4239        -15.4294        -15.4294
            3323         992.718         992.718        -10.3778        -10.3778        -16.3812        -16.3812
            3324         990.753         990.753        -8.51593        -8.51593        -17.0321        -17.0321
            3325         989.184         989.184        -6.86830        -6.86830        -17.4580        -17.4580
            3326         987.960         987.960        -5.43577        -5.43577        -17.7150        -17.7150
            3327         987.036         987.036        -4.20053        -4.20053        -17.8422        -17.8422
            3328         986.365         986.365        -3.13328        -3.13328        -17.8647        -17.8647
            3329         985.910         985.910        -2.19804        -2.19804        -17.7962        -17.7962
            3330         985.639         985.639        -1.35527        -1.35527        -17.6411        -17.6411
            3331         985.526         985.526    -563.283E-03    -563.283E-03        -17.3961        -17.3961
            3332         985.554         985.554     220.367E-03     220.367E-03        -17.0512        -17.0512
            3333         985.707         985.707         1.03948         1.03948        -16.5903        -16.5903
            3334         985.978         985.978         1.93827         1.93827        -15.9913        -15.9913
            3335         986.361         986.361         2.96356         2.96356        -15.2263        -15.2263
            3336         986.854         986.854         4.16341         4.16341        -14.2612        -14.2612
            3337         987.456         987.456         5.59135         5.59135        -13.0558        -13.0558
            3338         988.167         988.167         7.30348         7.30348        -11.5631        -11.5631
            3339         988.988         988.988         9.36630         9.36630        -9.72910        -9.72910
            3340         989.917         989.917         11.8504         11.8504        -7.49299        -7.49299
            3341         990.945         990.945         14.8448         14.8448        -4.78600        -4.78600
            3342         992.061         992.061         18.4440         18.4440        -1.53423        -1.53423
            3343         993.238         993.238         22.7746         22.7746         2.34505         2.34505
            3344         994.436         994.436         27.9682         27.9682         6.93222         6.93222
            3345         995.593         995.593         34.2099         34.2099         12.3171         12.3171
            3346         996.612         996.612         41.6863         41.6863         18.5652         18.5652
            3347         997.368         997.368         50.6643         50.6643         25.7506         25.7506
            3348         997.667         997.667         61.4011         61.4011         33.8692         33.8692
            3349         997.296         997.296         74.2437         74.2437         42.9186         42.9186
            3350         995.920         995.920         89.5062         89.5062         52.7166         52.7166
            3351         993.292         993.292         107.499         107.499         63.0503         63.0503
            3352         988.993         988.993         128.450         128.450         73.4543         73.4543
            3353         982.926         982.926         152.318         152.318         83.3693         83.3693
            3354         974.903         974.903         178.892         178.892         92.1610         92.1610
            3355         965.166         965.166         207.491         207.491         99.0950         99.0950
            3356         954.107         954.107         237.227         237.227         103.802         103.802
            3357         942.230         942.230         266.887         266.887         104.930         104.930
            3358     1.01273E+03     1.01273E+03        -14.9194        -14.9194         4.64049         4.64049
            3359     1.01037E+03     1.01037E+03        -16.3120        -16.3120     606.069E-03     606.069E-03
            3360     1.00752E+03     1.00752E+03        -16.4690        -16.4690        -3.09663        -3.09663
            3361     1.00448E+03     1.00448E+03        -15.7384        -15.7384        -6.31645        -6.31645
            3362     1.00145E+03     1.00145E+03        -14.4378        -14.4378        -9.00498        -9.00498
            3363         998.584         998.584        -12.8287        -12.8287        -11.1826        -11.1826
            3364         995.973         995.973        -11.1062        -11.1062        -12.9029        -12.9029
            3365         993.663         993.663        -9.40745        -9.40745        -14.2342        -14.2342
            3366         991.662         991.662        -7.81735        -7.81735        -15.2456        -15.2456
            3367         989.959         989.959        -6.38117        -6.38117        -15.9987        -15.9987
            3368         988.531         988.531        -5.11462        -5.11462        -16.5445        -16.5445
            3369         987.348         987.348        -4.01323        -4.01323        -16.9221        -16.9221
            3370         986.380         986.380        -3.05901        -3.05901        -17.1602        -17.1602
            3371         985.601         985.601        -2.22565        -2.22565        -17.2775        -17.2775
            3372         984.988         984.988        -1.48158        -1.48158        -17.2842        -17.2842
            3373         984.524         984.524    -792.518E-03    -792.518E-03        -17.1828        -17.1828
            3374         984.197         984.197    -122.163E-03    -122.163E-03        -16.9688        -16.9688
            3375         983.998         983.998     566.539E-03     566.539E-03        -16.6307        -16.6307
            3376         983.926         983.926         1.31244         1.31244        -16.1508        -16.1508
            3377         983.980         983.980         2.15506         2.15506        -15.5048        -15.5048
            3378         984.167         984.167         3.13743         3.13743        -14.6615        -14.6615
            3379         984.493         984.493         4.30412         4.30412        -13.5824        -13.5824
            3380         984.969         984.969         5.70686         5.70686        -12.2217        -12.2217
            3381         985.604         985.604         7.40026         7.40026        -10.5249        -10.5249
            3382         986.411         986.411         9.45259         9.45259        -8.42915        -8.42915
            3383         987.397         987.397         11.9365         11.9365        -5.86184        -5.86184
            3384         988.566         988.566         14.9497         14.9497        -2.74017        -2.74017
            3385         989.915         989.915         18.5954         18.5954         1.02713         1.02713
            3386         991.425         991.425         23.0227         23.0227         5.54405         5.54405
            3387         993.058         993.058         28.3845         28.3845         10.9144         10.9144
            3388         994.746         994.746         34.9156         34.9156         17.2583         17.2583
            3389         996.374         996.374         42.8472         42.8472         24.6640         24.6640
            3390         997.778         997.778         52.5436         52.5436         33.2411         33.2411
            3391         998.691         998.691         64.3469         64.3469         42.9771         42.9771
            3392         998.813         998.813         78.7569         78.7569         53.8790         53.8790
            3393         997.628         997.628         96.2188         96.2188         65.6412         65.6412
            3394         994.806         994.806         117.136         117.136         77.9175         77.9175
            3395         989.718         989.718         141.778         141.778         89.9580         89.9580
            3396         982.352         982.352         169.858         169.858         100.849         100.849
            3397         972.612         972.612         200.815         200.815         109.750         109.750
            3398         960.993         960.993         233.365         233.365         115.676         115.676
            3399         948.425         948.425         265.836         265.836         117.363         117.363
            3400     1.00909E+03     1.00909E+03        -11.1749        -11.1749         6.23605         6.23605
            3401     1.00763E+03     1.00763E+03        -12.6536        -12.6536         2.81699         2.81699
            3402     1.00566E+03     1.00566E+03        -13.1224        -13.1224    -524.157E-03    -524.157E-03
            3403     1.00338E+03     1.00338E+03        -12.8169        -12.8169        -3.60129        -3.60129
            3404     1.00097E+03     1.00097E+03        -11.9749        -11.9749        -6.31670        -6.31670
            3405         998.567         998.567        -10.8070        -10.8070        -8.63569        -8.63569
            3406         996.258         996.258        -9.48275        -9.48275        -10.5667        -10.5667
            3407         994.107         994.107        -8.12703        -8.12703        -12.1414        -12.1414
            3408         992.142         992.142        -6.82482        -6.82482        -13.4026        -13.4026
            3409         990.372         990.372        -5.62652        -5.62652        -14.3956        -14.3956
            3410         988.792         988.792        -4.55623        -4.55623        -15.1623        -15.1623
            3411         987.390         987.390        -3.61834        -3.61834        -15.7386        -15.7386
            3412         986.151         986.151        -2.80378        -2.80378        -16.1536        -16.1536
            3413         985.061         985.061        -2.09430        -2.09430        -16.4286        -16.4286
            3414         984.106         984.106        -1.46614        -1.46614        -16.5777        -16.5777
            3415         983.279         983.279    -891.856E-03    -891.856E-03        -16.6079        -16.6079
            3416         982.574         982.574    -342.234E-03    -342.234E-03        -16.5191        -16.5191
            3417         981.990         981.990     213.690E-03     213.690E-03        -16.3047        -16.3047
            3418         981.532         981.532     807.468E-03     807.468E-03        -15.9511        -15.9511
            3419         981.207         981.207         1.47282         1.47282        -15.4381        -15.4381
            3420         981.028         981.028         2.24426         2.24426        -14.7378        -14.7378
            3421         981.009         981.009         3.16074         3.16074        -13.8152        -13.8152
            3422         981.171         981.171         4.26295         4.26295        -12.6264        -12.6264
            3423         981.536         981.536         5.60053         5.60053        -11.1192        -11.1192
            3424         982.127         982.127         7.22622         7.22622        -9.23030        -9.23030
            3425         982.970         982.970         9.21011         9.21011        -6.88625        -6.88625
            3426         984.091         984.091         11.6268         11.6268        -3.99992        -3.99992
            3427         985.506         985.506         14.5843         14.5843    -471.172E-03    -471.172E-03
            3428         987.232         987.232         18.1953         18.1953         3.81488         3.81488
            3429         989.259         989.259         22.6379         22.6379         8.99109         8.99109
            3430         991.564         991.564         28.0907         28.0907         15.1967         15.1967
            3431         994.070         994.070         34.8582         34.8582         22.5983         22.5983
            3432         996.650         996.650         43.2309         43.2309         31.3248         31.3248
            3433         999.079         999.079         53.7247         53.7247         41.5506         41.5506
            3434     1.00099E+03     1.00099E+03         66.8082         66.8082         53.2575         53.2575
            3435     1.00192E+03     1.00192E+03         83.2435         83.2435         66.4897         66.4897
            3436     1.00104E+03     1.00104E+03         103.701         103.701         80.7100         80.7100
            3437         997.909         997.909         128.680         128.680         95.3146         95.3146
            3438         991.576         991.576         158.445         158.445         109.070         109.070
            3439         982.274         982.274         192.098         192.098         120.438         120.438
            3440         970.289         970.289         228.284         228.284         128.449         128.449
            3441         956.513         956.513         264.605         264.605         130.745         130.745
            3442     1.00564E+03     1.00564E+03        -8.12867        -8.12867         7.06240         7.06240
            3443     1.00486E+03     1.00486E+03        -9.48349        -9.48349         4.21841         4.21841
            3444     1.00361E+03     1.00361E+03        -10.0584        -10.0584         1.28690         1.28690
            3445     1.00199E+03     1.00199E+03        -10.0038        -10.0038        -1.54338        -1.54338
            3446     1.00015E+03     1.00015E+03        -9.48874        -9.48874        -4.14984        -4.14984
            3447         998.188         998.188        -8.67350        -8.67350        -6.46626        -6.46626
            3448         996.198         996.198        -7.69421        -7.69421        -8.46753        -8.46753
            3449         994.236         994.236        -6.65718        -6.65718        -10.1575        -10.1575
            3450         992.344         992.344        -5.63781        -5.63781        -11.5568        -11.5568
            3451         990.542         990.542        -4.68483        -4.68483        -12.6950        -12.6950
            3452         988.840         988.840        -3.82442        -3.82442        -13.6044        -13.6044
            3453         987.240         987.240        -3.06586        -3.06586        -14.3160        -14.3160
            3454         985.741         985.741        -2.40588        -2.40588        -14.8572        -14.8572
            3455         984.339         984.339        -1.83284        -1.83284        -15.2501        -15.2501
            3456         983.033         983.033        -1.32940        -1.32940        -15.5111        -15.5111
            3457         981.823         981.823    -874.931E-03    -874.931E-03        -15.6503        -15.6503
            3458         980.711         980.711    -446.473E-03    -446.473E-03        -15.6716        -15.6716
            3459         979.703         979.703    -20.0830E-03    -20.0830E-03        -15.5721        -15.5721
            3460         978.811         978.811     429.694E-03     429.694E-03        -15.3427        -15.3427
            3461         978.048         978.048     928.761E-03     928.761E-03        -14.9669        -14.9669
            3462         977.434         977.434         1.50549         1.50549        -14.4217        -14.4217
            3463         976.992         976.992         2.18919         2.18919        -13.6755        -13.6755
            3464         976.750         976.750         3.01430         3.01430        -12.6891        -12.6891
            3465         976.741         976.741         4.01725         4.01725        -11.4130        -11.4130
            3466         977.002         977.002         5.24496         5.24496        -9.78830        -9.78830
            3467         977.576         977.576         6.74764         6.74764        -7.74188        -7.74188
            3468         978.507         978.507         8.59662         8.59662        -5.18894        -5.18894
            3469         979.843         979.843         10.8676         10.8676        -2.02462        -2.02462
            3470         981.626         981.626         13.6794         13.6794         1.87183         1.87183
            3471         983.901         983.901         17.1543         17.1543         6.64735         6.64735
            3472         986.682         986.682         21.5053         21.5053         12.4732         12.4732
            3473         989.975         989.975         26.9398         26.9398         19.5432         19.5432
            3474         993.704         993.704         33.8594         33.8594         28.0953         28.0953
            3475         997.738         997.738         42.6299         42.6299         38.3332         38.3332
            3476     1.00178E+03     1.00178E+03         54.0113         54.0113         50.5519         50.5519
            3477     1.00528E+03     1.00528E+03         68.6612         68.6612         64.7436         64.7436
            3478     1.00755E+03     1.00755E+03         87.8330         87.8330         81.0667         81.0667
            3479     1.00706E+03     1.00706E+03         112.621         112.621         98.5036         98.5036
            3480     1.00332E+03     1.00332E+03         143.518         143.518         115.881         115.881
            3481         994.934         994.934         180.558         180.558         131.171         131.171
            3482         982.710         982.710         221.390         221.390         141.751         141.751
            3483         968.151         968.151         262.792         262.792         145.622         145.622
            3484     1.00248E+03     1.00248E+03        -5.68175        -5.68175         7.29863         7.29863
            3485     1.00227E+03     1.00227E+03        -6.79412        -6.79412         4.96505         4.96505
            3486     1.00161E+03     1.00161E+03        -7.33697        -7.33697         2.45021         2.45021
            3487     1.00057E+03     1.00057E+03        -7.40281        -7.40281    -70.7794E-03    -70.7794E-03
            3488         999.243         999.243        -7.10541        -7.10541        -2.47078        -2.47078
            3489         997.701         997.701        -6.55978        -6.55978        -4.66753        -4.66753
            3490         996.017         996.017        -5.86841        -5.86841        -6.61692        -6.61692
            3491         994.248         994.248        -5.11417        -5.11417        -8.30323        -8.30323
            3492         992.435         992.435        -4.35874        -4.35874        -9.73103        -9.73103
            3493         990.609         990.609        -3.64338        -3.64338        -10.9172        -10.9172
            3494         988.791         988.791        -2.99228        -2.99228        -11.8854        -11.8854
            3495         986.994         986.994        -2.41576        -2.41576        -12.6612        -12.6612
            3496         985.229         985.229        -1.91402        -1.91402        -13.2693        -13.2693
            3497         983.504         983.504        -1.47994        -1.47994        -13.7314        -13.7314
            3498         981.826         981.826        -1.10172        -1.10172        -14.0648        -14.0648
            3499         980.204         980.204    -764.358E-03    -764.358E-03        -14.2818        -14.2818
            3500         978.648         978.648    -451.224E-03    -451.224E-03        -14.3888        -14.3888
            3501         977.172         977.172    -144.266E-03    -144.266E-03        -14.3866        -14.3866
            3502         975.792         975.792     175.005E-03     175.005E-03        -14.2695        -14.2695
            3503         974.527         974.527     526.430E-03     526.430E-03        -14.0257        -14.0257
            3504         973.403         973.403     930.235E-03     930.235E-03        -13.6361        -13.6361
            3505         972.450         972.450         1.40930         1.40930        -13.0749        -13.0749
            3506         971.702         971.702         1.98751         1.98751        -12.3073        -12.3073
            3507         971.203         971.203         2.69433         2.69433        -11.2910        -11.2910
            3508            971.            971.         3.56136         3.56136        -9.97077        -9.97077
            3509         971.150         971.150         4.63166         4.63166        -8.28245        -8.28245
            3510         971.720         971.720         5.95181         5.95181        -6.14268        -6.14268
            3511         972.778         972.778         7.59240         7.59240        -3.45585        -3.45585
            3512         974.409         974.409         9.62850         9.62850    -96.3813E-03    -96.3813E-03
            3513         976.691         976.691         12.1878         12.1878         4.07905         4.07905
            3514         979.719         979.719         15.3997         15.3997         9.26026         9.26026
            3515         983.549         983.549         19.5159         19.5159         15.6669         15.6669
            3516         988.254         988.254         24.7723         24.7723         23.5781         23.5781
            3517         993.781         993.781         31.7004         31.7004         33.3370         33.3370
            3518     1.00004E+03     1.00004E+03         40.7552         40.7552         45.2917         45.2917
            3519     1.00663E+03     1.00663E+03         53.0995         53.0995         59.9607         59.9607
            3520     1.01281E+03     1.01281E+03         69.6682         69.6682         77.4137         77.4137
            3521     1.01735E+03     1.01735E+03         92.7433         92.7433         98.1456         98.1456
            3522     1.01719E+03     1.01719E+03         124.302         124.302         120.024         120.024
            3523     1.01208E+03     1.01208E+03         164.268         164.268         140.439         140.439
            3524     1.00035E+03     1.00035E+03         211.537         211.537         156.254         156.254
            3525         983.954         983.954         260.419         260.419         161.801         161.801
            3526         999.691         999.691        -3.73820        -3.73820         7.02708         7.02708
            3527         999.997         999.997        -4.55664        -4.55664         5.14462         5.14462
            3528         999.881         999.881        -4.98845        -4.98845         3.04298         3.04298
            3529         999.370         999.370        -5.08722        -5.08722     875.368E-03     875.368E-03
            3530         998.507         998.507        -4.92543        -4.92543        -1.23880        -1.23880
            3531         997.347         997.347        -4.57982        -4.57982        -3.21527        -3.21527
            3532         995.943         995.943        -4.12146        -4.12146        -5.00170        -5.00170
            3533         994.344         994.344        -3.60969        -3.60969        -6.57248        -6.57248
            3534         992.594         992.594        -3.08967        -3.08967        -7.92191        -7.92191
            3535         990.728         990.728        -2.59282        -2.59282        -9.05825        -9.05825
            3536         988.776         988.776        -2.13811        -2.13811        -9.99821        -9.99821
            3537         986.763         986.763        -1.73466        -1.73466        -10.7626        -10.7626
            3538         984.709         984.709        -1.38389        -1.38389        -11.3731        -11.3731
            3539         982.634         982.634        -1.08185        -1.08185        -11.8498        -11.8498
            3540         980.552         980.552    -820.837E-03    -820.837E-03        -12.2100        -12.2100
            3541         978.482         978.482    -590.922E-03    -590.922E-03        -12.4666        -12.4666
            3542         976.440         976.440    -380.611E-03    -380.611E-03        -12.6279        -12.6279
            3543         974.445         974.445    -177.785E-03    -177.785E-03        -12.6969        -12.6969
            3544         972.518         972.518     30.5329E-03     30.5329E-03        -12.6715        -12.6715
            3545         970.683         970.683     257.474E-03     257.474E-03        -12.5433        -12.5433
            3546         968.970         968.970     517.385E-03     517.385E-03        -12.2986        -12.2986
            3547         967.412         967.412     825.007E-03     825.007E-03        -11.9164        -11.9164
            3548         966.051         966.051         1.19762         1.19762        -11.3696        -11.3696
            3549         964.933         964.933         1.65367         1.65367        -10.6214        -10.6214
            3550         964.116         964.116         2.21685         2.21685        -9.62809        -9.62809
            3551         963.670         963.670         2.91335         2.91335        -8.33110        -8.33110
            3552         963.671         963.671         3.78030         3.78030        -6.66317        -6.66317
            3553         964.218         964.218         4.85927         4.85927        -4.53232        -4.53232
            3554         965.416         965.416         6.21578         6.21578        -1.83516        -1.83516
            3555         967.399         967.399         7.92170         7.92170         1.57595         1.57595
            3556         970.301         970.301         10.1061         10.1061         5.86492         5.86492
            3557         974.300         974.300         12.9017         12.9017         11.2763         11.2763
            3558         979.535         979.535         16.5917         16.5917         18.0835         18.0835
            3559         986.213         986.213         21.4356         21.4356         26.6968         26.6968
            3560         994.362         994.362         28.1226         28.1226         37.6037         37.6037
            3561     1.00408E+03     1.00408E+03         37.1992         37.1992         51.4353         51.4353
            3562     1.01483E+03     1.01483E+03         50.4924         50.4924         69.1133         69.1133
            3563     1.02577E+03     1.02577E+03         69.3095         69.3095         91.0359         91.0359
            3564     1.03445E+03     1.03445E+03         98.3752         98.3752         118.693         118.693
            3565     1.03405E+03     1.03405E+03         141.646         141.646         147.081         147.081
            3566     1.02561E+03     1.02561E+03         196.069         196.069         169.612         169.612
            3567     1.00926E+03     1.00926E+03         255.967         255.967         181.010         181.010
            3568         997.338         997.338        -2.22413        -2.22413         6.24595         6.24595
            3569         998.187         998.187        -2.74900        -2.74900         4.77890         4.77890
            3570         998.615         998.615        -3.03844        -3.03844         3.09944         3.09944
            3571         998.609         998.609        -3.12124        -3.12124         1.33347         1.33347
            3572         998.182         998.182        -3.03923        -3.03923    -416.596E-03    -416.596E-03
            3573         997.367         997.367        -2.83882        -2.83882        -2.07460        -2.07460
            3574         996.203         996.203        -2.56393        -2.56393        -3.59023        -3.59023
            3575         994.734         994.734        -2.25197        -2.25197        -4.93567        -4.93567
            3576         993.005         993.005        -1.93208        -1.93208        -6.10119        -6.10119
            3577         991.059         991.059        -1.62471        -1.62471        -7.09010        -7.09010
            3578         988.934         988.934        -1.34269        -1.34269        -7.91429        -7.91429
            3579         986.665         986.665        -1.09237        -1.09237        -8.59038        -8.59038
            3580         984.283         984.283    -875.262E-03    -875.262E-03        -9.13663        -9.13663
            3581         981.816         981.816    -689.231E-03    -689.231E-03        -9.57082        -9.57082
            3582         979.289         979.289    -529.846E-03    -529.846E-03        -9.90852        -9.90852
            3583         976.726         976.726    -391.029E-03    -391.029E-03        -10.1623        -10.1623
            3584         974.150         974.150    -265.933E-03    -265.933E-03        -10.3407        -10.3407
            3585         971.582         971.582    -147.015E-03    -147.015E-03        -10.4483        -10.4483
            3586         969.048         969.048    -26.6146E-03    -26.6146E-03        -10.4851        -10.4851
            3587         966.575         966.575     103.476E-03     103.476E-03        -10.4466        -10.4466
            3588         964.192         964.192     251.534E-03     251.534E-03        -10.3230        -10.3230
            3589         961.935         961.935     426.809E-03     426.809E-03        -10.0999        -10.0999
            3590         959.848         959.848     639.045E-03     639.045E-03        -9.75624        -9.75624
            3591         957.979         957.979     899.910E-03     899.910E-03        -9.26586        -9.26586
            3592         956.391         956.391         1.22258         1.22258        -8.59274        -8.59274
            3593         955.157         955.157         1.62395         1.62395        -7.69518        -7.69518
            3594         954.368         954.368         2.12451         2.12451        -6.51479        -6.51479
            3595         954.129         954.129         2.75218         2.75218        -4.98657        -4.98657
            3596         954.575         954.575         3.54250         3.54250        -3.01442        -3.01442
            3597         955.861         955.861         4.54802         4.54802    -494.798E-03    -494.798E-03
            3598         958.188         958.188         5.83543         5.83543         2.73853         2.73853
            3599         961.778         961.778         7.51791         7.51791         6.85917         6.85917
            3600         966.935         966.935         9.72801         9.72801         12.1736         12.1736
            3601         973.951         973.951         12.7485         12.7485         18.9974         18.9974
            3602         983.286         983.286         16.8561         16.8561         27.9299         27.9299
            3603         995.204         995.204         22.8785         22.8785         39.6183         39.6183
            3604     1.01030E+03     1.01030E+03         31.4366         31.4366         55.2429         55.2429
            3605     1.02811E+03     1.02811E+03         45.3796         45.3796         76.3761         76.3761
            3606     1.04829E+03     1.04829E+03         66.3893         66.3893         104.636         104.636
            3607     1.06566E+03     1.06566E+03         105.704         105.704         144.419         144.419
            3608     1.06304E+03     1.06304E+03         171.496         171.496         182.847         182.847
            3609     1.04625E+03     1.04625E+03         248.257         248.257         200.398         200.398
            3610         995.518         995.518        -1.10257        -1.10257         4.87555         4.87555
            3611         997.003         997.003        -1.37567        -1.37567         3.82858         3.82858
            3612         998.022         998.022        -1.53019        -1.53019         2.61242         2.61242
            3613         998.532         998.532        -1.57895        -1.57895         1.32010         1.32010
            3614         998.523         998.523        -1.54260        -1.54260     28.9556E-03     28.9556E-03
            3615         998.012         998.012        -1.44440        -1.44440        -1.20204        -1.20204
            3616         997.033         997.033        -1.30681        -1.30681        -2.33284        -2.33284
            3617         995.632         995.632        -1.14918        -1.14918        -3.34051        -3.34051
            3618         993.860         993.860    -986.665E-03    -986.665E-03        -4.21602        -4.21602
            3619         991.768         991.768    -830.110E-03    -830.110E-03        -4.96082        -4.96082
            3620         989.406         989.406    -686.292E-03    -686.292E-03        -5.58335        -5.58335
            3621         986.820         986.820    -558.740E-03    -558.740E-03        -6.09604        -6.09604
            3622         984.053         984.053    -448.326E-03    -448.326E-03        -6.51301        -6.51301
            3623         981.142         981.142    -354.147E-03    -354.147E-03        -6.84816        -6.84816
            3624         978.119         978.119    -273.946E-03    -273.946E-03        -7.11405        -7.11405
            3625         975.012         975.012    -204.779E-03    -204.779E-03        -7.32094        -7.32094
            3626         971.849         971.849    -143.110E-03    -143.110E-03        -7.47644        -7.47644
            3627         968.655         968.655    -85.2934E-03    -85.2934E-03        -7.58499        -7.58499
            3628         965.455         965.455    -27.3692E-03    -27.3692E-03        -7.64800        -7.64800
            3629         962.276         962.276     34.5584E-03     34.5584E-03        -7.66327        -7.66327
            3630         959.146         959.146     104.739E-03     104.739E-03        -7.62554        -7.62554
            3631         956.100         956.100     187.519E-03     187.519E-03        -7.52525        -7.52525
            3632         953.177         953.177     287.768E-03     287.768E-03        -7.34974        -7.34974
            3633         950.428         950.428     411.097E-03     411.097E-03        -7.08055        -7.08055
            3634         947.910         947.910     563.728E-03     563.728E-03        -6.69591        -6.69591
            3635         945.698         945.698     754.310E-03     754.310E-03        -6.16476        -6.16476
            3636         943.881         943.881     991.755E-03     991.755E-03        -5.45263        -5.45263
            3637         942.573         942.573         1.29154         1.29154        -4.50782        -4.50782
            3638         941.909         941.909         1.66803         1.66803        -3.27584        -3.27584
            3639         942.069         942.069         2.15189         2.15189        -1.66654        -1.66654
            3640         943.266         943.266         2.77021         2.77021     409.315E-03     409.315E-03
            3641         945.784         945.784         3.58762         3.58762         3.12204         3.12204
            3642         949.971         949.971         4.66798         4.66798         6.62767         6.62767
            3643         956.308         956.308         6.15282         6.15282         11.2815         11.2815
            3644         965.353         965.353         8.23864         8.23864         17.3868         17.3868
            3645         977.995         977.995         11.2425         11.2425         25.7714         25.7714
            3646         995.076         995.076         15.9440         15.9440         37.1417         37.1417
            3647     1.01838E+03     1.01838E+03         23.0715         23.0715         53.6537         53.6537
            3648     1.04841E+03     1.04841E+03         36.6024         36.6024         77.5716         77.5716
            3649     1.08829E+03     1.08829E+03         58.4337         58.4337         114.653         114.653
            3650     1.12734E+03     1.12734E+03         118.411         118.411         176.888         176.888
            3651     1.12052E+03     1.12052E+03         228.848         228.848         228.671         228.671
            3652         994.380         994.380    -386.658E-03    -386.658E-03         2.77742         2.77742
            3653         996.661         996.661    -485.839E-03    -485.839E-03         2.21052         2.21052
            3654         998.362         998.362    -542.761E-03    -542.761E-03         1.54791         1.54791
            3655         999.420         999.420    -561.662E-03    -561.662E-03     841.203E-03     841.203E-03
            3656         999.812         999.812    -549.825E-03    -549.825E-03     133.573E-03     133.573E-03
            3657         999.553         999.553    -515.485E-03    -515.485E-03    -541.982E-03    -541.982E-03
            3658         998.684         998.684    -466.746E-03    -466.746E-03        -1.16287        -1.16287
            3659         997.260         997.260    -410.556E-03    -410.556E-03        -1.71609        -1.71609
            3660         995.349         995.349    -352.466E-03    -352.466E-03        -2.19655        -2.19655
            3661         993.016         993.016    -296.371E-03    -296.371E-03        -2.60504        -2.60504
            3662         990.328         990.328    -244.814E-03    -244.814E-03        -2.94641        -2.94641
            3663         987.345         987.345    -199.043E-03    -199.043E-03        -3.22779        -3.22779
            3664         984.120         984.120    -159.464E-03    -159.464E-03        -3.45728        -3.45728
            3665         980.698         980.698    -125.708E-03    -125.708E-03        -3.64295        -3.64295
            3666         977.119         977.119    -97.0661E-03    -97.0661E-03        -3.79207        -3.79207
            3667         973.415         973.415    -72.4066E-03    -72.4066E-03        -3.91074        -3.91074
            3668         969.614         969.614    -50.5996E-03    -50.5996E-03        -4.00351        -4.00351
            3669         965.742         965.742    -30.2315E-03    -30.2315E-03        -4.07337        -4.07337
            3670         961.821         961.821    -10.0692E-03    -10.0692E-03        -4.12145        -4.12145
            3671         957.876         957.876     11.4028E-03     11.4028E-03        -4.14734        -4.14734
            3672         953.930         953.930     35.5008E-03     35.5008E-03        -4.14849        -4.14849
            3673         950.012         950.012     63.8244E-03     63.8244E-03        -4.12088        -4.12088
            3674         946.157         946.157     98.0404E-03     98.0404E-03        -4.05783        -4.05783
            3675         942.406         942.406     139.826E-03     139.826E-03        -3.95127        -3.95127
            3676         938.812         938.812     191.941E-03     191.941E-03        -3.78918        -3.78918
            3677         935.439         935.439     255.914E-03     255.914E-03        -3.55828        -3.55828
            3678         932.370         932.370     337.436E-03     337.436E-03        -3.23839        -3.23839
            3679         929.707         929.707     436.943E-03     436.943E-03        -2.80862        -2.80862
            3680         927.583         927.583     567.644E-03     567.644E-03        -2.23402        -2.23402
            3681         926.163         926.163     726.034E-03     726.034E-03        -1.48161        -1.48161
            3682         925.664         925.664     944.431E-03     944.431E-03    -485.751E-03    -485.751E-03
            3683         926.362         926.362         1.20820         1.20820     807.257E-03     807.257E-03
            3684         928.628         928.628         1.59834         1.59834         2.53567         2.53567
            3685         932.952         932.952         2.07466         2.07466         4.79053         4.79053
            3686         940.028         940.028         2.84355         2.84355         7.90662         7.90662
            3687         950.793         950.793         3.83133         3.83133         12.0498         12.0498
            3688         966.753         966.753         5.57482         5.57482         18.1761         18.1761
            3689         989.870         989.870         8.16409         8.16409         26.6583         26.6583
            3690     1.02431E+03     1.02431E+03         13.0587         13.0587         40.8911         40.8911
            3691     1.07440E+03     1.07440E+03         23.3468         23.3468         62.4639         62.4639
            3692     1.15747E+03     1.15747E+03         43.8300         43.8300         108.895         108.895
            3693     1.26323E+03     1.26323E+03         155.284         155.284         200.828         200.828
            3694         58.0381         58.0381        -440.231        -440.231        -54.9742        -54.9742
            3695         209.772         209.772        -179.563        -179.563        -143.299        -143.299
            3696         407.296         407.296        -56.0609        -56.0609        -155.557        -155.557
            3697         592.583         592.583        -9.36288        -9.36288        -128.387        -128.387
            3698         737.222         737.222         3.31678         3.31678        -90.8410        -90.8410
            3699         184.594         184.594        -325.631        -325.631        -125.798        -125.798
            3700         406.243         406.243        -180.237        -180.237        -250.381        -250.381
            3701         603.222         603.222        -106.157        -106.157        -248.419        -248.419
            3702         749.797         749.797        -65.9129        -65.9129        -193.002        -193.002
            3703         847.576         847.576        -41.6516        -41.6516        -131.098        -131.098
            3704         394.863         394.863        -186.714        -186.714        -208.175        -208.175
            3705         669.727         669.727        -181.873        -181.873        -293.595        -293.595
            3706         830.888         830.888        -152.269        -152.269        -254.785        -254.785
            3707         914.389         914.389        -111.759        -111.759        -182.465        -182.465
            3708         954.928         954.928        -75.1241        -75.1241        -117.169        -117.169
            3709         671.237         671.237        -63.3678        -63.3678        -277.917        -277.917
            3710         928.750         928.750        -175.022        -175.022        -266.394        -266.394
            3711     1.01567E+03     1.01567E+03        -167.962        -167.962        -197.032        -197.032
            3712     1.03132E+03     1.03132E+03        -125.403        -125.403        -128.869        -128.869
            3713     1.02386E+03     1.02386E+03        -83.1889        -83.1889        -77.6238        -77.6238
            3714     1.10583E+03     1.10583E+03         124.222         124.222         44.4253         44.4253
            3715     1.19693E+03     1.19693E+03         191.163         191.163         51.9050         51.9050
            3716     1.36027E+03     1.36027E+03         259.997         259.997         36.7226         36.7226
            3717     1.64413E+03     1.64413E+03         295.797         295.797        -29.5059        -29.5059
            3718     2.10580E+03     2.10580E+03         243.085         243.085        -178.431        -178.431
            3719     1.11832E+03     1.11832E+03         46.0456         46.0456         53.1624         53.1624
            3720     1.20292E+03     1.20292E+03         84.2491         84.2491         62.9995         62.9995
            3721     1.33627E+03     1.33627E+03         138.923         138.923         42.0777         42.0777
            3722     1.54583E+03     1.54583E+03         200.940         200.940        -58.4877        -58.4877
            3723     1.87300E+03     1.87300E+03         239.635         239.635        -305.302        -305.302
            3724     1.11452E+03     1.11452E+03        -24.3480        -24.3480         28.2956         28.2956
            3725     1.18920E+03     1.18920E+03        -21.1842        -21.1842         30.5722         30.5722
            3726     1.29105E+03     1.29105E+03         2.83187         2.83187         6.96142         6.96142
            3727     1.41661E+03     1.41661E+03         71.4907         71.4907        -92.9800        -92.9800
            3728     1.56463E+03     1.56463E+03         205.535         205.535        -360.246        -360.246
            3729     1.09128E+03     1.09128E+03        -62.1489        -62.1489        -6.78554        -6.78554
            3730     1.15068E+03     1.15068E+03        -86.3588        -86.3588        -19.9613        -19.9613
            3731     1.22263E+03     1.22263E+03        -98.2404        -98.2404        -53.6032        -53.6032
            3732     1.27802E+03     1.27802E+03        -54.4720        -54.4720        -140.267        -140.267
            3733     1.24959E+03     1.24959E+03         130.013         130.013        -356.985        -356.985
            3734         717.451         717.451        -44.5571        -44.5571         288.357         288.357
            3735         968.282         968.282        -173.330        -173.330         259.290         259.290
            3736     1.04211E+03     1.04211E+03        -168.920        -168.920         185.807         185.807
            3737     1.04712E+03     1.04712E+03        -126.046        -126.046         119.119         119.119
            3738     1.03273E+03     1.03273E+03        -83.2967        -83.2967         70.6562         70.6562
            3739         477.288         477.288        -142.283        -142.283         234.463         234.463
            3740         758.961         758.961        -182.017        -182.017         295.013         295.013
            3741         900.862         900.862        -163.180        -163.180         243.778         243.778
            3742         961.655         961.655        -121.675        -121.675         169.286         169.286
            3743         984.218         984.218        -81.8085        -81.8085         106.264         106.264
            3744         276.169         276.169        -258.314        -258.314         165.935         165.935
            3745         531.246         531.246        -182.154        -182.154         283.530         283.530
            3746         717.543         717.543        -132.520        -132.520         265.607         265.607
            3747         835.994         835.994        -93.2967        -93.2967         198.921         198.921
            3748         905.507         905.507        -62.3433        -62.3433         131.630         131.630
            3749         129.876         129.876        -373.704        -373.704         99.0951         99.0951
            3750         326.216         326.216        -181.097        -181.097         222.565         222.565
            3751         526.292         526.292        -88.1433        -88.1433         230.278         230.278
            3752         689.986         689.986        -46.0689        -46.0689         184.175         184.175
            3753         806.569         806.569        -26.3070        -26.3070         127.556         127.556
            3754         43.5638         43.5638        -460.804        -460.804         44.1980         44.1980
            3755         184.153         184.153        -181.677        -181.677         122.150         122.150
            3756         378.938         378.938        -49.2525        -49.2525         134.758         134.758
            3757         567.854         567.854    -127.544E-03    -127.544E-03         112.621         112.621
            3758         718.848         718.848         11.2881         11.2881         80.5091         80.5091
            3759     1.09247E+03     1.09247E+03        -63.8252        -63.8252         9.05730         9.05730
            3760     1.15176E+03     1.15176E+03        -87.7960        -87.7960         21.6808         21.6808
            3761     1.22362E+03     1.22362E+03        -99.4119        -99.4119         54.8880         54.8880
            3762     1.27914E+03     1.27914E+03        -55.3844        -55.3844         141.263         141.263
            3763     1.25102E+03     1.25102E+03         129.408         129.408         357.838         357.838
            3764     1.11541E+03     1.11541E+03        -25.6200        -25.6200        -26.1447        -26.1447
            3765     1.19002E+03     1.19002E+03        -22.2064        -22.2064        -28.9261        -28.9261
            3766     1.29183E+03     1.29183E+03         2.12074         2.12074        -5.72520        -5.72520
            3767     1.41751E+03     1.41751E+03         71.1230         71.1230         93.8757         93.8757
            3768     1.56600E+03     1.56600E+03         205.646         205.646         361.050         361.050
            3769     1.11889E+03     1.11889E+03         45.2324         45.2324        -51.0883        -51.0883
            3770     1.20344E+03     1.20344E+03         83.6739         83.6739        -61.3450        -61.3450
            3771     1.33674E+03     1.33674E+03         138.650         138.650        -40.7814        -40.7814
            3772     1.54641E+03     1.54641E+03         201.036         201.036         59.5111         59.5111
            3773     1.87412E+03     1.87412E+03         239.972         239.972         306.163         306.163
            3774     1.10610E+03     1.10610E+03         123.844         123.844        -42.3614        -42.3614
            3775     1.19716E+03     1.19716E+03         190.937         190.937        -50.1788        -50.1788
            3776     1.36046E+03     1.36046E+03         259.980         259.980        -35.2637        -35.2637
            3777     1.64441E+03     1.64441E+03         295.980         295.980         30.7337         30.7337
            3778     2.10645E+03     2.10645E+03         243.320         243.320         179.307         179.307
            3779     1.19961E+03     1.19961E+03         116.953         116.953        -354.673        -354.673
            3780       1.256E+03       1.256E+03        -73.8240        -73.8240        -149.077        -149.077
            3781     1.21141E+03     1.21141E+03        -113.026        -113.026        -65.0980        -65.0980
            3782     1.14447E+03     1.14447E+03        -95.8648        -95.8648        -30.0197        -30.0197
            3783     1.08796E+03     1.08796E+03        -68.1852        -68.1852        -14.7421        -14.7421
            3784     1.45910E+03     1.45910E+03         187.819         187.819        -367.768        -367.768
            3785     1.37219E+03     1.37219E+03         27.6318         27.6318        -107.495        -107.495
            3786     1.27261E+03     1.27261E+03        -38.1687        -38.1687        -11.5538        -11.5538
            3787     1.18094E+03     1.18094E+03        -50.8527        -50.8527         13.3730         13.3730
            3788     1.11051E+03     1.11051E+03        -43.5663        -43.5663         14.6992         14.6992
            3789     1.72757E+03     1.72757E+03         229.861         229.861        -345.812        -345.812
            3790     1.48536E+03     1.48536E+03         139.899         139.899        -75.5663        -75.5663
            3791     1.31816E+03     1.31816E+03         69.1418         69.1418         29.3540         29.3540
            3792     1.20115E+03     1.20115E+03         26.6657         26.6657         51.0175         51.0175
            3793     1.12095E+03     1.12095E+03         5.53797         5.53797         42.7206         42.7206
            3794     1.96947E+03     1.96947E+03         243.792         243.792        -275.101        -275.101
            3795     1.58664E+03     1.58664E+03         239.957         239.957        -50.4455        -50.4455
            3796     1.34794E+03     1.34794E+03         185.706         185.706         44.6313         44.6313
            3797     1.20337E+03     1.20337E+03         123.619         123.619         65.1407         65.1407
            3798     1.11622E+03     1.11622E+03         73.5445         73.5445         54.6701         54.6701
            3799     2.14090E+03     2.14090E+03         241.391         241.391        -154.040        -154.040
            3800     1.65975E+03     1.65975E+03         307.394         307.394        -26.3444        -26.3444
            3801     1.36437E+03     1.36437E+03         277.086         277.086         31.4375         31.4375
            3802     1.19576E+03     1.19576E+03         207.556         207.556         45.0940         45.0940
            3803     1.10337E+03     1.10337E+03         136.862         136.862         38.4810         38.4810
            3804     1.09109E+03     1.09109E+03        -62.3441        -62.3441         6.98248         6.98248
            3805     1.15041E+03     1.15041E+03        -86.6399        -86.6399         20.2575         20.2575
            3806     1.22225E+03     1.22225E+03        -98.5761        -98.5761         53.9924         53.9924
            3807     1.27760E+03     1.27760E+03        -54.9166        -54.9166         140.672         140.672
            3808     1.24918E+03     1.24918E+03         129.276         129.276         357.093         357.093
            3809     1.11442E+03     1.11442E+03        -24.6418        -24.6418        -28.1020        -28.1020
            3810     1.18902E+03     1.18902E+03        -21.5440        -21.5440        -30.2750        -30.2750
            3811     1.29076E+03     1.29076E+03         2.45333         2.45333        -6.56889        -6.56889
            3812     1.41611E+03     1.41611E+03         71.0884         71.0884         93.3027         93.3027
            3813     1.56392E+03     1.56392E+03         205.269         205.269         360.271         360.271
            3814     1.11832E+03     1.11832E+03         45.6673         45.6673        -52.9822        -52.9822
            3815     1.20284E+03     1.20284E+03         83.8607         83.8607        -62.6836        -62.6836
            3816     1.33602E+03     1.33602E+03         138.561         138.561        -41.6968        -41.6968
            3817     1.54526E+03     1.54526E+03         200.674         200.674         58.8591         58.8591
            3818     1.87191E+03     1.87191E+03         239.453         239.453         305.476         305.476
            3819     1.10595E+03     1.10595E+03         123.796         123.796        -44.3200        -44.3200
            3820     1.19699E+03     1.19699E+03         190.709         190.709        -51.6480        -51.6480
            3821     1.36007E+03     1.36007E+03         259.694         259.694        -36.3155        -36.3155
            3822     1.64354E+03     1.64354E+03         295.798         295.798         29.9063         29.9063
            3823     2.10439E+03     2.10439E+03         243.266         243.266         178.578         178.578
            3824         718.737         718.737        -45.1655        -45.1655         288.938         288.938
            3825         969.880         969.880        -174.549        -174.549         260.021         260.021
            3826     1.04378E+03     1.04378E+03        -170.398        -170.398         186.781         186.781
            3827     1.04891E+03     1.04891E+03        -127.781        -127.781         120.486         120.486
            3828     1.03470E+03     1.03470E+03        -85.3782        -85.3782         72.6045         72.6045
            3829         478.211         478.211        -143.322        -143.322         234.939         234.939
            3830         760.377         760.377        -183.448        -183.448         295.788         295.788
            3831         902.503         902.503        -164.816        -164.816         244.731         244.731
            3832         963.516         963.516        -123.543        -123.543         170.501         170.501
            3833         986.383         986.383        -84.0308        -84.0308         107.923         107.923
            3834         276.730         276.730        -259.828        -259.828         166.274         166.274
            3835         532.328         532.328        -183.752        -183.752         284.287         284.287
            3836         719.004         719.004        -134.241        -134.241         266.513         266.513
            3837         837.815         837.815        -95.2418        -95.2418         199.975         199.975
            3838         907.780         907.780        -64.6635        -64.6635         132.979         132.979
            3839         130.122         130.122        -375.689        -375.689         99.3113         99.3113
            3840         326.907         326.907        -182.814        -182.814         223.198         223.198
            3841         527.460         527.460        -89.8744        -89.8744         231.040         231.040
            3842         691.662         691.662        -48.0205        -48.0205         185.007         185.007
            3843         808.849         808.849        -28.6670        -28.6670         128.547         128.547
            3844         43.5950         43.5950        -463.152        -463.152         44.3234         44.3234
            3845         184.513         184.513        -183.470        -183.470         122.552         122.552
            3846         379.817         379.817        -50.9527        -50.9527         135.240         135.240
            3847         569.348         569.348        -2.03951        -2.03951         113.122         113.122
            3848         721.071         721.071         8.93560         8.93560         81.0658         81.0658
            3849     1.02579E+03     1.02579E+03        -85.2602        -85.2602        -79.5127        -79.5127
            3850     1.03297E+03     1.03297E+03        -127.092        -127.092        -130.210        -130.210
            3851     1.01707E+03     1.01707E+03        -169.357        -169.357        -197.978        -197.978
            3852         929.944         929.944        -176.215        -176.215        -266.965        -266.965
            3853         672.152         672.152        -64.2470        -64.2470        -278.151        -278.151
            3854         957.055         957.055        -77.3479        -77.3479        -118.684        -118.684
            3855         916.083         916.083        -113.594        -113.594        -183.583        -183.583
            3856         832.225         832.225        -153.876        -153.876        -255.631        -255.631
            3857         670.749         670.749        -183.392        -183.392        -294.200        -294.200
            3858         395.397         395.397        -188.166        -188.166        -208.368        -208.368
            3859         849.765         849.765        -43.9505        -43.9505        -132.181        -132.181
            3860         751.388         751.388        -67.8026        -67.8026        -193.837        -193.837
            3861         604.320         604.320        -107.841        -107.841        -249.107        -249.107
            3862         406.880         406.880        -181.934        -181.934        -250.891        -250.891
            3863         184.790         184.790        -327.607        -327.607        -125.875        -125.875
            3864         739.392         739.392     997.501E-03     997.501E-03        -91.3964        -91.3964
            3865         594.022         594.022        -11.2432        -11.2432        -128.824        -128.824
            3866         408.119         408.119        -57.7396        -57.7396        -155.922        -155.922
            3867         210.080         210.080        -181.356        -181.356        -143.555        -143.555
            3868         58.0280         58.0280        -442.600        -442.600        -54.9635        -54.9635


  Minimum               -16.3068        -16.3068        -695.560        -695.560        -553.850        -553.850
         At Node              28              28              28              28             590             590

  Maximum            2.51115E+03     2.51115E+03         330.636         330.636         550.550         550.550
         At Node              27              27             585             585             574             574

           Total     3.81692E+06     3.81692E+06     61.5312E+03     61.5312E+03     1.83562E+03     1.83562E+03


