********************************************************************************
Field Output Report, written Thu Feb 22 21:47:39 2024

Source 1
---------

   ODB: C:/Users/Isabel Haycock/OneDrive - Imperial College London/Fourth Year/FYP/Isabel Haycock/06 - FE models/Specimen_2/Plate_hole_1.odb
   Step: load
   Frame: Increment      1: Step Time =   0.1000

Loc 1 : Nodal values at shell < composite > < elset = ASSEMBLY_PLATE_1-1_COMPOSITELAYUP-1-1 > from source 1 : SNEG, (fraction = -1.0), Layer = 1
Loc 2 : Nodal values at shell < composite > < elset = ASSEMBLY_PLATE_1-1_COMPOSITELAYUP-1-1 > from source 1 : SPOS, (fraction = 1.0), Layer = 8

Output sorted by column "Node Label".

Field Output reported at nodes for part: PLATE_1-1
   Computation algorithm: EXTRAPOLATE_COMPUTE_AVERAGE
   Averaged at nodes
   Averaging regions: ODB_REGIONS

      Node Label           S.S11           S.S11           S.S22           S.S22           S.S12           S.S12
                          @Loc 1          @Loc 2          @Loc 1          @Loc 2          @Loc 1          @Loc 2
-----------------------------------------------------------------------------------------------------------------
               1         172.702         172.702        -8.08756        -8.08756        -3.45165        -3.45165
               2         164.227         164.227     229.315E-03     229.315E-03    -10.4873E-03    -10.4873E-03
               3         164.259         164.259     1.05453E-03     1.05453E-03    -1.18435E-03    -1.18435E-03
               4         166.018         166.018    -10.6856E-03    -10.6856E-03     351.853E-03     351.853E-03
               5         172.771         172.771        -8.05824        -8.05824         3.32246         3.32246
               6         164.227         164.227     229.348E-03     229.348E-03     10.4864E-03     10.4864E-03
               7         132.146         132.146         3.70861         3.70861    -512.819E-03    -512.819E-03
               8         165.404         165.404    -13.0664E-03    -13.0664E-03    -295.688E-03    -295.688E-03
               9         173.058         173.058        -8.42872        -8.42872         3.80421         3.80421
              10         175.590         175.590         17.3356         17.3356     201.550E-03     201.550E-03
              11         166.051         166.051    -11.0993E-03    -11.0993E-03    -351.855E-03    -351.855E-03
              12         164.259         164.259     1.05475E-03     1.05475E-03     1.18459E-03     1.18459E-03
              13         154.429         154.429         46.9724         46.9724        -10.2436        -10.2436
              14         251.324         251.324         34.9293         34.9293        -40.6913        -40.6913
              15         172.873         172.873        -8.48370        -8.48370        -4.03599        -4.03599
              16         165.424         165.424    -13.5812E-03    -13.5812E-03     295.999E-03     295.999E-03
              17         175.524         175.524         17.5537         17.5537    -508.555E-03    -508.555E-03
              18         154.429         154.429         46.9710         46.9710         10.2412         10.2412
              19         132.646         132.646         3.22192         3.22192    -512.228E-03    -512.228E-03
              20         251.324         251.324         34.9293         34.9293         40.6912         40.6912
              21        -2.68034        -2.68034        -116.646        -116.646     109.588E-03     109.588E-03
              22         135.910         135.910         30.1813         30.1813        -66.0378        -66.0378
              23         419.464         419.464         27.4310         27.4310     48.8815E-03     48.8815E-03
              24         138.011         138.011         31.0944         31.0944         66.9630         66.9630
              25         138.265         138.265         31.1299         31.1299         67.0972         67.0972
              26         133.439         133.439         29.7373         29.7373        -65.3319        -65.3319
              27         420.291         420.291         27.1456         27.1456         1.93612         1.93612
              28        -2.69897        -2.69897        -117.159        -117.159     118.118E-03     118.118E-03
              29         169.485         169.485        -6.50481        -6.50481        -4.09208        -4.09208
              30         167.615         167.615        -5.48269        -5.48269        -4.51315        -4.51315
              31         166.127         166.127        -4.40487        -4.40487        -4.54599        -4.54599
              32         165.017         165.017        -3.41346        -3.41346        -4.34569        -4.34569
              33         164.225         164.225        -2.55790        -2.55790        -4.02875        -4.02875
              34         163.681         163.681        -1.84471        -1.84471        -3.67029        -3.67029
              35         163.322         163.322        -1.26010        -1.26010        -3.31264        -3.31264
              36         163.097         163.097    -786.048E-03    -786.048E-03        -2.97700        -2.97700
              37         162.970         162.970    -404.510E-03    -404.510E-03        -2.67245        -2.67245
              38         162.912         162.912    -99.8099E-03    -99.8099E-03        -2.40118        -2.40118
              39         162.903         162.903     141.311E-03     141.311E-03        -2.16190        -2.16190
              40         162.929         162.929     329.774E-03     329.774E-03        -1.95162        -1.95162
              41         162.977         162.977     474.591E-03     474.591E-03        -1.76677        -1.76677
              42         163.041         163.041     583.207E-03     583.207E-03        -1.60379        -1.60379
              43         163.115         163.115     661.820E-03     661.820E-03        -1.45937        -1.45937
              44         163.194         163.194     715.623E-03     715.623E-03        -1.33063        -1.33063
              45         163.275         163.275     748.996E-03     748.996E-03        -1.21510        -1.21510
              46         163.355         163.355     765.657E-03     765.657E-03        -1.11074        -1.11074
              47         163.435         163.435     768.767E-03     768.767E-03        -1.01588        -1.01588
              48         163.511         163.511     761.024E-03     761.024E-03    -929.162E-03    -929.162E-03
              49         163.584         163.584     744.728E-03     744.728E-03    -849.511E-03    -849.511E-03
              50         163.653         163.653     721.839E-03     721.839E-03    -776.061E-03    -776.061E-03
              51         163.717         163.717     694.022E-03     694.022E-03    -708.122E-03    -708.122E-03
              52         163.777         163.777     662.688E-03     662.688E-03    -645.140E-03    -645.140E-03
              53         163.832         163.832     629.025E-03     629.025E-03    -586.661E-03    -586.661E-03
              54         163.883         163.883     594.032E-03     594.032E-03    -532.310E-03    -532.310E-03
              55         163.929         163.929     558.538E-03     558.538E-03    -481.768E-03    -481.768E-03
              56         163.971         163.971     523.234E-03     523.234E-03    -434.755E-03    -434.755E-03
              57         164.009         164.009     488.684E-03     488.684E-03    -391.021E-03    -391.021E-03
              58         164.043         164.043     455.348E-03     455.348E-03    -350.330E-03    -350.330E-03
              59         164.073         164.073     423.598E-03     423.598E-03    -312.460E-03    -312.460E-03
              60         164.100         164.100     393.732E-03     393.732E-03    -277.195E-03    -277.195E-03
              61         164.124         164.124     365.982E-03     365.982E-03    -244.323E-03    -244.323E-03
              62         164.145         164.145     340.530E-03     340.530E-03    -213.630E-03    -213.630E-03
              63         164.163         164.163     317.517E-03     317.517E-03    -184.906E-03    -184.906E-03
              64         164.179         164.179     297.046E-03     297.046E-03    -157.935E-03    -157.935E-03
              65         164.192         164.192     279.197E-03     279.197E-03    -132.504E-03    -132.504E-03
              66         164.203         164.203     264.023E-03     264.023E-03    -108.394E-03    -108.394E-03
              67         164.211         164.211     251.567E-03     251.567E-03    -85.3884E-03    -85.3884E-03
              68         164.218         164.218     241.853E-03     241.853E-03    -63.2672E-03    -63.2672E-03
              69         164.223         164.223     234.902E-03     234.902E-03    -41.8106E-03    -41.8106E-03
              70         164.226         164.226     230.716E-03     230.716E-03    -20.8541E-03    -20.8541E-03
              71         164.247         164.247     206.386E-03     206.386E-03    -11.3690E-03    -11.3690E-03
              72         164.266         164.266     183.399E-03     183.399E-03    -11.9079E-03    -11.9079E-03
              73         164.284         164.284     159.627E-03     159.627E-03    -12.1715E-03    -12.1715E-03
              74         164.301         164.301     135.633E-03     135.633E-03    -12.1454E-03    -12.1454E-03
              75         164.315         164.315     111.996E-03     111.996E-03    -11.8242E-03    -11.8242E-03
              76         164.326         164.326     89.3030E-03     89.3030E-03    -11.2069E-03    -11.2069E-03
              77         164.332         164.332     68.1334E-03     68.1334E-03    -10.3012E-03    -10.3012E-03
              78         164.334         164.334     49.0472E-03     49.0472E-03    -9.11965E-03    -9.11965E-03
              79         164.329         164.329     32.5677E-03     32.5677E-03    -7.68663E-03    -7.68663E-03
              80         164.318         164.318     19.1689E-03     19.1689E-03    -6.02734E-03    -6.02734E-03
              81         164.300         164.300     9.25056E-03     9.25056E-03    -4.19148E-03    -4.19148E-03
              82         164.274         164.274     3.12998E-03     3.12998E-03    -2.21234E-03    -2.21234E-03
              83         164.261         164.261     1.07844E-03     1.07844E-03    -2.17395E-03    -2.17395E-03
              84         164.268         164.268     1.11247E-03     1.11247E-03    -4.25932E-03    -4.25932E-03
              85         164.278         164.278     1.14651E-03     1.14651E-03    -6.48515E-03    -6.48515E-03
              86         164.293         164.293     1.20433E-03     1.20433E-03    -8.80377E-03    -8.80377E-03
              87         164.313         164.313     1.27892E-03     1.27892E-03    -11.2555E-03    -11.2555E-03
              88         164.338         164.338     1.37000E-03     1.37000E-03    -13.8733E-03    -13.8733E-03
              89         164.368         164.368     1.47809E-03     1.47809E-03    -16.6914E-03    -16.6914E-03
              90         164.404         164.404     1.60231E-03     1.60231E-03    -19.7428E-03    -19.7428E-03
              91         164.446         164.446     1.74289E-03     1.74289E-03    -23.0606E-03    -23.0606E-03
              92         164.495         164.495     1.89886E-03     1.89886E-03    -26.6768E-03    -26.6768E-03
              93         164.551         164.551     2.06964E-03     2.06964E-03    -30.6223E-03    -30.6223E-03
              94         164.615         164.615     2.25374E-03     2.25374E-03    -34.9258E-03    -34.9258E-03
              95         164.689         164.689     2.44941E-03     2.44941E-03    -39.6130E-03    -39.6130E-03
              96         164.772         164.772     2.65400E-03     2.65400E-03    -44.7051E-03    -44.7051E-03
              97         164.865         164.865     2.86391E-03     2.86391E-03    -50.2176E-03    -50.2176E-03
              98         164.970         164.970     3.07441E-03     3.07441E-03    -56.1576E-03    -56.1576E-03
              99         165.087         165.087     3.27901E-03     3.27901E-03    -62.5211E-03    -62.5211E-03
             100         165.217         165.217     3.46966E-03     3.46966E-03    -69.2901E-03    -69.2901E-03
             101         165.360         165.360     3.63528E-03     3.63528E-03    -76.4274E-03    -76.4274E-03
             102         165.518         165.518     3.76291E-03     3.76291E-03    -83.8721E-03    -83.8721E-03
             103         165.690         165.690     3.83457E-03     3.83457E-03    -91.5328E-03    -91.5328E-03
             104         165.878         165.878     3.83043E-03     3.83043E-03    -99.2803E-03    -99.2803E-03
             105         166.081         166.081     3.72280E-03     3.72280E-03    -106.939E-03    -106.939E-03
             106         166.299         166.299     3.48327E-03     3.48327E-03    -114.275E-03    -114.275E-03
             107         166.531         166.531     3.07190E-03     3.07190E-03    -120.990E-03    -120.990E-03
             108         166.775         166.775     2.45152E-03     2.45152E-03    -126.707E-03    -126.707E-03
             109         167.029         167.029     1.56992E-03     1.56992E-03    -130.958E-03    -130.958E-03
             110         167.289         167.289     385.416E-06     385.416E-06    -133.184E-03    -133.184E-03
             111         167.551         167.551    -1.15923E-03    -1.15923E-03    -132.726E-03    -132.726E-03
             112         167.808         167.808    -3.09674E-03    -3.09674E-03    -128.833E-03    -128.833E-03
             113         168.054         168.054    -5.46676E-03    -5.46676E-03    -120.683E-03    -120.683E-03
             114         168.278         168.278    -8.26471E-03    -8.26471E-03    -107.414E-03    -107.414E-03
             115         168.471         168.471    -11.4657E-03    -11.4657E-03    -88.1984E-03    -88.1984E-03
             116         168.619         168.619    -14.9816E-03    -14.9816E-03    -62.3099E-03    -62.3099E-03
             117         168.709         168.709    -18.6532E-03    -18.6532E-03    -29.2730E-03    -29.2730E-03
             118         168.727         168.727    -22.2551E-03    -22.2551E-03     11.0127E-03     11.0127E-03
             119         168.659         168.659    -25.4336E-03    -25.4336E-03     58.0711E-03     58.0711E-03
             120         168.493         168.493    -27.8045E-03    -27.8045E-03     110.696E-03     110.696E-03
             121         168.219         168.219    -28.8531E-03    -28.8531E-03     166.790E-03     166.790E-03
             122         167.834         167.834    -28.1256E-03    -28.1256E-03     223.290E-03     223.290E-03
             123         167.342         167.342    -25.1999E-03    -25.1999E-03     276.265E-03     276.265E-03
             124         166.753         166.753    -19.7861E-03    -19.7861E-03     320.791E-03     320.791E-03
             125         166.165         166.165    -30.6127E-03    -30.6127E-03     649.024E-03     649.024E-03
             126         166.488         166.488    -88.2692E-03    -88.2692E-03         1.16765         1.16765
             127         166.865         166.865    -182.535E-03    -182.535E-03         1.55274         1.55274
             128         167.290         167.290    -319.675E-03    -319.675E-03         1.83591         1.83591
             129         167.765         167.765    -513.959E-03    -513.959E-03         2.03770         2.03770
             130         168.299         168.299    -787.040E-03    -787.040E-03         2.16496         2.16496
             131         168.899         168.899        -1.16801        -1.16801         2.20932         2.20932
             132         169.571         169.571        -1.69293        -1.69293         2.14389         2.14389
             133         170.307         170.307        -2.40250        -2.40250         1.91607         1.91607
             134         171.069         171.069        -3.33173        -3.33173         1.44118         1.44118
             135         171.758         171.758        -4.48925        -4.48925     597.843E-03     597.843E-03
             136         172.168         172.168        -5.80842        -5.80842    -743.698E-03    -743.698E-03
             137         169.571         169.571        -6.48656        -6.48656         3.96228         3.96228
             138         167.715         167.715        -5.48764        -5.48764         4.40643         4.40643
             139         166.231         166.231        -4.42699        -4.42699         4.46599         4.46599
             140         165.116         165.116        -3.44435        -3.44435         4.29120         4.29120
             141         164.312         164.312        -2.59068        -2.59068         3.99479         3.99479
             142         163.755         163.755        -1.87524        -1.87524         3.65124         3.65124
             143         163.382         163.382        -1.28666        -1.28666         3.30354         3.30354
             144         163.147         163.147    -808.319E-03    -808.319E-03         2.97434         2.97434
             145         163.010         163.010    -422.766E-03    -422.766E-03         2.67377         2.67377
             146         162.945         162.945    -114.605E-03    -114.605E-03         2.40486         2.40486
             147         162.930         162.930     129.396E-03     129.396E-03         2.16687         2.16687
             148         162.950         162.950     320.188E-03     320.188E-03         1.95720         1.95720
             149         162.995         162.995     466.866E-03     466.866E-03         1.77253         1.77253
             150         163.056         163.056     576.954E-03     576.954E-03         1.60946         1.60946
             151         163.127         163.127     656.726E-03     656.726E-03         1.46480         1.46480
             152         163.204         163.204     711.441E-03     711.441E-03         1.33572         1.33572
             153         163.283         163.283     745.533E-03     745.533E-03         1.21980         1.21980
             154         163.363         163.363     762.764E-03     762.764E-03         1.11503         1.11503
             155         163.441         163.441     766.329E-03     766.329E-03         1.01975         1.01975
             156         163.516         163.516     758.953E-03     758.953E-03     932.640E-03     932.640E-03
             157         163.588         163.588     742.957E-03     742.957E-03     852.609E-03     852.609E-03
             158         163.656         163.656     720.317E-03     720.317E-03     778.803E-03     778.803E-03
             159         163.720         163.720     692.708E-03     692.708E-03     710.534E-03     710.534E-03
             160         163.779         163.779     661.551E-03     661.551E-03     647.248E-03     647.248E-03
             161         163.834         163.834     628.040E-03     628.040E-03     588.493E-03     588.493E-03
             162         163.884         163.884     593.179E-03     593.179E-03     533.891E-03     533.891E-03
             163         163.930         163.930     557.801E-03     557.801E-03     483.124E-03     483.124E-03
             164         163.972         163.972     522.599E-03     522.599E-03     435.911E-03     435.911E-03
             165         164.010         164.010     488.138E-03     488.138E-03     391.997E-03     391.997E-03
             166         164.043         164.043     454.883E-03     454.883E-03     351.148E-03     351.148E-03
             167         164.074         164.074     423.204E-03     423.204E-03     313.140E-03     313.140E-03
             168         164.101         164.101     393.401E-03     393.401E-03     277.754E-03     277.754E-03
             169         164.124         164.124     365.706E-03     365.706E-03     244.777E-03     244.777E-03
             170         164.145         164.145     340.305E-03     340.305E-03     213.995E-03     213.995E-03
             171         164.163         164.163     317.335E-03     317.335E-03     185.193E-03     185.193E-03
             172         164.179         164.179     296.904E-03     296.904E-03     158.158E-03     158.158E-03
             173         164.192         164.192     279.090E-03     279.090E-03     132.671E-03     132.671E-03
             174         164.203         164.203     263.948E-03     263.948E-03     108.517E-03     108.517E-03
             175         164.211         164.211     251.521E-03     251.521E-03     85.4740E-03     85.4740E-03
             176         164.218         164.218     241.835E-03     241.835E-03     63.3226E-03     63.3226E-03
             177         164.223         164.223     234.908E-03     234.908E-03     41.8411E-03     41.8411E-03
             178         164.226         164.226     230.742E-03     230.742E-03     20.8632E-03     20.8632E-03
             179         164.205         164.205     252.590E-03     252.590E-03     9.17805E-03     9.17805E-03
             180         164.186         164.186     273.561E-03     273.561E-03     7.49803E-03     7.49803E-03
             181         164.170         164.170     289.971E-03     289.971E-03     5.55542E-03     5.55542E-03
             182         164.159         164.159     301.243E-03     301.243E-03     3.41813E-03     3.41813E-03
             183         164.153         164.153     306.978E-03     306.978E-03     1.16047E-03     1.16047E-03
             184         164.153         164.153     306.973E-03     306.973E-03    -1.13896E-03    -1.13896E-03
             185         164.159         164.159     301.231E-03     301.231E-03    -3.39973E-03    -3.39973E-03
             186         164.170         164.170     289.954E-03     289.954E-03    -5.54378E-03    -5.54378E-03
             187         164.186         164.186     273.536E-03     273.536E-03    -7.49381E-03    -7.49381E-03
             188         164.205         164.205     252.559E-03     252.559E-03    -9.17623E-03    -9.17623E-03
             189         135.827         135.827         1.91443         1.91443         9.06390         9.06390
             190         145.704         145.704        -2.60944        -2.60944         14.2234         14.2234
             191         156.593         156.593        -6.86076        -6.86076         14.4389         14.4389
             192         164.991         164.991        -9.09730        -9.09730         11.4352         11.4352
             193         169.950         169.950        -9.26241        -9.26241         7.45776         7.45776
             194         169.046         169.046        -9.25201        -9.25201        -8.24716        -8.24716
             195         161.881         161.881        -8.32979        -8.32979        -12.7180        -12.7180
             196         150.258         150.258        -4.42983        -4.42983        -14.5168        -14.5168
             197         138.002         138.002     906.282E-03     906.282E-03        -10.2115        -10.2115
             198         165.564         165.564    -37.5302E-03    -37.5302E-03    -539.890E-03    -539.890E-03
             199         165.922         165.922    -108.242E-03    -108.242E-03    -956.135E-03    -956.135E-03
             200         166.349         166.349    -222.903E-03    -222.903E-03        -1.24747        -1.24747
             201         166.835         166.835    -386.479E-03    -386.479E-03        -1.44786        -1.44786
             202         167.382         167.382    -611.973E-03    -611.973E-03        -1.57929        -1.57929
             203         167.994         167.994    -919.808E-03    -919.808E-03        -1.64966        -1.64966
             204         168.677         168.677        -1.33793        -1.33793        -1.65125        -1.65125
             205         169.434         169.434        -1.90131        -1.90131        -1.55747        -1.55747
             206         170.255         170.255        -2.64965        -2.64965        -1.31567        -1.31567
             207         171.100         171.100        -3.61704        -3.61704    -840.569E-03    -840.569E-03
             208         171.867         171.867        -4.81117        -4.81117    -9.88390E-03    -9.88390E-03
             209         172.348         172.348        -6.16557        -6.16557         1.30910         1.30910
             210         176.593         176.593        -7.34770        -7.34770     243.873E-03     243.873E-03
             211         178.812         178.812        -3.36440        -3.36440        -3.62013        -3.62013
             212         178.745         178.745         4.40281         4.40281        -6.35321        -6.35321
             213         176.813         176.813         13.2494         13.2494        -5.14542        -5.14542
             214         176.768         176.768         13.3276         13.3276         5.55213         5.55213
             215         178.653         178.653         4.56103         4.56103         6.77229         6.77229
             216         178.671         178.671        -3.12749        -3.12749         4.06241         4.06241
             217         176.401         176.401        -7.03726        -7.03726     230.852E-03     230.852E-03
             218         165.104         165.104     3.03558E-03     3.03558E-03     359.628E-03     359.628E-03
             219         164.152         164.152     19.2119E-03     19.2119E-03     329.610E-03     329.610E-03
             220         163.344         163.344     34.2133E-03     34.2133E-03     256.504E-03     256.504E-03
             221         162.785         162.785     44.8126E-03     44.8126E-03     148.049E-03     148.049E-03
             222         162.554         162.554     48.5035E-03     48.5035E-03     19.8621E-03     19.8621E-03
             223         162.675         162.675     44.3255E-03     44.3255E-03    -107.643E-03    -107.643E-03
             224         163.119         163.119     33.2391E-03     33.2391E-03    -214.052E-03    -214.052E-03
             225         163.806         163.806     17.7577E-03     17.7577E-03    -283.758E-03    -283.758E-03
             226         164.624         164.624     1.09837E-03     1.09837E-03    -309.014E-03    -309.014E-03
             227         172.140         172.140        -5.82081        -5.82081     762.557E-03     762.557E-03
             228         171.738         171.738        -4.50205        -4.50205    -584.281E-03    -584.281E-03
             229         171.054         171.054        -3.34540        -3.34540        -1.42963        -1.42963
             230         170.296         170.296        -2.41706        -2.41706        -1.90591        -1.90591
             231         169.564         169.564        -1.70782        -1.70782        -2.13533        -2.13533
             232         168.896         168.896        -1.18224        -1.18224        -2.20264        -2.20264
             233         168.300         168.300    -799.605E-03    -799.605E-03        -2.16012        -2.16012
             234         167.770         167.770    -524.100E-03    -524.100E-03        -2.03433        -2.03433
             235         167.298         167.298    -327.054E-03    -327.054E-03        -1.83354        -1.83354
             236         166.878         166.878    -187.188E-03    -187.188E-03        -1.55096        -1.55096
             237         166.508         166.508    -90.6892E-03    -90.6892E-03        -1.16631        -1.16631
             238         166.193         166.193    -31.5611E-03    -31.5611E-03    -648.474E-03    -648.474E-03
             239         166.763         166.763    -19.7581E-03    -19.7581E-03    -320.451E-03    -320.451E-03
             240         167.351         167.351    -25.2199E-03    -25.2199E-03    -275.831E-03    -275.831E-03
             241         167.843         167.843    -28.1261E-03    -28.1261E-03    -222.840E-03    -222.840E-03
             242         168.226         168.226    -28.8585E-03    -28.8585E-03    -166.335E-03    -166.335E-03
             243         168.499         168.499    -27.7929E-03    -27.7929E-03    -110.249E-03    -110.249E-03
             244         168.665         168.665    -25.4206E-03    -25.4206E-03    -57.6499E-03    -57.6499E-03
             245         168.732         168.732    -22.2345E-03    -22.2345E-03    -10.6260E-03    -10.6260E-03
             246         168.713         168.713    -18.6313E-03    -18.6313E-03     29.6162E-03     29.6162E-03
             247         168.623         168.623    -14.9589E-03    -14.9589E-03     62.6081E-03     62.6081E-03
             248         168.474         168.474    -11.4436E-03    -11.4436E-03     88.4511E-03     88.4511E-03
             249         168.281         168.281    -8.24534E-03    -8.24534E-03     107.626E-03     107.626E-03
             250         168.056         168.056    -5.44929E-03    -5.44929E-03     120.857E-03     120.857E-03
             251         167.810         167.810    -3.08279E-03    -3.08279E-03     128.975E-03     128.975E-03
             252         167.552         167.552    -1.14719E-03    -1.14719E-03     132.842E-03     132.842E-03
             253         167.290         167.290     394.511E-06     394.511E-06     133.279E-03     133.279E-03
             254         167.029         167.029     1.57765E-03     1.57765E-03     131.036E-03     131.036E-03
             255         166.776         166.776     2.45721E-03     2.45721E-03     126.771E-03     126.771E-03
             256         166.532         166.532     3.07680E-03     3.07680E-03     121.044E-03     121.044E-03
             257         166.300         166.300     3.48686E-03     3.48686E-03     114.321E-03     114.321E-03
             258         166.082         166.082     3.72599E-03     3.72599E-03     106.977E-03     106.977E-03
             259         165.879         165.879     3.83280E-03     3.83280E-03     99.3133E-03     99.3133E-03
             260         165.691         165.691     3.83675E-03     3.83675E-03     91.5612E-03     91.5612E-03
             261         165.518         165.518     3.76458E-03     3.76458E-03     83.8966E-03     83.8966E-03
             262         165.360         165.360     3.63685E-03     3.63685E-03     76.4486E-03     76.4486E-03
             263         165.217         165.217     3.47088E-03     3.47088E-03     69.3086E-03     69.3086E-03
             264         165.087         165.087     3.28017E-03     3.28017E-03     62.5372E-03     62.5372E-03
             265         164.970         164.970     3.07534E-03     3.07534E-03     56.1716E-03     56.1716E-03
             266         164.865         164.865     2.86478E-03     2.86478E-03     50.2298E-03     50.2298E-03
             267         164.772         164.772     2.65471E-03     2.65471E-03     44.7157E-03     44.7157E-03
             268         164.689         164.689     2.45009E-03     2.45009E-03     39.6221E-03     39.6221E-03
             269         164.616         164.616     2.25430E-03     2.25430E-03     34.9338E-03     34.9338E-03
             270         164.551         164.551     2.07015E-03     2.07015E-03     30.6292E-03     30.6292E-03
             271         164.495         164.495     1.89930E-03     1.89930E-03     26.6828E-03     26.6828E-03
             272         164.446         164.446     1.74329E-03     1.74329E-03     23.0656E-03     23.0656E-03
             273         164.404         164.404     1.60267E-03     1.60267E-03     19.7471E-03     19.7471E-03
             274         164.368         164.368     1.47842E-03     1.47842E-03     16.6950E-03     16.6950E-03
             275         164.338         164.338     1.37030E-03     1.37030E-03     13.8763E-03     13.8763E-03
             276         164.313         164.313     1.27920E-03     1.27920E-03     11.2579E-03     11.2579E-03
             277         164.293         164.293     1.20459E-03     1.20459E-03     8.80566E-03     8.80566E-03
             278         164.278         164.278     1.14676E-03     1.14676E-03     6.48653E-03     6.48653E-03
             279         164.268         164.268     1.11271E-03     1.11271E-03     4.26023E-03     4.26023E-03
             280         164.261         164.261     1.07866E-03     1.07866E-03     2.17441E-03     2.17441E-03
             281         164.274         164.274     3.13064E-03     3.13064E-03     2.21279E-03     2.21279E-03
             282         164.300         164.300     9.25252E-03     9.25252E-03     4.19235E-03     4.19235E-03
             283         164.318         164.318     19.1729E-03     19.1729E-03     6.02860E-03     6.02860E-03
             284         164.329         164.329     32.5746E-03     32.5746E-03     7.68822E-03     7.68822E-03
             285         164.334         164.334     49.0575E-03     49.0575E-03     9.12152E-03     9.12152E-03
             286         164.332         164.332     68.1476E-03     68.1476E-03     10.3033E-03     10.3033E-03
             287         164.326         164.326     89.3215E-03     89.3215E-03     11.2091E-03     11.2091E-03
             288         164.315         164.315     112.019E-03     112.019E-03     11.8264E-03     11.8264E-03
             289         164.301         164.301     135.661E-03     135.661E-03     12.1477E-03     12.1477E-03
             290         164.284         164.284     159.659E-03     159.659E-03     12.1734E-03     12.1734E-03
             291         164.266         164.266     183.434E-03     183.434E-03     11.9096E-03     11.9096E-03
             292         164.247         164.247     206.421E-03     206.421E-03     11.3673E-03     11.3673E-03
             293         155.234         155.234         45.0581         45.0581        -10.3118        -10.3118
             294         156.847         156.847         41.2028         41.2028        -10.2595        -10.2595
             295         158.416         158.416         37.3408         37.3408        -9.93808        -9.93808
             296         159.902         159.902         33.5516         33.5516        -9.45692        -9.45692
             297         161.271         161.271         29.8963         29.8963        -8.82756        -8.82756
             298         162.498         162.498         26.4284         26.4284        -8.08037        -8.08037
             299         163.568         163.568         23.1872         23.1872        -7.24384        -7.24384
             300         164.471         164.471         20.2021         20.2021        -6.35492        -6.35492
             301         165.214         165.214         17.4858         17.4858        -5.44589        -5.44589
             302         165.800         165.800         15.0424         15.0424        -4.54606        -4.54606
             303         166.247         166.247         12.8645         12.8645        -3.68010        -3.68010
             304         166.567         166.567         10.9395         10.9395        -2.86431        -2.86431
             305         166.780         166.780         9.25037         9.25037        -2.11201        -2.11201
             306         166.900         166.900         7.77721         7.77721        -1.42827        -1.42827
             307         166.943         166.943         6.50065         6.50065    -816.857E-03    -816.857E-03
             308         166.922         166.922         5.39982         5.39982    -275.785E-03    -275.785E-03
             309         166.851         166.851         4.45638         4.45638     197.184E-03     197.184E-03
             310         166.737         166.737         3.65144         3.65144     607.527E-03     607.527E-03
             311         166.591         166.591         2.96882         2.96882     960.430E-03     960.430E-03
             312         166.419         166.419         2.39235         2.39235         1.26260         1.26260
             313         166.228         166.228         1.90811         1.90811         1.52023         1.52023
             314         166.022         166.022         1.50244         1.50244         1.74006         1.74006
             315         165.806         165.806         1.16333         1.16333         1.92829         1.92829
             316         165.585         165.585     879.095E-03     879.095E-03         2.09125         2.09125
             317         165.360         165.360     639.156E-03     639.156E-03         2.23480         2.23480
             318         165.136         165.136     433.141E-03     433.141E-03         2.36480         2.36480
             319         164.916         164.916     251.341E-03     251.341E-03         2.48683         2.48683
             320         164.703         164.703     84.0371E-03     84.0371E-03         2.60650         2.60650
             321         164.501         164.501    -78.2981E-03    -78.2981E-03         2.72930         2.72930
             322         164.316         164.316    -245.515E-03    -245.515E-03         2.86082         2.86082
             323         164.153         164.153    -427.819E-03    -427.819E-03         3.00658         3.00658
             324         164.022         164.022    -636.229E-03    -636.229E-03         3.17206         3.17206
             325         163.933         163.933    -882.833E-03    -882.833E-03         3.36229         3.36229
             326         163.901         163.901        -1.18120        -1.18120         3.58136         3.58136
             327         163.947         163.947        -1.54680        -1.54680         3.83125         3.83125
             328         164.099         164.099        -1.99694        -1.99694         4.10997         4.10997
             329         164.394         164.394        -2.55071        -2.55071         4.40823         4.40823
             330         164.880         164.880        -3.22606        -3.22606         4.70406         4.70406
             331         165.618         165.618        -4.03548        -4.03548         4.95499         4.95499
             332         166.673         166.673        -4.97048        -4.97048         5.08692         5.08692
             333         168.100         168.100        -5.98067        -5.98067         4.98735         4.98735
             334         169.905         169.905        -6.92592        -6.92592         4.50608         4.50608
             335         166.012         166.012    -22.5443E-03    -22.5443E-03    -259.036E-03    -259.036E-03
             336         166.473         166.473    -28.2908E-03    -28.2908E-03    -208.638E-03    -208.638E-03
             337         166.826         166.826    -31.5709E-03    -31.5709E-03    -149.092E-03    -149.092E-03
             338         167.058         167.058    -32.6254E-03    -32.6254E-03    -85.3244E-03    -85.3244E-03
             339         167.163         167.163    -31.9402E-03    -31.9402E-03    -21.2618E-03    -21.2618E-03
             340         167.145         167.145    -29.8891E-03    -29.8891E-03     40.0355E-03     40.0355E-03
             341         167.011         167.011    -27.0769E-03    -27.0769E-03     96.4649E-03     96.4649E-03
             342         166.771         166.771    -23.7698E-03    -23.7698E-03     146.813E-03     146.813E-03
             343         166.439         166.439    -20.4568E-03    -20.4568E-03     190.579E-03     190.579E-03
             344         166.027         166.027    -17.1764E-03    -17.1764E-03     227.834E-03     227.834E-03
             345         165.548         165.548    -14.3098E-03    -14.3098E-03     259.000E-03     259.000E-03
             346         165.012         165.012    -11.6356E-03    -11.6356E-03     284.737E-03     284.737E-03
             347         164.431         164.431    -9.55558E-03    -9.55558E-03     305.780E-03     305.780E-03
             348         163.812         163.812    -7.55323E-03    -7.55323E-03     322.878E-03     322.878E-03
             349         163.162         163.162    -6.23363E-03    -6.23363E-03     336.703E-03     336.703E-03
             350         162.488         162.488    -4.68313E-03    -4.68313E-03     347.827E-03     347.827E-03
             351         161.794         161.794    -3.94547E-03    -3.94547E-03     356.686E-03     356.686E-03
             352         161.085         161.085    -2.48886E-03    -2.48886E-03     363.570E-03     363.570E-03
             353         160.363         160.363    -2.13765E-03    -2.13765E-03     368.621E-03     368.621E-03
             354         159.634         159.634    -331.828E-06    -331.828E-06     371.818E-03     371.818E-03
             355         158.900         158.900    -227.508E-06    -227.508E-06     372.997E-03     372.997E-03
             356         158.166         158.166     2.48266E-03     2.48266E-03     371.802E-03     371.802E-03
             357         157.438         157.438     2.38012E-03     2.38012E-03     367.746E-03     367.746E-03
             358         156.720         156.720     6.76424E-03     6.76424E-03     360.080E-03     360.080E-03
             359         156.022         156.022     6.35080E-03     6.35080E-03     347.937E-03     347.937E-03
             360         155.354         155.354     13.6021E-03     13.6021E-03     330.008E-03     330.008E-03
             361         154.727         154.727     12.5544E-03     12.5544E-03     304.936E-03     304.936E-03
             362         154.159         154.159     24.7109E-03     24.7109E-03     270.440E-03     270.440E-03
             363         153.670         153.670     22.3288E-03     22.3288E-03     224.483E-03     224.483E-03
             364         153.287         153.287     43.2053E-03     43.2053E-03     162.780E-03     162.780E-03
             365         153.043         153.043     38.0283E-03     38.0283E-03     82.3933E-03     82.3933E-03
             366         152.984         152.984     75.5573E-03     75.5573E-03    -25.7726E-03    -25.7726E-03
             367         153.169         153.169     64.2567E-03     64.2567E-03    -165.469E-03    -165.469E-03
             368         153.680         153.680     137.284E-03     137.284E-03    -359.047E-03    -359.047E-03
             369         154.630         154.630     110.981E-03     110.981E-03    -609.083E-03    -609.083E-03
             370         156.184         156.184     272.548E-03     272.548E-03    -980.086E-03    -980.086E-03
             371         158.589         158.589     203.042E-03     203.042E-03        -1.46269        -1.46269
             372         162.257         162.257     639.871E-03     639.871E-03        -2.28309        -2.28309
             373         167.833         167.833     420.535E-03     420.535E-03        -3.36911        -3.36911
             374         176.830         176.830         2.07376         2.07376        -5.81070        -5.81070
             375         191.729         191.729         1.20994         1.20994        -9.24392        -9.24392
             376         226.158         226.158         16.2632         16.2632        -25.7183        -25.7183
             377         219.852         219.852         42.4308         42.4308        -43.2879        -43.2879
             378         183.441         183.441         48.8847         48.8847        -40.4249        -40.4249
             379         173.521         173.521         47.9800         47.9800        -33.9690        -33.9690
             380         166.691         166.691         47.9009         47.9009        -30.5479        -30.5479
             381         163.055         163.055         47.5492         47.5492        -27.0009        -27.0009
             382         160.386         160.386         47.3680         47.3680        -24.3332        -24.3332
             383         158.671         158.671         47.2221         47.2221        -21.7563        -21.7563
             384         157.360         157.360         47.1211         47.1211        -19.5528        -19.5528
             385         156.439         156.439         47.0617         47.0617        -17.4485        -17.4485
             386         155.718         155.718         47.0147         47.0147        -15.5402        -15.5402
             387         155.185         155.185         46.9936         46.9936        -13.7125        -13.7125
             388         154.762         154.762         46.9747         46.9747        -12.0010        -12.0010
             389         172.281         172.281        -6.19417        -6.19417        -1.39772        -1.39772
             390         171.827         171.827        -4.85958        -4.85958    -73.3545E-03    -73.3545E-03
             391         171.084         171.084        -3.67605        -3.67605     772.705E-03     772.705E-03
             392         170.255         170.255        -2.70929        -2.70929         1.26637         1.26637
             393         169.443         169.443        -1.95471        -1.95471         1.52495         1.52495
             394         168.689         168.689        -1.38186        -1.38186         1.63166         1.63166
             395         168.007         168.007    -953.728E-03    -953.728E-03         1.63912         1.63912
             396         167.395         167.395    -636.638E-03    -636.638E-03         1.57472         1.57472
             397         166.847         166.847    -403.179E-03    -403.179E-03         1.44693         1.44693
             398         166.360         166.360    -233.044E-03    -233.044E-03         1.24846         1.24846
             399         165.935         165.935    -113.275E-03    -113.275E-03     957.671E-03     957.671E-03
             400         165.582         165.582    -39.2091E-03    -39.2091E-03     540.792E-03     540.792E-03
             401         164.699         164.699    -650.948E-06    -650.948E-06     311.800E-03     311.800E-03
             402         163.938         163.938     14.4362E-03     14.4362E-03     294.992E-03     294.992E-03
             403         163.267         163.267     29.2786E-03     29.2786E-03     240.428E-03     240.428E-03
             404         162.776         162.776     41.0546E-03     41.0546E-03     152.360E-03     152.360E-03
             405         162.538         162.538     48.4076E-03     48.4076E-03     40.3259E-03     40.3259E-03
             406         162.592         162.592     48.2178E-03     48.2178E-03    -80.4039E-03    -80.4039E-03
             407         162.938         162.938     41.5815E-03     41.5815E-03    -192.369E-03    -192.369E-03
             408         163.536         163.536     30.8174E-03     30.8174E-03    -282.385E-03    -282.385E-03
             409         164.319         164.319     16.3300E-03     16.3300E-03    -340.652E-03    -340.652E-03
             410         165.201         165.201     1.50674E-03     1.50674E-03    -362.222E-03    -362.222E-03
             411         176.392         176.392         14.8139         14.8139         4.65546         4.65546
             412         178.272         178.272         7.59276         7.59276         6.73793         6.73793
             413         179.235         179.235     7.35462E-03     7.35462E-03         5.46725         5.46725
             414         178.402         178.402        -5.29095        -5.29095         2.35142         2.35142
             415         176.143         176.143        -7.78859        -7.78859    -871.122E-03    -871.122E-03
             416         176.378         176.378        -7.06633        -7.06633    -204.056E-03    -204.056E-03
             417         178.660         178.660        -3.18244        -3.18244        -4.03481        -4.03481
             418         178.664         178.664         4.47651         4.47651        -6.75935        -6.75935
             419         176.801         176.801         13.2265         13.2265        -5.57637        -5.57637
             420         155.235         155.235         45.0571         45.0571         10.3089         10.3089
             421         156.847         156.847         41.2026         41.2026         10.2552         10.2552
             422         158.415         158.415         37.3418         37.3418         9.93240         9.93240
             423         159.901         159.901         33.5538         33.5538         9.44994         9.44994
             424         161.269         161.269         29.9001         29.9001         8.81952         8.81952
             425         162.496         162.496         26.4337         26.4337         8.07172         8.07172
             426         163.565         163.565         23.1940         23.1940         7.23493         7.23493
             427         164.469         164.469         20.2103         20.2103         6.34625         6.34625
             428         165.211         165.211         17.4951         17.4951         5.43778         5.43778
             429         165.798         165.798         15.0525         15.0525         4.53885         4.53885
             430         166.245         166.245         12.8752         12.8752         3.67400         3.67400
             431         166.566         166.566         10.9504         10.9504         2.85947         2.85947
             432         166.780         166.780         9.26126         9.26126         2.10853         2.10853
             433         166.900         166.900         7.78784         7.78784         1.42618         1.42618
             434         166.945         166.945         6.51084         6.51084     816.159E-03     816.159E-03
             435         166.925         166.925         5.40942         5.40942     276.420E-03     276.420E-03
             436         166.854         166.854         4.46531         4.46531    -195.242E-03    -195.242E-03
             437         166.741         166.741         3.65962         3.65962    -604.377E-03    -604.377E-03
             438         166.595         166.595         2.97627         2.97627    -956.122E-03    -956.122E-03
             439         166.423         166.423         2.39907         2.39907        -1.25724        -1.25724
             440         166.232         166.232         1.91417         1.91417        -1.51387        -1.51387
             441         166.026         166.026         1.50790         1.50790        -1.73279        -1.73279
             442         165.810         165.810         1.16833         1.16833        -1.92018        -1.92018
             443         165.588         165.588     883.742E-03     883.742E-03        -2.08237        -2.08237
             444         165.362         165.362     643.635E-03     643.635E-03        -2.22521        -2.22521
             445         165.137         165.137     437.638E-03     437.638E-03        -2.35458        -2.35458
             446         164.915         164.915     256.101E-03     256.101E-03        -2.47607        -2.47607
             447         164.700         164.700     89.3318E-03     89.3318E-03        -2.59530        -2.59530
             448         164.495         164.495    -72.1242E-03    -72.1242E-03        -2.71780        -2.71780
             449         164.307         164.307    -238.070E-03    -238.070E-03        -2.84921        -2.84921
             450         164.140         164.140    -418.617E-03    -418.617E-03        -2.99517        -2.99517
             451         164.003         164.003    -624.724E-03    -624.724E-03        -3.16129        -3.16129
             452         163.907         163.907    -868.379E-03    -868.379E-03        -3.35285        -3.35285
             453         163.867         163.867        -1.16314        -1.16314        -3.57433        -3.57433
             454         163.903         163.903        -1.52448        -1.52448        -3.82825        -3.82825
             455         164.043         164.043        -1.97002        -1.97002        -4.11346        -4.11346
             456         164.324         164.324        -2.51938        -2.51938        -4.42170        -4.42170
             457         164.796         164.796        -3.19198        -3.19198        -4.73246        -4.73246
             458         165.522         165.522        -4.00261        -4.00261        -5.00387        -5.00387
             459         166.570         166.570        -4.94561        -4.94561        -5.16110        -5.16110
             460         168.001         168.001        -5.97202        -5.97202        -5.08748        -5.08748
             461         169.820         169.820        -6.93957        -6.93957        -4.62751        -4.62751
             462         169.421         169.421        -9.67334        -9.67334        -8.66024        -8.66024
             463         162.318         162.318        -8.78251        -8.78251        -13.0463        -13.0463
             464         150.733         150.733        -4.90313        -4.90313        -14.7469        -14.7469
             465         138.495         138.495     423.415E-03     423.415E-03        -10.3292        -10.3292
             466         136.329         136.329         1.42663         1.42663         9.17246         9.17246
             467         146.198         146.198        -3.09291        -3.09291         14.4260         14.4260
             468         157.063         157.063        -7.33136        -7.33136         14.7251         14.7251
             469         165.419         165.419        -9.54562        -9.54562         11.7964         11.7964
             470         170.320         170.320        -9.68114        -9.68114         7.88609         7.88609
             471         154.138         154.138         46.9680         46.9680        -8.35740        -8.35740
             472         153.915         153.915         46.9690         46.9690        -6.42607        -6.42607
             473         153.761         153.761         46.9705         46.9705        -4.55542        -4.55542
             474         153.665         153.665         46.9731         46.9731        -2.72019        -2.72019
             475         153.618         153.618         46.9737         46.9737    -910.583E-03    -910.583E-03
             476         153.619         153.619         46.9730         46.9730     895.130E-03     895.130E-03
             477         153.666         153.666         46.9711         46.9711         2.70661         2.70661
             478         153.762         153.762         46.9679         46.9679         4.54464         4.54464
             479         153.917         153.917         46.9663         46.9663         6.41850         6.41850
             480         154.139         154.139         46.9659         46.9659         8.35286         8.35286
             481         154.762         154.762         46.9739         46.9739         11.9996         11.9996
             482         155.186         155.186         46.9932         46.9932         13.7116         13.7116
             483         155.718         155.718         47.0145         47.0145         15.5395         15.5395
             484         156.439         156.439         47.0615         47.0615         17.4479         17.4479
             485         157.360         157.360         47.1210         47.1210         19.5523         19.5523
             486         158.671         158.671         47.2220         47.2220         21.7559         21.7559
             487         160.386         160.386         47.3680         47.3680         24.3328         24.3328
             488         163.055         163.055         47.5492         47.5492         27.0006         27.0006
             489         166.691         166.691         47.9008         47.9008         30.5477         30.5477
             490         173.521         173.521         47.9799         47.9799         33.9687         33.9687
             491         183.441         183.441         48.8846         48.8846         40.4247         40.4247
             492         219.852         219.852         42.4308         42.4308         43.2878         43.2878
             493         226.157         226.157         16.2632         16.2632         25.7182         25.7182
             494         191.729         191.729         1.20993         1.20993         9.24385         9.24385
             495         176.831         176.831         2.07375         2.07375         5.81065         5.81065
             496         167.833         167.833     420.528E-03     420.528E-03         3.36907         3.36907
             497         162.257         162.257     639.865E-03     639.865E-03         2.28306         2.28306
             498         158.589         158.589     203.036E-03     203.036E-03         1.46268         1.46268
             499         156.185         156.185     272.542E-03     272.542E-03     980.085E-03     980.085E-03
             500         154.630         154.630     110.977E-03     110.977E-03     609.091E-03     609.091E-03
             501         153.680         153.680     137.280E-03     137.280E-03     359.063E-03     359.063E-03
             502         153.169         153.169     64.2539E-03     64.2539E-03     165.492E-03     165.492E-03
             503         152.984         152.984     75.5551E-03     75.5551E-03     25.8002E-03     25.8002E-03
             504         153.043         153.043     38.0268E-03     38.0268E-03    -82.3622E-03    -82.3622E-03
             505         153.287         153.287     43.2042E-03     43.2042E-03    -162.747E-03    -162.747E-03
             506         153.670         153.670     22.3282E-03     22.3282E-03    -224.448E-03    -224.448E-03
             507         154.159         154.159     24.7105E-03     24.7105E-03    -270.404E-03    -270.404E-03
             508         154.727         154.727     12.5543E-03     12.5543E-03    -304.899E-03    -304.899E-03
             509         155.353         155.353     13.6021E-03     13.6021E-03    -329.971E-03    -329.971E-03
             510         156.022         156.022     6.35089E-03     6.35089E-03    -347.900E-03    -347.900E-03
             511         156.720         156.720     6.76449E-03     6.76449E-03    -360.043E-03    -360.043E-03
             512         157.437         157.437     2.38014E-03     2.38014E-03    -367.710E-03    -367.710E-03
             513         158.166         158.166     2.48298E-03     2.48298E-03    -371.767E-03    -371.767E-03
             514         158.900         158.900    -227.716E-06    -227.716E-06    -372.961E-03    -372.961E-03
             515         159.633         159.633    -331.492E-06    -331.492E-06    -371.783E-03    -371.783E-03
             516         160.363         160.363    -2.13820E-03    -2.13820E-03    -368.585E-03    -368.585E-03
             517         161.084         161.084    -2.48854E-03    -2.48854E-03    -363.533E-03    -363.533E-03
             518         161.793         161.793    -3.94648E-03    -3.94648E-03    -356.649E-03    -356.649E-03
             519         162.487         162.487    -4.68281E-03    -4.68281E-03    -347.789E-03    -347.789E-03
             520         163.161         163.161    -6.23502E-03    -6.23502E-03    -336.664E-03    -336.664E-03
             521         163.811         163.811    -7.55259E-03    -7.55259E-03    -322.837E-03    -322.837E-03
             522         164.430         164.430    -9.55642E-03    -9.55642E-03    -305.740E-03    -305.740E-03
             523         165.011         165.011    -11.6332E-03    -11.6332E-03    -284.697E-03    -284.697E-03
             524         165.546         165.546    -14.3069E-03    -14.3069E-03    -258.966E-03    -258.966E-03
             525         166.026         166.026    -17.1684E-03    -17.1684E-03    -227.809E-03    -227.809E-03
             526         166.438         166.438    -20.4434E-03    -20.4434E-03    -190.576E-03    -190.576E-03
             527         166.770         166.770    -23.7500E-03    -23.7500E-03    -146.842E-03    -146.842E-03
             528         167.009         167.009    -27.0460E-03    -27.0460E-03    -96.5444E-03    -96.5444E-03
             529         167.144         167.144    -29.8563E-03    -29.8563E-03    -40.1773E-03    -40.1773E-03
             530         167.162         167.162    -31.8981E-03    -31.8981E-03     21.0461E-03     21.0461E-03
             531         167.057         167.057    -32.5997E-03    -32.5997E-03     85.0415E-03     85.0415E-03
             532         166.827         166.827    -31.5565E-03    -31.5565E-03     148.770E-03     148.770E-03
             533         166.474         166.474    -28.3111E-03    -28.3111E-03     208.325E-03     208.325E-03
             534         166.014         166.014    -22.6242E-03    -22.6242E-03     258.923E-03     258.923E-03
             535         2.61191         2.61191        -82.6189        -82.6189    -371.519E-03    -371.519E-03
             536         22.3868         22.3868        -30.8481        -30.8481        -1.02078        -1.02078
             537         54.1766         54.1766        -5.94505        -5.94505        -1.17063        -1.17063
             538         87.0349         87.0349         2.96266         2.96266        -1.02450        -1.02450
             539         114.348         114.348         4.43634         4.43634    -740.049E-03    -740.049E-03
             540         177.469         177.469        -12.9115        -12.9115        -6.47517        -6.47517
             541         184.008         184.008        -19.4522        -19.4522        -11.6718        -11.6718
             542         190.191         190.191        -25.5640        -25.5640        -20.1227        -20.1227
             543         188.770         188.770        -23.9746        -23.9746        -33.3903        -33.3903
             544         160.343         160.343         5.15464         5.15464        -53.7415        -53.7415
             545         80.3601         80.3601         4.88417         4.88417        -42.3458        -42.3458
             546         37.2329         37.2329        -31.5717        -31.5717        -19.3110        -19.3110
             547         11.9650         11.9650        -71.6215        -71.6215        -3.11815        -3.11815
             548     373.008E-03     373.008E-03        -103.422        -103.422         2.43254         2.43254
             549         183.129         183.129         26.8431         26.8431     177.037E-03     177.037E-03
             550         198.624         198.624         40.0457         40.0457     151.610E-03     151.610E-03
             551         227.894         227.894         52.3692         52.3692     132.660E-03     132.660E-03
             552         280.338         280.338         56.3283         56.3283     113.003E-03     113.003E-03
             553         366.582         366.582         41.2190         41.2190     75.1386E-03     75.1386E-03
             554         399.682         399.682         31.8285         31.8285        -46.0003        -46.0003
             555         346.598         346.598         41.6198         41.6198        -78.6182        -78.6182
             556         274.920         274.920         48.2490         48.2490        -91.0874        -91.0874
             557         200.891         200.891         44.4910         44.4910        -84.6519        -84.6519
             558         162.198         162.198         5.69153         5.69153         54.0634         54.0634
             559         190.042         190.042        -23.8559        -23.8559         32.9835         32.9835
             560         190.905         190.905        -25.4932        -25.4932         19.6353         19.6353
             561         184.368         184.368        -19.3850        -19.3850         11.2960         11.2960
             562         177.639         177.639        -12.8513        -12.8513         6.22315         6.22315
             563    -706.738E-03    -706.738E-03        -108.862        -108.862        -2.73923        -2.73923
             564         6.46052         6.46052        -84.9495        -84.9495    -441.341E-03    -441.341E-03
             565         21.9214         21.9214        -52.3110        -52.3110         9.48143         9.48143
             566         48.6538         48.6538        -18.4251        -18.4251         26.2090         26.2090
             567         88.0604         88.0604         10.4496         10.4496         46.2978         46.2978
             568         177.929         177.929        -13.1698        -13.1698         6.58450         6.58450
             569         184.645         184.645        -19.6455        -19.6455         11.5446         11.5446
             570         191.173         191.173        -25.7049        -25.7049         19.8000         19.8000
             571         190.320         190.320        -24.0133        -24.0133         33.0941         33.0941
             572         162.468         162.468         5.64731         5.64731         54.1764         54.1764
             573         201.162         201.162         44.4228         44.4228         84.7883         84.7883
             574         275.220         275.220         48.3188         48.3188         91.2359         91.2359
             575         346.864         346.864         41.6846         41.6846         78.7555         78.7555
             576         399.840         399.840         31.8650         31.8650         46.1109         46.1109
             577         158.591         158.591         4.51490         4.51490        -53.5441        -53.5441
             578         188.011         188.011        -24.7002        -24.7002        -33.8440        -33.8440
             579         189.844         189.844        -26.0946        -26.0946        -20.7112        -20.7112
             580         183.900         183.900        -19.8644        -19.8644        -12.2371        -12.2371
             581         177.523         177.523        -13.2926        -13.2926        -7.03815        -7.03815
             582         183.072         183.072         27.1141         27.1141    -551.612E-03    -551.612E-03
             583         198.626         198.626         40.3340         40.3340    -590.583E-03    -590.583E-03
             584         228.032         228.032         52.5921         52.5921    -428.851E-03    -428.851E-03
             585         280.685         280.685         56.4148         56.4148     101.448E-03     101.448E-03
             586         367.229         367.229         41.0814         41.0814         1.20760         1.20760
             587         407.585         407.585         30.1652         30.1652        -39.5468        -39.5468
             588         368.720         368.720         38.2051         38.2051        -70.8056        -70.8056
             589         312.960         312.960         46.2578         46.2578        -88.5228        -88.5228
             590         250.111         250.111         49.0734         49.0734        -91.7610        -91.7610
             591         189.093         189.093         43.5369         43.5369        -82.9038        -82.9038
             592         200.817         200.817         44.3356         44.3356         84.6247         84.6247
             593         274.787         274.787         48.2307         48.2307         91.0599         91.0599
             594         346.361         346.361         41.5862         41.5862         78.6178         78.6178
             595         399.330         399.330         31.8638         31.8638         45.9950         45.9950
             596         114.717         114.717         4.03858         4.03858    -735.749E-03    -735.749E-03
             597         87.2705         87.2705         2.64253         2.64253        -1.01583        -1.01583
             598         54.3007         54.3007        -6.23078        -6.23078        -1.15811        -1.15811
             599         22.4220         22.4220        -31.1596        -31.1596        -1.00698        -1.00698
             600         2.60149         2.60149        -83.0464        -83.0464    -360.478E-03    -360.478E-03
             601    -717.533E-03    -717.533E-03        -109.335        -109.335        -2.75402        -2.75402
             602         6.46675         6.46675        -85.3271        -85.3271    -459.644E-03    -459.644E-03
             603         21.9638         21.9638        -52.5655        -52.5655         9.48255         9.48255
             604         48.7491         48.7491        -18.5585        -18.5585         26.2514         26.2514
             605         88.2331         88.2331         10.4199         10.4199         46.3832         46.3832
             606         80.4850         80.4850         4.77421         4.77421        -42.3620        -42.3620
             607         37.2691         37.2691        -31.8122        -31.8122        -19.2931        -19.2931
             608         11.9634         11.9634        -71.9959        -71.9959        -3.07712        -3.07712
             609     356.110E-03     356.110E-03        -103.899        -103.899         2.46743         2.46743
             610         170.417         170.417        -5.68962        -5.68962        -2.04648        -2.04648
             611         168.903         168.903        -5.12449        -5.12449        -2.77218        -2.77218
             612         167.564         167.564        -4.37689        -4.37689        -3.16675        -3.16675
             613         166.455         166.455        -3.58360        -3.58360        -3.30416        -3.30416
             614         165.579         165.579        -2.83033        -2.83033        -3.27089        -3.27089
             615         164.912         164.912        -2.15696        -2.15696        -3.13573        -3.13573
             616         164.420         164.420        -1.57662        -1.57662        -2.94833        -2.94833
             617         164.066         164.066        -1.08758        -1.08758        -2.73993        -2.73993
             618         163.820         163.820    -682.307E-03    -682.307E-03        -2.52931        -2.52931
             619         163.657         163.657    -350.917E-03    -350.917E-03        -2.32666        -2.32666
             620         163.557         163.557    -83.4912E-03    -83.4912E-03        -2.13698        -2.13698
             621         163.502         163.502     129.315E-03     129.315E-03        -1.96206        -1.96206
             622         163.483         163.483     295.813E-03     295.813E-03        -1.80196        -1.80196
             623         163.488         163.488     423.330E-03     423.330E-03        -1.65578        -1.65578
             624         163.510         163.510     518.206E-03     518.206E-03        -1.52224        -1.52224
             625         163.545         163.545     585.930E-03     585.930E-03        -1.39995        -1.39995
             626         163.587         163.587     631.213E-03     631.213E-03        -1.28760        -1.28760
             627         163.634         163.634     658.105E-03     658.105E-03        -1.18400        -1.18400
             628         163.684         163.684     670.069E-03     670.069E-03        -1.08813        -1.08813
             629         163.734         163.734     670.067E-03     670.067E-03    -999.146E-03    -999.146E-03
             630         163.783         163.783     660.615E-03     660.615E-03    -916.357E-03    -916.357E-03
             631         163.831         163.831     643.850E-03     643.850E-03    -839.191E-03    -839.191E-03
             632         163.877         163.877     621.576E-03     621.576E-03    -767.182E-03    -767.182E-03
             633         163.919         163.919     595.310E-03     595.310E-03    -699.948E-03    -699.948E-03
             634         163.959         163.959     566.320E-03     566.320E-03    -637.164E-03    -637.164E-03
             635         163.996         163.996     535.662E-03     535.662E-03    -578.550E-03    -578.550E-03
             636         164.030         164.030     504.207E-03     504.207E-03    -523.856E-03    -523.856E-03
             637         164.060         164.060     472.671E-03     472.671E-03    -472.850E-03    -472.850E-03
             638         164.088         164.088     441.637E-03     441.637E-03    -425.312E-03    -425.312E-03
             639         164.113         164.113     411.576E-03     411.576E-03    -381.027E-03    -381.027E-03
             640         164.135         164.135     382.865E-03     382.865E-03    -339.780E-03    -339.780E-03
             641         164.155         164.155     355.803E-03     355.803E-03    -301.357E-03    -301.357E-03
             642         164.172         164.172     330.623E-03     330.623E-03    -265.539E-03    -265.539E-03
             643         164.188         164.188     307.506E-03     307.506E-03    -232.103E-03    -232.103E-03
             644         164.201         164.201     286.590E-03     286.590E-03    -200.823E-03    -200.823E-03
             645         164.212         164.212     267.976E-03     267.976E-03    -171.470E-03    -171.470E-03
             646         164.222         164.222     251.741E-03     251.741E-03    -143.809E-03    -143.809E-03
             647         164.229         164.229     237.940E-03     237.940E-03    -117.605E-03    -117.605E-03
             648         164.236         164.236     226.609E-03     226.609E-03    -92.6187E-03    -92.6187E-03
             649         164.241         164.241     217.775E-03     217.775E-03    -68.6084E-03    -68.6084E-03
             650         164.244         164.244     211.456E-03     211.456E-03    -45.3326E-03    -45.3326E-03
             651         164.246         164.246     207.656E-03     207.656E-03    -22.6085E-03    -22.6085E-03
             652         170.535         170.535        -4.76386        -4.76386    -656.826E-03    -656.826E-03
             653         169.360         169.360        -4.51408        -4.51408        -1.47157        -1.47157
             654         168.255         168.255        -4.03946        -4.03946        -2.02417        -2.02417
             655         167.271         167.271        -3.45130        -3.45130        -2.35558        -2.35558
             656         166.439         166.439        -2.83627        -2.83627        -2.51415        -2.51415
             657         165.762         165.762        -2.24796        -2.24796        -2.55114        -2.55114
             658         165.227         165.227        -1.71459        -1.71459        -2.50826        -2.50826
             659         164.816         164.816        -1.24779        -1.24779        -2.41712        -2.41712
             660         164.507         164.507    -849.295E-03    -849.295E-03        -2.29922        -2.29922
             661         164.281         164.281    -515.792E-03    -515.792E-03        -2.16874        -2.16874
             662         164.120         164.120    -241.428E-03    -241.428E-03        -2.03444        -2.03444
             663         164.010         164.010    -19.5046E-03    -19.5046E-03        -1.90151        -1.90151
             664         163.939         163.939     156.811E-03     156.811E-03        -1.77279        -1.77279
             665         163.898         163.898     293.980E-03     293.980E-03        -1.64971        -1.64971
             666         163.880         163.880     397.944E-03     397.944E-03        -1.53281        -1.53281
             667         163.878         163.878     474.016E-03     474.016E-03        -1.42217        -1.42217
             668         163.887         163.887     526.899E-03     526.899E-03        -1.31762        -1.31762
             669         163.904         163.904     560.693E-03     560.693E-03        -1.21888        -1.21888
             670         163.927         163.927     578.952E-03     578.952E-03        -1.12566        -1.12566
             671         163.953         163.953     584.725E-03     584.725E-03        -1.03768        -1.03768
             672         163.980         163.980     580.620E-03     580.620E-03    -954.680E-03    -954.680E-03
             673         164.008         164.008     568.842E-03     568.842E-03    -876.432E-03    -876.432E-03
             674         164.035         164.035     551.255E-03     551.255E-03    -802.741E-03    -802.741E-03
             675         164.061         164.061     529.418E-03     529.418E-03    -733.428E-03    -733.428E-03
             676         164.086         164.086     504.628E-03     504.628E-03    -668.327E-03    -668.327E-03
             677         164.109         164.109     477.959E-03     477.959E-03    -607.276E-03    -607.276E-03
             678         164.130         164.130     450.293E-03     450.293E-03    -550.111E-03    -550.111E-03
             679         164.150         164.150     422.350E-03     422.350E-03    -496.666E-03    -496.666E-03
             680         164.167         164.167     394.711E-03     394.711E-03    -446.764E-03    -446.764E-03
             681         164.183         164.183     367.844E-03     367.844E-03    -400.219E-03    -400.219E-03
             682         164.197         164.197     342.121E-03     342.121E-03    -356.836E-03    -356.836E-03
             683         164.209         164.209     317.833E-03     317.833E-03    -316.408E-03    -316.408E-03
             684         164.220         164.220     295.208E-03     295.208E-03    -278.720E-03    -278.720E-03
             685         164.230         164.230     274.420E-03     274.420E-03    -243.546E-03    -243.546E-03
             686         164.238         164.238     255.601E-03     255.601E-03    -210.654E-03    -210.654E-03
             687         164.245         164.245     238.849E-03     238.849E-03    -179.805E-03    -179.805E-03
             688         164.250         164.250     224.235E-03     224.235E-03    -150.753E-03    -150.753E-03
             689         164.255         164.255     211.809E-03     211.809E-03    -123.249E-03    -123.249E-03
             690         164.259         164.259     201.608E-03     201.608E-03    -97.0389E-03    -97.0389E-03
             691         164.262         164.262     193.655E-03     193.655E-03    -71.8681E-03    -71.8681E-03
             692         164.264         164.264     187.966E-03     187.966E-03    -47.4784E-03    -47.4784E-03
             693         164.265         164.265     184.544E-03     184.544E-03    -23.6773E-03    -23.6773E-03
             694         170.295         170.295        -3.83382        -3.83382     355.277E-03     355.277E-03
             695         169.439         169.439        -3.82258        -3.82258    -454.265E-03    -454.265E-03
             696         168.571         168.571        -3.56226        -3.56226        -1.07038        -1.07038
             697         167.752         167.752        -3.15748        -3.15748        -1.50952        -1.50952
             698         167.017         167.017        -2.68362        -2.68362        -1.79678        -1.79678
             699         166.387         166.387        -2.19663        -2.19663        -1.96297        -1.96297
             700         165.862         165.862        -1.73169        -1.73169        -2.03912        -2.03912
             701         165.436         165.436        -1.30863        -1.30863        -2.05129        -2.05129
             702         165.099         165.099    -936.554E-03    -936.554E-03        -2.02003        -2.02003
             703         164.837         164.837    -617.717E-03    -617.717E-03        -1.96026        -1.96026
             704         164.636         164.636    -350.422E-03    -350.422E-03        -1.88261        -1.88261
             705         164.487         164.487    -130.743E-03    -130.743E-03        -1.79433        -1.79433
             706         164.377         164.377     46.2435E-03     46.2435E-03        -1.70031        -1.70031
             707         164.299         164.299     185.813E-03     185.813E-03        -1.60380        -1.60380
             708         164.246         164.246     293.139E-03     293.139E-03        -1.50693        -1.50693
             709         164.211         164.211     373.095E-03     373.095E-03        -1.41111        -1.41111
             710         164.190         164.190     430.112E-03     430.112E-03        -1.31728        -1.31728
             711         164.180         164.180     468.151E-03     468.151E-03        -1.22608        -1.22608
             712         164.176         164.176     490.684E-03     490.684E-03        -1.13792        -1.13792
             713         164.178         164.178     500.723E-03     500.723E-03        -1.05312        -1.05312
             714         164.184         164.184     500.852E-03     500.852E-03    -971.886E-03    -971.886E-03
             715         164.191         164.191     493.264E-03     493.264E-03    -894.367E-03    -894.367E-03
             716         164.200         164.200     479.809E-03     479.809E-03    -820.652E-03    -820.652E-03
             717         164.209         164.209     462.032E-03     462.032E-03    -750.788E-03    -750.788E-03
             718         164.218         164.218     441.217E-03     441.217E-03    -684.783E-03    -684.783E-03
             719         164.227         164.227     418.419E-03     418.419E-03    -622.605E-03    -622.605E-03
             720         164.235         164.235     394.504E-03     394.504E-03    -564.190E-03    -564.190E-03
             721         164.243         164.243     370.171E-03     370.171E-03    -509.443E-03    -509.443E-03
             722         164.249         164.249     345.985E-03     345.985E-03    -458.240E-03    -458.240E-03
             723         164.255         164.255     322.396E-03     322.396E-03    -410.431E-03    -410.431E-03
             724         164.261         164.261     299.759E-03     299.759E-03    -365.844E-03    -365.844E-03
             725         164.265         164.265     278.352E-03     278.352E-03    -324.288E-03    -324.288E-03
             726         164.269         164.269     258.391E-03     258.391E-03    -285.552E-03    -285.552E-03
             727         164.272         164.272     240.038E-03     240.038E-03    -249.415E-03    -249.415E-03
             728         164.275         164.275     223.417E-03     223.417E-03    -215.641E-03    -215.641E-03
             729         164.277         164.277     208.618E-03     208.618E-03    -183.988E-03    -183.988E-03
             730         164.279         164.279     195.706E-03     195.706E-03    -154.201E-03    -154.201E-03
             731         164.281         164.281     184.728E-03     184.728E-03    -126.025E-03    -126.025E-03
             732         164.282         164.282     175.715E-03     175.715E-03    -99.1954E-03    -99.1954E-03
             733         164.283         164.283     168.688E-03     168.688E-03    -73.4474E-03    -73.4474E-03
             734         164.283         164.283     163.662E-03     163.662E-03    -48.5128E-03    -48.5128E-03
             735         164.284         164.284     160.639E-03     160.639E-03    -24.1934E-03    -24.1934E-03
             736         169.859         169.859        -2.98680        -2.98680         1.03652         1.03652
             737         169.278         169.278        -3.12647        -3.12647     301.014E-03     301.014E-03
             738         168.633         168.633        -3.02622        -3.02622    -315.120E-03    -315.120E-03
             739         167.986         167.986        -2.76903        -2.76903    -800.408E-03    -800.408E-03
             740         167.375         167.375        -2.42247        -2.42247        -1.16241        -1.16241
             741         166.823         166.823        -2.03698        -2.03698        -1.41651        -1.41651
             742         166.342         166.342        -1.64919        -1.64919        -1.58183        -1.58183
             743         165.935         165.935        -1.28246        -1.28246        -1.67755        -1.67755
             744         165.598         165.598    -950.330E-03    -950.330E-03        -1.72036        -1.72036
             745         165.323         165.323    -659.151E-03    -659.151E-03        -1.72404        -1.72404
             746         165.103         165.103    -410.541E-03    -410.541E-03        -1.69925        -1.69925
             747         164.928         164.928    -203.153E-03    -203.153E-03        -1.65413        -1.65413
             748         164.792         164.792    -33.9118E-03    -33.9118E-03        -1.59473        -1.59473
             749         164.685         164.685     101.114E-03     101.114E-03        -1.52559        -1.52559
             750         164.603         164.603     206.181E-03     206.181E-03        -1.45005        -1.45005
             751         164.541         164.541     285.513E-03     285.513E-03        -1.37062        -1.37062
             752         164.493         164.493     343.104E-03     343.104E-03        -1.28921        -1.28921
             753         164.456         164.456     382.600E-03     382.600E-03        -1.20725        -1.20725
             754         164.429         164.429     407.256E-03     407.256E-03        -1.12587        -1.12587
             755         164.407         164.407     419.919E-03     419.919E-03        -1.04593        -1.04593
             756         164.391         164.391     423.048E-03     423.048E-03    -968.085E-03    -968.085E-03
             757         164.378         164.378     418.738E-03     418.738E-03    -892.852E-03    -892.852E-03
             758         164.368         164.368     408.757E-03     408.757E-03    -820.604E-03    -820.604E-03
             759         164.360         164.360     394.578E-03     394.578E-03    -751.614E-03    -751.614E-03
             760         164.353         164.353     377.425E-03     377.425E-03    -686.060E-03    -686.060E-03
             761         164.347         164.347     358.299E-03     358.299E-03    -624.043E-03    -624.043E-03
             762         164.341         164.341     338.019E-03     338.019E-03    -565.600E-03    -565.600E-03
             763         164.337         164.337     317.243E-03     317.243E-03    -510.708E-03    -510.708E-03
             764         164.332         164.332     296.500E-03     296.500E-03    -459.296E-03    -459.296E-03
             765         164.328         164.328     276.208E-03     276.208E-03    -411.253E-03    -411.253E-03
             766         164.324         164.324     256.698E-03     256.698E-03    -366.433E-03    -366.433E-03
             767         164.321         164.321     238.226E-03     238.226E-03    -324.662E-03    -324.662E-03
             768         164.317         164.317     220.986E-03     220.986E-03    -285.741E-03    -285.741E-03
             769         164.314         164.314     205.128E-03     205.128E-03    -249.453E-03    -249.453E-03
             770         164.312         164.312     190.763E-03     190.763E-03    -215.565E-03    -215.565E-03
             771         164.309         164.309     177.972E-03     177.972E-03    -183.832E-03    -183.832E-03
             772         164.307         164.307     166.811E-03     166.811E-03    -154.001E-03    -154.001E-03
             773         164.305         164.305     157.323E-03     157.323E-03    -125.810E-03    -125.810E-03
             774         164.303         164.303     149.534E-03     149.534E-03    -98.9915E-03    -98.9915E-03
             775         164.302         164.302     143.462E-03     143.462E-03    -73.2756E-03    -73.2756E-03
             776         164.301         164.301     139.119E-03     139.119E-03    -48.3892E-03    -48.3892E-03
             777         164.301         164.301     136.507E-03     136.507E-03    -24.1324E-03    -24.1324E-03
             778         169.349         169.349        -2.26617        -2.26617         1.45852         1.45852
             779         168.984         168.984        -2.47951        -2.47951     825.204E-03     825.204E-03
             780         168.536         168.536        -2.48355        -2.48355     251.448E-03     251.448E-03
             781         168.052         168.052        -2.33775        -2.33775    -237.269E-03    -237.269E-03
             782         167.570         167.570        -2.09605        -2.09605    -632.867E-03    -632.867E-03
             783         167.113         167.113        -1.80291        -1.80291    -938.954E-03    -938.954E-03
             784         166.697         166.697        -1.49172        -1.49172        -1.16473        -1.16473
             785         166.331         166.331        -1.18631        -1.18631        -1.32207        -1.32207
             786         166.014         166.014    -901.890E-03    -901.890E-03        -1.42317        -1.42317
             787         165.746         165.746    -647.144E-03    -647.144E-03        -1.47921        -1.47921
             788         165.521         165.521    -425.932E-03    -425.932E-03        -1.49985        -1.49985
             789         165.335         165.335    -238.864E-03    -238.864E-03        -1.49310        -1.49310
             790         165.180         165.180    -84.4633E-03    -84.4633E-03        -1.46547        -1.46547
             791         165.054         165.054     39.9619E-03     39.9619E-03        -1.42216        -1.42216
             792         164.949         164.949     137.707E-03     137.707E-03        -1.36737        -1.36737
             793         164.863         164.863     212.272E-03     212.272E-03        -1.30441        -1.30441
             794         164.791         164.791     267.092E-03     267.092E-03        -1.23594        -1.23594
             795         164.731         164.731     305.390E-03     305.390E-03        -1.16408        -1.16408
             796         164.680         164.680     330.083E-03     330.083E-03        -1.09053        -1.09053
             797         164.636         164.636     343.756E-03     343.756E-03        -1.01664        -1.01664
             798         164.599         164.599     348.653E-03     348.653E-03    -943.459E-03    -943.459E-03
             799         164.566         164.566     346.692E-03     346.692E-03    -871.830E-03    -871.830E-03
             800         164.537         164.537     339.493E-03     339.493E-03    -802.385E-03    -802.385E-03
             801         164.511         164.511     328.408E-03     328.408E-03    -735.595E-03    -735.595E-03
             802         164.488         164.488     314.554E-03     314.554E-03    -671.796E-03    -671.796E-03
             803         164.466         164.466     298.848E-03     298.848E-03    -611.210E-03    -611.210E-03
             804         164.447         164.447     282.030E-03     282.030E-03    -553.962E-03    -553.962E-03
             805         164.430         164.430     264.699E-03     264.699E-03    -500.098E-03    -500.098E-03
             806         164.414         164.414     247.330E-03     247.330E-03    -449.597E-03    -449.597E-03
             807         164.400         164.400     230.298E-03     230.298E-03    -402.383E-03    -402.383E-03
             808         164.386         164.386     213.898E-03     213.898E-03    -358.336E-03    -358.336E-03
             809         164.374         164.374     198.355E-03     198.355E-03    -317.300E-03    -317.300E-03
             810         164.364         164.364     183.844E-03     183.844E-03    -279.088E-03    -279.088E-03
             811         164.354         164.354     170.492E-03     170.492E-03    -243.492E-03    -243.492E-03
             812         164.346         164.346     158.397E-03     158.397E-03    -210.284E-03    -210.284E-03
             813         164.338         164.338     147.627E-03     147.627E-03    -179.224E-03    -179.224E-03
             814         164.332         164.332     138.232E-03     138.232E-03    -150.059E-03    -150.059E-03
             815         164.327         164.327     130.246E-03     130.246E-03    -122.530E-03    -122.530E-03
             816         164.322         164.322     123.691E-03     123.691E-03    -96.3714E-03    -96.3714E-03
             817         164.319         164.319     118.582E-03     118.582E-03    -71.3125E-03    -71.3125E-03
             818         164.317         164.317     114.928E-03     114.928E-03    -47.0815E-03    -47.0815E-03
             819         164.315         164.315     112.731E-03     112.731E-03    -23.4815E-03    -23.4815E-03
             820         168.834         168.834        -1.67687        -1.67687         1.68761         1.68761
             821         168.635         168.635        -1.90853        -1.90853         1.15983         1.15983
             822         168.351         168.351        -1.96943        -1.96943     648.182E-03     648.182E-03
             823         168.015         168.015        -1.89953        -1.89953     184.386E-03     184.386E-03
             824         167.657         167.657        -1.73921        -1.73921    -215.062E-03    -215.062E-03
             825         167.301         167.301        -1.52422        -1.52422    -544.344E-03    -544.344E-03
             826         166.961         166.961        -1.28361        -1.28361    -805.042E-03    -805.042E-03
             827         166.647         166.647        -1.03893        -1.03893        -1.00275        -1.00275
             828         166.365         166.365    -805.225E-03    -805.225E-03        -1.14514        -1.14514
             829         166.116         166.116    -591.798E-03    -591.798E-03        -1.24049        -1.24049
             830         165.899         165.899    -403.669E-03    -403.669E-03        -1.29679        -1.29679
             831         165.710         165.710    -242.667E-03    -242.667E-03        -1.32131        -1.32131
             832         165.546         165.546    -108.486E-03    -108.486E-03        -1.32042        -1.32042
             833         165.405         165.405     537.658E-06     537.658E-06        -1.29958        -1.29958
             834         165.283         165.283     86.8296E-03     86.8296E-03        -1.26341        -1.26341
             835         165.176         165.176     153.159E-03     153.159E-03        -1.21574        -1.21574
             836         165.083         165.083     202.360E-03     202.360E-03        -1.15975        -1.15975
             837         165.001         165.001     237.157E-03     237.157E-03        -1.09808        -1.09808
             838         164.928         164.928     260.058E-03     260.058E-03        -1.03284        -1.03284
             839         164.863         164.863     273.302E-03     273.302E-03    -965.765E-03    -965.765E-03
             840         164.804         164.804     278.847E-03     278.847E-03    -898.232E-03    -898.232E-03
             841         164.751         164.751     278.374E-03     278.374E-03    -831.325E-03    -831.325E-03
             842         164.703         164.703     273.300E-03     273.300E-03    -765.885E-03    -765.885E-03
             843         164.660         164.660     264.810E-03     264.810E-03    -702.546E-03    -702.546E-03
             844         164.620         164.620     253.880E-03     253.880E-03    -641.769E-03    -641.769E-03
             845         164.583         164.583     241.309E-03     241.309E-03    -583.871E-03    -583.871E-03
             846         164.550         164.550     227.742E-03     227.742E-03    -529.049E-03    -529.049E-03
             847         164.520         164.520     213.694E-03     213.694E-03    -477.405E-03    -477.405E-03
             848         164.493         164.493     199.576E-03     199.576E-03    -428.958E-03    -428.958E-03
             849         164.468         164.468     185.710E-03     185.710E-03    -383.663E-03    -383.663E-03
             850         164.445         164.445     172.345E-03     172.345E-03    -341.422E-03    -341.422E-03
             851         164.425         164.425     159.674E-03     159.674E-03    -302.095E-03    -302.095E-03
             852         164.407         164.407     147.841E-03     147.841E-03    -265.511E-03    -265.511E-03
             853         164.391         164.391     136.955E-03     136.955E-03    -231.470E-03    -231.470E-03
             854         164.377         164.377     127.095E-03     127.095E-03    -199.755E-03    -199.755E-03
             855         164.364         164.364     118.319E-03     118.319E-03    -170.131E-03    -170.131E-03
             856         164.354         164.354     110.664E-03     110.664E-03    -142.356E-03    -142.356E-03
             857         164.345         164.345     104.160E-03     104.160E-03    -116.175E-03    -116.175E-03
             858         164.338         164.338     98.8220E-03     98.8220E-03    -91.3288E-03    -91.3288E-03
             859         164.333         164.333     94.6625E-03     94.6625E-03    -67.5551E-03    -67.5551E-03
             860         164.329         164.329     91.6878E-03     91.6878E-03    -44.5884E-03    -44.5884E-03
             861         164.326         164.326     89.9001E-03     89.9001E-03    -22.2402E-03    -22.2402E-03
             862         168.348         168.348        -1.20634        -1.20634         1.77290         1.77290
             863         168.280         168.280        -1.42038        -1.42038         1.34150         1.34150
             864         168.132         168.132        -1.50293        -1.50293     898.154E-03     898.154E-03
             865         167.926         167.926        -1.47921        -1.47921     474.934E-03     474.934E-03
             866         167.685         167.685        -1.37782        -1.37782     92.6312E-03     92.6312E-03
             867         167.427         167.427        -1.22598        -1.22598    -237.592E-03    -237.592E-03
             868         167.166         167.166        -1.04693        -1.04693    -511.557E-03    -511.557E-03
             869         166.912         166.912    -858.988E-03    -858.988E-03    -730.093E-03    -730.093E-03
             870         166.672         166.672    -675.375E-03    -675.375E-03    -897.018E-03    -897.018E-03
             871         166.450         166.450    -504.917E-03    -504.917E-03        -1.01784        -1.01784
             872         166.246         166.246    -352.741E-03    -352.741E-03        -1.09874        -1.09874
             873         166.061         166.061    -221.227E-03    -221.227E-03        -1.14595        -1.14595
             874         165.894         165.894    -110.763E-03    -110.763E-03        -1.16535        -1.16535
             875         165.742         165.742    -20.4378E-03    -20.4378E-03        -1.16229        -1.16229
             876         165.605         165.605     51.4478E-03     51.4478E-03        -1.14147        -1.14147
             877         165.481         165.481     106.994E-03     106.994E-03        -1.10698        -1.10698
             878         165.368         165.368     148.437E-03     148.437E-03        -1.06229        -1.06229
             879         165.264         165.264     177.972E-03     177.972E-03        -1.01031        -1.01031
             880         165.170         165.170     197.652E-03     197.652E-03    -953.450E-03    -953.450E-03
             881         165.083         165.083     209.323E-03     209.323E-03    -893.668E-03    -893.668E-03
             882         165.004         165.004     214.608E-03     214.608E-03    -832.551E-03    -832.551E-03
             883         164.931         164.931     214.902E-03     214.902E-03    -771.352E-03    -771.352E-03
             884         164.864         164.864     211.383E-03     211.383E-03    -711.045E-03    -711.045E-03
             885         164.803         164.803     205.035E-03     205.035E-03    -652.370E-03    -652.370E-03
             886         164.746         164.746     196.667E-03     196.667E-03    -595.870E-03    -595.870E-03
             887         164.695         164.695     186.937E-03     186.937E-03    -541.925E-03    -541.925E-03
             888         164.648         164.648     176.377E-03     176.377E-03    -490.780E-03    -490.780E-03
             889         164.605         164.605     165.409E-03     165.409E-03    -442.571E-03    -442.571E-03
             890         164.566         164.566     154.368E-03     154.368E-03    -397.347E-03    -397.347E-03
             891         164.530         164.530     143.516E-03     143.516E-03    -355.085E-03    -355.085E-03
             892         164.499         164.499     133.053E-03     133.053E-03    -315.704E-03    -315.704E-03
             893         164.470         164.470     123.134E-03     123.134E-03    -279.081E-03    -279.081E-03
             894         164.445         164.445     113.873E-03     113.873E-03    -245.056E-03    -245.056E-03
             895         164.422         164.422     105.357E-03     105.357E-03    -213.444E-03    -213.444E-03
             896         164.403         164.403     97.6470E-03     97.6470E-03    -184.038E-03    -184.038E-03
             897         164.386         164.386     90.7871E-03     90.7871E-03    -156.618E-03    -156.618E-03
             898         164.371         164.371     84.8074E-03     84.8074E-03    -130.952E-03    -130.952E-03
             899         164.359         164.359     79.7277E-03     79.7277E-03    -106.798E-03    -106.798E-03
             900         164.349         164.349     75.5608E-03     75.5608E-03    -83.9109E-03    -83.9109E-03
             901         164.342         164.342     72.3144E-03     72.3144E-03    -62.0409E-03    -62.0409E-03
             902         164.337         164.337     69.9931E-03     69.9931E-03    -40.9356E-03    -40.9356E-03
             903         164.333         164.333     68.5988E-03     68.5988E-03    -20.4220E-03    -20.4220E-03
             904         167.908         167.908    -835.536E-03    -835.536E-03         1.74520         1.74520
             905         167.949         167.949        -1.01184        -1.01184         1.39701         1.39701
             906         167.918         167.918        -1.09236        -1.09236         1.02095         1.02095
             907         167.829         167.829        -1.09248        -1.09248     646.702E-03     646.702E-03
             908         167.695         167.695        -1.03134        -1.03134     295.777E-03     295.777E-03
             909         167.530         167.530    -928.446E-03    -928.446E-03    -17.8896E-03    -17.8896E-03
             910         167.346         167.346    -801.262E-03    -801.262E-03    -286.866E-03    -286.866E-03
             911         167.153         167.153    -664.024E-03    -664.024E-03    -508.590E-03    -508.590E-03
             912         166.958         166.958    -527.484E-03    -527.484E-03    -684.055E-03    -684.055E-03
             913         166.765         166.765    -399.017E-03    -399.017E-03    -816.491E-03    -816.491E-03
             914         166.578         166.578    -283.204E-03    -283.204E-03    -910.439E-03    -910.439E-03
             915         166.400         166.400    -182.362E-03    -182.362E-03    -971.018E-03    -971.018E-03
             916         166.230         166.230    -97.1841E-03    -97.1841E-03        -1.00343        -1.00343
             917         166.070         166.070    -27.2292E-03    -27.2292E-03        -1.01266        -1.01266
             918         165.919         165.919     28.6381E-03     28.6381E-03        -1.00327        -1.00327
             919         165.777         165.777     71.9378E-03     71.9378E-03    -979.302E-03    -979.302E-03
             920         165.644         165.644     104.343E-03     104.343E-03    -944.282E-03    -944.282E-03
             921         165.520         165.520     127.529E-03     127.529E-03    -901.201E-03    -901.201E-03
             922         165.404         165.404     143.075E-03     143.075E-03    -852.556E-03    -852.556E-03
             923         165.296         165.296     152.414E-03     152.414E-03    -800.402E-03    -800.402E-03
             924         165.196         165.196     156.807E-03     156.807E-03    -746.397E-03    -746.397E-03
             925         165.103         165.103     157.339E-03     157.339E-03    -691.859E-03    -691.859E-03
             926         165.017         165.017     154.929E-03     154.929E-03    -637.812E-03    -637.812E-03
             927         164.938         164.938     150.339E-03     150.339E-03    -585.034E-03    -585.034E-03
             928         164.865         164.865     144.196E-03     144.196E-03    -534.097E-03    -534.097E-03
             929         164.798         164.798     137.009E-03     137.009E-03    -485.406E-03    -485.406E-03
             930         164.737         164.737     129.186E-03     129.186E-03    -439.222E-03    -439.222E-03
             931         164.682         164.682     121.051E-03     121.051E-03    -395.698E-03    -395.698E-03
             932         164.631         164.631     112.859E-03     112.859E-03    -354.895E-03    -354.895E-03
             933         164.586         164.586     104.808E-03     104.808E-03    -316.803E-03    -316.803E-03
             934         164.545         164.545     97.0494E-03     97.0494E-03    -281.354E-03    -281.354E-03
             935         164.508         164.508     89.6980E-03     89.6980E-03    -248.437E-03    -248.437E-03
             936         164.476         164.476     82.8397E-03     82.8397E-03    -217.908E-03    -217.908E-03
             937         164.447         164.447     76.5372E-03     76.5372E-03    -189.595E-03    -189.595E-03
             938         164.422         164.422     70.8354E-03     70.8354E-03    -163.309E-03    -163.309E-03
             939         164.401         164.401     65.7656E-03     65.7656E-03    -138.847E-03    -138.847E-03
             940         164.383         164.383     61.3492E-03     61.3492E-03    -115.993E-03    -115.993E-03
             941         164.367         164.367     57.5996E-03     57.5996E-03    -94.5274E-03    -94.5274E-03
             942         164.355         164.355     54.5249E-03     54.5249E-03    -74.2230E-03    -74.2230E-03
             943         164.346         164.346     52.1301E-03     52.1301E-03    -54.8502E-03    -54.8502E-03
             944         164.339         164.339     50.4175E-03     50.4175E-03    -36.1783E-03    -36.1783E-03
             945         164.335         164.335     49.3896E-03     49.3896E-03    -18.0541E-03    -18.0541E-03
             946         167.524         167.524    -546.146E-03    -546.146E-03         1.61888         1.61888
             947         167.665         167.665    -675.959E-03    -675.959E-03         1.34176         1.34176
             948         167.742         167.742    -740.842E-03    -740.842E-03         1.03017         1.03017
             949         167.758         167.758    -749.667E-03    -749.667E-03     709.996E-03     709.996E-03
             950         167.723         167.723    -714.612E-03    -714.612E-03     401.445E-03     401.445E-03
             951         167.646         167.646    -648.667E-03    -648.667E-03     118.805E-03     118.805E-03
             952         167.535         167.535    -563.903E-03    -563.903E-03    -129.038E-03    -129.038E-03
             953         167.399         167.399    -470.488E-03    -470.488E-03    -337.785E-03    -337.785E-03
             954         167.245         167.245    -376.248E-03    -376.248E-03    -506.591E-03    -506.591E-03
             955         167.081         167.081    -286.746E-03    -286.746E-03    -637.100E-03    -637.100E-03
             956         166.910         166.910    -205.500E-03    -205.500E-03    -732.529E-03    -732.529E-03
             957         166.736         166.736    -134.419E-03    -134.419E-03    -796.977E-03    -796.977E-03
             958         166.563         166.563    -74.1705E-03    -74.1705E-03    -834.894E-03    -834.894E-03
             959         166.392         166.392    -24.5784E-03    -24.5784E-03    -850.711E-03    -850.711E-03
             960         166.226         166.226     15.0864E-03     15.0864E-03    -848.608E-03    -848.608E-03
             961         166.066         166.066     45.8563E-03     45.8563E-03    -832.370E-03    -832.370E-03
             962         165.913         165.913     68.8990E-03     68.8990E-03    -805.325E-03    -805.325E-03
             963         165.767         165.767     85.3973E-03     85.3973E-03    -770.329E-03    -770.329E-03
             964         165.629         165.629     96.4743E-03     96.4743E-03    -729.778E-03    -729.778E-03
             965         165.499         165.499     103.152E-03     103.152E-03    -685.647E-03    -685.647E-03
             966         165.377         165.377     106.332E-03     106.332E-03    -639.532E-03    -639.532E-03
             967         165.264         165.264     106.787E-03     106.787E-03    -592.697E-03    -592.697E-03
             968         165.159         165.159     105.173E-03     105.173E-03    -546.127E-03    -546.127E-03
             969         165.062         165.062     102.030E-03     102.030E-03    -500.565E-03    -500.565E-03
             970         164.973         164.973     97.8036E-03     97.8036E-03    -456.558E-03    -456.558E-03
             971         164.891         164.891     92.8525E-03     92.8525E-03    -414.489E-03    -414.489E-03
             972         164.816         164.816     87.4633E-03     87.4633E-03    -374.610E-03    -374.610E-03
             973         164.748         164.748     81.8631E-03     81.8631E-03    -337.064E-03    -337.064E-03
             974         164.687         164.687     76.2286E-03     76.2286E-03    -301.913E-03    -301.913E-03
             975         164.632         164.632     70.6969E-03     70.6969E-03    -269.148E-03    -269.148E-03
             976         164.582         164.582     65.3720E-03     65.3720E-03    -238.712E-03    -238.712E-03
             977         164.538         164.538     60.3324E-03     60.3324E-03    -210.506E-03    -210.506E-03
             978         164.499         164.499     55.6359E-03     55.6359E-03    -184.400E-03    -184.400E-03
             979         164.465         164.465     51.3243E-03     51.3243E-03    -160.243E-03    -160.243E-03
             980         164.435         164.435     47.4275E-03     47.4275E-03    -137.866E-03    -137.866E-03
             981         164.409         164.409     43.9657E-03     43.9657E-03    -117.088E-03    -117.088E-03
             982         164.387         164.387     40.9523E-03     40.9523E-03    -97.7201E-03    -97.7201E-03
             983         164.369         164.369     38.3959E-03     38.3959E-03    -79.5673E-03    -79.5673E-03
             984         164.355         164.355     36.3008E-03     36.3008E-03    -62.4316E-03    -62.4316E-03
             985         164.344         164.344     34.6686E-03     34.6686E-03    -46.1106E-03    -46.1106E-03
             986         164.336         164.336     33.5013E-03     33.5013E-03    -30.4013E-03    -30.4013E-03
             987         164.331         164.331     32.8010E-03     32.8010E-03    -15.1806E-03    -15.1806E-03
             988         167.201         167.201    -323.798E-03    -323.798E-03         1.39428         1.39428
             989         167.447         167.447    -406.926E-03    -406.926E-03         1.18018         1.18018
             990         167.630         167.630    -450.509E-03    -450.509E-03     932.289E-03     932.289E-03
             991         167.749         167.749    -459.386E-03    -459.386E-03     671.910E-03     671.910E-03
             992         167.807         167.807    -440.607E-03    -440.607E-03     416.392E-03     416.392E-03
             993         167.810         167.810    -401.987E-03    -401.987E-03     178.692E-03     178.692E-03
             994         167.764         167.764    -350.970E-03    -350.970E-03    -32.6263E-03    -32.6263E-03
             995         167.679         167.679    -293.938E-03    -293.938E-03    -212.830E-03    -212.830E-03
             996         167.561         167.561    -235.910E-03    -235.910E-03    -360.318E-03    -360.318E-03
             997         167.418         167.418    -180.479E-03    -180.479E-03    -475.780E-03    -475.780E-03
             998         167.256         167.256    -129.982E-03    -129.982E-03    -561.481E-03    -561.481E-03
             999         167.082         167.082    -85.6978E-03    -85.6978E-03    -620.615E-03    -620.615E-03
            1000         166.900         166.900    -48.1211E-03    -48.1211E-03    -656.821E-03    -656.821E-03
            1001         166.716         166.716    -17.1787E-03    -17.1787E-03    -673.827E-03    -673.827E-03
            1002         166.531         166.531     7.55903E-03     7.55903E-03    -675.207E-03    -675.207E-03
            1003         166.349         166.349     26.7309E-03     26.7309E-03    -664.232E-03    -664.232E-03
            1004         166.173         166.173     41.0664E-03     41.0664E-03    -643.799E-03    -643.799E-03
            1005         166.003         166.003     51.3096E-03     51.3096E-03    -616.396E-03    -616.396E-03
            1006         165.841         165.841     58.1689E-03     58.1689E-03    -584.119E-03    -584.119E-03
            1007         165.688         165.688     62.2884E-03     62.2884E-03    -548.688E-03    -548.688E-03
            1008         165.544         165.544     64.2356E-03     64.2356E-03    -511.492E-03    -511.492E-03
            1009         165.410         165.410     64.4973E-03     64.4973E-03    -473.628E-03    -473.628E-03
            1010         165.286         165.286     63.4832E-03     63.4832E-03    -435.944E-03    -435.944E-03
            1011         165.171         165.171     61.5323E-03     61.5323E-03    -399.079E-03    -399.079E-03
            1012         165.066         165.066     58.9208E-03     58.9208E-03    -363.497E-03    -363.497E-03
            1013         164.969         164.969     55.8714E-03     55.8714E-03    -329.524E-03    -329.524E-03
            1014         164.882         164.882     52.5608E-03     52.5608E-03    -297.367E-03    -297.367E-03
            1015         164.802         164.802     49.1283E-03     49.1283E-03    -267.148E-03    -267.148E-03
            1016         164.730         164.730     45.6819E-03     45.6819E-03    -238.911E-03    -238.911E-03
            1017         164.666         164.666     42.3045E-03     42.3045E-03    -212.649E-03    -212.649E-03
            1018         164.609         164.609     39.0588E-03     39.0588E-03    -188.309E-03    -188.309E-03
            1019         164.557         164.557     35.9918E-03     35.9918E-03    -165.806E-03    -165.806E-03
            1020         164.512         164.512     33.1375E-03     33.1375E-03    -145.031E-03    -145.031E-03
            1021         164.473         164.473     30.5205E-03     30.5205E-03    -125.855E-03    -125.855E-03
            1022         164.439         164.439     28.1580E-03     28.1580E-03    -108.137E-03    -108.137E-03
            1023         164.409         164.409     26.0613E-03     26.0613E-03    -91.7280E-03    -91.7280E-03
            1024         164.384         164.384     24.2379E-03     24.2379E-03    -76.4710E-03    -76.4710E-03
            1025         164.364         164.364     22.6922E-03     22.6922E-03    -62.2053E-03    -62.2053E-03
            1026         164.347         164.347     21.4273E-03     21.4273E-03    -48.7681E-03    -48.7681E-03
            1027         164.334         164.334     20.4419E-03     20.4419E-03    -35.9969E-03    -35.9969E-03
            1028         164.326         164.326     19.7340E-03     19.7340E-03    -23.7245E-03    -23.7245E-03
            1029         164.320         164.320     19.3092E-03     19.3092E-03    -11.8594E-03    -11.8594E-03
            1030         166.954         166.954    -160.430E-03    -160.430E-03         1.05893         1.05893
            1031         167.318         167.318    -203.416E-03    -203.416E-03     906.526E-03     906.526E-03
            1032         167.614         167.614    -226.472E-03    -226.472E-03     726.957E-03     726.957E-03
            1033         167.836         167.836    -231.880E-03    -231.880E-03     536.077E-03     536.077E-03
            1034         167.984         167.984    -223.101E-03    -223.101E-03     347.025E-03     347.025E-03
            1035         168.059         168.059    -204.036E-03    -204.036E-03     169.835E-03     169.835E-03
            1036         168.070         168.070    -178.468E-03    -178.468E-03     11.3555E-03     11.3555E-03
            1037         168.023         168.023    -149.683E-03    -149.683E-03    -124.484E-03    -124.484E-03
            1038         167.929         167.929    -120.272E-03    -120.272E-03    -236.143E-03    -236.143E-03
            1039         167.796         167.796    -92.1193E-03    -92.1193E-03    -323.923E-03    -323.923E-03
            1040         167.633         167.633    -66.4423E-03    -66.4423E-03    -389.373E-03    -389.373E-03
            1041         167.449         167.449    -43.9247E-03    -43.9247E-03    -434.828E-03    -434.828E-03
            1042         167.250         167.250    -24.8268E-03    -24.8268E-03    -462.997E-03    -462.997E-03
            1043         167.044         167.044    -9.12095E-03    -9.12095E-03    -476.693E-03    -476.693E-03
            1044         166.835         166.835     3.41410E-03     3.41410E-03    -478.624E-03    -478.624E-03
            1045         166.626         166.626     13.1061E-03     13.1061E-03    -471.276E-03    -471.276E-03
            1046         166.423         166.423     20.3320E-03     20.3320E-03    -456.848E-03    -456.848E-03
            1047         166.226         166.226     25.4756E-03     25.4756E-03    -437.230E-03    -437.230E-03
            1048         166.038         166.038     28.9017E-03     28.9017E-03    -414.004E-03    -414.004E-03
            1049         165.861         165.861     30.9419E-03     30.9419E-03    -388.467E-03    -388.467E-03
            1050         165.694         165.694     31.8868E-03     31.8868E-03    -361.656E-03    -361.656E-03
            1051         165.538         165.538     31.9857E-03     31.9857E-03    -334.390E-03    -334.390E-03
            1052         165.395         165.395     31.4469E-03     31.4469E-03    -307.294E-03    -307.294E-03
            1053         165.262         165.262     30.4426E-03     30.4426E-03    -280.836E-03    -280.836E-03
            1054         165.141         165.141     29.1123E-03     29.1123E-03    -255.354E-03    -255.354E-03
            1055         165.031         165.031     27.5682E-03     27.5682E-03    -231.078E-03    -231.078E-03
            1056         164.931         164.931     25.8986E-03     25.8986E-03    -208.155E-03    -208.155E-03
            1057         164.840         164.840     24.1731E-03     24.1731E-03    -186.667E-03    -186.667E-03
            1058         164.759         164.759     22.4450E-03     22.4450E-03    -166.640E-03    -166.640E-03
            1059         164.686         164.686     20.7554E-03     20.7554E-03    -148.061E-03    -148.061E-03
            1060         164.622         164.622     19.1348E-03     19.1348E-03    -130.889E-03    -130.889E-03
            1061         164.565         164.565     17.6059E-03     17.6059E-03    -115.055E-03    -115.055E-03
            1062         164.514         164.514     16.1852E-03     16.1852E-03    -100.478E-03    -100.478E-03
            1063         164.470         164.470     14.8844E-03     14.8844E-03    -87.0595E-03    -87.0595E-03
            1064         164.432         164.432     13.7114E-03     13.7114E-03    -74.6967E-03    -74.6967E-03
            1065         164.400         164.400     12.6715E-03     12.6715E-03    -63.2786E-03    -63.2786E-03
            1066         164.372         164.372     11.7680E-03     11.7680E-03    -52.6907E-03    -52.6907E-03
            1067         164.350         164.350     11.0028E-03     11.0028E-03    -42.8164E-03    -42.8164E-03
            1068         164.332         164.332     10.3770E-03     10.3770E-03    -33.5370E-03    -33.5370E-03
            1069         164.318         164.318     9.89270E-03     9.89270E-03    -24.7346E-03    -24.7346E-03
            1070         164.308         164.308     9.54259E-03     9.54259E-03    -16.2960E-03    -16.2960E-03
            1071         164.302         164.302     9.32483E-03     9.32483E-03    -8.17259E-03    -8.17259E-03
            1072         166.802         166.802    -56.3585E-03    -56.3585E-03     591.021E-03     591.021E-03
            1073         167.310         167.310    -71.7332E-03    -71.7332E-03     508.305E-03     508.305E-03
            1074         167.735         167.735    -80.0374E-03    -80.0374E-03     410.136E-03     410.136E-03
            1075         168.064         168.064    -82.0844E-03    -82.0844E-03     305.386E-03     305.386E-03
            1076         168.297         168.297    -79.0650E-03    -79.0650E-03     201.372E-03     201.372E-03
            1077         168.435         168.435    -72.3540E-03    -72.3540E-03     103.720E-03     103.720E-03
            1078         168.486         168.486    -63.3084E-03    -63.3084E-03     16.2991E-03     16.2991E-03
            1079         168.462         168.462    -53.0969E-03    -53.0969E-03    -58.6427E-03    -58.6427E-03
            1080         168.374         168.374    -42.6586E-03    -42.6586E-03    -120.224E-03    -120.224E-03
            1081         168.234         168.234    -32.6638E-03    -32.6638E-03    -168.587E-03    -168.587E-03
            1082         168.055         168.055    -23.5556E-03    -23.5556E-03    -204.599E-03    -204.599E-03
            1083         167.846         167.846    -15.5752E-03    -15.5752E-03    -229.561E-03    -229.561E-03
            1084         167.619         167.619    -8.81760E-03    -8.81760E-03    -244.997E-03    -244.997E-03
            1085         167.380         167.380    -3.27025E-03    -3.27025E-03    -252.476E-03    -252.476E-03
            1086         167.137         167.137     1.14733E-03     1.14733E-03    -253.515E-03    -253.515E-03
            1087         166.896         166.896     4.55379E-03     4.55379E-03    -249.498E-03    -249.498E-03
            1088         166.660         166.660     7.08554E-03     7.08554E-03    -241.646E-03    -241.646E-03
            1089         166.432         166.432     8.88024E-03     8.88024E-03    -231.003E-03    -231.003E-03
            1090         166.216         166.216     10.0691E-03     10.0691E-03    -218.440E-03    -218.440E-03
            1091         166.012         166.012     10.7703E-03     10.7703E-03    -204.665E-03    -204.665E-03
            1092         165.821         165.821     11.0877E-03     11.0877E-03    -190.243E-03    -190.243E-03
            1093         165.644         165.644     11.1095E-03     11.1095E-03    -175.616E-03    -175.616E-03
            1094         165.481         165.481     10.9096E-03     10.9096E-03    -161.118E-03    -161.118E-03
            1095         165.331         165.331     10.5487E-03     10.5487E-03    -146.999E-03    -146.999E-03
            1096         165.195         165.195     10.0757E-03     10.0757E-03    -133.435E-03    -133.435E-03
            1097         165.072         165.072     9.52986E-03     9.52986E-03    -120.546E-03    -120.546E-03
            1098         164.960         164.960     8.94206E-03     8.94206E-03    -108.407E-03    -108.407E-03
            1099         164.860         164.860     8.33636E-03     8.33636E-03    -97.0544E-03    -97.0544E-03
            1100         164.771         164.771     7.73123E-03     7.73123E-03    -86.5004E-03    -86.5004E-03
            1101         164.691         164.691     7.14072E-03     7.14072E-03    -76.7340E-03    -76.7340E-03
            1102         164.620         164.620     6.57530E-03     6.57530E-03    -67.7286E-03    -67.7286E-03
            1103         164.558         164.558     6.04270E-03     6.04270E-03    -59.4461E-03    -59.4461E-03
            1104         164.503         164.503     5.54839E-03     5.54839E-03    -51.8392E-03    -51.8392E-03
            1105         164.456         164.456     5.09633E-03     5.09633E-03    -44.8551E-03    -44.8551E-03
            1106         164.415         164.415     4.68903E-03     4.68903E-03    -38.4362E-03    -38.4362E-03
            1107         164.380         164.380     4.32836E-03     4.32836E-03    -32.5224E-03    -32.5224E-03
            1108         164.351         164.351     4.01504E-03     4.01504E-03    -27.0519E-03    -27.0519E-03
            1109         164.327         164.327     3.75025E-03     3.75025E-03    -21.9616E-03    -21.9616E-03
            1110         164.307         164.307     3.53333E-03     3.53333E-03    -17.1882E-03    -17.1882E-03
            1111         164.293         164.293     3.36690E-03     3.36690E-03    -12.6666E-03    -12.6666E-03
            1112         164.282         164.282     3.25133E-03     3.25133E-03    -8.33619E-03    -8.33619E-03
            1113         164.276         164.276     3.16755E-03     3.16755E-03    -4.21223E-03    -4.21223E-03
            1114         167.476         167.476        -6.88000        -6.88000         6.46321         6.46321
            1115         165.433         165.433        -5.36424        -5.36424         6.30204         6.30204
            1116         164.026         164.026        -4.02647        -4.02647         5.81766         5.81766
            1117         163.111         163.111        -2.92477        -2.92477         5.21048         5.21048
            1118         162.550         162.550        -2.04789        -2.04789         4.59295         4.59295
            1119         162.233         162.233        -1.35755        -1.35755         4.01887         4.01887
            1120         162.080         162.080    -816.304E-03    -816.304E-03         3.50904         3.50904
            1121         162.035         162.035    -391.906E-03    -391.906E-03         3.06720         3.06720
            1122         162.061         162.061    -59.5301E-03    -59.5301E-03         2.68922         2.68922
            1123         162.132         162.132     200.058E-03     200.058E-03         2.36780         2.36780
            1124         162.232         162.232     401.360E-03     401.360E-03         2.09484         2.09484
            1125         162.347         162.347     555.583E-03     555.583E-03         1.86261         1.86261
            1126         162.472         162.472     671.394E-03     671.394E-03         1.66417         1.66417
            1127         162.599         162.599     755.685E-03     755.685E-03         1.49358         1.49358
            1128         162.727         162.727     813.992E-03     813.992E-03         1.34585         1.34585
            1129         162.851         162.851     850.871E-03     850.871E-03         1.21687         1.21687
            1130         162.971         162.971     870.109E-03     870.109E-03         1.10330         1.10330
            1131         163.086         163.086     874.904E-03     874.904E-03         1.00244         1.00244
            1132         163.195         163.195     867.978E-03     867.978E-03     912.151E-03     912.151E-03
            1133         163.297         163.297     851.661E-03     851.661E-03     830.724E-03     830.724E-03
            1134         163.393         163.393     827.954E-03     827.954E-03     756.807E-03     756.807E-03
            1135         163.482         163.482     798.579E-03     798.579E-03     689.335E-03     689.335E-03
            1136         163.564         163.564     765.013E-03     765.013E-03     627.462E-03     627.462E-03
            1137         163.640         163.640     728.521E-03     728.521E-03     570.518E-03     570.518E-03
            1138         163.709         163.709     690.182E-03     690.182E-03     517.966E-03     517.966E-03
            1139         163.773         163.773     650.911E-03     650.911E-03     469.365E-03     469.365E-03
            1140         163.831         163.831     611.481E-03     611.481E-03     424.354E-03     424.354E-03
            1141         163.884         163.884     572.536E-03     572.536E-03     382.623E-03     382.623E-03
            1142         163.931         163.931     534.612E-03     534.612E-03     343.902E-03     343.902E-03
            1143         163.974         163.974     498.152E-03     498.152E-03     307.951E-03     307.951E-03
            1144         164.012         164.012     463.515E-03     463.515E-03     274.546E-03     274.546E-03
            1145         164.046         164.046     430.990E-03     430.990E-03     243.477E-03     243.477E-03
            1146         164.076         164.076     400.809E-03     400.809E-03     214.543E-03     214.543E-03
            1147         164.102         164.102     373.153E-03     373.153E-03     187.547E-03     187.547E-03
            1148         164.125         164.125     348.162E-03     348.162E-03     162.296E-03     162.296E-03
            1149         164.145         164.145     325.943E-03     325.943E-03     138.596E-03     138.596E-03
            1150         164.161         164.161     306.578E-03     306.578E-03     116.256E-03     116.256E-03
            1151         164.175         164.175     290.124E-03     290.124E-03     95.0840E-03     95.0840E-03
            1152         164.186         164.186     276.624E-03     276.624E-03     74.8874E-03     74.8874E-03
            1153         164.195         164.195     266.107E-03     266.107E-03     55.4737E-03     55.4737E-03
            1154         164.201         164.201     258.595E-03     258.595E-03     36.6502E-03     36.6502E-03
            1155         164.204         164.204     254.091E-03     254.091E-03     18.2700E-03     18.2700E-03
            1156         163.428         163.428        -6.30790        -6.30790         9.09364         9.09364
            1157         161.756         161.756        -4.43138        -4.43138         7.96718         7.96718
            1158         160.874         160.874        -3.01408        -3.01408         6.79715         6.79715
            1159         160.486         160.486        -1.97102        -1.97102         5.73197         5.73197
            1160         160.391         160.391        -1.20315        -1.20315         4.82064         4.82064
            1161         160.463         160.463    -633.254E-03    -633.254E-03         4.06244         4.06244
            1162         160.626         160.626    -204.934E-03    -204.934E-03         3.43961         3.43961
            1163         160.836         160.836     119.986E-03     119.986E-03         2.93029         2.93029
            1164         161.066         161.066     368.086E-03     368.086E-03         2.51390         2.51390
            1165         161.300         161.300     557.541E-03     557.541E-03         2.17253         2.17253
            1166         161.531         161.531     701.267E-03     701.267E-03         1.89137         1.89137
            1167         161.753         161.753     808.514E-03     808.514E-03         1.65834         1.65834
            1168         161.964         161.964     886.182E-03     886.182E-03         1.46376         1.46376
            1169         162.162         162.162     939.539E-03     939.539E-03         1.29992         1.29992
            1170         162.348         162.348     972.762E-03     972.762E-03         1.16068         1.16068
            1171         162.521         162.521     989.250E-03     989.250E-03         1.04119         1.04119
            1172         162.682         162.682     991.846E-03     991.846E-03     937.627E-03     937.627E-03
            1173         162.831         162.831     982.976E-03     982.976E-03     846.984E-03     846.984E-03
            1174         162.970         162.970     964.736E-03     964.736E-03     766.900E-03     766.900E-03
            1175         163.097         163.097     938.957E-03     938.957E-03     695.522E-03     695.522E-03
            1176         163.215         163.215     907.246E-03     907.246E-03     631.402E-03     631.402E-03
            1177         163.324         163.324     871.011E-03     871.011E-03     573.406E-03     573.406E-03
            1178         163.423         163.423     831.488E-03     831.488E-03     520.642E-03     520.642E-03
            1179         163.514         163.514     789.756E-03     789.756E-03     472.410E-03     472.410E-03
            1180         163.597         163.597     746.752E-03     746.752E-03     428.150E-03     428.150E-03
            1181         163.673         163.673     703.283E-03     703.283E-03     387.415E-03     387.415E-03
            1182         163.742         163.742     660.042E-03     660.042E-03     349.839E-03     349.839E-03
            1183         163.804         163.804     617.618E-03     617.618E-03     315.115E-03     315.115E-03
            1184         163.860         163.860     576.505E-03     576.505E-03     282.984E-03     282.984E-03
            1185         163.911         163.911     537.115E-03     537.115E-03     253.216E-03     253.216E-03
            1186         163.956         163.956     499.789E-03     499.789E-03     225.606E-03     225.606E-03
            1187         163.996         163.996     464.804E-03     464.804E-03     199.964E-03     199.964E-03
            1188         164.031         164.031     432.382E-03     432.382E-03     176.113E-03     176.113E-03
            1189         164.063         164.063     402.701E-03     402.701E-03     153.882E-03     153.882E-03
            1190         164.090         164.090     375.898E-03     375.898E-03     133.105E-03     133.105E-03
            1191         164.113         164.113     352.081E-03     352.081E-03     113.619E-03     113.619E-03
            1192         164.133         164.133     331.330E-03     331.330E-03     95.2642E-03     95.2642E-03
            1193         164.150         164.150     313.704E-03     313.704E-03     77.8806E-03     77.8806E-03
            1194         164.163         164.163     299.248E-03     299.248E-03     61.3098E-03     61.3098E-03
            1195         164.173         164.173     287.993E-03     287.993E-03     45.3939E-03     45.3939E-03
            1196         164.180         164.180     279.960E-03     279.960E-03     29.9752E-03     29.9752E-03
            1197         164.184         164.184     275.156E-03     275.156E-03     14.9343E-03     14.9343E-03
            1198         157.229         157.229        -4.33085        -4.33085         10.7491         10.7491
            1199         156.865         156.865        -2.58998        -2.58998         8.60693         8.60693
            1200         157.085         157.085        -1.45094        -1.45094         6.87105         6.87105
            1201         157.557         157.557    -694.678E-03    -694.678E-03         5.51324         5.51324
            1202         158.114         158.114    -177.470E-03    -177.470E-03         4.46169         4.46169
            1203         158.677         158.677     187.848E-03     187.848E-03         3.64669         3.64669
            1204         159.212         159.212     452.623E-03     452.623E-03         3.01136         3.01136
            1205         159.703         159.703     648.592E-03     648.592E-03         2.51258         2.51258
            1206         160.149         160.149     795.180E-03     795.180E-03         2.11773         2.11773
            1207         160.550         160.550     904.880E-03     904.880E-03         1.80252         1.80252
            1208         160.911         160.911     985.810E-03     985.810E-03         1.54861         1.54861
            1209         161.235         161.235         1.04355         1.04355         1.34220         1.34220
            1210         161.527         161.527         1.08206         1.08206         1.17275         1.17275
            1211         161.791         161.791         1.10438         1.10438         1.03223         1.03223
            1212         162.030         162.030         1.11289         1.11289     914.462E-03     914.462E-03
            1213         162.247         162.247         1.10962         1.10962     814.703E-03     814.703E-03
            1214         162.444         162.444         1.09632         1.09632     729.270E-03     729.270E-03
            1215         162.623         162.623         1.07459         1.07459     655.319E-03     655.319E-03
            1216         162.787         162.787         1.04585         1.04585     590.645E-03     590.645E-03
            1217         162.936         162.936         1.01140         1.01140     533.539E-03     533.539E-03
            1218         163.072         163.072     972.467E-03     972.467E-03     482.670E-03     482.670E-03
            1219         163.197         163.197     930.128E-03     930.128E-03     437.007E-03     437.007E-03
            1220         163.310         163.310     885.379E-03     885.379E-03     395.741E-03     395.741E-03
            1221         163.414         163.414     839.114E-03     839.114E-03     358.242E-03     358.242E-03
            1222         163.508         163.508     792.127E-03     792.127E-03     324.009E-03     324.009E-03
            1223         163.593         163.593     745.119E-03     745.119E-03     292.644E-03     292.644E-03
            1224         163.671         163.671     698.703E-03     698.703E-03     263.824E-03     263.824E-03
            1225         163.741         163.741     653.408E-03     653.408E-03     237.282E-03     237.282E-03
            1226         163.804         163.804     609.685E-03     609.685E-03     212.794E-03     212.794E-03
            1227         163.861         163.861     567.917E-03     567.917E-03     190.167E-03     190.167E-03
            1228         163.911         163.911     528.421E-03     528.421E-03     169.229E-03     169.229E-03
            1229         163.956         163.956     491.459E-03     491.459E-03     149.824E-03     149.824E-03
            1230         163.996         163.996     457.246E-03     457.246E-03     131.809E-03     131.809E-03
            1231         164.031         164.031     425.950E-03     425.950E-03     115.047E-03     115.047E-03
            1232         164.062         164.062     397.706E-03     397.706E-03     99.4089E-03     99.4089E-03
            1233         164.088         164.088     372.620E-03     372.620E-03     84.7670E-03     84.7670E-03
            1234         164.111         164.111     350.769E-03     350.769E-03     70.9982E-03     70.9982E-03
            1235         164.129         164.129     332.214E-03     332.214E-03     57.9810E-03     57.9810E-03
            1236         164.144         164.144     316.998E-03     316.998E-03     45.5952E-03     45.5952E-03
            1237         164.155         164.155     305.153E-03     305.153E-03     33.7221E-03     33.7221E-03
            1238         164.163         164.163     296.701E-03     296.701E-03     22.2442E-03     22.2442E-03
            1239         164.168         164.168     291.649E-03     291.649E-03     11.0724E-03     11.0724E-03
            1240         149.781         149.781        -1.20482        -1.20482         10.0531         10.0531
            1241         151.612         151.612    -222.426E-03    -222.426E-03         7.47156         7.47156
            1242         153.330         153.330     313.418E-03     313.418E-03         5.65787         5.65787
            1243         154.820         154.820     624.697E-03     624.697E-03         4.36728         4.36728
            1244         156.079         156.079     819.198E-03     819.198E-03         3.43079         3.43079
            1245         157.136         157.136     948.852E-03     948.852E-03         2.73810         2.73810
            1246         158.024         158.024         1.04035         1.04035         2.21736         2.21736
            1247         158.774         158.774         1.10734         1.10734         1.81983         1.81983
            1248         159.411         159.411         1.15704         1.15704         1.51231         1.51231
            1249         159.957         159.957         1.19321         1.19321         1.27139         1.27139
            1250         160.427         160.427         1.21789         1.21789         1.08044         1.08044
            1251         160.837         160.837         1.23227         1.23227     927.338E-03     927.338E-03
            1252         161.196         161.196         1.23715         1.23715     803.207E-03     803.207E-03
            1253         161.512         161.512         1.23320         1.23320     701.410E-03     701.410E-03
            1254         161.793         161.793         1.22108         1.22108     616.976E-03     616.976E-03
            1255         162.044         162.044         1.20152         1.20152     546.129E-03     546.129E-03
            1256         162.268         162.268         1.17526         1.17526     486.000E-03     486.000E-03
            1257         162.471         162.471         1.14313         1.14313     434.391E-03     434.391E-03
            1258         162.654         162.654         1.10598         1.10598     389.615E-03     389.615E-03
            1259         162.820         162.820         1.06467         1.06467     350.373E-03     350.373E-03
            1260         162.970         162.970         1.02006         1.02006     315.663E-03     315.663E-03
            1261         163.106         163.106     972.980E-03     972.980E-03     284.708E-03     284.708E-03
            1262         163.230         163.230     924.211E-03     924.211E-03     256.905E-03     256.905E-03
            1263         163.342         163.342     874.491E-03     874.491E-03     231.782E-03     231.782E-03
            1264         163.445         163.445     824.498E-03     824.498E-03     208.967E-03     208.967E-03
            1265         163.537         163.537     774.843E-03     774.843E-03     188.167E-03     188.167E-03
            1266         163.621         163.621     726.072E-03     726.072E-03     169.142E-03     169.142E-03
            1267         163.696         163.696     678.664E-03     678.664E-03     151.697E-03     151.697E-03
            1268         163.764         163.764     633.034E-03     633.034E-03     135.668E-03     135.668E-03
            1269         163.825         163.825     589.538E-03     589.538E-03     120.915E-03     120.915E-03
            1270         163.880         163.880     548.473E-03     548.473E-03     107.316E-03     107.316E-03
            1271         163.929         163.929     510.090E-03     510.090E-03     94.7608E-03     94.7608E-03
            1272         163.972         163.972     474.591E-03     474.591E-03     83.1482E-03     83.1482E-03
            1273         164.010         164.010     442.141E-03     442.141E-03     72.3847E-03     72.3847E-03
            1274         164.042         164.042     412.869E-03     412.869E-03     62.3812E-03     62.3812E-03
            1275         164.071         164.071     386.878E-03     386.878E-03     53.0528E-03     53.0528E-03
            1276         164.095         164.095     364.243E-03     364.243E-03     44.3172E-03     44.3172E-03
            1277         164.115         164.115     345.024E-03     345.024E-03     36.0947E-03     36.0947E-03
            1278         164.131         164.131     329.263E-03     329.263E-03     28.3075E-03     28.3075E-03
            1279         164.143         164.143     316.991E-03     316.991E-03     20.8795E-03     20.8795E-03
            1280         164.152         164.152     308.231E-03     308.231E-03     13.7368E-03     13.7368E-03
            1281         164.157         164.157     302.987E-03     302.987E-03     6.82285E-03     6.82285E-03
            1282         143.384         143.384         1.84822         1.84822         6.15526         6.15526
            1283         147.492         147.492         1.81069         1.81069         4.31398         4.31398
            1284         150.556         150.556         1.70943         1.70943         3.14128         3.14128
            1285         152.881         152.881         1.61227         1.61227         2.35481         2.35481
            1286         154.684         154.684         1.53484         1.53484         1.80656         1.80656
            1287         156.106         156.106         1.47815         1.47815         1.41358         1.41358
            1288         157.247         157.247         1.43869         1.43869         1.12502         1.12502
            1289         158.177         158.177         1.41173         1.41173     909.159E-03     909.159E-03
            1290         158.945         158.945         1.39282         1.39282     744.852E-03     744.852E-03
            1291         159.587         159.587         1.37815         1.37815     617.987E-03     617.987E-03
            1292         160.130         160.130         1.36468         1.36468     518.660E-03     518.660E-03
            1293         160.594         160.594         1.35013         1.35013     439.920E-03     439.920E-03
            1294         160.996         160.996         1.33286         1.33286     376.716E-03     376.716E-03
            1295         161.345         161.345         1.31183         1.31183     325.377E-03     325.377E-03
            1296         161.653         161.653         1.28644         1.28644     283.168E-03     283.168E-03
            1297         161.924         161.924         1.25647         1.25647     248.056E-03     248.056E-03
            1298         162.167         162.167         1.22201         1.22201     218.504E-03     218.504E-03
            1299         162.383         162.383         1.18335         1.18335     193.351E-03     193.351E-03
            1300         162.578         162.578         1.14097         1.14097     171.710E-03     171.710E-03
            1301         162.753         162.753         1.09541         1.09541     152.905E-03     152.905E-03
            1302         162.912         162.912         1.04731         1.04731     136.416E-03     136.416E-03
            1303         163.055         163.055     997.329E-03     997.329E-03     121.842E-03     121.842E-03
            1304         163.185         163.185     946.120E-03     946.120E-03     108.872E-03     108.872E-03
            1305         163.303         163.303     894.320E-03     894.320E-03     97.2632E-03     97.2632E-03
            1306         163.409         163.409     842.529E-03     842.529E-03     86.8245E-03     86.8245E-03
            1307         163.506         163.506     791.302E-03     791.302E-03     77.4030E-03     77.4030E-03
            1308         163.593         163.593     741.142E-03     741.142E-03     68.8754E-03     68.8754E-03
            1309         163.672         163.672     692.495E-03     692.495E-03     61.1402E-03     61.1402E-03
            1310         163.743         163.743     645.754E-03     645.754E-03     54.1124E-03     54.1124E-03
            1311         163.806         163.806     601.256E-03     601.256E-03     47.7192E-03     47.7192E-03
            1312         163.863         163.863     559.288E-03     559.288E-03     41.8974E-03     41.8974E-03
            1313         163.914         163.914     520.089E-03     520.089E-03     36.5905E-03     36.5905E-03
            1314         163.959         163.959     483.856E-03     483.856E-03     31.7479E-03     31.7479E-03
            1315         163.998         163.998     450.748E-03     450.748E-03     27.3229E-03     27.3229E-03
            1316         164.032         164.032     420.891E-03     420.891E-03     23.2724E-03     23.2724E-03
            1317         164.062         164.062     394.384E-03     394.384E-03     19.5562E-03     19.5562E-03
            1318         164.087         164.087     371.303E-03     371.303E-03     16.1368E-03     16.1368E-03
            1319         164.107         164.107     351.703E-03     351.703E-03     12.9786E-03     12.9786E-03
            1320         164.124         164.124     335.626E-03     335.626E-03     10.0485E-03     10.0485E-03
            1321         164.137         164.137     323.101E-03     323.101E-03     7.31552E-03     7.31552E-03
            1322         164.146         164.146     314.149E-03     314.149E-03     4.75083E-03     4.75083E-03
            1323         164.151         164.151     308.773E-03     308.773E-03     2.33379E-03     2.33379E-03
            1324         141.153         141.153         2.97125         2.97125    -419.075E-03    -419.075E-03
            1325         146.175         146.175         2.48618         2.48618    -365.835E-03    -365.835E-03
            1326         149.714         149.714         2.14527         2.14527    -310.883E-03    -310.883E-03
            1327         152.318         152.318         1.90639         1.90639    -265.252E-03    -265.252E-03
            1328         154.293         154.293         1.73937         1.73937    -227.886E-03    -227.886E-03
            1329         155.827         155.827         1.62415         1.62415    -197.617E-03    -197.617E-03
            1330         157.043         157.043         1.54486         1.54486    -172.823E-03    -172.823E-03
            1331         158.025         158.025         1.49033         1.49033    -152.486E-03    -152.486E-03
            1332         158.829         158.829         1.45180         1.45180    -135.637E-03    -135.637E-03
            1333         159.498         159.498         1.42300         1.42300    -121.621E-03    -121.621E-03
            1334         160.060         160.060         1.39916         1.39916    -109.866E-03    -109.866E-03
            1335         160.540         160.540         1.37695         1.37695    -99.9516E-03    -99.9516E-03
            1336         160.952         160.952         1.35394         1.35394    -91.5206E-03    -91.5206E-03
            1337         161.310         161.310         1.32858         1.32858    -84.2948E-03    -84.2948E-03
            1338         161.624         161.624         1.29989         1.29989    -78.0402E-03    -78.0402E-03
            1339         161.901         161.901         1.26739         1.26739    -72.5693E-03    -72.5693E-03
            1340         162.147         162.147         1.23097         1.23097    -67.7265E-03    -67.7265E-03
            1341         162.367         162.367         1.19078         1.19078    -63.3859E-03    -63.3859E-03
            1342         162.564         162.564         1.14718         1.14718    -59.4450E-03    -59.4450E-03
            1343         162.742         162.742         1.10065         1.10065    -55.8218E-03    -55.8218E-03
            1344         162.902         162.902         1.05177         1.05177    -52.4509E-03    -52.4509E-03
            1345         163.047         163.047         1.00115         1.00115    -49.2814E-03    -49.2814E-03
            1346         163.178         163.178     949.402E-03     949.402E-03    -46.2738E-03    -46.2738E-03
            1347         163.297         163.297     897.152E-03     897.152E-03    -43.3985E-03    -43.3985E-03
            1348         163.405         163.405     844.979E-03     844.979E-03    -40.6332E-03    -40.6332E-03
            1349         163.502         163.502     793.422E-03     793.422E-03    -37.9620E-03    -37.9620E-03
            1350         163.590         163.590     742.976E-03     742.976E-03    -35.3733E-03    -35.3733E-03
            1351         163.669         163.669     694.080E-03     694.080E-03    -32.8589E-03    -32.8589E-03
            1352         163.741         163.741     647.120E-03     647.120E-03    -30.4128E-03    -30.4128E-03
            1353         163.805         163.805     602.429E-03     602.429E-03    -28.0306E-03    -28.0306E-03
            1354         163.862         163.862     560.291E-03     560.291E-03    -25.7082E-03    -25.7082E-03
            1355         163.913         163.913     520.942E-03     520.942E-03    -23.4416E-03    -23.4416E-03
            1356         163.958         163.958     484.577E-03     484.577E-03    -21.2265E-03    -21.2265E-03
            1357         163.997         163.997     451.353E-03     451.353E-03    -19.0575E-03    -19.0575E-03
            1358         164.031         164.031     421.393E-03     421.393E-03    -16.9280E-03    -16.9280E-03
            1359         164.061         164.061     394.796E-03     394.796E-03    -14.8301E-03    -14.8301E-03
            1360         164.086         164.086     371.635E-03     371.635E-03    -12.7543E-03    -12.7543E-03
            1361         164.107         164.107     351.964E-03     351.964E-03    -10.6891E-03    -10.6891E-03
            1362         164.124         164.124     335.822E-03     335.822E-03    -8.62113E-03    -8.62113E-03
            1363         164.137         164.137     323.239E-03     323.239E-03    -6.53502E-03    -6.53502E-03
            1364         164.146         164.146     314.230E-03     314.230E-03    -4.41298E-03    -4.41298E-03
            1365         164.151         164.151     308.797E-03     308.797E-03    -2.23978E-03    -2.23978E-03
            1366         144.921         144.921         1.11125         1.11125        -7.07527        -7.07527
            1367         148.580         148.580         1.27500         1.27500        -5.12712        -5.12712
            1368         151.340         151.340         1.31520         1.31520        -3.84504        -3.84504
            1369         153.462         153.462         1.31660         1.31660        -2.95965        -2.95965
            1370         155.124         155.124         1.30901         1.30901        -2.32779        -2.32779
            1371         156.447         156.447         1.30270         1.30270        -1.86482        -1.86482
            1372         157.517         157.517         1.30040         1.30040        -1.51847        -1.51847
            1373         158.393         158.393         1.30124         1.30124        -1.25465        -1.25465
            1374         159.121         159.121         1.30351         1.30351        -1.05061        -1.05061
            1375         159.732         159.732         1.30513         1.30513    -890.606E-03    -890.606E-03
            1376         160.251         160.251         1.30436         1.30436    -763.551E-03    -763.551E-03
            1377         160.697         160.697         1.29978         1.29978    -661.440E-03    -661.440E-03
            1378         161.084         161.084         1.29041         1.29041    -578.419E-03    -578.419E-03
            1379         161.421         161.421         1.27565         1.27565    -510.123E-03    -510.123E-03
            1380         161.719         161.719         1.25528         1.25528    -453.278E-03    -453.278E-03
            1381         161.983         161.983         1.22936         1.22936    -405.393E-03    -405.393E-03
            1382         162.218         162.218         1.19816         1.19816    -364.570E-03    -364.570E-03
            1383         162.429         162.429         1.16216         1.16216    -329.349E-03    -329.349E-03
            1384         162.619         162.619         1.12194         1.12194    -298.607E-03    -298.607E-03
            1385         162.790         162.790         1.07817         1.07817    -271.476E-03    -271.476E-03
            1386         162.945         162.945         1.03156         1.03156    -247.286E-03    -247.286E-03
            1387         163.085         163.085     982.836E-03     982.836E-03    -225.518E-03    -225.518E-03
            1388         163.212         163.212     932.698E-03     932.698E-03    -205.772E-03    -205.772E-03
            1389         163.328         163.328     881.824E-03     881.824E-03    -187.735E-03    -187.735E-03
            1390         163.432         163.432     830.846E-03     830.846E-03    -171.164E-03    -171.164E-03
            1391         163.527         163.527     780.342E-03     780.342E-03    -155.866E-03    -155.866E-03
            1392         163.612         163.612     730.833E-03     730.833E-03    -141.691E-03    -141.691E-03
            1393         163.689         163.689     682.780E-03     682.780E-03    -128.515E-03    -128.515E-03
            1394         163.758         163.758     636.582E-03     636.582E-03    -116.236E-03    -116.236E-03
            1395         163.820         163.820     592.586E-03     592.586E-03    -104.768E-03    -104.768E-03
            1396         163.876         163.876     551.080E-03     551.080E-03    -94.0364E-03    -94.0364E-03
            1397         163.925         163.925     512.308E-03     512.308E-03    -83.9729E-03    -83.9729E-03
            1398         163.969         163.969     476.466E-03     476.466E-03    -74.5142E-03    -74.5142E-03
            1399         164.007         164.007     443.713E-03     443.713E-03    -65.6000E-03    -65.6000E-03
            1400         164.041         164.041     414.174E-03     414.174E-03    -57.1711E-03    -57.1711E-03
            1401         164.070         164.070     387.947E-03     387.947E-03    -49.1690E-03    -49.1690E-03
            1402         164.094         164.094     365.105E-03     365.105E-03    -41.5344E-03    -41.5344E-03
            1403         164.114         164.114     345.700E-03     345.700E-03    -34.2074E-03    -34.2074E-03
            1404         164.130         164.130     329.772E-03     329.772E-03    -27.1267E-03    -27.1267E-03
            1405         164.143         164.143     317.346E-03     317.346E-03    -20.2293E-03    -20.2293E-03
            1406         164.152         164.152     308.439E-03     308.439E-03    -13.4507E-03    -13.4507E-03
            1407         164.157         164.157     303.049E-03     303.049E-03    -6.74132E-03    -6.74132E-03
            1408         152.936         152.936        -2.54497        -2.54497        -10.4671        -10.4671
            1409         153.900         153.900        -1.25410        -1.25410        -8.02746        -8.02746
            1410         155.021         155.021    -479.265E-03    -479.265E-03        -6.24021        -6.24021
            1411         156.092         156.092     12.8680E-03     12.8680E-03        -4.92535        -4.92535
            1412         157.054         157.054     342.528E-03     342.528E-03        -3.94425        -3.94425
            1413         157.896         157.896     574.002E-03     574.002E-03        -3.20227        -3.20227
            1414         158.626         158.626     742.453E-03     742.453E-03        -2.63361        -2.63361
            1415         159.258         159.258     868.327E-03     868.327E-03        -2.19246        -2.19246
            1416         159.805         159.805     963.387E-03     963.387E-03        -1.84628        -1.84628
            1417         160.282         160.282         1.03485         1.03485        -1.57168        -1.57168
            1418         160.699         160.699         1.08716         1.08716        -1.35156        -1.35156
            1419         161.066         161.066         1.12332         1.12332        -1.17326        -1.17326
            1420         161.391         161.391         1.14545         1.14545        -1.02730        -1.02730
            1421         161.680         161.680         1.15524         1.15524    -906.525E-03    -906.525E-03
            1422         161.939         161.939         1.15411         1.15411    -805.466E-03    -805.466E-03
            1423         162.171         162.171         1.14337         1.14337    -719.942E-03    -719.942E-03
            1424         162.381         162.381         1.12424         1.12424    -646.733E-03    -646.733E-03
            1425         162.571         162.571         1.09790         1.09790    -583.353E-03    -583.353E-03
            1426         162.743         162.743         1.06548         1.06548    -527.881E-03    -527.881E-03
            1427         162.899         162.899         1.02808         1.02808    -478.828E-03    -478.828E-03
            1428         163.041         163.041     986.726E-03     986.726E-03    -435.042E-03    -435.042E-03
            1429         163.171         163.171     942.389E-03     942.389E-03    -395.627E-03    -395.627E-03
            1430         163.288         163.288     895.967E-03     895.967E-03    -359.890E-03    -359.890E-03
            1431         163.395         163.395     848.284E-03     848.284E-03    -327.286E-03    -327.286E-03
            1432         163.492         163.492     800.080E-03     800.080E-03    -297.392E-03    -297.392E-03
            1433         163.580         163.580     752.019E-03     752.019E-03    -269.869E-03    -269.869E-03
            1434         163.660         163.660     704.684E-03     704.684E-03    -244.447E-03    -244.447E-03
            1435         163.732         163.732     658.583E-03     658.583E-03    -220.905E-03    -220.905E-03
            1436         163.796         163.796     614.150E-03     614.150E-03    -199.057E-03    -199.057E-03
            1437         163.854         163.854     571.754E-03     571.754E-03    -178.747E-03    -178.747E-03
            1438         163.906         163.906     531.704E-03     531.704E-03    -159.833E-03    -159.833E-03
            1439         163.952         163.952     494.252E-03     494.252E-03    -142.188E-03    -142.188E-03
            1440         163.993         163.993     459.606E-03     459.606E-03    -125.695E-03    -125.695E-03
            1441         164.029         164.029     427.928E-03     427.928E-03    -110.240E-03    -110.240E-03
            1442         164.060         164.060     399.349E-03     399.349E-03    -95.7136E-03    -95.7136E-03
            1443         164.087         164.087     373.965E-03     373.965E-03    -82.0086E-03    -82.0086E-03
            1444         164.109         164.109     351.851E-03     351.851E-03    -69.0175E-03    -69.0175E-03
            1445         164.128         164.128     333.062E-03     333.062E-03    -56.6328E-03    -56.6328E-03
            1446         164.143         164.143     317.635E-03     317.635E-03    -44.7464E-03    -44.7464E-03
            1447         164.155         164.155     305.595E-03     305.595E-03    -33.2497E-03    -33.2497E-03
            1448         164.163         164.163     296.959E-03     296.959E-03    -22.0326E-03    -22.0326E-03
            1449         164.168         164.168     291.723E-03     291.723E-03    -11.0120E-03    -11.0120E-03
            1450         161.119         161.119        -5.59913        -5.59913        -9.81948        -9.81948
            1451         159.932         159.932        -3.75016        -3.75016        -8.26910        -8.26910
            1452         159.482         159.482        -2.43718        -2.43718        -6.85973        -6.85973
            1453         159.436         159.436        -1.50951        -1.50951        -5.67418        -5.67418
            1454         159.597         159.597    -841.962E-03    -841.962E-03        -4.70847        -4.70847
            1455         159.858         159.858    -352.567E-03    -352.567E-03        -3.93035        -3.93035
            1456         160.161         160.161     12.9239E-03     12.9239E-03        -3.30511        -3.30511
            1457         160.475         160.475     289.506E-03     289.506E-03        -2.80189        -2.80189
            1458         160.783         160.783     500.538E-03     500.538E-03        -2.39528        -2.39528
            1459         161.076         161.076     661.609E-03     661.609E-03        -2.06492        -2.06492
            1460         161.352         161.352     783.561E-03     783.561E-03        -1.79472        -1.79472
            1461         161.608         161.608     874.068E-03     874.068E-03        -1.57205        -1.57205
            1462         161.846         161.846     938.825E-03     938.825E-03        -1.38697        -1.38697
            1463         162.066         162.066     982.184E-03     982.184E-03        -1.23172        -1.23172
            1464         162.268         162.268         1.00763         1.00763        -1.10020        -1.10020
            1465         162.455         162.455         1.01803         1.01803    -987.625E-03    -987.625E-03
            1466         162.627         162.627         1.01582         1.01582    -890.251E-03    -890.251E-03
            1467         162.785         162.785         1.00313         1.00313    -805.149E-03    -805.149E-03
            1468         162.931         162.931     981.825E-03     981.825E-03    -730.032E-03    -730.032E-03
            1469         163.064         163.064     953.552E-03     953.552E-03    -663.110E-03    -663.110E-03
            1470         163.187         163.187     919.789E-03     919.789E-03    -602.990E-03    -602.990E-03
            1471         163.300         163.300     881.845E-03     881.845E-03    -548.583E-03    -548.583E-03
            1472         163.403         163.403     840.878E-03     840.878E-03    -499.039E-03    -499.039E-03
            1473         163.497         163.497     797.913E-03     797.913E-03    -453.690E-03    -453.690E-03
            1474         163.583         163.583     753.845E-03     753.845E-03    -412.009E-03    -412.009E-03
            1475         163.661         163.661     709.449E-03     709.449E-03    -373.574E-03    -373.574E-03
            1476         163.732         163.732     665.395E-03     665.395E-03    -338.042E-03    -338.042E-03
            1477         163.796         163.796     622.255E-03     622.255E-03    -305.131E-03    -305.131E-03
            1478         163.853         163.853     580.508E-03     580.508E-03    -274.600E-03    -274.600E-03
            1479         163.905         163.905     540.557E-03     540.557E-03    -246.239E-03    -246.239E-03
            1480         163.951         163.951     502.734E-03     502.734E-03    -219.861E-03    -219.861E-03
            1481         163.992         163.992     467.309E-03     467.309E-03    -195.291E-03    -195.291E-03
            1482         164.028         164.028     434.498E-03     434.498E-03    -172.367E-03    -172.367E-03
            1483         164.060         164.060     404.473E-03     404.473E-03    -150.933E-03    -150.933E-03
            1484         164.088         164.088     377.368E-03     377.368E-03    -130.833E-03    -130.833E-03
            1485         164.112         164.112     353.283E-03     353.283E-03    -111.918E-03    -111.918E-03
            1486         164.132         164.132     332.295E-03     332.295E-03    -94.0372E-03    -94.0372E-03
            1487         164.149         164.149     314.458E-03     314.458E-03    -77.0393E-03    -77.0393E-03
            1488         164.162         164.162     299.811E-03     299.811E-03    -60.7738E-03    -60.7738E-03
            1489         164.172         164.172     288.381E-03     288.381E-03    -45.0894E-03    -45.0894E-03
            1490         164.180         164.180     280.182E-03     280.182E-03    -29.8347E-03    -29.8347E-03
            1491         164.184         164.184     275.214E-03     275.214E-03    -14.8949E-03    -14.8949E-03
            1492         166.723         166.723        -6.78038        -6.78038        -6.99686        -6.99686
            1493         164.738         164.738        -5.18423        -5.18423        -6.64380        -6.64380
            1494         163.430         163.430        -3.82651        -3.82651        -6.01545        -6.01545
            1495         162.624         162.624        -2.73808        -2.73808        -5.31089        -5.31089
            1496         162.161         162.161        -1.88712        -1.88712        -4.63296        -4.63296
            1497         161.925         161.925        -1.22459        -1.22459        -4.02331        -4.02331
            1498         161.836         161.836    -708.465E-03    -708.465E-03        -3.49341        -3.49341
            1499         161.842         161.842    -305.343E-03    -305.343E-03        -3.04093        -3.04093
            1500         161.907         161.907     9.70538E-03     9.70538E-03        -2.65798        -2.65798
            1501         162.008         162.008     255.418E-03     255.418E-03        -2.33491        -2.33491
            1502         162.131         162.131     445.746E-03     445.746E-03        -2.06225        -2.06225
            1503         162.266         162.266     591.328E-03     591.328E-03        -1.83139        -1.83139
            1504         162.405         162.405     700.361E-03     700.361E-03        -1.63490        -1.63490
            1505         162.544         162.544     779.330E-03     779.330E-03        -1.46653        -1.46653
            1506         162.681         162.681     833.453E-03     833.453E-03        -1.32110        -1.32110
            1507         162.813         162.813     867.027E-03     867.027E-03        -1.19440        -1.19440
            1508         162.939         162.939     883.641E-03     883.641E-03        -1.08303        -1.08303
            1509         163.059         163.059     886.335E-03     886.335E-03    -984.257E-03    -984.257E-03
            1510         163.172         163.172     877.711E-03     877.711E-03    -895.924E-03    -895.924E-03
            1511         163.278         163.278     860.005E-03     860.005E-03    -816.313E-03    -816.313E-03
            1512         163.377         163.377     835.150E-03     835.150E-03    -744.071E-03    -744.071E-03
            1513         163.468         163.468     804.812E-03     804.812E-03    -678.135E-03    -678.135E-03
            1514         163.552         163.552     770.428E-03     770.428E-03    -617.663E-03    -617.663E-03
            1515         163.630         163.630     733.234E-03     733.234E-03    -561.992E-03    -561.992E-03
            1516         163.701         163.701     694.286E-03     694.286E-03    -510.588E-03    -510.588E-03
            1517         163.766         163.766     654.483E-03     654.483E-03    -463.021E-03    -463.021E-03
            1518         163.825         163.825     614.584E-03     614.584E-03    -418.934E-03    -418.934E-03
            1519         163.879         163.879     575.224E-03     575.224E-03    -378.026E-03    -378.026E-03
            1520         163.927         163.927     536.933E-03     536.933E-03    -340.034E-03    -340.034E-03
            1521         163.970         163.970     500.146E-03     500.146E-03    -304.726E-03    -304.726E-03
            1522         164.009         164.009     465.219E-03     465.219E-03    -271.884E-03    -271.884E-03
            1523         164.043         164.043     432.438E-03     432.438E-03    -241.306E-03    -241.306E-03
            1524         164.074         164.074     402.029E-03     402.029E-03    -212.797E-03    -212.797E-03
            1525         164.101         164.101     374.172E-03     374.172E-03    -186.167E-03    -186.167E-03
            1526         164.124         164.124     349.003E-03     349.003E-03    -161.226E-03    -161.226E-03
            1527         164.144         164.144     326.628E-03     326.628E-03    -137.788E-03    -137.788E-03
            1528         164.161         164.161     307.123E-03     307.123E-03    -115.666E-03    -115.666E-03
            1529         164.175         164.175     290.545E-03     290.545E-03    -94.6712E-03    -94.6712E-03
            1530         164.186         164.186     276.933E-03     276.933E-03    -74.6161E-03    -74.6161E-03
            1531         164.194         164.194     266.313E-03     266.313E-03    -55.3113E-03    -55.3113E-03
            1532         164.201         164.201     258.704E-03     258.704E-03    -36.5678E-03    -36.5678E-03
            1533         164.204         164.204     254.107E-03     254.107E-03    -18.2445E-03    -18.2445E-03
            1534         164.901         164.901     2.53358E-03     2.53358E-03    -565.397E-03    -565.397E-03
            1535         165.453         165.453     4.42728E-03     4.42728E-03        -1.00742        -1.00742
            1536         166.008         166.008    -256.611E-06    -256.611E-06        -1.33184        -1.33184
            1537         166.580         166.580    -23.2862E-03    -23.2862E-03        -1.58109        -1.58109
            1538         167.185         167.185    -81.7315E-03    -81.7315E-03        -1.78561        -1.78561
            1539         167.846         167.846    -199.248E-03    -199.248E-03        -1.96298        -1.96298
            1540         168.589         168.589    -408.699E-03    -408.699E-03        -2.11798        -2.11798
            1541         169.442         169.442    -756.168E-03    -756.168E-03        -2.23916        -2.23916
            1542         170.436         170.436        -1.30575        -1.30575        -2.29081        -2.29081
            1543         171.589         171.589        -2.14315        -2.14315        -2.19645        -2.19645
            1544         172.880         172.880        -3.36750        -3.36750        -1.81385        -1.81385
            1545         174.168         174.168        -5.05128        -5.05128    -905.322E-03    -905.322E-03
            1546         164.203         164.203     49.7596E-03     49.7596E-03    -519.678E-03    -519.678E-03
            1547         164.950         164.950     137.715E-03     137.715E-03    -929.437E-03    -929.437E-03
            1548         165.622         165.622     264.958E-03     264.958E-03        -1.24013        -1.24013
            1549         166.257         166.257     414.796E-03     414.796E-03        -1.49697        -1.49697
            1550         166.888         166.888     570.666E-03     570.666E-03        -1.73482        -1.73482
            1551         167.551         167.551     713.629E-03     713.629E-03        -1.97934        -1.97934
            1552         168.287         168.287     818.355E-03     818.355E-03        -2.24897        -2.24897
            1553         169.144         169.144     846.968E-03     846.968E-03        -2.55455        -2.55455
            1554         170.182         170.182     738.968E-03     738.968E-03        -2.89473        -2.89473
            1555         171.482         171.482     394.614E-03     394.614E-03        -3.24346        -3.24346
            1556         173.134         173.134    -350.002E-03    -350.002E-03        -3.51590        -3.51590
            1557         175.212         175.212        -1.74367        -1.74367        -3.49753        -3.49753
            1558         163.616         163.616     93.7179E-03     93.7179E-03    -391.825E-03    -391.825E-03
            1559         164.522         164.522     262.154E-03     262.154E-03    -701.381E-03    -701.381E-03
            1560         165.281         165.281     514.003E-03     514.003E-03    -940.173E-03    -940.173E-03
            1561         165.949         165.949     830.349E-03     830.349E-03        -1.14680        -1.14680
            1562         166.574         166.574         1.19939         1.19939        -1.35258        -1.35258
            1563         167.198         167.198         1.61377         1.61377        -1.58380        -1.58380
            1564         167.867         167.867         2.06761         2.06761        -1.86515        -1.86515
            1565         168.634         168.634         2.55244         2.55244        -2.22233        -2.22233
            1566         169.566         169.566         3.05026         3.05026        -2.68401        -2.68401
            1567         170.767         170.767         3.51964         3.51964        -3.28157        -3.28157
            1568         172.395         172.395         3.86278         3.86278        -4.04072        -4.04072
            1569         174.709         174.709         3.84610         3.84610        -4.94315        -4.94315
            1570         163.239         163.239     125.211E-03     125.211E-03    -195.996E-03    -195.996E-03
            1571         164.247         164.247     351.458E-03     351.458E-03    -348.521E-03    -348.521E-03
            1572         165.057         165.057     693.407E-03     693.407E-03    -465.122E-03    -465.122E-03
            1573         165.738         165.738         1.13169         1.13169    -568.552E-03    -568.552E-03
            1574         166.343         166.343         1.65998         1.65998    -677.771E-03    -677.771E-03
            1575         166.919         166.919         2.28294         2.28294    -809.799E-03    -809.799E-03
            1576         167.510         167.510         3.01537         3.01537    -982.363E-03    -982.363E-03
            1577         168.161         168.161         3.88278         3.88278        -1.21686        -1.21686
            1578         168.934         168.934         4.92315         4.92315        -1.54225        -1.54225
            1579         169.916         169.916         6.18981         6.18981        -2.00111        -2.00111
            1580         171.250         171.250         7.75368         7.75368        -2.66248        -2.66248
            1581         173.203         173.203         9.69177         9.69177        -3.64615        -3.64615
            1582         163.140         163.140     137.083E-03     137.083E-03     38.9160E-03     38.9160E-03
            1583         164.183         164.183     385.167E-03     385.167E-03     76.2999E-03     76.2999E-03
            1584         165.008         165.008     761.266E-03     761.266E-03     111.530E-03     111.530E-03
            1585         165.687         165.687         1.24599         1.24599     143.451E-03     143.451E-03
            1586         166.280         166.280         1.83530         1.83530     171.251E-03     171.251E-03
            1587         166.830         166.830         2.53888         2.53888     194.303E-03     194.303E-03
            1588         167.382         167.382         3.38035         3.38035     212.139E-03     212.139E-03
            1589         167.977         167.977         4.40016         4.40016     224.467E-03     224.467E-03
            1590         168.671         168.671         5.66221         5.66221     231.126E-03     231.126E-03
            1591         169.537         169.537         7.26646         7.26646     232.121E-03     232.121E-03
            1592         170.695         170.695         9.37609         9.37609     227.657E-03     227.657E-03
            1593         172.361         172.361         12.2852         12.2852     217.814E-03     217.814E-03
            1594         163.347         163.347     126.627E-03     126.627E-03     275.129E-03     275.129E-03
            1595         164.351         164.351     355.551E-03     355.551E-03     503.572E-03     503.572E-03
            1596         165.153         165.153     701.694E-03     701.694E-03     691.609E-03     691.609E-03
            1597         165.823         165.823         1.14544         1.14544     859.679E-03     859.679E-03
            1598         166.415         166.415         1.68021         1.68021         1.02513         1.02513
            1599         166.977         166.977         2.31042         2.31042         1.20373         1.20373
            1600         167.552         167.552         3.05068         3.05068         1.41230         1.41230
            1601         168.188         168.188         3.92629         3.92629         1.67164         1.67164
            1602         168.945         168.945         4.97506         4.97506         2.01044         2.01044
            1603         169.911         169.911         6.25018         6.25018         2.47127         2.47127
            1604         171.230         171.230         7.82225         7.82225         3.12337         3.12337
            1605         173.168         173.168         9.76832         9.76832         4.08742         4.08742
            1606         163.837         163.837     96.5455E-03     96.5455E-03     474.855E-03     474.855E-03
            1607         164.732         164.732     270.327E-03     270.327E-03     863.777E-03     863.777E-03
            1608         165.474         165.474     530.544E-03     530.544E-03         1.17692         1.17692
            1609         166.120         166.120     857.779E-03     857.779E-03         1.45059         1.45059
            1610         166.719         166.719         1.23973         1.23973         1.71448         1.71448
            1611         167.315         167.315         1.66858         1.66858         1.99368         1.99368
            1612         167.953         167.953         2.13801         2.13801         2.31198         2.31198
            1613         168.687         168.687         2.63913         2.63913         2.69457         2.69457
            1614         169.588         169.588         3.15360         3.15360         3.16986         3.16986
            1615         170.756         170.756         3.63967         3.63967         3.76931         3.76931
            1616         172.354         172.354         3.99941         3.99941         4.51882         4.51882
            1617         174.639         174.639         3.99848         3.99848         5.40047         5.40047
            1618         164.543         164.543     53.9889E-03     53.9889E-03     609.193E-03     609.193E-03
            1619         165.272         165.272     149.941E-03     149.941E-03         1.10405         1.10405
            1620         165.918         165.918     289.698E-03     289.698E-03         1.49395         1.49395
            1621         166.519         166.519     455.801E-03     455.801E-03         1.82177         1.82177
            1622         167.110         167.110     630.944E-03     630.944E-03         2.12084         2.12084
            1623         167.729         167.729     795.465E-03     795.465E-03         2.41563         2.41563
            1624         168.418         168.418     923.369E-03     923.369E-03         2.72376         2.72376
            1625         169.226         169.226     976.155E-03     976.155E-03         3.05559         3.05559
            1626         170.215         170.215     892.767E-03     892.767E-03         3.40965         3.40965
            1627         171.465         171.465     573.035E-03     573.035E-03         3.76007         3.76007
            1628         173.071         173.071    -147.314E-03    -147.314E-03         4.02246         4.02246
            1629         175.104         175.104        -1.51693        -1.51693         3.98224         3.98224
            1630         165.371         165.371     8.15854E-03     8.15854E-03     663.977E-03     663.977E-03
            1631         165.897         165.897     20.6803E-03     20.6803E-03         1.19910         1.19910
            1632         166.414         166.414     32.6133E-03     32.6133E-03         1.60946         1.60946
            1633         166.938         166.938     31.1594E-03     31.1594E-03         1.93518         1.93518
            1634         167.488         167.488    -1.77002E-03    -1.77002E-03         2.20518         2.20518
            1635         168.088         168.088    -90.7986E-03    -90.7986E-03         2.43593         2.43593
            1636         168.766         168.766    -269.708E-03    -269.708E-03         2.63146         2.63146
            1637         169.553         169.553    -585.433E-03    -585.433E-03         2.77994         2.77994
            1638         170.479         170.479        -1.10283        -1.10283         2.84566         2.84566
            1639         171.566         171.566        -1.90832        -1.90832         2.75245         2.75245
            1640         172.793         172.793        -3.10139        -3.10139         2.35894         2.35894
            1641         174.022         174.022        -4.75446        -4.75446         1.42833         1.42833
            1642         164.246         164.246     207.695E-03     207.695E-03     22.6082E-03     22.6082E-03
            1643         164.244         164.244     211.499E-03     211.499E-03     45.3373E-03     45.3373E-03
            1644         164.240         164.240     217.821E-03     217.821E-03     68.6197E-03     68.6197E-03
            1645         164.236         164.236     226.656E-03     226.656E-03     92.6356E-03     92.6356E-03
            1646         164.229         164.229     237.988E-03     237.988E-03     117.627E-03     117.627E-03
            1647         164.222         164.222     251.792E-03     251.792E-03     143.836E-03     143.836E-03
            1648         164.212         164.212     268.029E-03     268.029E-03     171.500E-03     171.500E-03
            1649         164.201         164.201     286.647E-03     286.647E-03     200.858E-03     200.858E-03
            1650         164.188         164.188     307.569E-03     307.569E-03     232.143E-03     232.143E-03
            1651         164.172         164.172     330.692E-03     330.692E-03     265.584E-03     265.584E-03
            1652         164.155         164.155     355.879E-03     355.879E-03     301.409E-03     301.409E-03
            1653         164.135         164.135     382.949E-03     382.949E-03     339.839E-03     339.839E-03
            1654         164.113         164.113     411.669E-03     411.669E-03     381.092E-03     381.092E-03
            1655         164.088         164.088     441.741E-03     441.741E-03     425.386E-03     425.386E-03
            1656         164.060         164.060     472.786E-03     472.786E-03     472.933E-03     472.933E-03
            1657         164.030         164.030     504.335E-03     504.335E-03     523.949E-03     523.949E-03
            1658         163.996         163.996     535.803E-03     535.803E-03     578.654E-03     578.654E-03
            1659         163.959         163.959     566.475E-03     566.475E-03     637.280E-03     637.280E-03
            1660         163.919         163.919     595.478E-03     595.478E-03     700.078E-03     700.078E-03
            1661         163.876         163.876     621.757E-03     621.757E-03     767.325E-03     767.325E-03
            1662         163.831         163.831     644.041E-03     644.041E-03     839.347E-03     839.347E-03
            1663         163.783         163.783     660.814E-03     660.814E-03     916.526E-03     916.526E-03
            1664         163.734         163.734     670.267E-03     670.267E-03     999.325E-03     999.325E-03
            1665         163.684         163.684     670.264E-03     670.264E-03         1.08831         1.08831
            1666         163.634         163.634     658.282E-03     658.282E-03         1.18417         1.18417
            1667         163.587         163.587     631.358E-03     631.358E-03         1.28776         1.28776
            1668         163.544         163.544     586.023E-03     586.023E-03         1.40007         1.40007
            1669         163.510         163.510     518.221E-03     518.221E-03         1.52227         1.52227
            1670         163.487         163.487     423.236E-03     423.236E-03         1.65568         1.65568
            1671         163.482         163.482     295.576E-03     295.576E-03         1.80164         1.80164
            1672         163.502         163.502     128.906E-03     128.906E-03         1.96140         1.96140
            1673         163.556         163.556    -84.0941E-03    -84.0941E-03         2.13579         2.13579
            1674         163.657         163.657    -351.693E-03    -351.693E-03         2.32470         2.32470
            1675         163.820         163.820    -683.171E-03    -683.171E-03         2.52624         2.52624
            1676         164.065         164.065        -1.08829        -1.08829         2.73533         2.73533
            1677         164.417         164.417        -1.57674        -1.57674         2.94174         2.94174
            1678         164.907         164.907        -2.15566        -2.15566         3.12684         3.12684
            1679         165.569         165.569        -2.82643        -2.82643         3.25996         3.25996
            1680         166.438         166.438        -3.57607        -3.57607         3.29295         3.29295
            1681         167.537         167.537        -4.36624        -4.36624         3.15883         3.15883
            1682         168.868         168.868        -5.11482        -5.11482         2.77277         2.77277
            1683         170.383         170.383        -5.68965        -5.68965         2.05707         2.05707
            1684         164.265         164.265     184.579E-03     184.579E-03     23.6805E-03     23.6805E-03
            1685         164.264         164.264     188.003E-03     188.003E-03     47.4854E-03     47.4854E-03
            1686         164.262         164.262     193.695E-03     193.695E-03     71.8801E-03     71.8801E-03
            1687         164.259         164.259     201.649E-03     201.649E-03     97.0564E-03     97.0564E-03
            1688         164.255         164.255     211.852E-03     211.852E-03     123.271E-03     123.271E-03
            1689         164.250         164.250     224.280E-03     224.280E-03     150.780E-03     150.780E-03
            1690         164.245         164.245     238.898E-03     238.898E-03     179.837E-03     179.837E-03
            1691         164.238         164.238     255.654E-03     255.654E-03     210.692E-03     210.692E-03
            1692         164.230         164.230     274.478E-03     274.478E-03     243.589E-03     243.589E-03
            1693         164.220         164.220     295.271E-03     295.271E-03     278.768E-03     278.768E-03
            1694         164.209         164.209     317.903E-03     317.903E-03     316.463E-03     316.463E-03
            1695         164.197         164.197     342.198E-03     342.198E-03     356.897E-03     356.897E-03
            1696         164.183         164.183     367.930E-03     367.930E-03     400.287E-03     400.287E-03
            1697         164.167         164.167     394.807E-03     394.807E-03     446.840E-03     446.840E-03
            1698         164.150         164.150     422.456E-03     422.456E-03     496.751E-03     496.751E-03
            1699         164.130         164.130     450.411E-03     450.411E-03     550.206E-03     550.206E-03
            1700         164.109         164.109     478.089E-03     478.089E-03     607.381E-03     607.381E-03
            1701         164.086         164.086     504.771E-03     504.771E-03     668.443E-03     668.443E-03
            1702         164.061         164.061     529.574E-03     529.574E-03     733.555E-03     733.555E-03
            1703         164.035         164.035     551.424E-03     551.424E-03     802.878E-03     802.878E-03
            1704         164.008         164.008     569.022E-03     569.022E-03     876.579E-03     876.579E-03
            1705         163.980         163.980     580.809E-03     580.809E-03     954.834E-03     954.834E-03
            1706         163.952         163.952     584.922E-03     584.922E-03         1.03784         1.03784
            1707         163.927         163.927     579.150E-03     579.150E-03         1.12582         1.12582
            1708         163.904         163.904     560.887E-03     560.887E-03         1.21902         1.21902
            1709         163.887         163.887     527.080E-03     527.080E-03         1.31772         1.31772
            1710         163.877         163.877     474.175E-03     474.175E-03         1.42222         1.42222
            1711         163.879         163.879     398.069E-03     398.069E-03         1.53277         1.53277
            1712         163.898         163.898     294.061E-03     294.061E-03         1.64952         1.64952
            1713         163.939         163.939     156.845E-03     156.845E-03         1.77237         1.77237
            1714         164.009         164.009    -19.5142E-03    -19.5142E-03         1.90076         1.90076
            1715         164.119         164.119    -241.448E-03    -241.448E-03         2.03323         2.03323
            1716         164.280         164.280    -515.753E-03    -515.753E-03         2.16691         2.16691
            1717         164.505         164.505    -849.050E-03    -849.050E-03         2.29657         2.29657
            1718         164.813         164.813        -1.24710        -1.24710         2.41348         2.41348
            1719         165.223         165.223        -1.71308        -1.71308         2.50357         2.50357
            1720         165.754         165.754        -2.24516        -2.24516         2.54563         2.54563
            1721         166.427         166.427        -2.83183        -2.83183         2.50866         2.50866
            1722         167.255         167.255        -3.44552        -3.44552         2.35160         2.35160
            1723         168.234         168.234        -4.03396        -4.03396         2.02378         2.02378
            1724         169.338         169.338        -4.51224        -4.51224         1.47561         1.47561
            1725         170.516         170.516        -4.76779        -4.76779     662.838E-03     662.838E-03
            1726         164.284         164.284     160.671E-03     160.671E-03     24.1974E-03     24.1974E-03
            1727         164.283         164.283     163.695E-03     163.695E-03     48.5213E-03     48.5213E-03
            1728         164.283         164.283     168.723E-03     168.723E-03     73.4607E-03     73.4607E-03
            1729         164.282         164.282     175.751E-03     175.751E-03     99.2139E-03     99.2139E-03
            1730         164.281         164.281     184.766E-03     184.766E-03     126.048E-03     126.048E-03
            1731         164.279         164.279     195.747E-03     195.747E-03     154.230E-03     154.230E-03
            1732         164.277         164.277     208.661E-03     208.661E-03     184.022E-03     184.022E-03
            1733         164.275         164.275     223.464E-03     223.464E-03     215.682E-03     215.682E-03
            1734         164.272         164.272     240.090E-03     240.090E-03     249.461E-03     249.461E-03
            1735         164.269         164.269     258.447E-03     258.447E-03     285.605E-03     285.605E-03
            1736         164.265         164.265     278.415E-03     278.415E-03     324.347E-03     324.347E-03
            1737         164.261         164.261     299.828E-03     299.828E-03     365.912E-03     365.912E-03
            1738         164.255         164.255     322.473E-03     322.473E-03     410.507E-03     410.507E-03
            1739         164.249         164.249     346.071E-03     346.071E-03     458.326E-03     458.326E-03
            1740         164.242         164.242     370.267E-03     370.267E-03     509.539E-03     509.539E-03
            1741         164.235         164.235     394.611E-03     394.611E-03     564.297E-03     564.297E-03
            1742         164.227         164.227     418.538E-03     418.538E-03     622.723E-03     622.723E-03
            1743         164.218         164.218     441.348E-03     441.348E-03     684.913E-03     684.913E-03
            1744         164.209         164.209     462.176E-03     462.176E-03     750.932E-03     750.932E-03
            1745         164.200         164.200     479.966E-03     479.966E-03     820.808E-03     820.808E-03
            1746         164.191         164.191     493.434E-03     493.434E-03     894.534E-03     894.534E-03
            1747         164.184         164.184     501.034E-03     501.034E-03     972.064E-03     972.064E-03
            1748         164.178         164.178     500.918E-03     500.918E-03         1.05330         1.05330
            1749         164.176         164.176     490.888E-03     490.888E-03         1.13810         1.13810
            1750         164.179         164.179     468.364E-03     468.364E-03         1.22625         1.22625
            1751         164.190         164.190     430.333E-03     430.333E-03         1.31743         1.31743
            1752         164.211         164.211     373.321E-03     373.321E-03         1.41121         1.41121
            1753         164.246         164.246     293.372E-03     293.372E-03         1.50694         1.50694
            1754         164.299         164.299     186.059E-03     186.059E-03         1.60369         1.60369
            1755         164.377         164.377     46.5166E-03     46.5166E-03         1.70002         1.70002
            1756         164.486         164.486    -130.413E-03    -130.413E-03         1.79378         1.79378
            1757         164.635         164.635    -349.986E-03    -349.986E-03         1.88173         1.88173
            1758         164.835         164.835    -617.087E-03    -617.087E-03         1.95895         1.95895
            1759         165.096         165.096    -935.602E-03    -935.602E-03         2.01824         2.01824
            1760         165.433         165.433        -1.30718        -1.30718         2.04902         2.04902
            1761         165.856         165.856        -1.72955        -1.72955         2.03650         2.03650
            1762         166.379         166.379        -2.19368        -2.19368         1.96039         1.96039
            1763         167.007         167.007        -2.68003        -2.68003         1.79491         1.79491
            1764         167.739         167.739        -3.15394        -3.15394         1.50923         1.50923
            1765         168.556         168.556        -3.56018        -3.56018         1.07214         1.07214
            1766         169.424         169.424        -3.82314        -3.82314     457.435E-03     457.435E-03
            1767         170.282         170.282        -3.83704        -3.83704    -352.158E-03    -352.158E-03
            1768         164.301         164.301     136.534E-03     136.534E-03     24.1369E-03     24.1369E-03
            1769         164.301         164.301     139.147E-03     139.147E-03     48.3983E-03     48.3983E-03
            1770         164.302         164.302     143.492E-03     143.492E-03     73.2895E-03     73.2895E-03
            1771         164.303         164.303     149.565E-03     149.565E-03     99.0106E-03     99.0106E-03
            1772         164.305         164.305     157.356E-03     157.356E-03     125.834E-03     125.834E-03
            1773         164.307         164.307     166.846E-03     166.846E-03     154.031E-03     154.031E-03
            1774         164.309         164.309     178.009E-03     178.009E-03     183.868E-03     183.868E-03
            1775         164.312         164.312     190.804E-03     190.804E-03     215.607E-03     215.607E-03
            1776         164.314         164.314     205.173E-03     205.173E-03     249.501E-03     249.501E-03
            1777         164.317         164.317     221.035E-03     221.035E-03     285.796E-03     285.796E-03
            1778         164.321         164.321     238.280E-03     238.280E-03     324.725E-03     324.725E-03
            1779         164.324         164.324     256.760E-03     256.760E-03     366.505E-03     366.505E-03
            1780         164.328         164.328     276.277E-03     276.277E-03     411.334E-03     411.334E-03
            1781         164.332         164.332     296.576E-03     296.576E-03     459.387E-03     459.387E-03
            1782         164.337         164.337     317.328E-03     317.328E-03     510.810E-03     510.810E-03
            1783         164.341         164.341     338.114E-03     338.114E-03     565.714E-03     565.714E-03
            1784         164.347         164.347     358.405E-03     358.405E-03     624.171E-03     624.171E-03
            1785         164.353         164.353     377.542E-03     377.542E-03     686.202E-03     686.202E-03
            1786         164.360         164.360     394.709E-03     394.709E-03     751.770E-03     751.770E-03
            1787         164.368         164.368     408.900E-03     408.900E-03     820.776E-03     820.776E-03
            1788         164.378         164.378     418.896E-03     418.896E-03     893.037E-03     893.037E-03
            1789         164.391         164.391     423.221E-03     423.221E-03     968.284E-03     968.284E-03
            1790         164.407         164.407     420.108E-03     420.108E-03         1.04614         1.04614
            1791         164.428         164.428     407.462E-03     407.462E-03         1.12608         1.12608
            1792         164.456         164.456     382.827E-03     382.827E-03         1.20746         1.20746
            1793         164.492         164.492     343.354E-03     343.354E-03         1.28940         1.28940
            1794         164.540         164.540     285.792E-03     285.792E-03         1.37078         1.37078
            1795         164.603         164.603     206.499E-03     206.499E-03         1.45016         1.45016
            1796         164.685         164.685     101.484E-03     101.484E-03         1.52562         1.52562
            1797         164.791         164.791    -33.4624E-03    -33.4624E-03         1.59464         1.59464
            1798         164.927         164.927    -202.590E-03    -202.590E-03         1.65387         1.65387
            1799         165.101         165.101    -409.809E-03    -409.809E-03         1.69880         1.69880
            1800         165.321         165.321    -658.181E-03    -658.181E-03         1.72338         1.72338
            1801         165.595         165.595    -949.033E-03    -949.033E-03         1.71950         1.71950
            1802         165.931         165.931        -1.28076        -1.28076         1.67657         1.67657
            1803         166.337         166.337        -1.64704        -1.64704         1.58093         1.58093
            1804         166.816         166.816        -2.03448        -2.03448         1.41600         1.41600
            1805         167.366         167.366        -2.41993        -2.41993         1.16268         1.16268
            1806         167.976         167.976        -2.76708        -2.76708     801.734E-03     801.734E-03
            1807         168.623         168.623        -3.02553        -3.02553     317.378E-03     317.378E-03
            1808         169.267         169.267        -3.12741        -3.12741    -298.392E-03    -298.392E-03
            1809         169.849         169.849        -2.98900        -2.98900        -1.03428        -1.03428
            1810         164.315         164.315     112.754E-03     112.754E-03     23.4860E-03     23.4860E-03
            1811         164.317         164.317     114.951E-03     114.951E-03     47.0907E-03     47.0907E-03
            1812         164.319         164.319     118.607E-03     118.607E-03     71.3265E-03     71.3265E-03
            1813         164.322         164.322     123.717E-03     123.717E-03     96.3905E-03     96.3905E-03
            1814         164.327         164.327     130.273E-03     130.273E-03     122.555E-03     122.555E-03
            1815         164.332         164.332     138.261E-03     138.261E-03     150.089E-03     150.089E-03
            1816         164.338         164.338     147.659E-03     147.659E-03     179.259E-03     179.259E-03
            1817         164.346         164.346     158.431E-03     158.431E-03     210.326E-03     210.326E-03
            1818         164.354         164.354     170.530E-03     170.530E-03     243.540E-03     243.540E-03
            1819         164.364         164.364     183.886E-03     183.886E-03     279.144E-03     279.144E-03
            1820         164.374         164.374     198.402E-03     198.402E-03     317.364E-03     317.364E-03
            1821         164.386         164.386     213.950E-03     213.950E-03     358.409E-03     358.409E-03
            1822         164.400         164.400     230.356E-03     230.356E-03     402.466E-03     402.466E-03
            1823         164.414         164.414     247.395E-03     247.395E-03     449.691E-03     449.691E-03
            1824         164.430         164.430     264.772E-03     264.772E-03     500.204E-03     500.204E-03
            1825         164.447         164.447     282.112E-03     282.112E-03     554.081E-03     554.081E-03
            1826         164.466         164.466     298.939E-03     298.939E-03     611.343E-03     611.343E-03
            1827         164.488         164.488     314.657E-03     314.657E-03     671.945E-03     671.945E-03
            1828         164.511         164.511     328.522E-03     328.522E-03     735.760E-03     735.760E-03
            1829         164.537         164.537     339.620E-03     339.620E-03     802.567E-03     802.567E-03
            1830         164.566         164.566     346.834E-03     346.834E-03     872.030E-03     872.030E-03
            1831         164.599         164.599     348.812E-03     348.812E-03     943.675E-03     943.675E-03
            1832         164.636         164.636     343.934E-03     343.934E-03         1.01687         1.01687
            1833         164.680         164.680     330.284E-03     330.284E-03         1.09077         1.09077
            1834         164.731         164.731     305.618E-03     305.618E-03         1.16433         1.16433
            1835         164.791         164.791     267.355E-03     267.355E-03         1.23619         1.23619
            1836         164.863         164.863     212.579E-03     212.579E-03         1.30465         1.30465
            1837         164.949         164.949     138.072E-03     138.072E-03         1.36759         1.36759
            1838         165.053         165.053     40.4049E-03     40.4049E-03         1.42235         1.42235
            1839         165.180         165.180    -83.9164E-03    -83.9164E-03         1.46560         1.46560
            1840         165.334         165.334    -238.177E-03    -238.177E-03         1.49317         1.49317
            1841         165.520         165.520    -425.065E-03    -425.065E-03         1.49986         1.49986
            1842         165.744         165.744    -646.048E-03    -646.048E-03         1.47917         1.47917
            1843         166.012         166.012    -900.527E-03    -900.527E-03         1.42314         1.42314
            1844         166.327         166.327        -1.18467        -1.18467         1.32215         1.32215
            1845         166.693         166.693        -1.48985        -1.48985         1.16508         1.16508
            1846         167.108         167.108        -1.80097        -1.80097     939.769E-03     939.769E-03
            1847         167.563         167.563        -2.09434        -2.09434     634.297E-03     634.297E-03
            1848         168.046         168.046        -2.33664        -2.33664     239.321E-03     239.321E-03
            1849         168.529         168.529        -2.48337        -2.48337    -248.986E-03    -248.986E-03
            1850         168.977         168.977        -2.48029        -2.48029    -822.747E-03    -822.747E-03
            1851         169.342         169.342        -2.26769        -2.26769        -1.45639        -1.45639
            1852         164.326         164.326     89.9188E-03     89.9188E-03     22.2447E-03     22.2447E-03
            1853         164.329         164.329     91.7069E-03     91.7069E-03     44.5973E-03     44.5973E-03
            1854         164.333         164.333     94.6823E-03     94.6823E-03     67.5687E-03     67.5687E-03
            1855         164.338         164.338     98.8428E-03     98.8428E-03     91.3473E-03     91.3473E-03
            1856         164.345         164.345     104.182E-03     104.182E-03     116.198E-03     116.198E-03
            1857         164.354         164.354     110.688E-03     110.688E-03     142.385E-03     142.385E-03
            1858         164.364         164.364     118.344E-03     118.344E-03     170.166E-03     170.166E-03
            1859         164.377         164.377     127.124E-03     127.124E-03     199.795E-03     199.795E-03
            1860         164.391         164.391     136.986E-03     136.986E-03     231.517E-03     231.517E-03
            1861         164.407         164.407     147.876E-03     147.876E-03     265.566E-03     265.566E-03
            1862         164.425         164.425     159.712E-03     159.712E-03     302.158E-03     302.158E-03
            1863         164.445         164.445     172.388E-03     172.388E-03     341.494E-03     341.494E-03
            1864         164.468         164.468     185.758E-03     185.758E-03     383.745E-03     383.745E-03
            1865         164.493         164.493     199.630E-03     199.630E-03     429.051E-03     429.051E-03
            1866         164.520         164.520     213.755E-03     213.755E-03     477.511E-03     477.511E-03
            1867         164.550         164.550     227.810E-03     227.810E-03     529.168E-03     529.168E-03
            1868         164.583         164.583     241.386E-03     241.386E-03     584.005E-03     584.005E-03
            1869         164.620         164.620     253.966E-03     253.966E-03     641.919E-03     641.919E-03
            1870         164.660         164.660     264.907E-03     264.907E-03     702.714E-03     702.714E-03
            1871         164.703         164.703     273.409E-03     273.409E-03     766.072E-03     766.072E-03
            1872         164.751         164.751     278.497E-03     278.497E-03     831.531E-03     831.531E-03
            1873         164.804         164.804     278.988E-03     278.988E-03     898.459E-03     898.459E-03
            1874         164.863         164.863     273.462E-03     273.462E-03     966.013E-03     966.013E-03
            1875         164.928         164.928     260.243E-03     260.243E-03         1.03311         1.03311
            1876         165.001         165.001     237.374E-03     237.374E-03         1.09837         1.09837
            1877         165.083         165.083     202.617E-03     202.617E-03         1.16006         1.16006
            1878         165.176         165.176     153.466E-03     153.466E-03         1.21606         1.21606
            1879         165.283         165.283     87.2036E-03     87.2036E-03         1.26374         1.26374
            1880         165.405         165.405     997.277E-06     997.277E-06         1.29993         1.29993
            1881         165.546         165.546    -107.916E-03    -107.916E-03         1.32077         1.32077
            1882         165.709         165.709    -241.960E-03    -241.960E-03         1.32168         1.32168
            1883         165.897         165.897    -402.796E-03    -402.796E-03         1.29720         1.29720
            1884         166.115         166.115    -590.737E-03    -590.737E-03         1.24098         1.24098
            1885         166.363         166.363    -803.969E-03    -803.969E-03         1.14577         1.14577
            1886         166.645         166.645        -1.03751        -1.03751         1.00360         1.00360
            1887         166.957         166.957        -1.28210        -1.28210     806.219E-03     806.219E-03
            1888         167.297         167.297        -1.52279        -1.52279     545.939E-03     545.939E-03
            1889         167.653         167.653        -1.73805        -1.73805     217.106E-03     217.106E-03
            1890         168.010         168.010        -1.89887        -1.89887    -181.967E-03    -181.967E-03
            1891         168.346         168.346        -1.96938        -1.96938    -645.594E-03    -645.594E-03
            1892         168.630         168.630        -1.90908        -1.90908        -1.15734        -1.15734
            1893         168.829         168.829        -1.67791        -1.67791        -1.68542        -1.68542
            1894         164.333         164.333     68.6131E-03     68.6131E-03     20.4261E-03     20.4261E-03
            1895         164.337         164.337     70.0077E-03     70.0077E-03     40.9440E-03     40.9440E-03
            1896         164.342         164.342     72.3296E-03     72.3296E-03     62.0536E-03     62.0536E-03
            1897         164.349         164.349     75.5769E-03     75.5769E-03     83.9282E-03     83.9282E-03
            1898         164.359         164.359     79.7447E-03     79.7447E-03     106.820E-03     106.820E-03
            1899         164.371         164.371     84.8257E-03     84.8257E-03     130.979E-03     130.979E-03
            1900         164.386         164.386     90.8070E-03     90.8070E-03     156.651E-03     156.651E-03
            1901         164.403         164.403     97.6688E-03     97.6688E-03     184.077E-03     184.077E-03
            1902         164.422         164.422     105.381E-03     105.381E-03     213.489E-03     213.489E-03
            1903         164.445         164.445     113.900E-03     113.900E-03     245.108E-03     245.108E-03
            1904         164.470         164.470     123.163E-03     123.163E-03     279.141E-03     279.141E-03
            1905         164.499         164.499     133.087E-03     133.087E-03     315.773E-03     315.773E-03
            1906         164.530         164.530     143.554E-03     143.554E-03     355.163E-03     355.163E-03
            1907         164.566         164.566     154.411E-03     154.411E-03     397.436E-03     397.436E-03
            1908         164.605         164.605     165.457E-03     165.457E-03     442.672E-03     442.672E-03
            1909         164.648         164.648     176.431E-03     176.431E-03     490.894E-03     490.894E-03
            1910         164.695         164.695     186.998E-03     186.998E-03     542.054E-03     542.054E-03
            1911         164.747         164.747     196.736E-03     196.736E-03     596.016E-03     596.016E-03
            1912         164.803         164.803     205.114E-03     205.114E-03     652.534E-03     652.534E-03
            1913         164.864         164.864     211.472E-03     211.472E-03     711.229E-03     711.229E-03
            1914         164.931         164.931     215.004E-03     215.004E-03     771.557E-03     771.557E-03
            1915         165.004         165.004     214.726E-03     214.726E-03     832.780E-03     832.780E-03
            1916         165.084         165.084     209.460E-03     209.460E-03     893.923E-03     893.923E-03
            1917         165.170         165.170     197.813E-03     197.813E-03     953.733E-03     953.733E-03
            1918         165.264         165.264     178.164E-03     178.164E-03         1.01063         1.01063
            1919         165.368         165.368     148.668E-03     148.668E-03         1.06264         1.06264
            1920         165.481         165.481     107.276E-03     107.276E-03         1.10736         1.10736
            1921         165.605         165.605     51.7944E-03     51.7944E-03         1.14189         1.14189
            1922         165.742         165.742    -20.0093E-03    -20.0093E-03         1.16276         1.16276
            1923         165.894         165.894    -110.234E-03    -110.234E-03         1.16589         1.16589
            1924         166.061         166.061    -220.578E-03    -220.578E-03         1.14656         1.14656
            1925         166.246         166.246    -351.957E-03    -351.957E-03         1.09946         1.09946
            1926         166.449         166.449    -503.991E-03    -503.991E-03         1.01871         1.01871
            1927         166.671         166.671    -674.323E-03    -674.323E-03     898.090E-03     898.090E-03
            1928         166.910         166.910    -857.850E-03    -857.850E-03     731.429E-03     731.429E-03
            1929         167.164         167.164        -1.04579        -1.04579     513.214E-03     513.214E-03
            1930         167.425         167.425        -1.22495        -1.22495     239.602E-03     239.602E-03
            1931         167.683         167.683        -1.37704        -1.37704    -90.2886E-03    -90.2886E-03
            1932         167.924         167.924        -1.47878        -1.47878    -472.351E-03    -472.351E-03
            1933         168.129         168.129        -1.50289        -1.50289    -895.484E-03    -895.484E-03
            1934         168.277         168.277        -1.42069        -1.42069        -1.33895        -1.33895
            1935         168.345         168.345        -1.20701        -1.20701        -1.77064        -1.77064
            1936         164.335         164.335     49.3999E-03     49.3999E-03     18.0579E-03     18.0579E-03
            1937         164.339         164.339     50.4282E-03     50.4282E-03     36.1858E-03     36.1858E-03
            1938         164.346         164.346     52.1411E-03     52.1411E-03     54.8616E-03     54.8616E-03
            1939         164.355         164.355     54.5365E-03     54.5365E-03     74.2384E-03     74.2384E-03
            1940         164.367         164.367     57.6119E-03     57.6119E-03     94.5472E-03     94.5472E-03
            1941         164.383         164.383     61.3625E-03     61.3625E-03     116.017E-03     116.017E-03
            1942         164.401         164.401     65.7801E-03     65.7801E-03     138.876E-03     138.876E-03
            1943         164.422         164.422     70.8513E-03     70.8513E-03     163.344E-03     163.344E-03
            1944         164.447         164.447     76.5548E-03     76.5548E-03     189.636E-03     189.636E-03
            1945         164.476         164.476     82.8593E-03     82.8593E-03     217.955E-03     217.955E-03
            1946         164.508         164.508     89.7200E-03     89.7200E-03     248.491E-03     248.491E-03
            1947         164.545         164.545     97.0740E-03     97.0740E-03     281.416E-03     281.416E-03
            1948         164.586         164.586     104.836E-03     104.836E-03     316.874E-03     316.874E-03
            1949         164.631         164.631     112.891E-03     112.891E-03     354.977E-03     354.977E-03
            1950         164.682         164.682     121.087E-03     121.087E-03     395.791E-03     395.791E-03
            1951         164.737         164.737     129.226E-03     129.226E-03     439.327E-03     439.327E-03
            1952         164.798         164.798     137.055E-03     137.055E-03     485.525E-03     485.525E-03
            1953         164.865         164.865     144.248E-03     144.248E-03     534.233E-03     534.233E-03
            1954         164.938         164.938     150.398E-03     150.398E-03     585.187E-03     585.187E-03
            1955         165.017         165.017     154.997E-03     154.997E-03     637.985E-03     637.985E-03
            1956         165.103         165.103     157.418E-03     157.418E-03     692.055E-03     692.055E-03
            1957         165.196         165.196     156.899E-03     156.899E-03     746.618E-03     746.618E-03
            1958         165.297         165.297     152.522E-03     152.522E-03     800.651E-03     800.651E-03
            1959         165.404         165.404     143.204E-03     143.204E-03     852.837E-03     852.837E-03
            1960         165.520         165.520     127.685E-03     127.685E-03     901.519E-03     901.519E-03
            1961         165.644         165.644     104.535E-03     104.535E-03     944.643E-03     944.643E-03
            1962         165.777         165.777     72.1733E-03     72.1733E-03     979.714E-03     979.714E-03
            1963         165.919         165.919     28.9297E-03     28.9297E-03         1.00374         1.00374
            1964         166.070         166.070    -26.8685E-03    -26.8685E-03         1.01321         1.01321
            1965         166.230         166.230    -96.7404E-03    -96.7404E-03         1.00407         1.00407
            1966         166.400         166.400    -181.824E-03    -181.824E-03     971.776E-03     971.776E-03
            1967         166.578         166.578    -282.564E-03    -282.564E-03     911.345E-03     911.345E-03
            1968         166.765         166.765    -398.281E-03    -398.281E-03     817.583E-03     817.583E-03
            1969         166.957         166.957    -526.669E-03    -526.669E-03     685.373E-03     685.373E-03
            1970         167.152         167.152    -663.176E-03    -663.176E-03     510.172E-03     510.172E-03
            1971         167.345         167.345    -800.443E-03    -800.443E-03     288.737E-03     288.737E-03
            1972         167.529         167.529    -927.740E-03    -927.740E-03     20.0506E-03     20.0506E-03
            1973         167.694         167.694        -1.03082        -1.03082    -293.364E-03    -293.364E-03
            1974         167.828         167.828        -1.09220        -1.09220    -644.111E-03    -644.111E-03
            1975         167.918         167.918        -1.09232        -1.09232        -1.01829        -1.01829
            1976         167.948         167.948        -1.01198        -1.01198        -1.39443        -1.39443
            1977         167.908         167.908    -835.812E-03    -835.812E-03        -1.74294        -1.74294
            1978         164.331         164.331     32.8079E-03     32.8079E-03     15.1837E-03     15.1837E-03
            1979         164.336         164.336     33.5084E-03     33.5084E-03     30.4076E-03     30.4076E-03
            1980         164.344         164.344     34.6759E-03     34.6759E-03     46.1203E-03     46.1203E-03
            1981         164.355         164.355     36.3086E-03     36.3086E-03     62.4447E-03     62.4447E-03
            1982         164.369         164.369     38.4042E-03     38.4042E-03     79.5842E-03     79.5842E-03
            1983         164.387         164.387     40.9612E-03     40.9612E-03     97.7408E-03     97.7408E-03
            1984         164.409         164.409     43.9754E-03     43.9754E-03     117.113E-03     117.113E-03
            1985         164.435         164.435     47.4382E-03     47.4382E-03     137.895E-03     137.895E-03
            1986         164.465         164.465     51.3362E-03     51.3362E-03     160.278E-03     160.278E-03
            1987         164.499         164.499     55.6491E-03     55.6491E-03     184.440E-03     184.440E-03
            1988         164.538         164.538     60.3473E-03     60.3473E-03     210.553E-03     210.553E-03
            1989         164.582         164.582     65.3888E-03     65.3888E-03     238.766E-03     238.766E-03
            1990         164.632         164.632     70.7158E-03     70.7158E-03     269.210E-03     269.210E-03
            1991         164.687         164.687     76.2500E-03     76.2500E-03     301.983E-03     301.983E-03
            1992         164.748         164.748     81.8873E-03     81.8873E-03     337.145E-03     337.145E-03
            1993         164.816         164.816     87.4909E-03     87.4909E-03     374.702E-03     374.702E-03
            1994         164.891         164.891     92.8838E-03     92.8838E-03     414.594E-03     414.594E-03
            1995         164.973         164.973     97.8395E-03     97.8395E-03     456.677E-03     456.677E-03
            1996         165.062         165.062     102.071E-03     102.071E-03     500.700E-03     500.700E-03
            1997         165.159         165.159     105.220E-03     105.220E-03     546.281E-03     546.281E-03
            1998         165.264         165.264     106.843E-03     106.843E-03     592.872E-03     592.872E-03
            1999         165.378         165.378     106.397E-03     106.397E-03     639.731E-03     639.731E-03
            2000         165.499         165.499     103.231E-03     103.231E-03     685.875E-03     685.875E-03
            2001         165.629         165.629     96.5688E-03     96.5688E-03     730.040E-03     730.040E-03
            2002         165.767         165.767     85.5126E-03     85.5126E-03     770.630E-03     770.630E-03
            2003         165.913         165.913     69.0413E-03     69.0413E-03     805.673E-03     805.673E-03
            2004         166.067         166.067     46.0329E-03     46.0329E-03     832.775E-03     832.775E-03
            2005         166.227         166.227     15.3057E-03     15.3057E-03     849.084E-03     849.084E-03
            2006         166.393         166.393    -24.3067E-03    -24.3067E-03     851.274E-03     851.274E-03
            2007         166.563         166.563    -73.8379E-03    -73.8379E-03     835.565E-03     835.565E-03
            2008         166.737         166.737    -134.018E-03    -134.018E-03     797.781E-03     797.781E-03
            2009         166.910         166.910    -205.030E-03    -205.030E-03     733.494E-03     733.494E-03
            2010         167.081         167.081    -286.214E-03    -286.214E-03     638.256E-03     638.256E-03
            2011         167.246         167.246    -375.674E-03    -375.674E-03     507.966E-03     507.966E-03
            2012         167.399         167.399    -469.904E-03    -469.904E-03     339.402E-03     339.402E-03
            2013         167.535         167.535    -563.356E-03    -563.356E-03     130.902E-03     130.902E-03
            2014         167.646         167.646    -648.207E-03    -648.207E-03    -116.708E-03    -116.708E-03
            2015         167.724         167.724    -714.291E-03    -714.291E-03    -399.153E-03    -399.153E-03
            2016         167.760         167.760    -749.501E-03    -749.501E-03    -707.571E-03    -707.571E-03
            2017         167.743         167.743    -740.815E-03    -740.815E-03        -1.02767        -1.02767
            2018         167.667         167.667    -675.969E-03    -675.969E-03        -1.33928        -1.33928
            2019         167.525         167.525    -546.082E-03    -546.082E-03        -1.61664        -1.61664
            2020         164.320         164.320     19.3133E-03     19.3133E-03     11.8618E-03     11.8618E-03
            2021         164.326         164.326     19.7382E-03     19.7382E-03     23.7295E-03     23.7295E-03
            2022         164.334         164.334     20.4463E-03     20.4463E-03     36.0045E-03     36.0045E-03
            2023         164.347         164.347     21.4319E-03     21.4319E-03     48.7784E-03     48.7784E-03
            2024         164.364         164.364     22.6971E-03     22.6971E-03     62.2185E-03     62.2185E-03
            2025         164.384         164.384     24.2432E-03     24.2432E-03     76.4873E-03     76.4873E-03
            2026         164.409         164.409     26.0671E-03     26.0671E-03     91.7478E-03     91.7478E-03
            2027         164.439         164.439     28.1643E-03     28.1643E-03     108.161E-03     108.161E-03
            2028         164.473         164.473     30.5276E-03     30.5276E-03     125.882E-03     125.882E-03
            2029         164.512         164.512     33.1454E-03     33.1454E-03     145.063E-03     145.063E-03
            2030         164.558         164.558     36.0007E-03     36.0007E-03     165.843E-03     165.843E-03
            2031         164.609         164.609     39.0689E-03     39.0689E-03     188.352E-03     188.352E-03
            2032         164.666         164.666     42.3158E-03     42.3158E-03     212.698E-03     212.698E-03
            2033         164.731         164.731     45.6947E-03     45.6947E-03     238.968E-03     238.968E-03
            2034         164.802         164.802     49.1429E-03     49.1429E-03     267.212E-03     267.212E-03
            2035         164.882         164.882     52.5775E-03     52.5775E-03     297.441E-03     297.441E-03
            2036         164.970         164.970     55.8904E-03     55.8904E-03     329.608E-03     329.608E-03
            2037         165.066         165.066     58.9427E-03     58.9427E-03     363.594E-03     363.594E-03
            2038         165.171         165.171     61.5575E-03     61.5575E-03     399.189E-03     399.189E-03
            2039         165.286         165.286     63.5126E-03     63.5126E-03     436.070E-03     436.070E-03
            2040         165.411         165.411     64.5317E-03     64.5317E-03     473.772E-03     473.772E-03
            2041         165.545         165.545     64.2765E-03     64.2765E-03     511.657E-03     511.657E-03
            2042         165.689         165.689     62.3376E-03     62.3376E-03     548.879E-03     548.879E-03
            2043         165.842         165.842     58.2289E-03     58.2289E-03     584.340E-03     584.340E-03
            2044         166.003         166.003     51.3835E-03     51.3835E-03     616.654E-03     616.654E-03
            2045         166.173         166.173     41.1582E-03     41.1582E-03     644.101E-03     644.101E-03
            2046         166.350         166.350     26.8454E-03     26.8454E-03     664.591E-03     664.591E-03
            2047         166.532         166.532     7.70187E-03     7.70187E-03     675.634E-03     675.634E-03
            2048         166.716         166.716    -17.0019E-03    -17.0019E-03     674.339E-03     674.339E-03
            2049         166.901         166.901    -47.9048E-03    -47.9048E-03     657.437E-03     657.437E-03
            2050         167.083         167.083    -85.4391E-03    -85.4391E-03     621.357E-03     621.357E-03
            2051         167.257         167.257    -129.681E-03    -129.681E-03     562.374E-03     562.374E-03
            2052         167.419         167.419    -180.142E-03    -180.142E-03     476.847E-03     476.847E-03
            2053         167.562         167.562    -235.551E-03    -235.551E-03     361.578E-03     361.578E-03
            2054         167.680         167.680    -293.580E-03    -293.580E-03     214.293E-03     214.293E-03
            2055         167.766         167.766    -350.641E-03    -350.641E-03     34.2892E-03     34.2892E-03
            2056         167.812         167.812    -401.721E-03    -401.721E-03    -176.849E-03    -176.849E-03
            2057         167.810         167.810    -440.427E-03    -440.427E-03    -414.406E-03    -414.406E-03
            2058         167.752         167.752    -459.308E-03    -459.308E-03    -669.826E-03    -669.826E-03
            2059         167.633         167.633    -450.512E-03    -450.512E-03    -930.155E-03    -930.155E-03
            2060         167.451         167.451    -406.918E-03    -406.918E-03        -1.17800        -1.17800
            2061         167.206         167.206    -323.549E-03    -323.549E-03        -1.39220        -1.39220
            2062         164.302         164.302     9.32681E-03     9.32681E-03     8.17432E-03     8.17432E-03
            2063         164.308         164.308     9.54462E-03     9.54462E-03     16.2994E-03     16.2994E-03
            2064         164.318         164.318     9.89481E-03     9.89481E-03     24.7399E-03     24.7399E-03
            2065         164.332         164.332     10.3792E-03     10.3792E-03     33.5442E-03     33.5442E-03
            2066         164.350         164.350     11.0052E-03     11.0052E-03     42.8256E-03     42.8256E-03
            2067         164.372         164.372     11.7706E-03     11.7706E-03     52.7020E-03     52.7020E-03
            2068         164.400         164.400     12.6743E-03     12.6743E-03     63.2923E-03     63.2923E-03
            2069         164.432         164.432     13.7145E-03     13.7145E-03     74.7129E-03     74.7129E-03
            2070         164.470         164.470     14.8878E-03     14.8878E-03     87.0786E-03     87.0786E-03
            2071         164.514         164.514     16.1891E-03     16.1891E-03     100.500E-03     100.500E-03
            2072         164.565         164.565     17.6102E-03     17.6102E-03     115.081E-03     115.081E-03
            2073         164.622         164.622     19.1397E-03     19.1397E-03     130.919E-03     130.919E-03
            2074         164.687         164.687     20.7609E-03     20.7609E-03     148.096E-03     148.096E-03
            2075         164.759         164.759     22.4514E-03     22.4514E-03     166.679E-03     166.679E-03
            2076         164.840         164.840     24.1803E-03     24.1803E-03     186.712E-03     186.712E-03
            2077         164.931         164.931     25.9068E-03     25.9068E-03     208.207E-03     208.207E-03
            2078         165.031         165.031     27.5776E-03     27.5776E-03     231.137E-03     231.137E-03
            2079         165.141         165.141     29.1232E-03     29.1232E-03     255.422E-03     255.422E-03
            2080         165.263         165.263     30.4551E-03     30.4551E-03     280.914E-03     280.914E-03
            2081         165.395         165.395     31.4615E-03     31.4615E-03     307.384E-03     307.384E-03
            2082         165.539         165.539     32.0030E-03     32.0030E-03     334.494E-03     334.494E-03
            2083         165.694         165.694     31.9075E-03     31.9075E-03     361.776E-03     361.776E-03
            2084         165.861         165.861     30.9669E-03     30.9669E-03     388.605E-03     388.605E-03
            2085         166.039         166.039     28.9323E-03     28.9323E-03     414.166E-03     414.166E-03
            2086         166.227         166.227     25.5136E-03     25.5136E-03     437.421E-03     437.421E-03
            2087         166.423         166.423     20.3795E-03     20.3795E-03     457.074E-03     457.074E-03
            2088         166.627         166.627     13.1657E-03     13.1657E-03     471.546E-03     471.546E-03
            2089         166.835         166.835     3.48856E-03     3.48856E-03     478.949E-03     478.949E-03
            2090         167.045         167.045    -9.02849E-03    -9.02849E-03     477.087E-03     477.087E-03
            2091         167.252         167.252    -24.7140E-03    -24.7140E-03     463.475E-03     463.475E-03
            2092         167.450         167.450    -43.7898E-03    -43.7898E-03     435.407E-03     435.407E-03
            2093         167.635         167.635    -66.2865E-03    -66.2865E-03     390.072E-03     390.072E-03
            2094         167.797         167.797    -91.9458E-03    -91.9458E-03     324.757E-03     324.757E-03
            2095         167.931         167.931    -120.089E-03    -120.089E-03     237.125E-03     237.125E-03
            2096         168.026         168.026    -149.502E-03    -149.502E-03     125.617E-03     125.617E-03
            2097         168.073         168.073    -178.306E-03    -178.306E-03    -10.0764E-03    -10.0764E-03
            2098         168.063         168.063    -203.907E-03    -203.907E-03    -168.431E-03    -168.431E-03
            2099         167.988         167.988    -223.021E-03    -223.021E-03    -345.525E-03    -345.525E-03
            2100         167.841         167.841    -231.853E-03    -231.853E-03    -534.519E-03    -534.519E-03
            2101         167.620         167.620    -226.493E-03    -226.493E-03    -725.378E-03    -725.378E-03
            2102         167.324         167.324    -203.438E-03    -203.438E-03    -904.933E-03    -904.933E-03
            2103         166.960         166.960    -160.221E-03    -160.221E-03        -1.05733        -1.05733
            2104         164.276         164.276     3.16822E-03     3.16822E-03     4.21312E-03     4.21312E-03
            2105         164.282         164.282     3.25202E-03     3.25202E-03     8.33797E-03     8.33797E-03
            2106         164.293         164.293     3.36762E-03     3.36762E-03     12.6693E-03     12.6693E-03
            2107         164.307         164.307     3.53409E-03     3.53409E-03     17.1919E-03     17.1919E-03
            2108         164.327         164.327     3.75106E-03     3.75106E-03     21.9663E-03     21.9663E-03
            2109         164.351         164.351     4.01591E-03     4.01591E-03     27.0577E-03     27.0577E-03
            2110         164.380         164.380     4.32932E-03     4.32932E-03     32.5294E-03     32.5294E-03
            2111         164.415         164.415     4.69009E-03     4.69009E-03     38.4445E-03     38.4445E-03
            2112         164.456         164.456     5.09751E-03     5.09751E-03     44.8649E-03     44.8649E-03
            2113         164.503         164.503     5.54971E-03     5.54971E-03     51.8507E-03     51.8507E-03
            2114         164.558         164.558     6.04418E-03     6.04418E-03     59.4594E-03     59.4594E-03
            2115         164.620         164.620     6.57698E-03     6.57698E-03     67.7441E-03     67.7441E-03
            2116         164.691         164.691     7.14263E-03     7.14263E-03     76.7517E-03     76.7517E-03
            2117         164.771         164.771     7.73340E-03     7.73340E-03     86.5208E-03     86.5208E-03
            2118         164.860         164.860     8.33883E-03     8.33883E-03     97.0779E-03     97.0779E-03
            2119         164.961         164.961     8.94489E-03     8.94489E-03     108.434E-03     108.434E-03
            2120         165.072         165.072     9.53310E-03     9.53310E-03     120.577E-03     120.577E-03
            2121         165.196         165.196     10.0794E-03     10.0794E-03     133.471E-03     133.471E-03
            2122         165.332         165.332     10.5530E-03     10.5530E-03     147.040E-03     147.040E-03
            2123         165.481         165.481     10.9147E-03     10.9147E-03     161.165E-03     161.165E-03
            2124         165.644         165.644     11.1156E-03     11.1156E-03     175.670E-03     175.670E-03
            2125         165.821         165.821     11.0950E-03     11.0950E-03     190.306E-03     190.306E-03
            2126         166.012         166.012     10.7791E-03     10.7791E-03     204.738E-03     204.738E-03
            2127         166.216         166.216     10.0800E-03     10.0800E-03     218.526E-03     218.526E-03
            2128         166.433         166.433     8.89371E-03     8.89371E-03     231.106E-03     231.106E-03
            2129         166.661         166.661     7.10246E-03     7.10246E-03     241.768E-03     241.768E-03
            2130         166.897         166.897     4.57507E-03     4.57507E-03     249.645E-03     249.645E-03
            2131         167.139         167.139     1.17405E-03     1.17405E-03     253.693E-03     253.693E-03
            2132         167.381         167.381    -3.23706E-03    -3.23706E-03     252.694E-03     252.694E-03
            2133         167.620         167.620    -8.77699E-03    -8.77699E-03     245.262E-03     245.262E-03
            2134         167.848         167.848    -15.5268E-03    -15.5268E-03     229.885E-03     229.885E-03
            2135         168.057         168.057    -23.4996E-03    -23.4996E-03     204.990E-03     204.990E-03
            2136         168.237         168.237    -32.6020E-03    -32.6020E-03     169.055E-03     169.055E-03
            2137         168.377         168.377    -42.5935E-03    -42.5935E-03     120.775E-03     120.775E-03
            2138         168.466         168.466    -53.0336E-03    -53.0336E-03     59.2776E-03     59.2776E-03
            2139         168.491         168.491    -63.2513E-03    -63.2513E-03    -15.5856E-03    -15.5856E-03
            2140         168.440         168.440    -72.3108E-03    -72.3108E-03    -102.938E-03    -102.938E-03
            2141         168.302         168.302    -79.0380E-03    -79.0380E-03    -200.543E-03    -200.543E-03
            2142         168.071         168.071    -82.0822E-03    -82.0822E-03    -304.533E-03    -304.533E-03
            2143         167.742         167.742    -80.0488E-03    -80.0488E-03    -409.284E-03    -409.284E-03
            2144         167.318         167.318    -71.7595E-03    -71.7595E-03    -507.469E-03    -507.469E-03
            2145         166.811         166.811    -56.2802E-03    -56.2802E-03    -590.234E-03    -590.234E-03
            2146         155.611         155.611         44.9696         44.9696        -12.0719        -12.0719
            2147         157.288         157.288         40.9230         40.9230        -11.9983        -11.9983
            2148         158.918         158.918         36.8628         36.8628        -11.6000        -11.6000
            2149         160.443         160.443         32.8893         32.8893        -10.9958        -10.9958
            2150         161.827         161.827         29.0779         29.0779        -10.2153        -10.2153
            2151         163.043         163.043         25.4897         25.4897        -9.29023        -9.29023
            2152         164.071         164.071         22.1728         22.1728        -8.26802        -8.26802
            2153         164.915         164.915         19.1519         19.1519        -7.19274        -7.19274
            2154         165.577         165.577         16.4389         16.4389        -6.10687        -6.10687
            2155         166.078         166.078         14.0285         14.0285        -5.04695        -5.04695
            2156         166.433         166.433         11.9069         11.9069        -4.03844        -4.03844
            2157         166.667         166.667         10.0538         10.0538        -3.10197        -3.10197
            2158         166.799         166.799         8.44479         8.44479        -2.24690        -2.24690
            2159         166.849         166.849         7.05613         7.05613        -1.47980        -1.47980
            2160         166.833         166.833         5.86255         5.86255    -799.760E-03    -799.760E-03
            2161         166.767         166.767         4.84218         4.84218    -204.646E-03    -204.646E-03
            2162         166.661         166.661         3.97297         3.97297     311.474E-03     311.474E-03
            2163         166.525         166.525         3.23636         3.23636     754.834E-03     754.834E-03
            2164         166.368         166.368         2.61426         2.61426         1.13314         1.13314
            2165         166.196         166.196         2.09131         2.09131         1.45387         1.45387
            2166         166.014         166.014         1.65280         1.65280         1.72479         1.72479
            2167         165.826         165.826         1.28593         1.28593         1.95320         1.95320
            2168         165.635         165.635     978.486E-03     978.486E-03         2.14617         2.14617
            2169         165.446         165.446     719.518E-03     719.518E-03         2.31030         2.31030
            2170         165.261         165.261     498.472E-03     498.472E-03         2.45176         2.45176
            2171         165.083         165.083     305.518E-03     305.518E-03         2.57632         2.57632
            2172         164.915         164.915     131.004E-03     131.004E-03         2.68938         2.68938
            2173         164.761         164.761    -34.4435E-03    -34.4435E-03         2.79597         2.79597
            2174         164.626         164.626    -200.284E-03    -200.284E-03         2.90077         2.90077
            2175         164.516         164.516    -376.094E-03    -376.094E-03         3.00808         3.00808
            2176         164.437         164.437    -571.819E-03    -571.819E-03         3.12169         3.12169
            2177         164.400         164.400    -797.886E-03    -797.886E-03         3.24460         3.24460
            2178         164.415         164.415        -1.06528        -1.06528         3.37856         3.37856
            2179         164.499         164.499        -1.38560        -1.38560         3.52324         3.52324
            2180         164.672         164.672        -1.77062        -1.77062         3.67487         3.67487
            2181         164.958         164.958        -2.23173        -2.23173         3.82432         3.82432
            2182         165.387         165.387        -2.77752        -2.77752         3.95382         3.95382
            2183         165.993         165.993        -3.41051        -3.41051         4.03346         4.03346
            2184         166.810         166.810        -4.11870        -4.11870         4.01561         4.01561
            2185         167.864         167.864        -4.86444        -4.86444         3.83381         3.83381
            2186         169.152         169.152        -5.56594        -5.56594         3.40355         3.40355
            2187         170.627         170.627        -6.09095        -6.09095         2.64769         2.64769
            2188         156.066         156.066         44.8744         44.8744        -13.8006        -13.8006
            2189         157.829         157.829         40.5937         40.5937        -13.7056        -13.7056
            2190         159.521         159.521         36.2991         36.2991        -13.2114        -13.2114
            2191         161.087         161.087         32.1096         32.1096        -12.4709        -12.4709
            2192         162.478         162.478         28.1187         28.1187        -11.5109        -11.5109
            2193         163.661         163.661         24.4038         24.4038        -10.3898        -10.3898
            2194         164.631         164.631         21.0109         21.0109        -9.16302        -9.16302
            2195         165.385         165.385         17.9680         17.9680        -7.89147        -7.89147
            2196         165.946         165.946         15.2744         15.2744        -6.62807        -6.62807
            2197         166.334         166.334         12.9174         12.9174        -5.41146        -5.41146
            2198         166.582         166.582         10.8723         10.8723        -4.27375        -4.27375
            2199         166.713         166.713         9.10856         9.10856        -3.22981        -3.22981
            2200         166.755         166.755         7.59651         7.59651        -2.29115        -2.29115
            2201         166.729         166.729         6.30415         6.30415        -1.45771        -1.45771
            2202         166.653         166.653         5.20496         5.20496    -728.205E-03    -728.205E-03
            2203         166.540         166.540         4.27207         4.27207    -95.6126E-03    -95.6126E-03
            2204         166.402         166.402         3.48395         3.48395     447.194E-03     447.194E-03
            2205         166.248         166.248         2.81956         2.81956     909.479E-03     909.479E-03
            2206         166.084         166.084         2.26187         2.26187         1.30007         1.30007
            2207         165.916         165.916         1.79460         1.79460         1.62817         1.62817
            2208         165.747         165.747         1.40414         1.40414         1.90230         1.90230
            2209         165.581         165.581         1.07756         1.07756         2.13063         2.13063
            2210         165.420         165.420     803.625E-03     803.625E-03         2.32060         2.32060
            2211         165.266         165.266     571.583E-03     571.583E-03         2.47906         2.47906
            2212         165.122         165.122     371.663E-03     371.663E-03         2.61217         2.61217
            2213         164.991         164.991     194.359E-03     194.359E-03         2.72549         2.72549
            2214         164.876         164.876     30.6371E-03     30.6371E-03         2.82394         2.82394
            2215         164.779         164.779    -128.498E-03    -128.498E-03         2.91187         2.91187
            2216         164.707         164.707    -291.930E-03    -291.930E-03         2.99295         2.99295
            2217         164.663         164.663    -468.670E-03    -468.670E-03         3.07017         3.07017
            2218         164.657         164.657    -667.827E-03    -667.827E-03         3.14557         3.14557
            2219         164.696         164.696    -898.616E-03    -898.616E-03         3.21994         3.21994
            2220         164.792         164.792        -1.17022        -1.17022         3.29232         3.29232
            2221         164.960         164.960        -1.49131        -1.49131         3.35908         3.35908
            2222         165.215         165.215        -1.86943        -1.86943         3.41284         3.41284
            2223         165.576         165.576        -2.30922        -2.30922         3.44062         3.44062
            2224         166.065         166.065        -2.81011        -2.81011         3.42213         3.42213
            2225         166.699         166.699        -3.36163        -3.36163         3.32709         3.32709
            2226         167.491         167.491        -3.93701        -3.93701         3.11509         3.11509
            2227         168.439         168.439        -4.48458        -4.48458         2.73595         2.73595
            2228         169.515         169.515        -4.91987        -4.91987         2.14064         2.14064
            2229         170.666         170.666        -5.13073        -5.13073         1.28573         1.28573
            2230         156.664         156.664         44.7582         44.7582        -15.6247        -15.6247
            2231         158.513         158.513         40.1907         40.1907        -15.4909        -15.4909
            2232         160.285         160.285         35.6007         35.6007        -14.8847        -14.8847
            2233         161.886         161.886         31.1462         31.1462        -13.9612        -13.9612
            2234         163.265         163.265         26.9489         26.9489        -12.7867        -12.7867
            2235         164.396         164.396         23.0921         23.0921        -11.4248        -11.4248
            2236         165.263         165.263         19.6344         19.6344        -9.96221        -9.96221
            2237         165.896         165.896         16.5864         16.5864        -8.47464        -8.47464
            2238         166.312         166.312         13.9404         13.9404        -7.02139        -7.02139
            2239         166.561         166.561         11.6663         11.6663        -5.65237        -5.65237
            2240         166.672         166.672         9.72471         9.72471        -4.39068        -4.39068
            2241         166.685         166.685         8.07717         8.07717        -3.25543        -3.25543
            2242         166.625         166.625         6.68150         6.68150        -2.24731        -2.24731
            2243         166.516         166.516         5.50449         5.50449        -1.36614        -1.36614
            2244         166.376         166.376         4.51209         4.51209    -603.101E-03    -603.101E-03
            2245         166.218         166.218         3.67868         3.67868     50.2877E-03     50.2877E-03
            2246         166.051         166.051         2.97906         2.97906     605.522E-03     605.522E-03
            2247         165.883         165.883         2.39399         2.39399         1.07327         1.07327
            2248         165.719         165.719         1.90507         1.90507         1.46467         1.46467
            2249         165.560         165.560         1.49767         1.49767         1.78984         1.78984
            2250         165.411         165.411         1.15796         1.15796         2.05840         2.05840
            2251         165.273         165.273     874.420E-03     874.420E-03         2.27895         2.27895
            2252         165.147         165.147     636.091E-03     636.091E-03         2.45929         2.45929
            2253         165.034         165.034     433.345E-03     433.345E-03         2.60626         2.60626
            2254         164.937         164.937     256.901E-03     256.901E-03         2.72588         2.72588
            2255         164.856         164.856     98.1588E-03     98.1588E-03         2.82333         2.82333
            2256         164.795         164.795    -51.3439E-03    -51.3439E-03         2.90295         2.90295
            2257         164.756         164.756    -199.783E-03    -199.783E-03         2.96827         2.96827
            2258         164.743         164.743    -355.325E-03    -355.325E-03         3.02195         3.02195
            2259         164.762         164.762    -526.019E-03    -526.019E-03         3.06566         3.06566
            2260         164.819         164.819    -719.822E-03    -719.822E-03         3.09989         3.09989
            2261         164.922         164.922    -944.377E-03    -944.377E-03         3.12365         3.12365
            2262         165.081         165.081        -1.20665        -1.20665         3.13393         3.13393
            2263         165.307         165.307        -1.51229        -1.51229         3.12512         3.12512
            2264         165.612         165.612        -1.86447        -1.86447         3.08796         3.08796
            2265         166.009         166.009        -2.26218        -2.26218         3.00877         3.00877
            2266         166.508         166.508        -2.69749        -2.69749         2.86815         2.86815
            2267         167.116         167.116        -3.15170        -3.15170         2.64107         2.64107
            2268         167.830         167.830        -3.59088        -3.59088         2.29731         2.29731
            2269         168.632         168.632        -3.96036        -3.96036         1.80625         1.80625
            2270         169.488         169.488        -4.18507        -4.18507         1.14225         1.14225
            2271         170.334         170.334        -4.16009        -4.16009     288.718E-03     288.718E-03
            2272         157.426         157.426         44.6265         44.6265        -17.5573        -17.5573
            2273         159.405         159.405         39.6853         39.6853        -17.3813        -17.3813
            2274         161.251         161.251         34.7268         34.7268        -16.6083        -16.6083
            2275         162.879         162.879         29.9528         29.9528        -15.4628        -15.4628
            2276         164.224         164.224         25.5118         25.5118        -14.0043        -14.0043
            2277         165.243         165.243         21.5191         21.5191        -12.3548        -12.3548
            2278         165.968         165.968         18.0112         18.0112        -10.6198        -10.6198
            2279         166.413         166.413         14.9962         14.9962        -8.89282        -8.89282
            2280         166.648         166.648         12.4374         12.4374        -7.25239        -7.25239
            2281         166.714         166.714         10.2834         10.2834        -5.73465        -5.73465
            2282         166.667         166.667         8.48234         8.48234        -4.37094        -4.37094
            2283         166.542         166.542         6.97608         6.97608        -3.16222        -3.16222
            2284         166.371         166.371         5.72180         5.72180        -2.10968        -2.10968
            2285         166.178         166.178         4.67470         4.67470        -1.20132        -1.20132
            2286         165.976         165.976         3.80357         3.80357    -426.428E-03    -426.428E-03
            2287         165.778         165.778         3.07730         3.07730     229.786E-03     229.786E-03
            2288         165.590         165.590         2.47380         2.47380     780.645E-03     780.645E-03
            2289         165.416         165.416         1.97177         1.97177         1.23987         1.23987
            2290         165.259         165.259         1.55537         1.55537         1.61977         1.61977
            2291         165.119         165.119         1.20959         1.20959         1.93179         1.93179
            2292         164.999         164.999     922.577E-03     922.577E-03         2.18607         2.18607
            2293         164.896         164.896     683.134E-03     683.134E-03         2.39164         2.39164
            2294         164.813         164.813     481.824E-03     481.824E-03         2.55633         2.55633
            2295         164.747         164.747     309.640E-03     309.640E-03         2.68688         2.68688
            2296         164.701         164.701     158.494E-03     158.494E-03         2.78898         2.78898
            2297         164.674         164.674     20.5122E-03     20.5122E-03         2.86728         2.86728
            2298         164.669         164.669    -111.742E-03    -111.742E-03         2.92548         2.92548
            2299         164.688         164.688    -245.619E-03    -245.619E-03         2.96627         2.96627
            2300         164.733         164.733    -388.238E-03    -388.238E-03         2.99131         2.99131
            2301         164.810         164.810    -546.566E-03    -546.566E-03         3.00112         3.00112
            2302         164.923         164.923    -727.188E-03    -727.188E-03         2.99494         2.99494
            2303         165.078         165.078    -936.058E-03    -936.058E-03         2.97044         2.97044
            2304         165.284         165.284        -1.17797        -1.17797         2.92344         2.92344
            2305         165.547         165.547        -1.45575        -1.45575         2.84735         2.84735
            2306         165.876         165.876        -1.76905        -1.76905         2.73287         2.73287
            2307         166.277         166.277        -2.11264        -2.11264         2.56739         2.56739
            2308         166.754         166.754        -2.47399        -2.47399         2.33519         2.33519
            2309         167.304         167.304        -2.83072        -2.83072         2.01789         2.01789
            2310         167.915         167.915        -3.14711        -3.14711         1.59686         1.59686
            2311         168.565         168.565        -3.37332        -3.37332         1.05685         1.05685
            2312         169.213         169.213        -3.44201        -3.44201     390.354E-03     390.354E-03
            2313         169.800         169.800        -3.27026        -3.27026    -391.181E-03    -391.181E-03
            2314         158.460         158.460         44.4566         44.4566        -19.6383        -19.6383
            2315         160.554         160.554         39.0472         39.0472        -19.3717        -19.3717
            2316         162.495         162.495         33.6178         33.6178        -18.3989        -18.3989
            2317         164.126         164.126         28.4474         28.4474        -16.9268        -16.9268
            2318         165.364         165.364         23.7518         23.7518        -15.1186        -15.1186
            2319         166.222         166.222         19.6261         19.6261        -13.1134        -13.1134
            2320         166.702         166.702         16.1207         16.1207        -11.0636        -11.0636
            2321         166.907         166.907         13.1923         13.1923        -9.09576        -9.09576
            2322         166.891         166.891         10.7746         10.7746        -7.26821        -7.26821
            2323         166.741         166.741         8.79390         8.79390        -5.63352        -5.63352
            2324         166.508         166.508         7.16663         7.16663        -4.19127        -4.19127
            2325         166.236         166.236         5.83573         5.83573        -2.94424        -2.94424
            2326         165.953         165.953         4.74005         4.74005        -1.87460        -1.87460
            2327         165.678         165.678         3.84080         3.84080    -967.878E-03    -967.878E-03
            2328         165.424         165.424         3.09855         3.09855    -204.231E-03    -204.231E-03
            2329         165.195         165.195         2.48756         2.48756     433.578E-03     433.578E-03
            2330         164.997         164.997         1.98277         1.98277     962.825E-03     962.825E-03
            2331         164.830         164.830         1.56683         1.56683         1.39873         1.39873
            2332         164.693         164.693         1.22329         1.22329         1.75509         1.75509
            2333         164.584         164.584     939.902E-03     939.902E-03         2.04402         2.04402
            2334         164.502         164.502     705.203E-03     705.203E-03         2.27604         2.27604
            2335         164.446         164.446     509.987E-03     509.987E-03         2.46026         2.46026
            2336         164.413         164.413     345.556E-03     345.556E-03         2.60432         2.60432
            2337         164.402         164.402     204.402E-03     204.402E-03         2.71468         2.71468
            2338         164.413         164.413     79.2886E-03     79.2886E-03         2.79653         2.79653
            2339         164.446         164.446    -36.4310E-03    -36.4310E-03         2.85395         2.85395
            2340         164.500         164.500    -149.283E-03    -149.283E-03         2.88990         2.88990
            2341         164.577         164.577    -265.483E-03    -265.483E-03         2.90628         2.90628
            2342         164.679         164.679    -391.111E-03    -391.111E-03         2.90384         2.90384
            2343         164.809         164.809    -531.885E-03    -531.885E-03         2.88216         2.88216
            2344         164.971         164.971    -693.044E-03    -693.044E-03         2.83953         2.83953
            2345         165.169         165.169    -878.923E-03    -878.923E-03         2.77282         2.77282
            2346         165.408         165.408        -1.09243        -1.09243         2.67727         2.67727
            2347         165.693         165.693        -1.33416        -1.33416         2.54635         2.54635
            2348         166.028         166.028        -1.60133        -1.60133         2.37165         2.37165
            2349         166.413         166.413        -1.88617        -1.88617         2.14302         2.14302
            2350         166.848         166.848        -2.17433        -2.17433         1.84909         1.84909
            2351         167.325         167.325        -2.44271        -2.44271         1.47861         1.47861
            2352         167.828         167.828        -2.65853        -2.65853         1.02278         1.02278
            2353         168.333         168.333        -2.77773        -2.77773     478.240E-03     478.240E-03
            2354         168.802         168.802        -2.74659        -2.74659    -146.837E-03    -146.837E-03
            2355         169.189         169.189        -2.50563        -2.50563    -826.861E-03    -826.861E-03
            2356         159.808         159.808         44.2589         44.2589        -21.8779        -21.8779
            2357         162.106         162.106         38.2070         38.2070        -21.5149        -21.5149
            2358         164.111         164.111         32.1687         32.1687        -20.1971        -20.1971
            2359         165.672         165.672         26.5445         26.5445        -18.3158        -18.3158
            2360         166.741         166.741         21.5622         21.5622        -16.0291        -16.0291
            2361         167.274         167.274         17.3759         17.3759        -13.5932        -13.5932
            2362         167.431         167.431         13.9441         13.9441        -11.2158        -11.2158
            2363         167.281         167.281         11.1852         11.1852        -8.99848        -8.99848
            2364         166.967         166.967         8.98878         8.98878        -7.03344        -7.03344
            2365         166.562         166.562         7.22698         7.22698        -5.31441        -5.31441
            2366         166.130         166.130         5.82170         5.82170        -3.84537        -3.84537
            2367         165.709         165.709         4.68621         4.68621        -2.59781        -2.59781
            2368         165.321         165.321         3.77177         3.77177        -1.55045        -1.55045
            2369         164.979         164.979         3.02715         3.02715    -675.744E-03    -675.744E-03
            2370         164.688         164.688         2.42228         2.42228     49.5244E-03     49.5244E-03
            2371         164.447         164.447         1.92723         1.92723     647.454E-03     647.454E-03
            2372         164.257         164.257         1.52298         1.52298         1.13724         1.13724
            2373         164.113         164.113         1.19136         1.19136         1.53561         1.53561
            2374         164.011         164.011     919.804E-03     919.804E-03         1.85712         1.85712
            2375         163.947         163.947     696.523E-03     696.523E-03         2.11405         2.11405
            2376         163.917         163.917     512.621E-03     512.621E-03         2.31700         2.31700
            2377         163.918         163.918     359.759E-03     359.759E-03         2.47471         2.47471
            2378         163.947         163.947     231.074E-03     231.074E-03         2.59453         2.59453
            2379         163.999         163.999     120.023E-03     120.023E-03         2.68230         2.68230
            2380         164.075         164.075     20.7937E-03     20.7937E-03         2.74269         2.74269
            2381         164.171         164.171    -72.2774E-03    -72.2774E-03         2.77908         2.77908
            2382         164.288         164.288    -164.490E-03    -164.490E-03         2.79375         2.79375
            2383         164.426         164.426    -261.032E-03    -261.032E-03         2.78779         2.78779
            2384         164.585         164.585    -366.790E-03    -366.790E-03         2.76121         2.76121
            2385         164.767         164.767    -486.330E-03    -486.330E-03         2.71286         2.71286
            2386         164.974         164.974    -623.592E-03    -623.592E-03         2.64039         2.64039
            2387         165.208         165.208    -781.558E-03    -781.558E-03         2.54025         2.54025
            2388         165.472         165.472    -961.652E-03    -961.652E-03         2.40766         2.40766
            2389         165.768         165.768        -1.16302        -1.16302         2.23667         2.23667
            2390         166.095         166.095        -1.38150        -1.38150         2.02040         2.02040
            2391         166.453         166.453        -1.60849        -1.60849         1.75146         1.75146
            2392         166.837         166.837        -1.82963        -1.82963         1.42288         1.42288
            2393         167.237         167.237        -2.02388        -2.02388         1.02956         1.02956
            2394         167.636         167.636        -2.16264        -2.16264     570.298E-03     570.298E-03
            2395         168.012         168.012        -2.21042        -2.21042     51.1274E-03     51.1274E-03
            2396         168.335         168.335        -2.12699        -2.12699    -511.304E-03    -511.304E-03
            2397         168.572         168.572        -1.87245        -1.87245        -1.08512        -1.08512
            2398         161.752         161.752         43.9651         43.9651        -24.3695        -24.3695
            2399         164.180         164.180         37.0662         37.0662        -23.7482        -23.7482
            2400         166.228         166.228         30.2488         30.2488        -22.0076        -22.0076
            2401         167.644         167.644         24.0520         24.0520        -19.4723        -19.4723
            2402         168.282         168.282         18.8746         18.8746        -16.5783        -16.5783
            2403         168.378         168.378         14.7150         14.7150        -13.6658        -13.6658
            2404         168.008         168.008         11.4948         11.4948        -10.9312        -10.9312
            2405         167.427         167.427         9.03416         9.03416        -8.54937        -8.54937
            2406         166.753         166.753         7.12244         7.12244        -6.49554        -6.49554
            2407         166.077         166.077         5.64991         5.64991        -4.77222        -4.77222
            2408         165.451         165.451         4.48876         4.48876        -3.33102        -3.33102
            2409         164.897         164.897         3.57742         3.57742        -2.13805        -2.13805
            2410         164.427         164.427         2.84841         2.84841        -1.15391        -1.15391
            2411         164.042         164.042         2.26669         2.26669    -346.149E-03    -346.149E-03
            2412         163.740         163.740         1.79644         1.79644     313.764E-03     313.764E-03
            2413         163.512         163.512         1.41703         1.41703     850.445E-03     850.445E-03
            2414         163.352         163.352         1.10846         1.10846         1.28407         1.28407
            2415         163.252         163.252     857.964E-03     857.964E-03         1.63222         1.63222
            2416         163.206         163.206     653.547E-03     653.547E-03         1.90909         1.90909
            2417         163.204         163.204     486.735E-03     486.735E-03         2.12692         2.12692
            2418         163.242         163.242     349.646E-03     349.646E-03         2.29557         2.29557
            2419         163.314         163.314     236.140E-03     236.140E-03         2.42337         2.42337
            2420         163.415         163.415     140.428E-03     140.428E-03         2.51685         2.51685
            2421         163.541         163.541     57.5762E-03     57.5762E-03         2.58129         2.58129
            2422         163.689         163.689    -17.1799E-03    -17.1799E-03         2.62057         2.62057
            2423         163.856         163.856    -88.1943E-03    -88.1943E-03         2.63743         2.63743
            2424         164.041         164.041    -159.735E-03    -159.735E-03         2.63341         2.63341
            2425         164.243         164.243    -235.812E-03    -235.812E-03         2.60897         2.60897
            2426         164.461         164.461    -320.260E-03    -320.260E-03         2.56347         2.56347
            2427         164.695         164.695    -416.508E-03    -416.508E-03         2.49524         2.49524
            2428         164.945         164.945    -527.422E-03    -527.422E-03         2.40155         2.40155
            2429         165.211         165.211    -654.892E-03    -654.892E-03         2.27875         2.27875
            2430         165.495         165.495    -799.389E-03    -799.389E-03         2.12234         2.12234
            2431         165.795         165.795    -959.262E-03    -959.262E-03         1.92724         1.92724
            2432         166.110         166.110        -1.13002        -1.13002         1.68819         1.68819
            2433         166.436         166.436        -1.30339        -1.30339         1.40043         1.40043
            2434         166.766         166.766        -1.46663        -1.46663         1.06073         1.06073
            2435         167.091         167.091        -1.60179        -1.60179     668.657E-03     668.657E-03
            2436         167.395         167.395        -1.68592        -1.68592     228.704E-03     228.704E-03
            2437         167.660         167.660        -1.69200        -1.69200    -247.769E-03    -247.769E-03
            2438         167.864         167.864        -1.59155        -1.59155    -739.820E-03    -739.820E-03
            2439         167.987         167.987        -1.35937        -1.35937        -1.21526        -1.21526
            2440         164.388         164.388         43.5825         43.5825        -27.0789        -27.0789
            2441         167.129         167.129         35.4333         35.4333        -26.1895        -26.1895
            2442         169.103         169.103         27.5333         27.5333        -23.5778        -23.5778
            2443         169.975         169.975         20.8397         20.8397        -20.1860        -20.1860
            2444         170.022         170.022         15.5424         15.5424        -16.5359        -16.5359
            2445         169.278         169.278         11.6636         11.6636        -13.0632        -13.0632
            2446         168.250         168.250         8.87906         8.87906        -10.1335        -10.1335
            2447         167.150         167.150         6.80456         6.80456        -7.66765        -7.66765
            2448         166.100         166.100         5.28377         5.28377        -5.65514        -5.65514
            2449         165.171         165.171         4.12114         4.12114        -4.01062        -4.01062
            2450         164.379         164.379         3.23982         3.23982        -2.67588        -2.67588
            2451         163.732         163.732         2.55052         2.55052        -1.59389        -1.59389
            2452         163.220         163.220         2.01324         2.01324    -717.799E-03    -717.799E-03
            2453         162.832         162.832         1.58575         1.58575    -10.9355E-03    -10.9355E-03
            2454         162.554         162.554         1.24610         1.24610     558.564E-03     558.564E-03
            2455         162.372         162.372     972.874E-03     972.874E-03         1.01469         1.01469
            2456         162.272         162.272     753.355E-03     753.355E-03         1.37853         1.37853
            2457         162.243         162.243     575.701E-03     575.701E-03         1.66611         1.66611
            2458         162.274         162.274     432.037E-03     432.037E-03         1.89140         1.89140
            2459         162.355         162.355     315.139E-03     315.139E-03         2.06519         2.06519
            2460         162.477         162.477     219.678E-03     219.678E-03         2.19671         2.19671
            2461         162.635         162.635     140.712E-03     140.712E-03         2.29306         2.29306
            2462         162.821         162.821     74.2154E-03     74.2154E-03         2.36009         2.36009
            2463         163.031         163.031     16.3511E-03     16.3511E-03         2.40209         2.40209
            2464         163.261         163.261    -36.2811E-03    -36.2811E-03         2.42228         2.42228
            2465         163.507         163.507    -87.0080E-03    -87.0080E-03         2.42260         2.42260
            2466         163.767         163.767    -138.930E-03    -138.930E-03         2.40403         2.40403
            2467         164.037         164.037    -195.064E-03    -195.064E-03         2.36644         2.36644
            2468         164.317         164.317    -258.188E-03    -258.188E-03         2.30874         2.30874
            2469         164.605         164.605    -330.792E-03    -330.792E-03         2.22891         2.22891
            2470         164.899         164.899    -414.820E-03    -414.820E-03         2.12408         2.12408
            2471         165.199         165.199    -511.425E-03    -511.425E-03         1.99067         1.99067
            2472         165.501         165.501    -620.513E-03    -620.513E-03         1.82465         1.82465
            2473         165.805         165.805    -740.291E-03    -740.291E-03         1.62182         1.62182
            2474         166.106         166.106    -866.626E-03    -866.626E-03         1.37841         1.37841
            2475         166.399         166.399    -992.530E-03    -992.530E-03         1.09178         1.09178
            2476         166.678         166.678        -1.10757        -1.10757     761.381E-03     761.381E-03
            2477         166.932         166.932        -1.19777        -1.19777     390.107E-03     390.107E-03
            2478         167.150         167.150        -1.24586        -1.24586    -14.3792E-03    -14.3792E-03
            2479         167.319         167.319        -1.23247        -1.23247    -437.972E-03    -437.972E-03
            2480         167.424         167.424        -1.13851        -1.13851    -859.057E-03    -859.057E-03
            2481         167.453         167.453    -948.640E-03    -948.640E-03        -1.24786        -1.24786
            2482         168.617         168.617         42.8541         42.8541        -30.3026        -30.3026
            2483         171.356         171.356         32.8634         32.8634        -28.4431        -28.4431
            2484         172.788         172.788         23.7584         23.7584        -24.7176        -24.7176
            2485         172.890         172.890         16.4946         16.4946        -19.9893        -19.9893
            2486         171.459         171.459         11.6043         11.6043        -15.3560        -15.3560
            2487         169.637         169.637         8.43979         8.43979        -11.6742        -11.6742
            2488         167.838         167.838         6.20494         6.20494        -8.70171        -8.70171
            2489         166.209         166.209         4.68013         4.68013        -6.37252        -6.37252
            2490         164.839         164.839         3.55822         3.55822        -4.53438        -4.53438
            2491         163.714         163.714         2.74640         2.74640        -3.08119        -3.08119
            2492         162.830         162.830         2.12907         2.12907        -1.93170        -1.93170
            2493         162.153         162.153         1.66202         1.66202        -1.01694        -1.01694
            2494         161.660         161.660         1.29781         1.29781    -291.120E-03    -291.120E-03
            2495         161.322         161.322         1.01389         1.01389     286.860E-03     286.860E-03
            2496         161.115         161.115     788.620E-03     788.620E-03     744.508E-03     744.508E-03
            2497         161.018         161.018     609.819E-03     609.819E-03         1.10663         1.10663
            2498         161.014         161.014     466.517E-03     466.517E-03         1.39058         1.39058
            2499         161.085         161.085     351.677E-03     351.677E-03         1.61182         1.61182
            2500         161.218         161.218     259.087E-03     259.087E-03         1.78164         1.78164
            2501         161.402         161.402     184.327E-03     184.327E-03         1.90986         1.90986
            2502         161.628         161.628     123.429E-03     123.429E-03         2.00383         2.00383
            2503         161.887         161.887     73.2889E-03     73.2889E-03         2.06972         2.06972
            2504         162.173         162.173     31.0145E-03     31.0145E-03         2.11206         2.11206
            2505         162.478         162.478    -5.87131E-03    -5.87131E-03         2.13437         2.13437
            2506         162.800         162.800    -39.7703E-03    -39.7703E-03         2.13895         2.13895
            2507         163.133         163.133    -72.8848E-03    -72.8848E-03         2.12719         2.12719
            2508         163.474         163.474    -107.385E-03    -107.385E-03         2.09944         2.09944
            2509         163.820         163.820    -145.296E-03    -145.296E-03         2.05520         2.05520
            2510         164.168         164.168    -188.536E-03    -188.536E-03         1.99308         1.99308
            2511         164.514         164.514    -238.750E-03    -238.750E-03         1.91094         1.91094
            2512         164.857         164.857    -297.211E-03    -297.211E-03         1.80593         1.80593
            2513         165.192         165.192    -364.548E-03    -364.548E-03         1.67473         1.67473
            2514         165.517         165.517    -440.494E-03    -440.494E-03         1.51379         1.51379
            2515         165.826         165.826    -523.476E-03    -523.476E-03         1.31975         1.31975
            2516         166.117         166.117    -610.270E-03    -610.270E-03         1.08997         1.08997
            2517         166.381         166.381    -695.558E-03    -695.558E-03     823.227E-03     823.227E-03
            2518         166.612         166.612    -771.722E-03    -771.722E-03     520.716E-03     520.716E-03
            2519         166.802         166.802    -828.754E-03    -828.754E-03     186.965E-03     186.965E-03
            2520         166.942         166.942    -854.703E-03    -854.703E-03    -168.971E-03    -168.971E-03
            2521         167.023         167.023    -836.657E-03    -836.657E-03    -532.695E-03    -532.695E-03
            2522         167.038         167.038    -762.483E-03    -762.483E-03    -883.921E-03    -883.921E-03
            2523         166.982         166.982    -623.318E-03    -623.318E-03        -1.19671        -1.19671
            2524         174.796         174.796         41.5927         41.5927        -33.5558        -33.5558
            2525         177.622         177.622         28.7752         28.7752        -30.6995        -30.6995
            2526         178.120         178.120         17.7362         17.7362        -24.3132        -24.3132
            2527         175.251         175.251         11.1154         11.1154        -17.6467        -17.6467
            2528         171.881         171.881         7.57979         7.57979        -12.8960        -12.8960
            2529         168.897         168.897         5.23579         5.23579        -9.34086        -9.34086
            2530         166.362         166.362         3.79805         3.79805        -6.70847        -6.70847
            2531         164.357         164.357         2.78855         2.78855        -4.73824        -4.73824
            2532         162.784         162.784         2.10081         2.10081        -3.23109        -3.23109
            2533         161.599         161.599         1.59645         1.59645        -2.07890        -2.07890
            2534         160.727         160.727         1.22802         1.22802        -1.18075        -1.18075
            2535         160.117         160.117     948.379E-03     948.379E-03    -483.656E-03    -483.656E-03
            2536         159.719         159.719     734.869E-03     734.869E-03     63.9383E-03     63.9383E-03
            2537         159.497         159.497     568.649E-03     568.649E-03     491.234E-03     491.234E-03
            2538         159.416         159.416     438.361E-03     438.361E-03     826.179E-03     826.179E-03
            2539         159.451         159.451     335.262E-03     335.262E-03         1.08620         1.08620
            2540         159.579         159.579     253.324E-03     253.324E-03         1.28744         1.28744
            2541         159.782         159.782     187.900E-03     187.900E-03         1.44083         1.44083
            2542         160.045         160.045     135.528E-03     135.528E-03         1.55618         1.55618
            2543         160.356         160.356     93.3957E-03     93.3957E-03         1.64050         1.64050
            2544         160.704         160.704     59.2862E-03     59.2862E-03         1.69984         1.69984
            2545         161.081         161.081     31.2549E-03     31.2549E-03         1.73856         1.73856
            2546         161.479         161.479     7.66724E-03     7.66724E-03         1.76022         1.76022
            2547         161.892         161.892    -13.0196E-03    -13.0196E-03         1.76721         1.76721
            2548         162.316         162.316    -32.1916E-03    -32.1916E-03         1.76118         1.76118
            2549         162.746         162.746    -51.2187E-03    -51.2187E-03         1.74286         1.74286
            2550         163.177         163.177    -71.3812E-03    -71.3812E-03         1.71227         1.71227
            2551         163.605         163.605    -93.9369E-03    -93.9369E-03         1.66862         1.66862
            2552         164.028         164.028    -120.027E-03    -120.027E-03         1.61048         1.61048
            2553         164.440         164.440    -150.661E-03    -150.661E-03         1.53578         1.53578
            2554         164.837         164.837    -186.569E-03    -186.569E-03         1.44192         1.44192
            2555         165.215         165.215    -228.097E-03    -228.097E-03         1.32598         1.32598
            2556         165.569         165.569    -274.973E-03    -274.973E-03         1.18497         1.18497
            2557         165.892         165.892    -326.118E-03    -326.118E-03         1.01621         1.01621
            2558         166.178         166.178    -379.358E-03    -379.358E-03     817.832E-03     817.832E-03
            2559         166.420         166.420    -431.247E-03    -431.247E-03     589.453E-03     589.453E-03
            2560         166.611         166.611    -476.878E-03    -476.878E-03     332.888E-03     332.888E-03
            2561         166.743         166.743    -509.962E-03    -509.962E-03     53.0240E-03     53.0240E-03
            2562         166.809         166.809    -523.118E-03    -523.118E-03    -241.478E-03    -241.478E-03
            2563         166.806         166.806    -508.575E-03    -508.575E-03    -537.597E-03    -537.597E-03
            2564         166.730         166.730    -459.304E-03    -459.304E-03    -817.941E-03    -817.941E-03
            2565         166.584         166.584    -370.471E-03    -370.471E-03        -1.06119        -1.06119
            2566         187.228         187.228         38.3730         38.3730        -38.3464        -38.3464
            2567         188.458         188.458         19.8810         19.8810        -29.7632        -29.7632
            2568         181.980         181.980         9.78254         9.78254        -19.3356        -19.3356
            2569         175.306         175.306         6.10457         6.10457        -13.0934        -13.0934
            2570         170.269         170.269         3.83253         3.83253        -9.06777        -9.06777
            2571         166.352         166.352         2.63558         2.63558        -6.28457        -6.28457
            2572         163.478         163.478         1.84935         1.84935        -4.36745        -4.36745
            2573         161.347         161.347         1.34744         1.34744        -2.95275        -2.95275
            2574         159.819         159.819         1.00049         1.00049        -1.92196        -1.92196
            2575         158.746         158.746     753.935E-03     753.935E-03        -1.13570        -1.13570
            2576         158.035         158.035     575.402E-03     575.402E-03    -542.864E-03    -542.864E-03
            2577         157.604         157.604     440.659E-03     440.659E-03    -83.6973E-03    -83.6973E-03
            2578         157.396         157.396     339.260E-03     339.260E-03     268.138E-03     268.138E-03
            2579         157.362         157.362     260.178E-03     260.178E-03     541.260E-03     541.260E-03
            2580         157.468         157.468     198.990E-03     198.990E-03     750.730E-03     750.730E-03
            2581         157.683         157.683     150.488E-03     150.488E-03     911.690E-03     911.690E-03
            2582         157.983         157.983     112.320E-03     112.320E-03         1.03333         1.03333
            2583         158.351         158.351     81.8673E-03     81.8673E-03         1.12432         1.12432
            2584         158.771         158.771     57.6671E-03     57.6671E-03         1.19046         1.19046
            2585         159.230         159.230     38.2641E-03     38.2641E-03         1.23698         1.23698
            2586         159.718         159.718     22.6328E-03     22.6328E-03         1.26753         1.26753
            2587         160.228         160.228     9.83392E-03     9.83392E-03         1.28519         1.28519
            2588         160.752         160.752    -937.549E-06    -937.549E-06         1.29210         1.29210
            2589         161.285         161.285    -10.4069E-03    -10.4069E-03         1.28984         1.28984
            2590         161.821         161.821    -19.2788E-03    -19.2788E-03         1.27930         1.27930
            2591         162.357         162.357    -28.2023E-03    -28.2023E-03         1.26084         1.26084
            2592         162.886         162.886    -37.8356E-03    -37.8356E-03         1.23421         1.23421
            2593         163.407         163.407    -48.7860E-03    -48.7860E-03         1.19866         1.19866
            2594         163.913         163.913    -61.6412E-03    -61.6412E-03         1.15293         1.15293
            2595         164.400         164.400    -76.8909E-03    -76.8909E-03         1.09530         1.09530
            2596         164.862         164.862    -94.9101E-03    -94.9101E-03         1.02369         1.02369
            2597         165.293         165.293    -115.846E-03    -115.846E-03     935.791E-03     935.791E-03
            2598         165.686         165.686    -139.551E-03    -139.551E-03     829.305E-03     829.305E-03
            2599         166.033         166.033    -165.430E-03    -165.430E-03     702.212E-03     702.212E-03
            2600         166.326         166.326    -192.349E-03    -192.349E-03     553.202E-03     553.202E-03
            2601         166.556         166.556    -218.487E-03    -218.487E-03     382.151E-03     382.151E-03
            2602         166.715         166.715    -241.310E-03    -241.310E-03     190.718E-03     190.718E-03
            2603         166.796         166.796    -257.569E-03    -257.569E-03    -17.0867E-03    -17.0867E-03
            2604         166.792         166.792    -263.517E-03    -263.517E-03    -234.368E-03    -234.368E-03
            2605         166.702         166.702    -255.266E-03    -255.266E-03    -451.070E-03    -451.070E-03
            2606         166.527         166.527    -229.367E-03    -229.367E-03    -654.043E-03    -654.043E-03
            2607         166.275         166.275    -183.538E-03    -183.538E-03    -827.426E-03    -827.426E-03
            2608         211.225         211.225         26.0648         26.0648        -33.7290        -33.7290
            2609         193.595         193.595         7.34784         7.34784        -18.3628        -18.3628
            2610         179.681         179.681         3.88570         3.88570        -10.5402        -10.5402
            2611         171.270         171.270         2.16289         2.16289        -6.90681        -6.90681
            2612         165.482         165.482         1.34088         1.34088        -4.50760        -4.50760
            2613         161.591         161.591     910.015E-03     910.015E-03        -3.07689        -3.07689
            2614         158.902         158.902     619.346E-03     619.346E-03        -2.04350        -2.04350
            2615         157.084         157.084     456.336E-03     456.336E-03        -1.34400        -1.34400
            2616         155.885         155.885     329.269E-03     329.269E-03    -817.820E-03    -817.820E-03
            2617         155.150         155.150     251.413E-03     251.413E-03    -436.643E-03    -436.643E-03
            2618         154.761         154.761     187.616E-03     187.616E-03    -144.312E-03    -144.312E-03
            2619         154.636         154.636     144.970E-03     144.970E-03     74.6918E-03     74.6918E-03
            2620         154.713         154.713     109.703E-03     109.703E-03     243.537E-03     243.537E-03
            2621         154.945         154.945     84.4160E-03     84.4160E-03     371.352E-03     371.352E-03
            2622         155.296         155.296     63.6236E-03     63.6236E-03     469.129E-03     469.129E-03
            2623         155.739         155.739     47.9792E-03     47.9792E-03     542.460E-03     542.460E-03
            2624         156.251         156.251     35.2460E-03     35.2460E-03     597.199E-03     597.199E-03
            2625         156.814         156.814     25.3827E-03     25.3827E-03     636.874E-03     636.874E-03
            2626         157.415         157.415     17.4297E-03     17.4297E-03     664.865E-03     664.865E-03
            2627         158.043         158.043     11.1477E-03     11.1477E-03     683.415E-03     683.415E-03
            2628         158.689         158.689     6.07450E-03     6.07450E-03     694.529E-03     694.529E-03
            2629         159.346         159.346     1.93924E-03     1.93924E-03     699.569E-03     699.569E-03
            2630         160.008         160.008    -1.53511E-03    -1.53511E-03     699.647E-03     699.647E-03
            2631         160.671         160.671    -4.60985E-03    -4.60985E-03     695.437E-03     695.437E-03
            2632         161.329         161.329    -7.50301E-03    -7.50301E-03     687.358E-03     687.358E-03
            2633         161.979         161.979    -10.4637E-03    -10.4637E-03     675.479E-03     675.479E-03
            2634         162.616         162.616    -13.6965E-03    -13.6965E-03     659.605E-03     659.605E-03
            2635         163.238         163.238    -17.4350E-03    -17.4350E-03     639.229E-03     639.229E-03
            2636         163.838         163.838    -21.8673E-03    -21.8673E-03     613.591E-03     613.591E-03
            2637         164.411         164.411    -27.1814E-03    -27.1814E-03     581.669E-03     581.669E-03
            2638         164.950         164.950    -33.4965E-03    -33.4965E-03     542.254E-03     542.254E-03
            2639         165.448         165.448    -40.8752E-03    -40.8752E-03     494.013E-03     494.013E-03
            2640         165.896         165.896    -49.2520E-03    -49.2520E-03     435.613E-03     435.613E-03
            2641         166.283         166.283    -58.4223E-03    -58.4223E-03     365.899E-03     365.899E-03
            2642         166.599         166.599    -67.9645E-03    -67.9645E-03     284.110E-03     284.110E-03
            2643         166.832         166.832    -77.2349E-03    -77.2349E-03     190.180E-03     190.180E-03
            2644         166.972         166.972    -85.3079E-03    -85.3079E-03     85.0397E-03     85.0397E-03
            2645         167.010         167.010    -91.0333E-03    -91.0333E-03    -29.0328E-03    -29.0328E-03
            2646         166.938         166.938    -93.0583E-03    -93.0583E-03    -148.158E-03    -148.158E-03
            2647         166.755         166.755    -90.0198E-03    -90.0198E-03    -266.705E-03    -266.705E-03
            2648         166.464         166.464    -80.7241E-03    -80.7241E-03    -377.359E-03    -377.359E-03
            2649         166.078         166.078    -64.3613E-03    -64.3613E-03    -471.251E-03    -471.251E-03
            2650         173.938         173.938        -5.45811        -5.45811     460.600E-03     460.600E-03
            2651         172.805         172.805        -3.78239        -3.78239         1.49916         1.49916
            2652         171.595         171.595        -2.51144        -2.51144         1.99524         1.99524
            2653         170.476         170.476        -1.60675        -1.60675         2.17335         2.17335
            2654         169.492         169.492    -989.393E-03    -989.393E-03         2.17730         2.17730
            2655         168.638         168.638    -582.452E-03    -582.452E-03         2.09085         2.09085
            2656         167.891         167.891    -323.994E-03    -323.994E-03         1.95652         1.95652
            2657         167.227         167.227    -167.369E-03    -167.369E-03         1.79066         1.79066
            2658         166.620         166.620    -78.4194E-03    -78.4194E-03         1.59166         1.59166
            2659         166.052         166.052    -32.2595E-03    -32.2595E-03         1.34383         1.34383
            2660         165.504         165.504    -10.9952E-03    -10.9952E-03         1.01777         1.01777
            2661         164.967         164.967    -2.69216E-03    -2.69216E-03     571.209E-03     571.209E-03
            2662         175.119         175.119        -3.22253        -3.22253         2.72387         2.72387
            2663         173.247         173.247        -1.55775        -1.55775         3.10430         3.10430
            2664         171.652         171.652    -528.580E-03    -528.580E-03         3.05939         3.05939
            2665         170.348         170.348     57.5597E-03     57.5597E-03         2.84087         2.84087
            2666         169.286         169.286     354.341E-03     354.341E-03         2.57012         2.57012
            2667         168.404         168.404     468.689E-03     468.689E-03         2.29906         2.29906
            2668         167.647         167.647     471.307E-03     471.307E-03         2.04397         2.04397
            2669         166.970         166.970     408.710E-03     408.710E-03         1.80236         1.80236
            2670         166.333         166.333     312.674E-03     312.674E-03         1.56028         1.56028
            2671         165.701         165.701     206.621E-03     206.621E-03         1.29421         1.29421
            2672         165.042         165.042     109.821E-03     109.821E-03     969.867E-03     969.867E-03
            2673         164.319         164.319     40.2133E-03     40.2133E-03     541.542E-03     541.542E-03
            2674         175.247         175.247     834.743E-03     834.743E-03         4.61968         4.61968
            2675         172.915         172.915         1.77501         1.77501         4.11580         4.11580
            2676         171.184         171.184         2.08952         2.08952         3.51600         3.51600
            2677         169.881         169.881         2.06946         2.06946         2.96485         2.96485
            2678         168.867         168.867         1.87855         1.87855         2.50181         2.50181
            2679         168.041         168.041         1.60675         1.60675         2.12361         2.12361
            2680         167.330         167.330         1.30317         1.30317         1.81385         1.81385
            2681         166.678         166.678     996.202E-03     996.202E-03         1.55164         1.55164
            2682         166.041         166.041     704.372E-03     704.372E-03         1.31362         1.31362
            2683         165.372         165.372     442.893E-03     442.893E-03         1.07292         1.07292
            2684         164.626         164.626     228.367E-03     228.367E-03     796.380E-03     796.380E-03
            2685         163.747         163.747     82.2053E-03     82.2053E-03     442.456E-03     442.456E-03
            2686         174.254         174.254         6.12306         6.12306         5.03233         5.03233
            2687         171.969         171.969         5.56620         5.56620         3.89457         3.89457
            2688         170.399         170.399         4.80144         4.80144         3.02044         3.02044
            2689         169.262         169.262         4.01771         4.01771         2.37122         2.37122
            2690         168.386         168.386         3.28357         3.28357         1.89098         1.89098
            2691         167.665         167.665         2.61729         2.61729         1.53299         1.53299
            2692         167.029         167.029         2.02094         2.02094         1.26106         1.26106
            2693         166.424         166.424         1.49208         1.49208         1.04671         1.04671
            2694         165.804         165.804         1.02954         1.02954     865.684E-03     865.684E-03
            2695         165.121         165.121     636.780E-03     636.780E-03     694.988E-03     694.988E-03
            2696         164.319         164.319     324.867E-03     324.867E-03     509.873E-03     509.873E-03
            2697         163.328         163.328     116.071E-03     116.071E-03     281.391E-03     281.391E-03
            2698         172.861         172.861         10.8315         10.8315         3.17971         3.17971
            2699         170.977         170.977         8.59247         8.59247         2.18241         2.18241
            2700         169.702         169.702         6.80919         6.80919         1.53533         1.53533
            2701         168.768         168.768         5.38532         5.38532         1.10301         1.10301
            2702         168.032         168.032         4.22928         4.22928     806.606E-03     806.606E-03
            2703         167.409         167.409         3.27469         3.27469     600.107E-03     600.107E-03
            2704         166.839         166.839         2.47462         2.47462     454.214E-03     454.214E-03
            2705         166.277         166.277         1.79783         1.79783     348.902E-03     348.902E-03
            2706         165.678         165.678         1.22583         1.22583     269.603E-03     269.603E-03
            2707         164.994         164.994     751.942E-03     751.942E-03     204.553E-03     204.553E-03
            2708         164.168         164.168     381.910E-03     381.910E-03     143.392E-03     143.392E-03
            2709         163.125         163.125     136.403E-03     136.403E-03     76.4299E-03     76.4299E-03
            2710         172.308         172.308         12.4445         12.4445    -551.215E-03    -551.215E-03
            2711         170.658         170.658         9.48431         9.48431    -593.678E-03    -593.678E-03
            2712         169.512         169.512         7.33701         7.33701    -593.131E-03    -593.131E-03
            2713         168.656         168.656         5.70769         5.70769    -577.067E-03    -577.067E-03
            2714         167.970         167.970         4.42859         4.42859    -552.450E-03    -552.450E-03
            2715         167.380         167.380         3.39706         3.39706    -522.303E-03    -522.303E-03
            2716         166.834         166.834         2.54762         2.54762    -487.171E-03    -487.171E-03
            2717         166.288         166.288         1.83877         1.83877    -446.186E-03    -446.186E-03
            2718         165.700         165.700         1.24629         1.24629    -397.150E-03    -397.150E-03
            2719         165.025         165.025     760.089E-03     760.089E-03    -335.986E-03    -335.986E-03
            2720         164.207         164.207     383.876E-03     383.876E-03    -255.744E-03    -255.744E-03
            2721         163.173         163.173     136.412E-03     136.412E-03    -145.084E-03    -145.084E-03
            2722         173.223         173.223         9.59982         9.59982        -4.18118        -4.18118
            2723         171.298         171.298         7.61914         7.61914        -3.27712        -3.27712
            2724         169.979         169.979         6.05828         6.05828        -2.65551        -2.65551
            2725         169.009         169.009         4.80496         4.80496        -2.20778        -2.20778
            2726         168.247         168.247         3.78023         3.78023        -1.87345        -1.87345
            2727         167.607         167.607         2.92818         2.92818        -1.61371        -1.61371
            2728         167.030         167.030         2.21026         2.21026        -1.40165        -1.40165
            2729         166.468         166.468         1.60124         1.60124        -1.21655        -1.21655
            2730         165.880         165.880         1.08670         1.08670        -1.04019        -1.04019
            2731         165.221         165.221     662.158E-03     662.158E-03    -853.741E-03    -853.741E-03
            2732         164.439         164.439     333.507E-03     333.507E-03    -634.248E-03    -634.248E-03
            2733         163.475         163.475     118.082E-03     118.082E-03    -352.682E-03    -352.682E-03
            2734         174.669         174.669         3.84337         3.84337        -5.39914        -5.39914
            2735         172.405         172.405         3.78695         3.78695        -4.53931        -4.53931
            2736         170.819         170.819         3.41809         3.41809        -3.81784        -3.81784
            2737         169.654         169.654         2.94678         2.94678        -3.24126        -3.24126
            2738         168.752         168.752         2.45613         2.45613        -2.78187        -2.78187
            2739         168.016         168.016         1.98201         1.98201        -2.40979        -2.40979
            2740         167.376         167.376         1.54027         1.54027        -2.09749        -2.09749
            2741         166.782         166.782         1.13880         1.13880        -1.82019        -1.82019
            2742         166.189         166.189     783.491E-03     783.491E-03        -1.55357        -1.55357
            2743         165.557         165.557     481.609E-03     481.609E-03        -1.27098        -1.27098
            2744         164.843         164.843     244.056E-03     244.056E-03    -939.812E-03    -939.812E-03
            2745         163.998         163.998     86.9079E-03     86.9079E-03    -519.940E-03    -519.940E-03
            2746         175.099         175.099        -1.60836        -1.60836        -3.94616        -3.94616
            2747         173.077         173.077    -275.262E-03    -275.262E-03        -3.98515        -3.98515
            2748         171.485         171.485     427.666E-03     427.666E-03        -3.73518        -3.73518
            2749         170.244         170.244     746.404E-03     746.404E-03        -3.40175        -3.40175
            2750         169.262         169.262     839.848E-03     839.848E-03        -3.06383        -3.06383
            2751         168.458         168.458     803.057E-03     803.057E-03        -2.74502        -2.74502
            2752         167.772         167.772     694.267E-03     694.267E-03        -2.44653        -2.44653
            2753         167.157         167.157     550.338E-03     550.338E-03        -2.15785        -2.15785
            2754         166.574         166.574     396.194E-03     396.194E-03        -1.86119        -1.86119
            2755         165.988         165.988     250.461E-03     250.461E-03        -1.53152        -1.53152
            2756         165.368         165.368     128.832E-03     128.832E-03        -1.13485        -1.13485
            2757         164.682         164.682     46.1191E-03     46.1191E-03    -627.767E-03    -627.767E-03
            2758         173.999         173.999        -4.79104        -4.79104        -1.39715        -1.39715
            2759         172.774         172.774        -3.15006        -3.15006        -2.32564        -2.32564
            2760         171.555         171.555        -1.96714        -1.96714        -2.72187        -2.72187
            2761         170.477         170.477        -1.16668        -1.16668        -2.82140        -2.82140
            2762         169.558         169.558    -648.926E-03    -648.926E-03        -2.76363        -2.76363
            2763         168.778         168.778    -328.339E-03    -328.339E-03        -2.62294        -2.62294
            2764         168.105         168.105    -141.601E-03    -141.601E-03        -2.43390        -2.43390
            2765         167.510         167.510    -42.9250E-03    -42.9250E-03        -2.20795        -2.20795
            2766         166.967         166.967     513.092E-06     513.092E-06        -1.94082        -1.94082
            2767         166.454         166.454     12.3895E-03     12.3895E-03        -1.61601        -1.61601
            2768         165.953         165.953     9.73828E-03     9.73828E-03        -1.20478        -1.20478
            2769         165.452         165.452     4.02989E-03     4.02989E-03    -667.690E-03    -667.690E-03
            2770         154.917         154.917         45.1371         45.1371         8.40221         8.40221
            2771         156.464         156.464         41.4550         41.4550         8.35879         8.35879
            2772         157.979         157.979         37.7684         37.7684         8.10774         8.10774
            2773         159.423         159.423         34.1464         34.1464         7.73177         7.73177
            2774         160.770         160.770         30.6377         30.6377         7.24430         7.24430
            2775         161.998         161.998         27.2859         27.2859         6.66137         6.66137
            2776         163.092         163.092         24.1273         24.1273         6.00694         6.00694
            2777         164.041         164.041         21.1876         21.1876         5.30495         5.30495
            2778         164.844         164.844         18.4841         18.4841         4.58069         4.58069
            2779         165.504         165.504         16.0233         16.0233         3.85676         3.85676
            2780         166.028         166.028         13.8051         13.8051         3.15211         3.15211
            2781         166.427         166.427         11.8226         11.8226         2.48225         2.48225
            2782         166.715         166.715         10.0643         10.0643         1.85739         1.85739
            2783         166.903         166.903         8.51631         8.51631         1.28491         1.28491
            2784         167.005         167.005         7.16227         7.16227     767.657E-03     767.657E-03
            2785         167.033         167.033         5.98575         5.98575     306.682E-03     306.682E-03
            2786         166.998         166.998         4.96966         4.96966    -99.9494E-03    -99.9494E-03
            2787         166.910         166.910         4.09777         4.09777    -455.033E-03    -455.033E-03
            2788         166.779         166.779         3.35408         3.35408    -762.994E-03    -762.994E-03
            2789         166.611         166.611         2.72379         2.72379        -1.02850        -1.02850
            2790         166.414         166.414         2.19267         2.19267        -1.25694        -1.25694
            2791         166.193         166.193         1.74765         1.74765        -1.45363        -1.45363
            2792         165.953         165.953         1.37632         1.37632        -1.62416        -1.62416
            2793         165.698         165.698         1.06722         1.06722        -1.77394        -1.77394
            2794         165.432         165.432     809.486E-03     809.486E-03        -1.90847        -1.90847
            2795         165.157         165.157     592.951E-03     592.951E-03        -2.03322        -2.03322
            2796         164.877         164.877     407.868E-03     407.868E-03        -2.15377        -2.15377
            2797         164.593         164.593     244.887E-03     244.887E-03        -2.27589        -2.27589
            2798         164.309         164.309     94.7876E-03     94.7876E-03        -2.40568        -2.40568
            2799         164.027         164.027    -51.6688E-03    -51.6688E-03        -2.54972        -2.54972
            2800         163.752         163.752    -204.070E-03    -204.070E-03        -2.71524        -2.71524
            2801         163.488         163.488    -372.711E-03    -372.711E-03        -2.91028        -2.91028
            2802         163.242         163.242    -569.122E-03    -569.122E-03        -3.14381        -3.14381
            2803         163.025         163.025    -806.823E-03    -806.823E-03        -3.42572        -3.42572
            2804         162.850         162.850        -1.10227        -1.10227        -3.76660        -3.76660
            2805         162.743         162.743        -1.47632        -1.47632        -4.17701        -4.17701
            2806         162.736         162.736        -1.95574        -1.95574        -4.66562        -4.66562
            2807         162.884         162.884        -2.57548        -2.57548        -5.23535        -5.23535
            2808         163.264         163.264        -3.37882        -3.37882        -5.87520        -5.87520
            2809         163.995         163.995        -4.41592        -4.41592        -6.54377        -6.54377
            2810         165.232         165.232        -5.71961        -5.71961        -7.13832        -7.13832
            2811         167.153         167.153        -7.26007        -7.26007        -7.45986        -7.45986
            2812         154.666         154.666         45.2035         45.2035         6.45533         6.45533
            2813         156.163         156.163         41.6589         41.6589         6.41980         6.41980
            2814         157.631         157.631         38.1134         38.1134         6.22968         6.22968
            2815         159.039         159.039         34.6252         34.6252         5.95025         5.95025
            2816         160.366         160.366         31.2354         31.2354         5.58822         5.58822
            2817         161.589         161.589         27.9810         27.9810         5.15662         5.15662
            2818         162.696         162.696         24.8934         24.8934         4.66962         4.66962
            2819         163.675         163.675         21.9977         21.9977         4.14511         4.14511
            2820         164.521         164.521         19.3110         19.3110         3.60009         3.60009
            2821         165.234         165.234         16.8435         16.8435         3.05116         3.05116
            2822         165.818         165.818         14.5984         14.5984         2.51280         2.51280
            2823         166.279         166.279         12.5737         12.5737         1.99651         1.99651
            2824         166.627         166.627         10.7625         10.7625         1.51149         1.51149
            2825         166.871         166.871         9.15485         9.15485         1.06334         1.06334
            2826         167.022         167.022         7.73837         7.73837     655.881E-03     655.881E-03
            2827         167.092         167.092         6.49908         6.49908     290.000E-03     290.000E-03
            2828         167.090         167.090         5.42256         5.42256    -34.5239E-03    -34.5239E-03
            2829         167.026         167.026         4.49383         4.49383    -319.823E-03    -319.823E-03
            2830         166.909         166.909         3.69838         3.69838    -568.551E-03    -568.551E-03
            2831         166.747         166.747         3.02185         3.02185    -784.410E-03    -784.410E-03
            2832         166.547         166.547         2.45071         2.45071    -971.250E-03    -971.250E-03
            2833         166.314         166.314         1.97193         1.97193        -1.13342        -1.13342
            2834         166.054         166.054         1.57340         1.57340        -1.27525        -1.27525
            2835         165.770         165.770         1.24364         1.24364        -1.40132        -1.40132
            2836         165.467         165.467     971.986E-03     971.986E-03        -1.51620        -1.51620
            2837         165.147         165.147     748.413E-03     748.413E-03        -1.62470        -1.62470
            2838         164.811         164.811     563.556E-03     563.556E-03        -1.73180        -1.73180
            2839         164.462         164.462     408.549E-03     408.549E-03        -1.84288        -1.84288
            2840         164.099         164.099     274.962E-03     274.962E-03        -1.96385        -1.96385
            2841         163.723         163.723     154.594E-03     154.594E-03        -2.10139        -2.10139
            2842         163.334         163.334     39.2720E-03     39.2720E-03        -2.26328        -2.26328
            2843         162.932         162.932    -79.4895E-03    -79.4895E-03        -2.45874        -2.45874
            2844         162.518         162.518    -210.988E-03    -210.988E-03        -2.69892        -2.69892
            2845         162.093         162.093    -366.039E-03    -366.039E-03        -2.99755        -2.99755
            2846         161.661         161.661    -558.200E-03    -558.200E-03        -3.37159        -3.37159
            2847         161.230         161.230    -805.398E-03    -805.398E-03        -3.84218        -3.84218
            2848         160.817         160.817        -1.13299        -1.13299        -4.43535        -4.43535
            2849         160.453         160.453        -1.57769        -1.57769        -5.18250        -5.18250
            2850         160.196         160.196        -2.19521        -2.19521        -6.11874        -6.11874
            2851         160.152         160.152        -3.06882        -3.06882        -7.27665        -7.27665
            2852         160.519         160.519        -4.32488        -4.32488        -8.66043        -8.66043
            2853         161.629         161.629        -6.11493        -6.11493        -10.1871        -10.1871
            2854         154.494         154.494         45.2527         45.2527         4.56600         4.56600
            2855         155.953         155.953         41.8053         41.8053         4.53513         4.53513
            2856         157.388         157.388         38.3585         38.3585         4.39855         4.39855
            2857         158.770         158.770         34.9649         34.9649         4.20113         4.20113
            2858         160.079         160.079         31.6599         31.6599         3.94893         3.94893
            2859         161.297         161.297         28.4760         28.4760         3.64869         3.64869
            2860         162.409         162.409         25.4419         25.4419         3.31108         3.31108
            2861         163.405         163.405         22.5808         22.5808         2.94664         2.94664
            2862         164.278         164.278         19.9104         19.9104         2.56732         2.56732
            2863         165.026         165.026         17.4421         17.4421         2.18397         2.18397
            2864         165.649         165.649         15.1817         15.1817         1.80646         1.80646
            2865         166.153         166.153         13.1299         13.1299         1.44317         1.44317
            2866         166.542         166.542         11.2831         11.2831         1.10023         1.10023
            2867         166.827         166.827         9.63420         9.63420     782.411E-03     782.411E-03
            2868         167.014         167.014         8.17336         8.17336     492.145E-03     492.145E-03
            2869         167.115         167.115         6.88908         6.88908     230.891E-03     230.891E-03
            2870         167.137         167.137         5.76843         5.76843    -1.70815E-03    -1.70815E-03
            2871         167.092         167.092         4.79807         4.79807    -206.550E-03    -206.550E-03
            2872         166.987         166.987         3.96423         3.96423    -385.689E-03    -385.689E-03
            2873         166.830         166.830         3.25344         3.25344    -541.398E-03    -541.398E-03
            2874         166.628         166.628         2.65247         2.65247    -676.585E-03    -676.585E-03
            2875         166.387         166.387         2.14873         2.14873    -794.197E-03    -794.197E-03
            2876         166.112         166.112         1.73022         1.73022    -897.510E-03    -897.510E-03
            2877         165.807         165.807         1.38573         1.38573    -989.801E-03    -989.801E-03
            2878         165.476         165.476         1.10474         1.10474        -1.07457        -1.07457
            2879         165.120         165.120     877.585E-03     877.585E-03        -1.15542        -1.15542
            2880         164.740         164.740     695.294E-03     695.294E-03        -1.23626        -1.23626
            2881         164.336         164.336     549.678E-03     549.678E-03        -1.32129        -1.32129
            2882         163.908         163.908     433.213E-03     433.213E-03        -1.41534        -1.41534
            2883         163.453         163.453     339.007E-03     339.007E-03        -1.52395        -1.52395
            2884         162.966         162.966     260.674E-03     260.674E-03        -1.65379        -1.65379
            2885         162.443         162.443     192.170E-03     192.170E-03        -1.81307        -1.81307
            2886         161.876         161.876     127.549E-03     127.549E-03        -2.01217        -2.01217
            2887         161.257         161.257     60.4838E-03     60.4838E-03        -2.26450        -2.26450
            2888         160.574         160.574    -16.3579E-03    -16.3579E-03        -2.58783        -2.58783
            2889         159.815         159.815    -112.675E-03    -112.675E-03        -3.00608        -3.00608
            2890         158.964         158.964    -242.368E-03    -242.368E-03        -3.55226        -3.55226
            2891         158.008         158.008    -427.704E-03    -427.704E-03        -4.27258        -4.27258
            2892         156.940         156.940    -705.425E-03    -705.425E-03        -5.23316        -5.23316
            2893         155.767         155.767        -1.14119        -1.14119        -6.52894        -6.52894
            2894         154.552         154.552        -1.85645        -1.85645        -8.29881        -8.29881
            2895         153.501         153.501        -3.08580        -3.08580        -10.7228        -10.7228
            2896         154.385         154.385         45.2858         45.2858         2.71560         2.71560
            2897         155.822         155.822         41.8999         41.8999         2.68841         2.68841
            2898         157.235         157.235         38.5156         38.5156         2.59930         2.59930
            2899         158.600         158.600         35.1818         35.1818         2.47656         2.47656
            2900         159.897         159.897         31.9305         31.9305         2.32249         2.32249
            2901         161.110         161.110         28.7917         28.7917         2.14235         2.14235
            2902         162.225         162.225         25.7921         25.7921         1.94110         1.94110
            2903         163.230         163.230         22.9542         22.9542         1.72569         1.72569
            2904         164.119         164.119         20.2952         20.2952         1.50228         1.50228
            2905         164.887         164.887         17.8277         17.8277         1.27737         1.27737
            2906         165.535         165.535         15.5586         15.5586         1.05653         1.05653
            2907         166.064         166.064         13.4906         13.4906     844.393E-03     844.393E-03
            2908         166.480         166.480         11.6218         11.6218     644.771E-03     644.771E-03
            2909         166.789         166.789         9.94690         9.94690     460.019E-03     460.019E-03
            2910         166.999         166.999         8.45800         8.45800     291.932E-03     291.932E-03
            2911         167.120         167.120         7.14483         7.14483     140.932E-03     140.932E-03
            2912         167.159         167.159         5.99587         5.99587     7.14112E-03     7.14112E-03
            2913         167.126         167.126         4.99850         4.99850    -110.320E-03    -110.320E-03
            2914         167.028         167.028         4.13983         4.13983    -212.427E-03    -212.427E-03
            2915         166.875         166.875         3.40676         3.40676    -300.769E-03    -300.769E-03
            2916         166.672         166.672         2.78649         2.78649    -376.917E-03    -376.917E-03
            2917         166.426         166.426         2.26660         2.26660    -442.771E-03    -442.771E-03
            2918         166.141         166.141         1.83532         1.83532    -500.174E-03    -500.174E-03
            2919         165.823         165.823         1.48156         1.48156    -551.156E-03    -551.156E-03
            2920         165.472         165.472         1.19502         1.19502    -597.723E-03    -597.723E-03
            2921         165.093         165.093     966.235E-03     966.235E-03    -642.044E-03    -642.044E-03
            2922         164.683         164.683     786.636E-03     786.636E-03    -686.374E-03    -686.374E-03
            2923         164.244         164.244     648.531E-03     648.531E-03    -733.225E-03    -733.225E-03
            2924         163.771         163.771     545.152E-03     545.152E-03    -785.397E-03    -785.397E-03
            2925         163.261         163.261     470.666E-03     470.666E-03    -846.191E-03    -846.191E-03
            2926         162.706         162.706     420.179E-03     420.179E-03    -919.567E-03    -919.567E-03
            2927         162.097         162.097     389.767E-03     389.767E-03        -1.01049        -1.01049
            2928         161.421         161.421     376.439E-03     376.439E-03        -1.12532        -1.12532
            2929         160.660         160.660     378.161E-03     378.161E-03        -1.27249        -1.27249
            2930         159.790         159.790     393.691E-03     393.691E-03        -1.46344        -1.46344
            2931         158.779         158.779     422.507E-03     422.507E-03        -1.71423        -1.71423
            2932         157.582         157.582     464.122E-03     464.122E-03        -2.04783        -2.04783
            2933         156.138         156.138     517.510E-03     517.510E-03        -2.49856        -2.49856
            2934         154.362         154.362     578.316E-03     578.316E-03        -3.11887        -3.11887
            2935         152.133         152.133     634.895E-03     634.895E-03        -3.99355        -3.99355
            2936         149.272         149.272     656.217E-03     656.217E-03        -5.26597        -5.26597
            2937         145.517         145.517     556.299E-03     556.299E-03        -7.20580        -7.20580
            2938         154.333         154.333         45.3019         45.3019     890.022E-03     890.022E-03
            2939         155.758         155.758         41.9451         41.9451     866.994E-03     866.994E-03
            2940         157.162         157.162         38.5903         38.5903     825.149E-03     825.149E-03
            2941         158.519         158.519         35.2845         35.2845     773.288E-03     773.288E-03
            2942         159.811         159.811         32.0582         32.0582     713.592E-03     713.592E-03
            2943         161.021         161.021         28.9403         28.9403     647.113E-03     647.113E-03
            2944         162.137         162.137         25.9564         25.9564     576.564E-03     576.564E-03
            2945         163.147         163.147         23.1287         23.1287     503.594E-03     503.594E-03
            2946         164.042         164.042         20.4746         20.4746     430.679E-03     430.679E-03
            2947         164.820         164.820         18.0069         18.0069     359.518E-03     359.518E-03
            2948         165.479         165.479         15.7333         15.7333     291.778E-03     291.778E-03
            2949         166.020         166.020         13.6572         13.6572     228.764E-03     228.764E-03
            2950         166.448         166.448         11.7777         11.7777     171.203E-03     171.203E-03
            2951         166.768         166.768         10.0905         10.0905     119.800E-03     119.800E-03
            2952         166.989         166.989         8.58819         8.58819     74.5317E-03     74.5317E-03
            2953         167.119         167.119         7.26143         7.26143     35.5392E-03     35.5392E-03
            2954         167.165         167.165         6.09913         6.09913     2.34333E-03     2.34333E-03
            2955         167.137         167.137         5.08920         5.08920    -25.3058E-03    -25.3058E-03
            2956         167.044         167.044         4.21898         4.21898    -48.0820E-03    -48.0820E-03
            2957         166.891         166.891         3.47565         3.47565    -66.4385E-03    -66.4385E-03
            2958         166.688         166.688         2.84651         2.84651    -81.0721E-03    -81.0721E-03
            2959         166.440         166.440         2.31927         2.31927    -92.4965E-03    -92.4965E-03
            2960         166.151         166.151         1.88221         1.88221    -101.345E-03    -101.345E-03
            2961         165.826         165.826         1.52427         1.52427    -108.111E-03    -108.111E-03
            2962         165.468         165.468         1.23524         1.23524    -113.338E-03    -113.338E-03
            2963         165.078         165.078         1.00574         1.00574    -117.470E-03    -117.470E-03
            2964         164.656         164.656     827.341E-03     827.341E-03    -120.969E-03    -120.969E-03
            2965         164.201         164.201     692.543E-03     692.543E-03    -124.234E-03    -124.234E-03
            2966         163.709         163.709     594.909E-03     594.909E-03    -127.676E-03    -127.676E-03
            2967         163.176         163.176     529.034E-03     529.034E-03    -131.674E-03    -131.674E-03
            2968         162.592         162.592     490.694E-03     490.694E-03    -136.634E-03    -136.634E-03
            2969         161.947         161.947     476.854E-03     476.854E-03    -142.958E-03    -142.958E-03
            2970         161.225         161.225     485.897E-03     485.897E-03    -151.110E-03    -151.110E-03
            2971         160.404         160.404     517.654E-03     517.654E-03    -161.581E-03    -161.581E-03
            2972         159.454         159.454     573.848E-03     573.848E-03    -174.999E-03    -174.999E-03
            2973         158.334         158.334     658.111E-03     658.111E-03    -192.050E-03    -192.050E-03
            2974         156.987         156.987     776.954E-03     776.954E-03    -213.724E-03    -213.724E-03
            2975         155.330         155.330     939.625E-03     939.625E-03    -241.035E-03    -241.035E-03
            2976         153.239         153.239         1.16035         1.16035    -275.600E-03    -275.600E-03
            2977         150.525         150.525         1.45782         1.45782    -318.549E-03    -318.549E-03
            2978         146.882         146.882         1.86098         1.86098    -370.897E-03    -370.897E-03
            2979         141.760         141.760         2.41098         2.41098    -421.501E-03    -421.501E-03
            2980         154.333         154.333         45.3019         45.3019    -924.807E-03    -924.807E-03
            2981         155.759         155.759         41.9438         41.9438    -939.280E-03    -939.280E-03
            2982         157.164         157.164         38.5875         38.5875    -931.962E-03    -931.962E-03
            2983         158.521         158.521         35.2798         35.2798    -910.423E-03    -910.423E-03
            2984         159.814         159.814         32.0513         32.0513    -875.700E-03    -875.700E-03
            2985         161.026         161.026         28.9309         28.9309    -827.880E-03    -827.880E-03
            2986         162.142         162.142         25.9446         25.9446    -769.048E-03    -769.048E-03
            2987         163.152         163.152         23.1145         23.1145    -700.558E-03    -700.558E-03
            2988         164.048         164.048         20.4583         20.4583    -624.990E-03    -624.990E-03
            2989         164.826         164.826         17.9887         17.9887    -544.452E-03    -544.452E-03
            2990         165.484         165.484         15.7139         15.7139    -461.314E-03    -461.314E-03
            2991         166.024         166.024         13.6369         13.6369    -377.755E-03    -377.755E-03
            2992         166.451         166.451         11.7571         11.7571    -295.483E-03    -295.483E-03
            2993         166.770         166.770         10.0699         10.0699    -216.212E-03    -216.212E-03
            2994         166.990         166.990         8.56817         8.56817    -140.866E-03    -140.866E-03
            2995         167.118         167.118         7.24224         7.24224    -70.4604E-03    -70.4604E-03
            2996         167.163         167.163         6.08101         6.08101    -5.24024E-03    -5.24024E-03
            2997         167.134         167.134         5.07230         5.07230     54.4495E-03     54.4495E-03
            2998         167.039         167.039         4.20337         4.20337     108.862E-03     108.862E-03
            2999         166.887         166.887         3.46131         3.46131     158.174E-03     158.174E-03
            3000         166.683         166.683         2.83337         2.83337     202.970E-03     202.970E-03
            3001         166.435         166.435         2.30719         2.30719     243.799E-03     243.799E-03
            3002         166.147         166.147         1.87095         1.87095     281.483E-03     281.483E-03
            3003         165.824         165.824         1.51357         1.51357     316.856E-03     316.856E-03
            3004         165.468         165.468         1.22472         1.22472     350.966E-03     350.966E-03
            3005         165.080         165.080     994.958E-03     994.958E-03     384.954E-03     384.954E-03
            3006         164.662         164.662     815.717E-03     815.717E-03     420.197E-03     420.197E-03
            3007         164.213         164.213     679.381E-03     679.381E-03     458.292E-03     458.292E-03
            3008         163.728         163.728     579.295E-03     579.295E-03     501.204E-03     501.204E-03
            3009         163.203         163.203     509.811E-03     509.811E-03     551.348E-03     551.348E-03
            3010         162.631         162.631     466.314E-03     466.314E-03     611.817E-03     611.817E-03
            3011         162.001         162.001     445.278E-03     445.278E-03     686.599E-03     686.599E-03
            3012         161.299         161.299     444.300E-03     444.300E-03     781.043E-03     781.043E-03
            3013         160.505         160.505     462.165E-03     462.165E-03     902.359E-03     902.359E-03
            3014         159.592         159.592     498.854E-03     498.854E-03         1.06069         1.06069
            3015         158.526         158.526     555.569E-03     555.569E-03         1.27037         1.27037
            3016         157.255         157.255     634.508E-03     634.508E-03         1.55273         1.55273
            3017         155.710         155.710     738.470E-03     738.470E-03         1.93969         1.93969
            3018         153.793         153.793     869.334E-03     869.334E-03         2.48230         2.48230
            3019         151.359         151.359         1.02466         1.02466         3.26368         3.26368
            3020         148.193         148.193         1.18757         1.18757         4.43213         4.43213
            3021         143.988         143.988         1.28890         1.28890         6.27047         6.27047
            3022         154.385         154.385         45.2864         45.2864        -2.74528        -2.74528
            3023         155.824         155.824         41.8973         41.8973        -2.74955        -2.74955
            3024         157.240         157.240         38.5090         38.5090        -2.68962        -2.68962
            3025         158.607         158.607         35.1702         35.1702        -2.59241        -2.59241
            3026         159.907         159.907         31.9131         31.9131        -2.45920        -2.45920
            3027         161.123         161.123         28.7679         28.7679        -2.29446        -2.29446
            3028         162.239         162.239         25.7618         25.7618        -2.10261        -2.10261
            3029         163.246         163.246         22.9175         22.9175        -1.89042        -1.89042
            3030         164.135         164.135         20.2529         20.2529        -1.66416        -1.66416
            3031         164.902         164.902         17.7807         17.7807        -1.43077        -1.43077
            3032         165.548         165.548         15.5082         15.5082        -1.19646        -1.19646
            3033         166.075         166.075         13.4380         13.4380    -966.636E-03    -966.636E-03
            3034         166.488         166.488         11.5684         11.5684    -745.985E-03    -745.985E-03
            3035         166.794         166.794         9.89382         9.89382    -537.710E-03    -537.710E-03
            3036         167.001         167.001         8.40625         8.40625    -344.425E-03    -344.425E-03
            3037         167.117         167.117         7.09525         7.09525    -167.255E-03    -167.255E-03
            3038         167.153         167.153         5.94906         5.94906    -6.93505E-03    -6.93505E-03
            3039         167.117         167.117         4.95486         4.95486     136.952E-03     136.952E-03
            3040         167.017         167.017         4.09953         4.09953     265.032E-03     265.032E-03
            3041         166.862         166.862         3.36977         3.36977     378.688E-03     378.688E-03
            3042         166.659         166.659         2.75261         2.75261     479.398E-03     479.398E-03
            3043         166.413         166.413         2.23545         2.23545     569.093E-03     569.093E-03
            3044         166.131         166.131         1.80635         1.80635     649.764E-03     649.764E-03
            3045         165.816         165.816         1.45403         1.45403     723.702E-03     723.702E-03
            3046         165.471         165.471         1.16803         1.16803     793.298E-03     793.298E-03
            3047         165.099         165.099     938.638E-03     938.638E-03     861.242E-03     861.242E-03
            3048         164.700         164.700     757.010E-03     757.010E-03     930.469E-03     930.469E-03
            3049         164.273         164.273     615.094E-03     615.094E-03         1.00436         1.00436
            3050         163.818         163.818     505.655E-03     505.655E-03         1.08685         1.08685
            3051         163.330         163.330     422.207E-03     422.207E-03         1.18265         1.18265
            3052         162.804         162.804     358.978E-03     358.978E-03         1.29760         1.29760
            3053         162.233         162.233     310.789E-03     310.789E-03         1.43909         1.43909
            3054         161.607         161.607     272.891E-03     272.891E-03         1.61665         1.61665
            3055         160.914         160.914     240.666E-03     240.666E-03         1.84299         1.84299
            3056         160.136         160.136     209.080E-03     209.080E-03         2.13524         2.13524
            3057         159.254         159.254     171.812E-03     171.812E-03         2.51727         2.51727
            3058         158.240         158.240     119.414E-03     119.414E-03         3.02265         3.02265
            3059         157.066         157.066     36.3743E-03     36.3743E-03         3.70048         3.70048
            3060         155.696         155.696    -105.646E-03    -105.646E-03         4.62292         4.62292
            3061         154.103         154.103    -359.963E-03    -359.963E-03         5.90054         5.90054
            3062         152.288         152.288    -835.729E-03    -835.729E-03         7.70264         7.70264
            3063         150.366         150.366        -1.75634        -1.75634         10.2740         10.2740
            3064         154.494         154.494         45.2539         45.2539        -4.58889        -4.58889
            3065         155.956         155.956         41.8029         41.8029        -4.58168        -4.58168
            3066         157.395         157.395         38.3508         38.3508        -4.46701        -4.46701
            3067         158.780         158.780         34.9507         34.9507        -4.28865        -4.28865
            3068         160.093         160.093         31.6379         31.6379        -4.05182        -4.05182
            3069         161.314         161.314         28.4456         28.4456        -3.76260        -3.76260
            3070         162.428         162.428         25.4030         25.4030        -3.43130        -3.43130
            3071         163.426         163.426         22.5338         22.5338        -3.06837        -3.06837
            3072         164.299         164.299         19.8562         19.8562        -2.68597        -2.68597
            3073         165.046         165.046         17.3820         17.3820        -2.29536        -2.29536
            3074         165.667         165.667         15.1173         15.1173        -1.90698        -1.90698
            3075         166.167         166.167         13.0630         13.0630        -1.52987        -1.52987
            3076         166.553         166.553         11.2152         11.2152        -1.17086        -1.17086
            3077         166.832         166.832         9.56691         9.56691    -835.388E-03    -835.388E-03
            3078         167.015         167.015         8.10793         8.10793    -526.473E-03    -526.473E-03
            3079         167.110         167.110         6.82654         6.82654    -246.103E-03    -246.103E-03
            3080         167.129         167.129         5.70953         5.70953     5.67066E-03     5.67066E-03
            3081         167.080         167.080         4.74327         4.74327     229.415E-03     229.415E-03
            3082         166.972         166.972         3.91373         3.91373     426.968E-03     426.968E-03
            3083         166.813         166.813         3.20721         3.20721     600.460E-03     600.460E-03
            3084         166.610         166.610         2.61023         2.61023     752.752E-03     752.752E-03
            3085         166.370         166.370         2.11002         2.11002     886.809E-03     886.809E-03
            3086         166.098         166.098         1.69435         1.69435         1.00600         1.00600
            3087         165.797         165.797         1.35181         1.35181         1.11377         1.11377
            3088         165.473         165.473         1.07168         1.07168         1.21384         1.21384
            3089         165.126         165.126     843.996E-03     843.996E-03         1.31010         1.31010
            3090         164.758         164.758     659.500E-03     659.500E-03         1.40684         1.40684
            3091         164.371         164.371     509.591E-03     509.591E-03         1.50874         1.50874
            3092         163.963         163.963     386.214E-03     386.214E-03         1.62117         1.62117
            3093         163.534         163.534     281.770E-03     281.770E-03         1.75036         1.75036
            3094         163.082         163.082     188.915E-03     188.915E-03         1.90382         1.90382
            3095         162.603         162.603     100.293E-03     100.293E-03         2.09073         2.09073
            3096         162.095         162.095     8.12866E-03     8.12866E-03         2.32261         2.32261
            3097         161.554         161.554    -96.4658E-03    -96.4658E-03         2.61416         2.61416
            3098         160.975         160.975    -224.471E-03    -224.471E-03         2.98447         2.98447
            3099         160.359         160.359    -390.861E-03    -390.861E-03         3.45848         3.45848
            3100         159.707         159.707    -617.170E-03    -617.170E-03         4.06934         4.06934
            3101         159.034         159.034    -936.970E-03    -936.970E-03         4.86063         4.86063
            3102         158.374         158.374        -1.40314        -1.40314         5.88966         5.88966
            3103         157.805         157.805        -2.10422        -2.10422         7.22641         7.22641
            3104         157.496         157.496        -3.18508        -3.18508         8.94282         8.94282
            3105         157.778         157.778        -4.86597        -4.86597         11.0668         11.0668
            3106         154.666         154.666         45.2049         45.2049        -6.47124        -6.47124
            3107         156.166         156.166         41.6568         41.6568        -6.45167        -6.45167
            3108         157.637         157.637         38.1062         38.1062        -6.27601        -6.27601
            3109         159.049         159.049         34.6116         34.6116        -6.00913        -6.00913
            3110         160.378         160.378         31.2144         31.2144        -5.65700        -5.65700
            3111         161.605         161.605         27.9519         27.9519        -5.23220        -5.23220
            3112         162.714         162.714         24.8562         24.8562        -4.74863        -4.74863
            3113         163.694         163.694         21.9530         21.9530        -4.22424        -4.22424
            3114         164.540         164.540         19.2596         19.2596        -3.67624        -3.67624
            3115         165.252         165.252         16.7869         16.7869        -3.12161        -3.12161
            3116         165.833         165.833         14.5382         14.5382        -2.57532        -2.57532
            3117         166.291         166.291         12.5114         12.5114        -2.04935        -2.04935
            3118         166.635         166.635         10.6997         10.6997        -1.55341        -1.55341
            3119         166.874         166.874         9.09291         9.09291        -1.09356        -1.09356
            3120         167.021         167.021         7.67845         7.67845    -674.002E-03    -674.002E-03
            3121         167.086         167.086         6.44207         6.44207    -295.931E-03    -295.931E-03
            3122         167.080         167.080         5.36911         5.36911     40.6134E-03     40.6134E-03
            3123         167.012         167.012         4.44432         4.44432     337.599E-03     337.599E-03
            3124         166.893         166.893         3.65297         3.65297     597.550E-03     597.550E-03
            3125         166.729         166.729         2.98046         2.98046     824.111E-03     824.111E-03
            3126         166.528         166.528         2.41309         2.41309         1.02110         1.02110
            3127         166.296         166.296         1.93765         1.93765         1.19290         1.19290
            3128         166.038         166.038         1.54185         1.54185         1.34387         1.34387
            3129         165.759         165.759         1.21405         1.21405         1.47867         1.47867
            3130         165.462         165.462     943.406E-03     943.406E-03         1.60197         1.60197
            3131         165.149         165.149     719.686E-03     719.686E-03         1.71871         1.71871
            3132         164.824         164.824     533.282E-03     533.282E-03         1.83398         1.83398
            3133         164.488         164.488     375.017E-03     375.017E-03         1.95333         1.95333
            3134         164.143         164.143     236.065E-03     236.065E-03         2.08281         2.08281
            3135         163.789         163.789     107.708E-03     107.708E-03         2.22926         2.22926
            3136         163.429         163.429    -18.9063E-03    -18.9063E-03         2.40053         2.40053
            3137         163.064         163.064    -153.158E-03    -153.158E-03         2.60588         2.60588
            3138         162.697         162.697    -305.537E-03    -305.537E-03         2.85628         2.85628
            3139         162.333         162.333    -488.411E-03    -488.411E-03         3.16494         3.16494
            3140         161.982         161.982    -717.400E-03    -717.400E-03         3.54761         3.54761
            3141         161.658         161.658        -1.01300        -1.01300         4.02304         4.02304
            3142         161.388         161.388        -1.40378        -1.40378         4.61248         4.61248
            3143         161.216         161.216        -1.92961        -1.92961         5.33834         5.33834
            3144         161.219         161.219        -2.64834        -2.64834         6.21882         6.21882
            3145         161.521         161.521        -3.63833        -3.63833         7.25493         7.25493
            3146         162.323         162.323        -4.99960        -4.99960         8.39773         8.39773
            3147         163.921         163.921        -6.81776        -6.81776         9.49841         9.49841
            3148         154.916         154.916         45.1380         45.1380        -8.41078        -8.41078
            3149         156.465         156.465         41.4533         41.4533        -8.37505        -8.37505
            3150         157.982         157.982         37.7634         37.7634        -8.13099        -8.13099
            3151         159.428         159.428         34.1374         34.1374        -7.76111        -7.76111
            3152         160.777         160.777         30.6239         30.6239        -7.27835        -7.27835
            3153         162.008         162.008         27.2670         27.2670        -6.69846        -6.69846
            3154         163.102         163.102         24.1033         24.1033        -6.04533        -6.04533
            3155         164.052         164.052         21.1591         21.1591        -5.34291        -5.34291
            3156         164.854         164.854         18.4516         18.4516        -4.61670        -4.61670
            3157         165.514         165.514         15.9878         15.9878        -3.88950        -3.88950
            3158         166.036         166.036         13.7676         13.7676        -3.18057        -3.18057
            3159         166.433         166.433         11.7841         11.7841        -2.50570        -2.50570
            3160         166.718         166.718         10.0258         10.0258        -1.87534        -1.87534
            3161         166.903         166.903         8.47849         8.47849        -1.29712        -1.29712
            3162         167.002         167.002         7.12589         7.12589    -774.042E-03    -774.042E-03
            3163         167.027         167.027         5.95134         5.95134    -307.323E-03    -307.323E-03
            3164         166.989         166.989         4.93756         4.93756     104.891E-03     104.891E-03
            3165         166.900         166.900         4.06819         4.06819     465.310E-03     465.310E-03
            3166         166.766         166.766         3.32709         3.32709     778.328E-03     778.328E-03
            3167         166.598         166.598         2.69933         2.69933         1.04858         1.04858
            3168         166.401         166.401         2.17056         2.17056         1.28147         1.28147
            3169         166.180         166.180         1.72764         1.72764         1.48231         1.48231
            3170         165.942         165.942         1.35803         1.35803         1.65671         1.65671
            3171         165.689         165.689         1.05020         1.05020         1.81009         1.81009
            3172         165.426         165.426     793.188E-03     793.188E-03         1.94800         1.94800
            3173         165.156         165.156     576.717E-03     576.717E-03         2.07592         2.07592
            3174         164.882         164.882     390.910E-03     390.910E-03         2.19944         2.19944
            3175         164.606         164.606     226.261E-03     226.261E-03         2.32434         2.32434
            3176         164.332         164.332     73.3511E-03     73.3511E-03         2.45668         2.45668
            3177         164.063         164.063    -77.3070E-03    -77.3070E-03         2.60298         2.60298
            3178         163.804         163.804    -235.612E-03    -235.612E-03         2.77033         2.77033
            3179         163.559         163.559    -412.253E-03    -412.253E-03         2.96648         2.96648
            3180         163.339         163.339    -619.222E-03    -619.222E-03         3.19992         3.19992
            3181         163.153         163.153    -870.600E-03    -870.600E-03         3.47972         3.47972
            3182         163.020         163.020        -1.18337        -1.18337         3.81511         3.81511
            3183         162.965         162.965        -1.57891        -1.57891         4.21431         4.21431
            3184         163.025         163.025        -2.08385        -2.08385         4.68225         4.68225
            3185         163.255         163.255        -2.73198        -2.73198         5.21580         5.21580
            3186         163.736         163.736        -3.56198        -3.56198         5.79464         5.79464
            3187         164.577         164.577        -4.61317        -4.61317         6.36529         6.36529
            3188         165.916         165.916        -5.89742        -5.89742         6.81542         6.81542
            3189         167.895         167.895        -7.35691        -7.35691         6.94427         6.94427
            3190         170.654         170.654        -6.07828        -6.07828        -2.63191        -2.63191
            3191         169.182         169.182        -5.56839        -5.56839        -3.40022        -3.40022
            3192         167.887         167.887        -4.86971        -4.86971        -3.84020        -3.84020
            3193         166.824         166.824        -4.12190        -4.12190        -4.02581        -4.02581
            3194         166.000         166.000        -3.41079        -3.41079        -4.04360        -4.04360
            3195         165.389         165.389        -2.77573        -2.77573        -3.96210        -3.96210
            3196         164.958         164.958        -2.22897        -2.22897        -3.83041        -3.83041
            3197         164.671         164.671        -1.76764        -1.76764        -3.67909        -3.67909
            3198         164.498         164.498        -1.38279        -1.38279        -3.52601        -3.52601
            3199         164.414         164.414        -1.06284        -1.06284        -3.38030        -3.38030
            3200         164.399         164.399    -795.865E-03    -795.865E-03        -3.24562        -3.24562
            3201         164.437         164.437    -570.205E-03    -570.205E-03        -3.12223        -3.12223
            3202         164.516         164.516    -374.833E-03    -374.833E-03        -3.00831        -3.00831
            3203         164.626         164.626    -199.320E-03    -199.320E-03        -2.90080        -2.90080
            3204         164.761         164.761    -33.7150E-03    -33.7150E-03        -2.79587        -2.79587
            3205         164.915         164.915     131.548E-03     131.548E-03        -2.68921        -2.68921
            3206         165.083         165.083     305.925E-03     305.925E-03        -2.57611        -2.57611
            3207         165.261         165.261     498.777E-03     498.777E-03        -2.45152        -2.45152
            3208         165.446         165.446     719.753E-03     719.753E-03        -2.31004        -2.31004
            3209         165.636         165.636     978.672E-03     978.672E-03        -2.14591        -2.14591
            3210         165.826         165.826         1.28608         1.28608        -1.95292        -1.95292
            3211         166.014         166.014         1.65294         1.65294        -1.72450        -1.72450
            3212         166.196         166.196         2.09144         2.09144        -1.45357        -1.45357
            3213         166.368         166.368         2.61438         2.61438        -1.13282        -1.13282
            3214         166.525         166.525         3.23647         3.23647    -754.504E-03    -754.504E-03
            3215         166.661         166.661         3.97307         3.97307    -311.123E-03    -311.123E-03
            3216         166.766         166.766         4.84227         4.84227     205.014E-03     205.014E-03
            3217         166.833         166.833         5.86263         5.86263     800.151E-03     800.151E-03
            3218         166.849         166.849         7.05617         7.05617         1.48021         1.48021
            3219         166.798         166.798         8.44480         8.44480         2.24733         2.24733
            3220         166.667         166.667         10.0538         10.0538         3.10241         3.10241
            3221         166.433         166.433         11.9068         11.9068         4.03890         4.03890
            3222         166.078         166.078         14.0283         14.0283         5.04742         5.04742
            3223         165.577         165.577         16.4387         16.4387         6.10733         6.10733
            3224         164.915         164.915         19.1515         19.1515         7.19321         7.19321
            3225         164.071         164.071         22.1723         22.1723         8.26846         8.26846
            3226         163.043         163.043         25.4890         25.4890         9.29064         9.29064
            3227         161.827         161.827         29.0770         29.0770         10.2157         10.2157
            3228         160.444         160.444         32.8882         32.8882         10.9960         10.9960
            3229         158.919         158.919         36.8615         36.8615         11.6000         11.6000
            3230         157.288         157.288         40.9216         40.9216         11.9979         11.9979
            3231         155.611         155.611         44.9684         44.9684         12.0709         12.0709
            3232         170.673         170.673        -5.11167        -5.11167        -1.27950        -1.27950
            3233         169.530         169.530        -4.91309        -4.91309        -2.13532        -2.13532
            3234         168.455         168.455        -4.48419        -4.48419        -2.73572        -2.73572
            3235         167.503         167.503        -3.93820        -3.93820        -3.11872        -3.11872
            3236         166.707         166.707        -3.36228        -3.36228        -3.33241        -3.33241
            3237         166.069         166.069        -2.80972        -2.80972        -3.42754        -3.42754
            3238         165.579         165.579        -2.30799        -2.30799        -3.44529        -3.44529
            3239         165.216         165.216        -1.86778        -1.86778        -3.41651        -3.41651
            3240         164.960         164.960        -1.48956        -1.48956        -3.36181        -3.36181
            3241         164.792         164.792        -1.16855        -1.16855        -3.29427        -3.29427
            3242         164.696         164.696    -897.145E-03    -897.145E-03        -3.22128        -3.22128
            3243         164.657         164.657    -666.588E-03    -666.588E-03        -3.14646        -3.14646
            3244         164.663         164.663    -467.665E-03    -467.665E-03        -3.07075        -3.07075
            3245         164.707         164.707    -291.132E-03    -291.132E-03        -2.99331        -2.99331
            3246         164.779         164.779    -127.879E-03    -127.879E-03        -2.91206        -2.91206
            3247         164.876         164.876     31.1121E-03     31.1121E-03        -2.82404        -2.82404
            3248         164.991         164.991     194.721E-03     194.721E-03        -2.72551        -2.72551
            3249         165.122         165.122     371.940E-03     371.940E-03        -2.61215        -2.61215
            3250         165.266         165.266     571.797E-03     571.797E-03        -2.47900        -2.47900
            3251         165.420         165.420     803.797E-03     803.797E-03        -2.32052        -2.32052
            3252         165.581         165.581         1.07770         1.07770        -2.13053        -2.13053
            3253         165.747         165.747         1.40426         1.40426        -1.90218        -1.90218
            3254         165.916         165.916         1.79471         1.79471        -1.62803        -1.62803
            3255         166.084         166.084         2.26197         2.26197        -1.29992        -1.29992
            3256         166.248         166.248         2.81965         2.81965    -909.304E-03    -909.304E-03
            3257         166.402         166.402         3.48403         3.48403    -446.998E-03    -446.998E-03
            3258         166.540         166.540         4.27214         4.27214     95.8324E-03     95.8324E-03
            3259         166.652         166.652         5.20502         5.20502     728.447E-03     728.447E-03
            3260         166.729         166.729         6.30417         6.30417         1.45798         1.45798
            3261         166.755         166.755         7.59650         7.59650         2.29144         2.29144
            3262         166.713         166.713         9.10850         9.10850         3.23012         3.23012
            3263         166.581         166.581         10.8722         10.8722         4.27408         4.27408
            3264         166.334         166.334         12.9172         12.9172         5.41181         5.41181
            3265         165.946         165.946         15.2741         15.2741         6.62842         6.62842
            3266         165.384         165.384         17.9676         17.9676         7.89181         7.89181
            3267         164.631         164.631         21.0104         21.0104         9.16335         9.16335
            3268         163.661         163.661         24.4032         24.4032         10.3901         10.3901
            3269         162.478         162.478         28.1179         28.1179         11.5111         11.5111
            3270         161.087         161.087         32.1087         32.1087         12.4710         12.4710
            3271         159.521         159.521         36.2980         36.2980         13.2113         13.2113
            3272         157.830         157.830         40.5927         40.5927         13.7051         13.7051
            3273         156.067         156.067         44.8738         44.8738         13.7998         13.7998
            3274         170.334         170.334        -4.14527        -4.14527    -291.599E-03    -291.599E-03
            3275         169.494         169.494        -4.17610        -4.17610        -1.14076        -1.14076
            3276         168.641         168.641        -3.95654        -3.95654        -1.80526        -1.80526
            3277         167.839         167.839        -3.58979        -3.58979        -2.29818        -2.29818
            3278         167.123         167.123        -3.15148        -3.15148        -2.64342        -2.64342
            3279         166.513         166.513        -2.69721        -2.69721        -2.87118        -2.87118
            3280         166.012         166.012        -2.26157        -2.26157        -3.01182        -3.01182
            3281         165.614         165.614        -1.86356        -1.86356        -3.09065        -3.09065
            3282         165.308         165.308        -1.51123        -1.51123        -3.12730        -3.12730
            3283         165.082         165.082        -1.20557        -1.20557        -3.13562        -3.13562
            3284         164.923         164.923    -943.365E-03    -943.365E-03        -3.12489        -3.12489
            3285         164.819         164.819    -718.931E-03    -718.931E-03        -3.10076        -3.10076
            3286         164.762         164.762    -525.266E-03    -525.266E-03        -3.06625        -3.06625
            3287         164.743         164.743    -354.710E-03    -354.710E-03        -3.02233        -3.02233
            3288         164.756         164.756    -199.291E-03    -199.291E-03        -2.96850        -2.96850
            3289         164.795         164.795    -50.9583E-03    -50.9583E-03        -2.90306        -2.90306
            3290         164.856         164.856     98.4591E-03     98.4591E-03        -2.82336        -2.82336
            3291         164.937         164.937     257.134E-03     257.134E-03        -2.72586        -2.72586
            3292         165.034         165.034     433.528E-03     433.528E-03        -2.60619        -2.60619
            3293         165.147         165.147     636.237E-03     636.237E-03        -2.45919        -2.45919
            3294         165.273         165.273     874.541E-03     874.541E-03        -2.27883        -2.27883
            3295         165.411         165.411         1.15807         1.15807        -2.05826        -2.05826
            3296         165.560         165.560         1.49776         1.49776        -1.78968        -1.78968
            3297         165.718         165.718         1.90515         1.90515        -1.46448        -1.46448
            3298         165.883         165.883         2.39407         2.39407        -1.07307        -1.07307
            3299         166.051         166.051         2.97913         2.97913    -605.300E-03    -605.300E-03
            3300         166.218         166.218         3.67873         3.67873    -50.0475E-03    -50.0475E-03
            3301         166.376         166.376         4.51213         4.51213     603.360E-03     603.360E-03
            3302         166.516         166.516         5.50450         5.50450         1.36641         1.36641
            3303         166.624         166.624         6.68147         6.68147         2.24760         2.24760
            3304         166.685         166.685         8.07710         8.07710         3.25573         3.25573
            3305         166.672         166.672         9.72458         9.72458         4.39100         4.39100
            3306         166.561         166.561         11.6661         11.6661         5.65269         5.65269
            3307         166.312         166.312         13.9401         13.9401         7.02171         7.02171
            3308         165.896         165.896         16.5860         16.5860         8.47494         8.47494
            3309         165.263         165.263         19.6339         19.6339         9.96247         9.96247
            3310         164.396         164.396         23.0916         23.0916         11.4250         11.4250
            3311         163.265         163.265         26.9483         26.9483         12.7869         12.7869
            3312         161.886         161.886         31.1455         31.1455         13.9611         13.9611
            3313         160.285         160.285         35.5999         35.5999         14.8845         14.8845
            3314         158.513         158.513         40.1900         40.1900         15.4904         15.4904
            3315         156.664         156.664         44.7578         44.7578         15.6241         15.6241
            3316         169.800         169.800        -3.26232        -3.26232     384.083E-03     384.083E-03
            3317         169.215         169.215        -3.43493        -3.43493    -392.278E-03    -392.278E-03
            3318         168.569         168.569        -3.36879        -3.36879        -1.05706        -1.05706
            3319         167.921         167.921        -3.14476        -3.14476        -1.59718        -1.59718
            3320         167.309         167.309        -2.82960        -2.82960        -2.01888        -2.01888
            3321         166.758         166.758        -2.47336        -2.47336        -2.33674        -2.33674
            3322         166.280         166.280        -2.11210        -2.11210        -2.56919        -2.56919
            3323         165.878         165.878        -1.76845        -1.76845        -2.73465        -2.73465
            3324         165.548         165.548        -1.45508        -1.45508        -2.84893        -2.84893
            3325         165.284         165.284        -1.17728        -1.17728        -2.92473        -2.92473
            3326         165.079         165.079    -935.390E-03    -935.390E-03        -2.97145        -2.97145
            3327         164.923         164.923    -726.578E-03    -726.578E-03        -2.99568        -2.99568
            3328         164.810         164.810    -546.035E-03    -546.035E-03        -3.00163        -3.00163
            3329         164.734         164.734    -387.791E-03    -387.791E-03        -2.99165        -2.99165
            3330         164.688         164.688    -245.254E-03    -245.254E-03        -2.96647        -2.96647
            3331         164.669         164.669    -111.448E-03    -111.448E-03        -2.92558        -2.92558
            3332         164.675         164.675     20.7449E-03     20.7449E-03        -2.86730        -2.86730
            3333         164.701         164.701     158.679E-03     158.679E-03        -2.78894        -2.78894
            3334         164.747         164.747     309.786E-03     309.786E-03        -2.68680        -2.68680
            3335         164.813         164.813     481.942E-03     481.942E-03        -2.55621        -2.55621
            3336         164.896         164.896     683.232E-03     683.232E-03        -2.39149        -2.39149
            3337         164.999         164.999     922.661E-03     922.661E-03        -2.18591        -2.18591
            3338         165.119         165.119         1.20967         1.20967        -1.93160        -1.93160
            3339         165.259         165.259         1.55543         1.55543        -1.61956        -1.61956
            3340         165.416         165.416         1.97183         1.97183        -1.23965        -1.23965
            3341         165.589         165.589         2.47384         2.47384    -780.405E-03    -780.405E-03
            3342         165.778         165.778         3.07733         3.07733    -229.531E-03    -229.531E-03
            3343         165.976         165.976         3.80359         3.80359     426.697E-03     426.697E-03
            3344         166.177         166.177         4.67469         4.67469         1.20160         1.20160
            3345         166.371         166.371         5.72176         5.72176         2.10998         2.10998
            3346         166.541         166.541         6.97599         6.97599         3.16252         3.16252
            3347         166.666         166.666         8.48221         8.48221         4.37124         4.37124
            3348         166.714         166.714         10.2833         10.2833         5.73495         5.73495
            3349         166.648         166.648         12.4372         12.4372         7.25267         7.25267
            3350         166.413         166.413         14.9959         14.9959         8.89307         8.89307
            3351         165.968         165.968         18.0107         18.0107         10.6200         10.6200
            3352         165.243         165.243         21.5186         21.5186         12.3549         12.3549
            3353         164.224         164.224         25.5112         25.5112         14.0043         14.0043
            3354         162.879         162.879         29.9521         29.9521         15.4627         15.4627
            3355         161.251         161.251         34.7262         34.7262         16.6080         16.6080
            3356         159.405         159.405         39.6848         39.6848         17.3809         17.3809
            3357         157.426         157.426         44.6262         44.6262         17.5568         17.5568
            3358         169.190         169.190        -2.50348        -2.50348     819.321E-03     819.321E-03
            3359         168.804         168.804        -2.74249        -2.74249     143.270E-03     143.270E-03
            3360         168.335         168.335        -2.77409        -2.77409    -479.636E-03    -479.636E-03
            3361         167.831         167.831        -2.65598        -2.65598        -1.02339        -1.02339
            3362         167.328         167.328        -2.44113        -2.44113        -1.47920        -1.47920
            3363         166.851         166.851        -2.17336        -2.17336        -1.84991        -1.84991
            3364         166.416         166.416        -1.88552        -1.88552        -2.14404        -2.14404
            3365         166.029         166.029        -1.60080        -1.60080        -2.37274        -2.37274
            3366         165.695         165.695        -1.33368        -1.33368        -2.54739        -2.54739
            3367         165.410         165.410        -1.09196        -1.09196        -2.67817        -2.67817
            3368         165.170         165.170    -878.486E-03    -878.486E-03        -2.77356        -2.77356
            3369         164.972         164.972    -692.643E-03    -692.643E-03        -2.84009        -2.84009
            3370         164.810         164.810    -531.529E-03    -531.529E-03        -2.88256        -2.88256
            3371         164.679         164.679    -390.806E-03    -390.806E-03        -2.90410        -2.90410
            3372         164.577         164.577    -265.229E-03    -265.229E-03        -2.90643        -2.90643
            3373         164.500         164.500    -149.074E-03    -149.074E-03        -2.88996        -2.88996
            3374         164.446         164.446    -36.2625E-03    -36.2625E-03        -2.85393        -2.85393
            3375         164.413         164.413     79.4238E-03     79.4238E-03        -2.79646        -2.79646
            3376         164.402         164.402     204.511E-03     204.511E-03        -2.71457        -2.71457
            3377         164.413         164.413     345.645E-03     345.645E-03        -2.60418        -2.60418
            3378         164.446         164.446     510.062E-03     510.062E-03        -2.46009        -2.46009
            3379         164.502         164.502     705.267E-03     705.267E-03        -2.27586        -2.27586
            3380         164.584         164.584     939.957E-03     939.957E-03        -2.04381        -2.04381
            3381         164.693         164.693         1.22333         1.22333        -1.75487        -1.75487
            3382         164.830         164.830         1.56687         1.56687        -1.39849        -1.39849
            3383         164.997         164.997         1.98281         1.98281    -962.574E-03    -962.574E-03
            3384         165.195         165.195         2.48758         2.48758    -433.316E-03    -433.316E-03
            3385         165.423         165.423         3.09855         3.09855     204.504E-03     204.504E-03
            3386         165.678         165.678         3.84078         3.84078     968.158E-03     968.158E-03
            3387         165.953         165.953         4.74000         4.74000         1.87489         1.87489
            3388         166.236         166.236         5.83565         5.83565         2.94453         2.94453
            3389         166.508         166.508         7.16651         7.16651         4.19155         4.19155
            3390         166.741         166.741         8.79372         8.79372         5.63378         5.63378
            3391         166.891         166.891         10.7743         10.7743         7.26845         7.26845
            3392         166.907         166.907         13.1920         13.1920         9.09596         9.09596
            3393         166.702         166.702         16.1203         16.1203         11.0638         11.0638
            3394         166.222         166.222         19.6257         19.6257         13.1135         13.1135
            3395         165.364         165.364         23.7513         23.7513         15.1186         15.1186
            3396         164.127         164.127         28.4470         28.4470         16.9266         16.9266
            3397         162.495         162.495         33.6173         33.6173         18.3986         18.3986
            3398         160.554         160.554         39.0469         39.0469         19.3713         19.3713
            3399         158.460         158.460         44.4564         44.4564         19.6379         19.6379
            3400         168.574         168.574        -1.87383        -1.87383         1.07913         1.07913
            3401         168.337         168.337        -2.12552        -2.12552     507.580E-03     507.580E-03
            3402         168.014         168.014        -2.20810        -2.20810    -53.0850E-03    -53.0850E-03
            3403         167.638         167.638        -2.16051        -2.16051    -571.286E-03    -571.286E-03
            3404         167.239         167.239        -2.02227        -2.02227        -1.03017        -1.03017
            3405         166.839         166.839        -1.82851        -1.82851        -1.42343        -1.42343
            3406         166.455         166.455        -1.60773        -1.60773        -1.75207        -1.75207
            3407         166.097         166.097        -1.38096        -1.38096        -2.02106        -2.02106
            3408         165.769         165.769        -1.16261        -1.16261        -2.23732        -2.23732
            3409         165.473         165.473    -961.314E-03    -961.314E-03        -2.40824        -2.40824
            3410         165.209         165.209    -781.263E-03    -781.263E-03        -2.54073        -2.54073
            3411         164.975         164.975    -623.333E-03    -623.333E-03        -2.64077        -2.64077
            3412         164.768         164.768    -486.104E-03    -486.104E-03        -2.71312        -2.71312
            3413         164.585         164.585    -366.595E-03    -366.595E-03        -2.76138        -2.76138
            3414         164.426         164.426    -260.868E-03    -260.868E-03        -2.78786        -2.78786
            3415         164.288         164.288    -164.353E-03    -164.353E-03        -2.79375        -2.79375
            3416         164.171         164.171    -72.1649E-03    -72.1649E-03        -2.77903        -2.77903
            3417         164.075         164.075     20.8857E-03     20.8857E-03        -2.74260        -2.74260
            3418         163.999         163.999     120.098E-03     120.098E-03        -2.68217        -2.68217
            3419         163.947         163.947     231.137E-03     231.137E-03        -2.59437        -2.59437
            3420         163.918         163.918     359.812E-03     359.812E-03        -2.47453        -2.47453
            3421         163.917         163.917     512.667E-03     512.667E-03        -2.31680        -2.31680
            3422         163.947         163.947     696.563E-03     696.563E-03        -2.11384        -2.11384
            3423         164.010         164.010     919.838E-03     919.838E-03        -1.85689        -1.85689
            3424         164.112         164.112         1.19139         1.19139        -1.53536        -1.53536
            3425         164.257         164.257         1.52300         1.52300        -1.13699        -1.13699
            3426         164.447         164.447         1.92724         1.92724    -647.192E-03    -647.192E-03
            3427         164.687         164.687         2.42228         2.42228    -49.2563E-03    -49.2563E-03
            3428         164.979         164.979         3.02713         3.02713     676.015E-03     676.015E-03
            3429         165.321         165.321         3.77172         3.77172         1.55072         1.55072
            3430         165.709         165.709         4.68613         4.68613         2.59807         2.59807
            3431         166.130         166.130         5.82158         5.82158         3.84563         3.84563
            3432         166.562         166.562         7.22682         7.22682         5.31465         5.31465
            3433         166.967         166.967         8.98857         8.98857         7.03364         7.03364
            3434         167.282         167.282         11.1850         11.1850         8.99864         8.99864
            3435         167.431         167.431         13.9438         13.9438         11.2159         11.2159
            3436         167.274         167.274         17.3755         17.3755         13.5932         13.5932
            3437         166.741         166.741         21.5618         21.5618         16.0290         16.0290
            3438         165.672         165.672         26.5442         26.5442         18.3156         18.3156
            3439         164.111         164.111         32.1683         32.1683         20.1968         20.1968
            3440         162.106         162.106         38.2068         38.2068         21.5146         21.5146
            3441         159.809         159.809         44.2588         44.2588         21.8776         21.8776
            3442         167.990         167.990        -1.36235        -1.36235         1.21129         1.21129
            3443         167.866         167.866        -1.59174        -1.59174     736.787E-03     736.787E-03
            3444         167.661         167.661        -1.69085        -1.69085     245.794E-03     245.794E-03
            3445         167.396         167.396        -1.68440        -1.68440    -229.881E-03    -229.881E-03
            3446         167.092         167.092        -1.60040        -1.60040    -669.381E-03    -669.381E-03
            3447         166.767         166.767        -1.46555        -1.46555        -1.06124        -1.06124
            3448         166.437         166.437        -1.30262        -1.30262        -1.40087        -1.40087
            3449         166.111         166.111        -1.12949        -1.12949        -1.68860        -1.68860
            3450         165.796         165.796    -958.891E-03    -958.891E-03        -1.92762        -1.92762
            3451         165.496         165.496    -799.120E-03    -799.120E-03        -2.12267        -2.12267
            3452         165.212         165.212    -654.687E-03    -654.687E-03        -2.27903        -2.27903
            3453         164.945         164.945    -527.257E-03    -527.257E-03        -2.40176        -2.40176
            3454         164.695         164.695    -416.371E-03    -416.371E-03        -2.49537        -2.49537
            3455         164.461         164.461    -320.145E-03    -320.145E-03        -2.56353        -2.56353
            3456         164.243         164.243    -235.715E-03    -235.715E-03        -2.60897        -2.60897
            3457         164.041         164.041    -159.653E-03    -159.653E-03        -2.63336        -2.63336
            3458         163.856         163.856    -88.1263E-03    -88.1263E-03        -2.63734        -2.63734
            3459         163.689         163.689    -17.1233E-03    -17.1233E-03        -2.62045        -2.62045
            3460         163.541         163.541     57.6236E-03     57.6236E-03        -2.58114        -2.58114
            3461         163.415         163.415     140.468E-03     140.468E-03        -2.51667        -2.51667
            3462         163.314         163.314     236.175E-03     236.175E-03        -2.42318        -2.42318
            3463         163.242         163.242     349.677E-03     349.677E-03        -2.29537        -2.29537
            3464         163.204         163.204     486.762E-03     486.762E-03        -2.12670        -2.12670
            3465         163.205         163.205     653.570E-03     653.570E-03        -1.90885        -1.90885
            3466         163.252         163.252     857.982E-03     857.982E-03        -1.63198        -1.63198
            3467         163.352         163.352         1.10847         1.10847        -1.28383        -1.28383
            3468         163.512         163.512         1.41703         1.41703    -850.191E-03    -850.191E-03
            3469         163.739         163.739         1.79643         1.79643    -313.508E-03    -313.508E-03
            3470         164.042         164.042         2.26666         2.26666     346.405E-03     346.405E-03
            3471         164.427         164.427         2.84836         2.84836         1.15416         1.15416
            3472         164.897         164.897         3.57735         3.57735         2.13829         2.13829
            3473         165.451         165.451         4.48866         4.48866         3.33124         3.33124
            3474         166.077         166.077         5.64978         5.64978         4.77242         4.77242
            3475         166.753         166.753         7.12227         7.12227         6.49571         6.49571
            3476         167.427         167.427         9.03396         9.03396         8.54949         8.54949
            3477         168.009         168.009         11.4946         11.4946         10.9313         10.9313
            3478         168.379         168.379         14.7147         14.7147         13.6658         13.6658
            3479         168.283         168.283         18.8743         18.8743         16.5782         16.5782
            3480         167.644         167.644         24.0517         24.0517         19.4722         19.4722
            3481         166.229         166.229         30.2486         30.2486         22.0074         22.0074
            3482         164.180         164.180         37.0660         37.0660         23.7479         23.7479
            3483         161.752         161.752         43.9650         43.9650         24.3692         24.3692
            3484         167.456         167.456    -951.947E-03    -951.947E-03         1.24571         1.24571
            3485         167.425         167.425        -1.13947        -1.13947     856.933E-03     856.933E-03
            3486         167.319         167.319        -1.23206        -1.23206     436.293E-03     436.293E-03
            3487         167.151         167.151        -1.24487        -1.24487     13.1827E-03     13.1827E-03
            3488         166.932         166.932        -1.19670        -1.19670    -390.909E-03    -390.909E-03
            3489         166.678         166.678        -1.10665        -1.10665    -761.921E-03    -761.921E-03
            3490         166.400         166.400    -991.833E-03    -991.833E-03        -1.09216        -1.09216
            3491         166.106         166.106    -866.139E-03    -866.139E-03        -1.37870        -1.37870
            3492         165.805         165.805    -739.963E-03    -739.963E-03        -1.62205        -1.62205
            3493         165.502         165.502    -620.296E-03    -620.296E-03        -1.82482        -1.82482
            3494         165.199         165.199    -511.278E-03    -511.278E-03        -1.99080        -1.99080
            3495         164.899         164.899    -414.716E-03    -414.716E-03        -2.12415        -2.12415
            3496         164.605         164.605    -330.713E-03    -330.713E-03        -2.22893        -2.22893
            3497         164.317         164.317    -258.126E-03    -258.126E-03        -2.30872        -2.30872
            3498         164.037         164.037    -195.014E-03    -195.014E-03        -2.36638        -2.36638
            3499         163.766         163.766    -138.887E-03    -138.887E-03        -2.40394        -2.40394
            3500         163.507         163.507    -86.9722E-03    -86.9722E-03        -2.42248        -2.42248
            3501         163.261         163.261    -36.2507E-03    -36.2507E-03        -2.42213        -2.42213
            3502         163.031         163.031     16.3774E-03     16.3774E-03        -2.40193        -2.40193
            3503         162.821         162.821     74.2384E-03     74.2384E-03        -2.35991        -2.35991
            3504         162.635         162.635     140.732E-03     140.732E-03        -2.29287        -2.29287
            3505         162.477         162.477     219.697E-03     219.697E-03        -2.19651        -2.19651
            3506         162.354         162.354     315.155E-03     315.155E-03        -2.06498        -2.06498
            3507         162.274         162.274     432.051E-03     432.051E-03        -1.89118        -1.89118
            3508         162.243         162.243     575.712E-03     575.712E-03        -1.66588        -1.66588
            3509         162.272         162.272     753.362E-03     753.362E-03        -1.37830        -1.37830
            3510         162.372         162.372     972.875E-03     972.875E-03        -1.01446        -1.01446
            3511         162.554         162.554         1.24609         1.24609    -558.327E-03    -558.327E-03
            3512         162.832         162.832         1.58573         1.58573     11.1698E-03     11.1698E-03
            3513         163.220         163.220         2.01320         2.01320     718.027E-03     718.027E-03
            3514         163.732         163.732         2.55047         2.55047         1.59410         1.59410
            3515         164.379         164.379         3.23974         3.23974         2.67608         2.67608
            3516         165.171         165.171         4.12104         4.12104         4.01079         4.01079
            3517         166.100         166.100         5.28365         5.28365         5.65528         5.65528
            3518         167.150         167.150         6.80440         6.80440         7.66774         7.66774
            3519         168.250         168.250         8.87887         8.87887         10.1336         10.1336
            3520         169.278         169.278         11.6634         11.6634         13.0632         13.0632
            3521         170.022         170.022         15.5421         15.5421         16.5358         16.5358
            3522         169.975         169.975         20.8395         20.8395         20.1858         20.1858
            3523         169.103         169.103         27.5331         27.5331         23.5776         23.5776
            3524         167.129         167.129         35.4332         35.4332         26.1892         26.1892
            3525         164.388         164.388         43.5824         43.5824         27.0786         27.0786
            3526         166.984         166.984    -626.206E-03    -626.206E-03         1.19590         1.19590
            3527         167.039         167.039    -763.543E-03    -763.543E-03     882.583E-03     882.583E-03
            3528         167.024         167.024    -836.589E-03    -836.589E-03     531.354E-03     531.354E-03
            3529         166.942         166.942    -854.090E-03    -854.090E-03     167.858E-03     167.858E-03
            3530         166.802         166.802    -827.991E-03    -827.991E-03    -187.789E-03    -187.789E-03
            3531         166.612         166.612    -771.018E-03    -771.018E-03    -521.276E-03    -521.276E-03
            3532         166.381         166.381    -695.005E-03    -695.005E-03    -823.590E-03    -823.590E-03
            3533         166.117         166.117    -609.874E-03    -609.874E-03        -1.09019        -1.09019
            3534         165.827         165.827    -523.214E-03    -523.214E-03        -1.31988        -1.31988
            3535         165.517         165.517    -440.328E-03    -440.328E-03        -1.51386        -1.51386
            3536         165.192         165.192    -364.447E-03    -364.447E-03        -1.67474        -1.67474
            3537         164.856         164.856    -297.148E-03    -297.148E-03        -1.80591        -1.80591
            3538         164.514         164.514    -238.710E-03    -238.710E-03        -1.91089        -1.91089
            3539         164.167         164.167    -188.508E-03    -188.508E-03        -1.99300        -1.99300
            3540         163.820         163.820    -145.275E-03    -145.275E-03        -2.05510        -2.05510
            3541         163.474         163.474    -107.367E-03    -107.367E-03        -2.09932        -2.09932
            3542         163.133         163.133    -72.8698E-03    -72.8698E-03        -2.12705        -2.12705
            3543         162.800         162.800    -39.7570E-03    -39.7570E-03        -2.13880        -2.13880
            3544         162.478         162.478    -5.85915E-03    -5.85915E-03        -2.13420        -2.13420
            3545         162.172         162.172     31.0257E-03     31.0257E-03        -2.11188        -2.11188
            3546         161.887         161.887     73.2994E-03     73.2994E-03        -2.06954        -2.06954
            3547         161.628         161.628     123.439E-03     123.439E-03        -2.00364        -2.00364
            3548         161.402         161.402     184.336E-03     184.336E-03        -1.90966        -1.90966
            3549         161.218         161.218     259.095E-03     259.095E-03        -1.78144        -1.78144
            3550         161.084         161.084     351.684E-03     351.684E-03        -1.61162        -1.61162
            3551         161.013         161.013     466.521E-03     466.521E-03        -1.39038        -1.39038
            3552         161.018         161.018     609.818E-03     609.818E-03        -1.10642        -1.10642
            3553         161.115         161.115     788.613E-03     788.613E-03    -744.298E-03    -744.298E-03
            3554         161.321         161.321         1.01387         1.01387    -286.655E-03    -286.655E-03
            3555         161.660         161.660         1.29779         1.29779     291.318E-03     291.318E-03
            3556         162.153         162.153         1.66198         1.66198         1.01712         1.01712
            3557         162.830         162.830         2.12901         2.12901         1.93187         1.93187
            3558         163.714         163.714         2.74632         2.74632         3.08133         3.08133
            3559         164.839         164.839         3.55813         3.55813         4.53448         4.53448
            3560         166.209         166.209         4.68002         4.68002         6.37259         6.37259
            3561         167.838         167.838         6.20482         6.20482         8.70173         8.70173
            3562         169.637         169.637         8.43965         8.43965         11.6742         11.6742
            3563         171.460         171.460         11.6041         11.6041         15.3559         15.3559
            3564         172.890         172.890         16.4944         16.4944         19.9891         19.9891
            3565         172.788         172.788         23.7583         23.7583         24.7174         24.7174
            3566         171.357         171.357         32.8633         32.8633         28.4429         28.4429
            3567         168.618         168.618         42.8541         42.8541         30.3023         30.3023
            3568         166.585         166.585    -372.532E-03    -372.532E-03         1.06114         1.06114
            3569         166.730         166.730    -460.069E-03    -460.069E-03     817.083E-03     817.083E-03
            3570         166.806         166.806    -508.578E-03    -508.578E-03     536.514E-03     536.514E-03
            3571         166.809         166.809    -522.750E-03    -522.750E-03     240.482E-03     240.482E-03
            3572         166.742         166.742    -509.467E-03    -509.467E-03    -53.7986E-03    -53.7986E-03
            3573         166.610         166.610    -476.407E-03    -476.407E-03    -333.426E-03    -333.426E-03
            3574         166.420         166.420    -430.866E-03    -430.866E-03    -589.784E-03    -589.784E-03
            3575         166.178         166.178    -379.084E-03    -379.084E-03    -818.010E-03    -818.010E-03
            3576         165.891         165.891    -325.936E-03    -325.936E-03        -1.01628        -1.01628
            3577         165.568         165.568    -274.863E-03    -274.863E-03        -1.18497        -1.18497
            3578         165.215         165.215    -228.034E-03    -228.034E-03        -1.32593        -1.32593
            3579         164.837         164.837    -186.536E-03    -186.536E-03        -1.44184        -1.44184
            3580         164.439         164.439    -150.643E-03    -150.643E-03        -1.53568        -1.53568
            3581         164.027         164.027    -120.017E-03    -120.017E-03        -1.61037        -1.61037
            3582         163.605         163.605    -93.9312E-03    -93.9312E-03        -1.66850        -1.66850
            3583         163.176         163.176    -71.3769E-03    -71.3769E-03        -1.71214        -1.71214
            3584         162.745         162.745    -51.2147E-03    -51.2147E-03        -1.74273        -1.74273
            3585         162.316         162.316    -32.1876E-03    -32.1876E-03        -1.76104        -1.76104
            3586         161.892         161.892    -13.0154E-03    -13.0154E-03        -1.76706        -1.76706
            3587         161.478         161.478     7.67157E-03     7.67157E-03        -1.76007        -1.76007
            3588         161.080         161.080     31.2594E-03     31.2594E-03        -1.73840        -1.73840
            3589         160.704         160.704     59.2907E-03     59.2907E-03        -1.69967        -1.69967
            3590         160.356         160.356     93.4002E-03     93.4002E-03        -1.64034        -1.64034
            3591         160.045         160.045     135.532E-03     135.532E-03        -1.55601        -1.55601
            3592         159.782         159.782     187.903E-03     187.903E-03        -1.44066        -1.44066
            3593         159.579         159.579     253.326E-03     253.326E-03        -1.28726        -1.28726
            3594         159.451         159.451     335.261E-03     335.261E-03        -1.08602        -1.08602
            3595         159.416         159.416     438.356E-03     438.356E-03    -826.006E-03    -826.006E-03
            3596         159.497         159.497     568.639E-03     568.639E-03    -491.065E-03    -491.065E-03
            3597         159.719         159.719     734.852E-03     734.852E-03    -63.7767E-03    -63.7767E-03
            3598         160.117         160.117     948.354E-03     948.354E-03     483.806E-03     483.806E-03
            3599         160.727         160.727         1.22799         1.22799         1.18088         1.18088
            3600         161.599         161.599         1.59640         1.59640         2.07901         2.07901
            3601         162.784         162.784         2.10075         2.10075         3.23117         3.23117
            3602         164.357         164.357         2.78848         2.78848         4.73828         4.73828
            3603         166.362         166.362         3.79797         3.79797         6.70848         6.70848
            3604         168.897         168.897         5.23570         5.23570         9.34082         9.34082
            3605         171.881         171.881         7.57969         7.57969         12.8959         12.8959
            3606         175.251         175.251         11.1153         11.1153         17.6466         17.6466
            3607         178.120         178.120         17.7361         17.7361         24.3130         24.3130
            3608         177.622         177.622         28.7751         28.7751         30.6993         30.6993
            3609         174.796         174.796         41.5926         41.5926         33.5556         33.5556
            3610         166.275         166.275    -184.633E-03    -184.633E-03     827.538E-03     827.538E-03
            3611         166.527         166.527    -229.721E-03    -229.721E-03     653.369E-03     653.369E-03
            3612         166.702         166.702    -255.254E-03    -255.254E-03     450.193E-03     450.193E-03
            3613         166.792         166.792    -263.316E-03    -263.316E-03     233.554E-03     233.554E-03
            3614         166.795         166.795    -257.303E-03    -257.303E-03     16.4446E-03     16.4446E-03
            3615         166.715         166.715    -241.052E-03    -241.052E-03    -191.159E-03    -191.159E-03
            3616         166.556         166.556    -218.278E-03    -218.278E-03    -382.413E-03    -382.413E-03
            3617         166.325         166.325    -192.197E-03    -192.197E-03    -553.325E-03    -553.325E-03
            3618         166.032         166.032    -165.331E-03    -165.331E-03    -702.239E-03    -702.239E-03
            3619         165.685         165.685    -139.492E-03    -139.492E-03    -829.269E-03    -829.269E-03
            3620         165.292         165.292    -115.815E-03    -115.815E-03    -935.719E-03    -935.719E-03
            3621         164.861         164.861    -94.8951E-03    -94.8951E-03        -1.02359        -1.02359
            3622         164.399         164.399    -76.8853E-03    -76.8853E-03        -1.09520        -1.09520
            3623         163.912         163.912    -61.6398E-03    -61.6398E-03        -1.15282        -1.15282
            3624         163.406         163.406    -48.7862E-03    -48.7862E-03        -1.19855        -1.19855
            3625         162.886         162.886    -37.8362E-03    -37.8362E-03        -1.23410        -1.23410
            3626         162.356         162.356    -28.2025E-03    -28.2025E-03        -1.26073        -1.26073
            3627         161.821         161.821    -19.2786E-03    -19.2786E-03        -1.27919        -1.27919
            3628         161.284         161.284    -10.4062E-03    -10.4062E-03        -1.28973        -1.28973
            3629         160.752         160.752    -936.451E-06    -936.451E-06        -1.29198        -1.29198
            3630         160.228         160.228     9.83536E-03     9.83536E-03        -1.28507        -1.28507
            3631         159.718         159.718     22.6345E-03     22.6345E-03        -1.26740        -1.26740
            3632         159.229         159.229     38.2659E-03     38.2659E-03        -1.23686        -1.23686
            3633         158.770         158.770     57.6687E-03     57.6687E-03        -1.19034        -1.19034
            3634         158.351         158.351     81.8686E-03     81.8686E-03        -1.12419        -1.12419
            3635         157.983         157.983     112.320E-03     112.320E-03        -1.03320        -1.03320
            3636         157.682         157.682     150.488E-03     150.488E-03    -911.562E-03    -911.562E-03
            3637         157.468         157.468     198.988E-03     198.988E-03    -750.604E-03    -750.604E-03
            3638         157.362         157.362     260.173E-03     260.173E-03    -541.137E-03    -541.137E-03
            3639         157.396         157.396     339.251E-03     339.251E-03    -268.020E-03    -268.020E-03
            3640         157.604         157.604     440.647E-03     440.647E-03     83.8059E-03     83.8059E-03
            3641         158.035         158.035     575.384E-03     575.384E-03     542.960E-03     542.960E-03
            3642         158.746         158.746     753.912E-03     753.912E-03         1.13578         1.13578
            3643         159.819         159.819         1.00047         1.00047         1.92202         1.92202
            3644         161.347         161.347         1.34740         1.34740         2.95278         2.95278
            3645         163.478         163.478         1.84931         1.84931         4.36745         4.36745
            3646         166.353         166.353         2.63554         2.63554         6.28453         6.28453
            3647         170.269         170.269         3.83248         3.83248         9.06770         9.06770
            3648         175.306         175.306         6.10452         6.10452         13.0933         13.0933
            3649         181.980         181.980         9.78249         9.78249         19.3355         19.3355
            3650         188.458         188.458         19.8810         19.8810         29.7630         29.7630
            3651         187.228         187.228         38.3729         38.3729         38.3462         38.3462
            3652         166.079         166.079    -64.7087E-03    -64.7087E-03     471.210E-03     471.210E-03
            3653         166.465         166.465    -80.8115E-03    -80.8115E-03     376.883E-03     376.883E-03
            3654         166.755         166.755    -90.0049E-03    -90.0049E-03     266.159E-03     266.159E-03
            3655         166.937         166.937    -92.9796E-03    -92.9796E-03     147.665E-03     147.665E-03
            3656         167.009         167.009    -90.9311E-03    -90.9311E-03     28.6517E-03     28.6517E-03
            3657         166.971         166.971    -85.2113E-03    -85.2113E-03    -85.2979E-03    -85.2979E-03
            3658         166.831         166.831    -77.1555E-03    -77.1555E-03    -190.326E-03    -190.326E-03
            3659         166.598         166.598    -67.9080E-03    -67.9080E-03    -284.172E-03    -284.172E-03
            3660         166.282         166.282    -58.3853E-03    -58.3853E-03    -365.901E-03    -365.901E-03
            3661         165.894         165.894    -49.2308E-03    -49.2308E-03    -435.579E-03    -435.579E-03
            3662         165.447         165.447    -40.8643E-03    -40.8643E-03    -493.958E-03    -493.958E-03
            3663         164.949         164.949    -33.4919E-03    -33.4919E-03    -542.190E-03    -542.190E-03
            3664         164.410         164.410    -27.1803E-03    -27.1803E-03    -581.600E-03    -581.600E-03
            3665         163.837         163.837    -21.8676E-03    -21.8676E-03    -613.521E-03    -613.521E-03
            3666         163.237         163.237    -17.4359E-03    -17.4359E-03    -639.161E-03    -639.161E-03
            3667         162.615         162.615    -13.6973E-03    -13.6973E-03    -659.537E-03    -659.537E-03
            3668         161.978         161.978    -10.4644E-03    -10.4644E-03    -675.412E-03    -675.412E-03
            3669         161.328         161.328    -7.50334E-03    -7.50334E-03    -687.292E-03    -687.292E-03
            3670         160.670         160.670    -4.60998E-03    -4.60998E-03    -695.371E-03    -695.371E-03
            3671         160.008         160.008    -1.53497E-03    -1.53497E-03    -699.581E-03    -699.581E-03
            3672         159.346         159.346     1.93953E-03     1.93953E-03    -699.503E-03    -699.503E-03
            3673         158.689         158.689     6.07494E-03     6.07494E-03    -694.462E-03    -694.462E-03
            3674         158.043         158.043     11.1482E-03     11.1482E-03    -683.347E-03    -683.347E-03
            3675         157.415         157.415     17.4302E-03     17.4302E-03    -664.797E-03    -664.797E-03
            3676         156.814         156.814     25.3831E-03     25.3831E-03    -636.806E-03    -636.806E-03
            3677         156.250         156.250     35.2462E-03     35.2462E-03    -597.130E-03    -597.130E-03
            3678         155.739         155.739     47.9790E-03     47.9790E-03    -542.391E-03    -542.391E-03
            3679         155.296         155.296     63.6227E-03     63.6227E-03    -469.060E-03    -469.060E-03
            3680         154.945         154.945     84.4142E-03     84.4142E-03    -371.286E-03    -371.286E-03
            3681         154.713         154.713     109.700E-03     109.700E-03    -243.474E-03    -243.474E-03
            3682         154.636         154.636     144.966E-03     144.966E-03    -74.6332E-03    -74.6332E-03
            3683         154.761         154.761     187.610E-03     187.610E-03     144.364E-03     144.364E-03
            3684         155.150         155.150     251.405E-03     251.405E-03     436.685E-03     436.685E-03
            3685         155.886         155.886     329.258E-03     329.258E-03     817.850E-03     817.850E-03
            3686         157.084         157.084     456.323E-03     456.323E-03         1.34401         1.34401
            3687         158.902         158.902     619.332E-03     619.332E-03         2.04350         2.04350
            3688         161.592         161.592     909.999E-03     909.999E-03         3.07687         3.07687
            3689         165.483         165.483         1.34086         1.34086         4.50756         4.50756
            3690         171.270         171.270         2.16287         2.16287         6.90674         6.90674
            3691         179.681         179.681         3.88568         3.88568         10.5401         10.5401
            3692         193.595         193.595         7.34781         7.34781         18.3627         18.3627
            3693         211.225         211.225         26.0648         26.0648         33.7288         33.7288
            3694         9.56058         9.56058        -74.3943        -74.3943        -8.91800        -8.91800
            3695         34.7844         34.7844        -30.5250        -30.5250        -23.7787        -23.7787
            3696         67.7492         67.7492        -9.60174        -9.60174        -25.9899        -25.9899
            3697         98.7670         98.7670        -1.64853        -1.64853        -21.5352        -21.5352
            3698         123.016         123.016     526.416E-03     526.416E-03        -15.2708        -15.2708
            3699         30.5347         30.5347        -55.2317        -55.2317        -20.6037        -20.6037
            3700         67.5673         67.5673        -30.5685        -30.5685        -41.6379        -41.6379
            3701         100.611         100.611        -18.0081        -18.0081        -41.5201        -41.5201
            3702         125.225         125.225        -11.1986        -11.1986        -32.3370        -32.3370
            3703         141.620         141.620        -7.08869        -7.08869        -21.9900        -21.9900
            3704         65.5994         65.5994        -32.0498        -32.0498        -34.3378        -34.3378
            3705         111.701         111.701        -30.8602        -30.8602        -48.9074        -48.9074
            3706         138.852         138.852        -25.7882        -25.7882        -42.5507        -42.5507
            3707         152.900         152.900        -18.9336        -18.9336        -30.4868        -30.4868
            3708         159.672         159.672        -12.7333        -12.7333        -19.5733        -19.5733
            3709         111.901         111.901        -11.4990        -11.4990        -45.9751        -45.9751
            3710         155.230         155.230        -29.8101        -29.8101        -44.3419        -44.3419
            3711         169.898         169.898        -28.4542        -28.4542        -32.7851        -32.7851
            3712         172.510         172.510        -21.2091        -21.2091        -21.4084        -21.4084
            3713         171.212         171.212        -14.0614        -14.0614        -12.8738        -12.8738
            3714         184.585         184.585         20.9012         20.9012         7.56295         7.56295
            3715         199.685         199.685         32.2387         32.2387         8.95559         8.95559
            3716         226.821         226.821         44.0032         44.0032         6.64730         6.64730
            3717         274.216         274.216         50.2973         50.2973        -4.21112        -4.21112
            3718         351.936         351.936         41.4515         41.4515        -29.2472        -29.2472
            3719         186.757         186.757         7.77340         7.77340         9.10809         9.10809
            3720         200.870         200.870         14.1894         14.1894         10.9431         10.9431
            3721         223.148         223.148         23.3637         23.3637         7.76024         7.76024
            3722         258.208         258.208         33.8029         33.8029        -8.71404        -8.71404
            3723         313.130         313.130         40.2928         40.2928        -50.1099        -50.1099
            3724         186.215         186.215        -4.06615        -4.06615         4.97123         4.97123
            3725         198.738         198.738        -3.58752        -3.58752         5.51384         5.51384
            3726         215.863         215.863     292.263E-03     292.263E-03         1.81740         1.81740
            3727         236.967         236.967         11.5849         11.5849        -14.5768        -14.5768
            3728         261.642         261.642         33.9686         33.9686        -59.2572        -59.2572
            3729         182.401         182.401        -10.4471        -10.4471    -923.750E-03    -923.750E-03
            3730         192.397         192.397        -14.5745        -14.5745        -3.01115        -3.01115
            3731         204.542         204.542        -16.7442        -16.7442        -8.49043        -8.49043
            3732         213.927         213.927        -9.73946        -9.73946        -22.8020        -22.8020
            3733         208.924         208.924         20.9363         20.9363        -58.8901        -58.8901
            3734         119.647         119.647        -8.36859        -8.36859         47.7129         47.7129
            3735         161.878         161.878        -29.5460        -29.5460         43.1475         43.1475
            3736         174.338         174.338        -28.6191        -28.6191         30.8892         30.8892
            3737         175.157         175.157        -21.3124        -21.3124         19.7602         19.7602
            3738         172.693         172.693        -14.0734        -14.0734         11.6964         11.6964
            3739         79.3823         79.3823        -24.6489        -24.6489         38.7270         38.7270
            3740         126.676         126.676        -30.9095        -30.9095         49.1554         49.1554
            3741         150.610         150.610        -27.6348        -27.6348         40.6867         40.6867
            3742         160.838         160.838        -20.6021        -20.6021         28.2458         28.2458
            3743         164.587         164.587        -13.8535        -13.8535         17.7174         17.7174
            3744         45.7738         45.7738        -43.9948        -43.9948         27.2807         27.2807
            3745         88.4764         88.4764        -30.8812        -30.8812         47.1963         47.1963
            3746         119.803         119.803        -22.4468        -22.4468         44.3877         44.3877
            3747         139.723         139.723        -15.8211        -15.8211         33.2948         33.2948
            3748         151.372         151.372        -10.5846        -10.5846         22.0422         22.0422
            3749         21.4490         21.4490        -63.2666        -63.2666         16.1686         16.1686
            3750         54.1975         54.1975        -30.7312        -30.7312         36.9771         36.9771
            3751         87.6995         87.6995        -14.9805        -14.9805         38.4825         38.4825
            3752         115.160         115.160        -7.84722        -7.84722         30.8751         30.8751
            3753         134.712         134.712        -4.49317        -4.49317         21.4181         21.4181
            3754         7.17653         7.17653        -77.8362        -77.8362         7.15106         7.15106
            3755         30.5255         30.5255        -30.9005        -30.9005         20.2585         20.2585
            3756         63.0020         63.0020        -8.46866        -8.46866         22.5108         22.5108
            3757         94.6072         94.6072    -92.2565E-03    -92.2565E-03         18.8926         18.8926
            3758         119.916         119.916         1.87676         1.87676         13.5389         13.5389
            3759         182.604         182.604        -10.7339        -10.7339         1.31149         1.31149
            3760         192.583         192.583        -14.8206        -14.8206         3.30423         3.30423
            3761         204.711         204.711        -16.9455        -16.9455         8.70843         8.70843
            3762         214.119         214.119        -9.89695        -9.89695         22.9694         22.9694
            3763         209.170         209.170         20.8323         20.8323         59.0332         59.0332
            3764         186.366         186.366        -4.28398        -4.28398        -4.60370        -4.60370
            3765         198.878         198.878        -3.76285        -3.76285        -5.23300        -5.23300
            3766         215.995         215.995     169.950E-03     169.950E-03        -1.60750        -1.60750
            3767         237.120         237.120         11.5216         11.5216         14.7275         14.7275
            3768         261.877         261.877         33.9876         33.9876         59.3925         59.3925
            3769         186.853         186.853         7.63384         7.63384        -8.75342        -8.75342
            3770         200.958         200.958         14.0904         14.0904        -10.6605        -10.6605
            3771         223.227         223.227         23.3167         23.3167        -7.53944        -7.53944
            3772         258.306         258.306         33.8198         33.8198         8.88778         8.88778
            3773         313.322         313.322         40.3515         40.3515         50.2562         50.2562
            3774         184.631         184.631         20.8361         20.8361        -7.21000        -7.21000
            3775         199.724         199.724         32.1998         32.1998        -8.66063        -8.66063
            3776         226.853         226.853         44.0003         44.0003        -6.39799        -6.39799
            3777         274.263         274.263         50.3294         50.3294         4.42138         4.42138
            3778         352.047         352.047         41.4929         41.4929         29.3976         29.3976
            3779         200.557         200.557         18.7004         18.7004        -58.5396        -58.5396
            3780         210.259         210.259        -13.0033        -13.0033        -24.3344        -24.3344
            3781         202.681         202.681        -19.2338        -19.2338        -10.4483        -10.4483
            3782         191.376         191.376        -16.1805        -16.1805        -4.71347        -4.71347
            3783         181.861         181.861        -11.4717        -11.4717        -2.26899        -2.26899
            3784         244.005         244.005         30.8311         30.8311        -60.5514        -60.5514
            3785         229.626         229.626         4.11031         4.11031        -17.0927        -17.0927
            3786         212.847         212.847        -6.63890        -6.63890        -1.33631        -1.33631
            3787         197.405         197.405        -8.59104        -8.59104         2.61305         2.61305
            3788         185.578         185.578        -7.30737        -7.30737         2.68632         2.68632
            3789         288.870         288.870         38.3342         38.3342        -56.8198        -56.8198
            3790         248.312         248.312         23.2737         23.2737        -11.5582        -11.5582
            3791         220.285         220.285         11.5066         11.5066         5.63025         5.63025
            3792         200.669         200.669         4.47311         4.47311         8.94817         8.94817
            3793         187.248         187.248     961.423E-03     961.423E-03         7.37507         7.37507
            3794         329.229         329.229         41.2122         41.2122        -45.1359        -45.1359
            3795         264.881         264.881         40.5592         40.5592        -7.41554        -7.41554
            3796         224.982         224.982         31.3235         31.3235         8.16478         8.16478
            3797         200.883         200.883         20.8297         20.8297         11.2788         11.2788
            3798         186.375         186.375         12.3907         12.3907         9.33486         9.33486
            3799         357.794         357.794         41.2557         41.2557        -25.2531        -25.2531
            3800         276.761         276.761         52.3393         52.3393        -3.77618        -3.77618
            3801         227.448         227.448         46.9308         46.9308         5.70074         5.70074
            3802         199.456         199.456         35.0117         35.0117         7.77966         7.77966
            3803         184.160         184.160         23.0231         23.0231         6.54429         6.54429
            3804         182.370         182.370        -10.4805        -10.4805     956.969E-03     956.969E-03
            3805         192.353         192.353        -14.6228        -14.6228         3.06127         3.06127
            3806         204.477         204.477        -16.8021        -16.8021         8.55625         8.55625
            3807         213.855         213.855        -9.81555        -9.81555         22.8703         22.8703
            3808         208.854         208.854         20.8119         20.8119         58.9082         58.9082
            3809         186.198         186.198        -4.11640        -4.11640        -4.93880        -4.93880
            3810         198.710         198.710        -3.64943        -3.64943        -5.46385        -5.46385
            3811         215.814         215.814     226.829E-03     226.829E-03        -1.75105        -1.75105
            3812         236.882         236.882         11.5159         11.5159         14.6319         14.6319
            3813         261.521         261.521         33.9235         33.9235         59.2621         59.2621
            3814         186.757         186.757         7.70893         7.70893        -9.07845        -9.07845
            3815         200.857         200.857         14.1224         14.1224        -10.8905        -10.8905
            3816         223.107         223.107         23.3004         23.3004        -7.69599        -7.69599
            3817         258.113         258.113         33.7555         33.7555         8.77813         8.77813
            3818         312.945         312.945         40.2603         40.2603         50.1411         50.1411
            3819         184.606         184.606         20.8294         20.8294        -7.54668        -7.54668
            3820         199.696         199.696         32.1608         32.1608        -8.91420        -8.91420
            3821         226.790         226.790         43.9487         43.9487        -6.57983        -6.57983
            3822         274.119         274.119         50.2929         50.2929         4.27965         4.27965
            3823         351.696         351.696         41.4782         41.4782         29.2739         29.2739
            3824         119.867         119.867        -8.47511        -8.47511         47.8106         47.8106
            3825         162.150         162.150        -29.7556        -29.7556         43.2714         43.2714
            3826         174.624         174.624        -28.8724        -28.8724         31.0546         31.0546
            3827         175.462         175.462        -21.6095        -21.6095         19.9930         19.9930
            3828         173.028         173.028        -14.4297        -14.4297         12.0285         12.0285
            3829         79.5389         79.5389        -24.8283        -24.8283         38.8065         38.8065
            3830         126.917         126.917        -31.1547        -31.1547         49.2867         49.2867
            3831         150.890         150.890        -27.9150        -27.9150         40.8487         40.8487
            3832         161.156         161.156        -20.9219        -20.9219         28.4525         28.4525
            3833         164.956         164.956        -14.2340        -14.2340         18.0002         18.0002
            3834         45.8684         45.8684        -44.2548        -44.2548         27.3367         27.3367
            3835         88.6601         88.6601        -31.1544        -31.1544         47.3242         47.3242
            3836         120.052         120.052        -22.7412        -22.7412         44.5415         44.5415
            3837         140.034         140.034        -16.1540        -16.1540         33.4743         33.4743
            3838         151.759         151.759        -10.9817        -10.9817         22.2721         22.2721
            3839         21.4905         21.4905        -63.6064        -63.6064         16.2036         16.2036
            3840         54.3146         54.3146        -31.0247        -31.0247         37.0836         37.0836
            3841         87.8982         87.8982        -15.2763        -15.2763         38.6118         38.6118
            3842         115.445         115.445        -8.18086        -8.18086         31.0169         31.0169
            3843         135.100         135.100        -4.89676        -4.89676         21.5872         21.5872
            3844         7.18212         7.18212        -78.2378        -78.2378         7.17112         7.17112
            3845         30.5866         30.5866        -31.2071        -31.2071         20.3257         20.3257
            3846         63.1513         63.1513        -8.75904        -8.75904         22.5923         22.5923
            3847         94.8611         94.8611    -418.704E-03    -418.704E-03         18.9780         18.9780
            3848         120.294         120.294         1.47492         1.47492         13.6339         13.6339
            3849         171.540         171.540        -14.4159        -14.4159        -13.1958        -13.1958
            3850         172.793         172.793        -21.4984        -21.4984        -21.6365        -21.6365
            3851         170.137         170.137        -28.6929        -28.6929        -32.9453        -32.9453
            3852         155.435         155.435        -30.0148        -30.0148        -44.4379        -44.4379
            3853         112.061         112.061        -11.6503        -11.6503        -46.0143        -46.0143
            3854         160.035         160.035        -13.1140        -13.1140        -19.8315        -19.8315
            3855         153.189         153.189        -19.2476        -19.2476        -30.6770        -30.6770
            3856         139.081         139.081        -26.0632        -26.0632        -42.6941        -42.6941
            3857         111.877         111.877        -31.1202        -31.1202        -49.0098        -49.0098
            3858         65.6917         65.6917        -32.2982        -32.2982        -34.3701        -34.3701
            3859         141.993         141.993        -7.48202        -7.48202        -22.1748        -22.1748
            3860         125.497         125.497        -11.5219        -11.5219        -32.4795        -32.4795
            3861         100.799         100.799        -18.2962        -18.2962        -41.6372        -41.6372
            3862         67.6766         67.6766        -30.8584        -30.8584        -41.7242        -41.7242
            3863         30.5685         30.5685        -55.5692        -55.5692        -20.6159        -20.6159
            3864         123.385         123.385     130.107E-03     130.107E-03        -15.3658        -15.3658
            3865         99.0121         99.0121        -1.96976        -1.96976        -21.6100        -21.6100
            3866         67.8895         67.8895        -9.88854        -9.88854        -26.0523        -26.0523
            3867         34.8372         34.8372        -30.8314        -30.8314        -23.8219        -23.8219
            3868         9.55944         9.55944        -74.7989        -74.7989        -8.91549        -8.91549


  Minimum               -2.69897        -2.69897        -117.159        -117.159        -91.7610        -91.7610
         At Node              28              28              28              28             590             590

  Maximum                420.291         420.291         56.4148         56.4148         91.2359         91.2359
         At Node              27              27             585             585             574             574

           Total     637.712E+03     637.712E+03     10.2207E+03     10.2207E+03         308.250         308.250


