********************************************************************************
Field Output Report, written Thu Feb 22 21:47:40 2024

Source 1
---------

   ODB: C:/Users/Isabel Haycock/OneDrive - Imperial College London/Fourth Year/FYP/Isabel Haycock/06 - FE models/Specimen_2/Plate_hole_1.odb
   Step: load
   Frame: Increment      3: Step Time =   0.3000

Loc 1 : Nodal values at shell < composite > < elset = ASSEMBLY_PLATE_1-1_COMPOSITELAYUP-1-1 > from source 1 : SNEG, (fraction = -1.0), Layer = 1
Loc 2 : Nodal values at shell < composite > < elset = ASSEMBLY_PLATE_1-1_COMPOSITELAYUP-1-1 > from source 1 : SPOS, (fraction = 1.0), Layer = 8

Output sorted by column "Node Label".

Field Output reported at nodes for part: PLATE_1-1
   Computation algorithm: EXTRAPOLATE_COMPUTE_AVERAGE
   Averaged at nodes
   Averaging regions: ODB_REGIONS

      Node Label           S.S11           S.S11           S.S22           S.S22           S.S12           S.S12
                          @Loc 1          @Loc 2          @Loc 1          @Loc 2          @Loc 1          @Loc 2
-----------------------------------------------------------------------------------------------------------------
               1         517.514         517.514        -24.1584        -24.1584        -10.4688        -10.4688
               2         492.195         492.195     679.064E-03     679.064E-03    -31.0996E-03    -31.0996E-03
               3         492.288         492.288     3.21940E-03     3.21940E-03    -3.50642E-03    -3.50642E-03
               4         497.631         497.631    -31.5719E-03    -31.5719E-03         1.04881         1.04881
               5         517.723         517.723        -24.0717        -24.0717         10.0827         10.0827
               6         492.194         492.194     679.162E-03     679.162E-03     31.0968E-03     31.0968E-03
               7         396.254         396.254         11.0698         11.0698        -1.53193        -1.53193
               8         495.803         495.803    -38.6051E-03    -38.6051E-03    -882.052E-03    -882.052E-03
               9         518.575         518.575        -25.1714        -25.1714         11.5144         11.5144
              10         526.394         526.394         51.8655         51.8655     598.326E-03     598.326E-03
              11         497.728         497.728    -32.8289E-03    -32.8289E-03        -1.04877        -1.04877
              12         492.288         492.288     3.22008E-03     3.22008E-03     3.50714E-03     3.50714E-03
              13         462.820         462.820         140.761         140.761        -30.6860        -30.6860
              14         752.859         752.859         104.435         104.435        -121.799        -121.799
              15         518.018         518.018        -25.3336        -25.3336        -12.2066        -12.2066
              16         495.865         495.865    -40.1785E-03    -40.1785E-03     882.950E-03     882.950E-03
              17         526.197         526.197         52.5186         52.5186        -1.51384        -1.51384
              18         462.823         462.823         140.756         140.756         30.6789         30.6789
              19         397.742         397.742         9.62391         9.62391        -1.53008        -1.53008
              20         752.859         752.859         104.435         104.435         121.799         121.799
              21        -8.06340        -8.06340        -348.466        -348.466     314.804E-03     314.804E-03
              22         407.751         407.751         91.7055         91.7055        -198.836        -198.836
              23     1.25626E+03     1.25626E+03         81.2214         81.2214     144.413E-03     144.413E-03
              24         414.053         414.053         94.4387         94.4387         201.615         201.615
              25         414.809         414.809         94.5478         94.5478         202.016         202.016
              26         400.349         400.349         90.3902         90.3902        -196.720        -196.720
              27     1.25874E+03     1.25874E+03         80.3621         80.3621         5.82355         5.82355
              28        -8.11970        -8.11970        -349.989        -349.989     340.387E-03     340.387E-03
              29         507.877         507.877        -19.4131        -19.4131        -12.3436        -12.3436
              30         502.276         502.276        -16.3501        -16.3501        -13.5788        -13.5788
              31         497.827         497.827        -13.1257        -13.1257        -13.6559        -13.6559
              32         494.513         494.513        -10.1634        -10.1634        -13.0400        -13.0400
              33         492.151         492.151        -7.60924        -7.60924        -12.0793        -12.0793
              34         490.530         490.530        -5.48161        -5.48161        -10.9979        -10.9979
              35         489.462         489.462        -3.73864        -3.73864        -9.92139        -9.92139
              36         488.796         488.796        -2.32610        -2.32610        -8.91256        -8.91256
              37         488.421         488.421        -1.18987        -1.18987        -7.99805        -7.99805
              38         488.252         488.252    -283.020E-03    -283.020E-03        -7.18399        -7.18399
              39         488.230         488.230     434.130E-03     434.130E-03        -6.46625        -6.46625
              40         488.308         488.308     994.221E-03     994.221E-03        -5.83568        -5.83568
              41         488.456         488.456         1.42419         1.42419        -5.28152        -5.28152
              42         488.650         488.650         1.74628         1.74628        -4.79298        -4.79298
              43         488.871         488.871         1.97900         1.97900        -4.36016        -4.36016
              44         489.108         489.108         2.13785         2.13785        -3.97436        -3.97436
              45         489.351         489.351         2.23591         2.23591        -3.62820        -3.62820
              46         489.594         489.594         2.28427         2.28427        -3.31555        -3.31555
              47         489.831         489.831         2.29237         2.29237        -3.03141        -3.03141
              48         490.060         490.060         2.26825         2.26825        -2.77173        -2.77173
              49         490.278         490.278         2.21876         2.21876        -2.53327        -2.53327
              50         490.484         490.484         2.14973         2.14973        -2.31344        -2.31344
              51         490.676         490.676         2.06614         2.06614        -2.11018        -2.11018
              52         490.854         490.854         1.97217         1.97217        -1.92182        -1.92182
              53         491.019         491.019         1.87137         1.87137        -1.74700        -1.74700
              54         491.170         491.170         1.76669         1.76669        -1.58460        -1.58460
              55         491.308         491.308         1.66060         1.66060        -1.43364        -1.43364
              56         491.433         491.433         1.55514         1.55514        -1.29330        -1.29330
              57         491.546         491.546         1.45200         1.45200        -1.16281        -1.16281
              58         491.647         491.647         1.35253         1.35253        -1.04146        -1.04146
              59         491.738         491.738         1.25783         1.25783    -928.584E-03    -928.584E-03
              60         491.818         491.818         1.16878         1.16878    -823.530E-03    -823.530E-03
              61         491.889         491.889         1.08607         1.08607    -725.657E-03    -725.657E-03
              62         491.952         491.952         1.01023         1.01023    -634.325E-03    -634.325E-03
              63         492.006         492.006     941.676E-03     941.676E-03    -548.894E-03    -548.894E-03
              64         492.052         492.052     880.708E-03     880.708E-03    -468.723E-03    -468.723E-03
              65         492.091         492.091     827.554E-03     827.554E-03    -393.165E-03    -393.165E-03
              66         492.123         492.123     782.379E-03     782.379E-03    -321.569E-03    -321.569E-03
              67         492.149         492.149     745.295E-03     745.295E-03    -253.281E-03    -253.281E-03
              68         492.169         492.169     716.382E-03     716.382E-03    -187.642E-03    -187.642E-03
              69         492.183         492.183     695.691E-03     695.691E-03    -123.994E-03    -123.994E-03
              70         492.192         492.192     683.235E-03     683.235E-03    -61.8423E-03    -61.8423E-03
              71         492.254         492.254     611.234E-03     611.234E-03    -33.7114E-03    -33.7114E-03
              72         492.310         492.310     543.230E-03     543.230E-03    -35.3062E-03    -35.3062E-03
              73         492.363         492.363     472.907E-03     472.907E-03    -36.0837E-03    -36.0837E-03
              74         492.413         492.413     401.923E-03     401.923E-03    -36.0022E-03    -36.0022E-03
              75         492.455         492.455     331.990E-03     331.990E-03    -35.0453E-03    -35.0453E-03
              76         492.487         492.487     264.843E-03     264.843E-03    -33.2109E-03    -33.2109E-03
              77         492.506         492.506     202.194E-03     202.194E-03    -30.5222E-03    -30.5222E-03
              78         492.510         492.510     145.693E-03     145.693E-03    -27.0167E-03    -27.0167E-03
              79         492.497         492.497     96.8847E-03     96.8847E-03    -22.7672E-03    -22.7672E-03
              80         492.464         492.464     57.1643E-03     57.1643E-03    -17.8492E-03    -17.8492E-03
              81         492.410         492.410     27.7080E-03     27.7080E-03    -12.4104E-03    -12.4104E-03
              82         492.333         492.333     9.44718E-03     9.44718E-03    -6.54984E-03    -6.54984E-03
              83         492.294         492.294     3.29018E-03     3.29018E-03    -6.43451E-03    -6.43451E-03
              84         492.313         492.313     3.39096E-03     3.39096E-03    -12.6066E-03    -12.6066E-03
              85         492.345         492.345     3.49178E-03     3.49178E-03    -19.1968E-03    -19.1968E-03
              86         492.389         492.389     3.66299E-03     3.66299E-03    -26.0639E-03    -26.0639E-03
              87         492.448         492.448     3.88369E-03     3.88369E-03    -33.3282E-03    -33.3282E-03
              88         492.521         492.521     4.15301E-03     4.15301E-03    -41.0887E-03    -41.0887E-03
              89         492.610         492.610     4.47233E-03     4.47233E-03    -49.4468E-03    -49.4468E-03
              90         492.717         492.717     4.83896E-03     4.83896E-03    -58.5022E-03    -58.5022E-03
              91         492.842         492.842     5.25332E-03     5.25332E-03    -68.3535E-03    -68.3535E-03
              92         492.987         492.987     5.71240E-03     5.71240E-03    -79.0973E-03    -79.0973E-03
              93         493.155         493.155     6.21419E-03     6.21419E-03    -90.8259E-03    -90.8259E-03
              94         493.346         493.346     6.75403E-03     6.75403E-03    -103.626E-03    -103.626E-03
              95         493.565         493.565     7.32637E-03     7.32637E-03    -117.576E-03    -117.576E-03
              96         493.811         493.811     7.92295E-03     7.92295E-03    -132.740E-03    -132.740E-03
              97         494.089         494.089     8.53270E-03     8.53270E-03    -149.166E-03    -149.166E-03
              98         494.401         494.401     9.14110E-03     9.14110E-03    -166.877E-03    -166.877E-03
              99         494.749         494.749     9.72829E-03     9.72829E-03    -185.864E-03    -185.864E-03
             100         495.136         495.136     10.2698E-03     10.2698E-03    -206.075E-03    -206.075E-03
             101         495.563         495.563     10.7321E-03     10.7321E-03    -227.404E-03    -227.404E-03
             102         496.034         496.034     11.0758E-03     11.0758E-03    -249.671E-03    -249.671E-03
             103         496.549         496.549     11.2468E-03     11.2468E-03    -272.609E-03    -272.609E-03
             104         497.110         497.110     11.1853E-03     11.1853E-03    -295.836E-03    -295.836E-03
             105         497.716         497.716     10.8080E-03     10.8080E-03    -318.831E-03    -318.831E-03
             106         498.367         498.367     10.0297E-03     10.0297E-03    -340.906E-03    -340.906E-03
             107         499.060         499.060     8.73059E-03     8.73059E-03    -361.171E-03    -361.171E-03
             108         499.790         499.790     6.79937E-03     6.79937E-03    -378.504E-03    -378.504E-03
             109         500.549         500.549     4.07998E-03     4.07998E-03    -391.517E-03    -391.517E-03
             110         501.329         501.329     448.103E-06     448.103E-06    -398.538E-03    -398.538E-03
             111         502.115         502.115    -4.26669E-03    -4.26669E-03    -397.602E-03    -397.602E-03
             112         502.888         502.888    -10.1611E-03    -10.1611E-03    -386.459E-03    -386.459E-03
             113         503.628         503.628    -17.3516E-03    -17.3516E-03    -362.650E-03    -362.650E-03
             114         504.305         504.305    -25.8217E-03    -25.8217E-03    -323.585E-03    -323.585E-03
             115         504.887         504.887    -35.4924E-03    -35.4924E-03    -266.766E-03    -266.766E-03
             116         505.338         505.338    -46.0950E-03    -46.0950E-03    -189.996E-03    -189.996E-03
             117         505.616         505.616    -57.1447E-03    -57.1447E-03    -91.8181E-03    -91.8181E-03
             118         505.679         505.679    -67.9576E-03    -67.9576E-03     28.1135E-03     28.1135E-03
             119         505.484         505.484    -77.4629E-03    -77.4629E-03     168.423E-03     168.423E-03
             120         504.996         504.996    -84.4959E-03    -84.4959E-03     325.550E-03     325.550E-03
             121         504.187         504.187    -87.5016E-03    -87.5016E-03     493.263E-03     493.263E-03
             122         503.045         503.045    -85.1043E-03    -85.1043E-03     662.425E-03     662.425E-03
             123         501.579         501.579    -76.0282E-03    -76.0282E-03     821.277E-03     821.277E-03
             124         499.824         499.824    -59.3989E-03    -59.3989E-03     955.066E-03     955.066E-03
             125         498.066         498.066    -91.0009E-03    -91.0009E-03         1.93452         1.93452
             126         499.026         499.026    -263.536E-03    -263.536E-03         3.48001         3.48001
             127         500.150         500.150    -546.381E-03    -546.381E-03         4.62677         4.62677
             128         501.419         501.419    -958.165E-03    -958.165E-03         5.46873         5.46873
             129         502.840         502.840        -1.54144        -1.54144         6.06674         6.06674
             130         504.434         504.434        -2.36081        -2.36081         6.44069         6.44069
             131         506.228         506.228        -3.50299        -3.50299         6.56501         6.56501
             132         508.235         508.235        -5.07538        -5.07538         6.35873         6.35873
             133         510.433         510.433        -7.19891        -7.19891         5.66409         5.66409
             134         512.706         512.706        -9.97694        -9.97694         4.22768         4.22768
             135         514.751         514.751        -13.4334        -13.4334         1.68737         1.68737
             136         515.956         515.956        -17.3672        -17.3672        -2.34245        -2.34245
             137         508.137         508.137        -19.3596        -19.3596         11.9559         11.9559
             138         502.577         502.577        -16.3657        -16.3657         13.2605         13.2605
             139         498.140         498.140        -13.1924        -13.1924         13.4177         13.4177
             140         494.809         494.809        -10.2560        -10.2560         12.8781         12.8781
             141         492.411         492.411        -7.70726        -7.70726         11.9787         11.9787
             142         490.750         490.750        -5.57278        -5.57278         10.9417         10.9417
             143         489.643         489.643        -3.81787        -3.81787         9.89478         9.89478
             144         488.944         488.944        -2.39249        -2.39249         8.90506         8.90506
             145         488.540         488.540        -1.24427        -1.24427         8.00232         8.00232
             146         488.349         488.349    -327.092E-03    -327.092E-03         7.19523         7.19523
             147         488.308         488.308     398.645E-03     398.645E-03         6.48129         6.48129
             148         488.373         488.373     965.676E-03     965.676E-03         5.85249         5.85249
             149         488.509         488.509         1.40119         1.40119         5.29884         5.29884
             150         488.693         488.693         1.72766         1.72766         4.81001         4.81001
             151         488.907         488.907         1.96383         1.96383         4.37642         4.37642
             152         489.138         489.138         2.12539         2.12539         3.98958         3.98958
             153         489.376         489.376         2.22559         2.22559         3.64224         3.64224
             154         489.615         489.615         2.27565         2.27565         3.32836         3.32836
             155         489.849         489.849         2.28511         2.28511         3.04299         3.04299
             156         490.075         490.075         2.26208         2.26208         2.78211         2.78211
             157         490.291         490.291         2.21348         2.21348         2.54251         2.54251
             158         490.494         490.494         2.14520         2.14520         2.32162         2.32162
             159         490.685         490.685         2.06222         2.06222         2.11737         2.11737
             160         490.862         490.862         1.96878         1.96878         1.92810         1.92810
             161         491.025         491.025         1.86843         1.86843         1.75246         1.75246
             162         491.175         491.175         1.76414         1.76414         1.58931         1.58931
             163         491.312         491.312         1.65840         1.65840         1.43768         1.43768
             164         491.436         491.436         1.55325         1.55325         1.29674         1.29674
             165         491.549         491.549         1.45038         1.45038         1.16571         1.16571
             166         491.650         491.650         1.35115         1.35115         1.04389         1.04389
             167         491.740         491.740         1.25666         1.25666     930.604E-03     930.604E-03
             168         491.820         491.820         1.16780         1.16780     825.191E-03     825.191E-03
             169         491.891         491.891         1.08526         1.08526     727.006E-03     727.006E-03
             170         491.952         491.952         1.00956         1.00956     635.406E-03     635.406E-03
             171         492.006         492.006     941.137E-03     941.137E-03     549.747E-03     549.747E-03
             172         492.052         492.052     880.285E-03     880.285E-03     469.383E-03     469.383E-03
             173         492.091         492.091     827.237E-03     827.237E-03     393.663E-03     393.663E-03
             174         492.124         492.124     782.156E-03     782.156E-03     321.933E-03     321.933E-03
             175         492.150         492.150     745.160E-03     745.160E-03     253.534E-03     253.534E-03
             176         492.169         492.169     716.327E-03     716.327E-03     187.806E-03     187.806E-03
             177         492.183         492.183     695.709E-03     695.709E-03     124.084E-03     124.084E-03
             178         492.192         492.192     683.311E-03     683.311E-03     61.8692E-03     61.8692E-03
             179         492.132         492.132     747.918E-03     747.918E-03     27.2191E-03     27.2191E-03
             180         492.074         492.074     809.956E-03     809.956E-03     22.2383E-03     22.2383E-03
             181         492.027         492.027     858.504E-03     858.504E-03     16.4775E-03     16.4775E-03
             182         491.994         491.994     891.850E-03     891.850E-03     10.1386E-03     10.1386E-03
             183         491.977         491.977     908.818E-03     908.818E-03     3.44221E-03     3.44221E-03
             184         491.977         491.977     908.803E-03     908.803E-03    -3.37828E-03    -3.37828E-03
             185         491.994         491.994     891.814E-03     891.814E-03    -10.0840E-03    -10.0840E-03
             186         492.027         492.027     858.454E-03     858.454E-03    -16.4430E-03    -16.4430E-03
             187         492.074         492.074     809.884E-03     809.884E-03    -22.2257E-03    -22.2257E-03
             188         492.132         492.132     747.826E-03     747.826E-03    -27.2138E-03    -27.2138E-03
             189         407.234         407.234         5.72992         5.72992         27.0801         27.0801
             190         436.709         436.709        -7.74245        -7.74245         42.5273         42.5273
             191         469.235         469.235        -20.4202        -20.4202         43.2277         43.2277
             192         494.357         494.357        -27.1116        -27.1116         34.3025         34.3025
             193         509.230         509.230        -27.6337        -27.6337         22.4402         22.4402
             194         506.515         506.515        -27.5967        -27.5967        -24.7951        -24.7951
             195         485.052         485.052        -24.8132        -24.8132        -38.1171        -38.1171
             196         450.308         450.308        -13.1694        -13.1694        -43.4265        -43.4265
             197         413.723         413.723         2.72784         2.72784        -30.5149        -30.5149
             198         496.279         496.279    -111.465E-03    -111.465E-03        -1.61048        -1.61048
             199         497.343         497.343    -322.676E-03    -322.676E-03        -2.85195        -2.85195
             200         498.614         498.614    -665.978E-03    -665.978E-03        -3.72027        -3.72027
             201         500.067         500.067        -1.15616        -1.15616        -4.31634        -4.31634
             202         501.700         501.700        -1.83202        -1.83202        -4.70531        -4.70531
             203         503.527         503.527        -2.75451        -2.75451        -4.91021        -4.91021
             204         505.567         505.567        -4.00698        -4.00698        -4.90741        -4.90741
             205         507.827         507.827        -5.69355        -5.69355        -4.61682        -4.61682
             206         510.277         510.277        -7.93220        -7.93220        -3.88047        -3.88047
             207         512.796         512.796        -10.8235        -10.8235        -2.44326        -2.44326
             208         515.075         515.075        -14.3887        -14.3887     59.6623E-03     59.6623E-03
             209         516.492         516.492        -18.4271        -18.4271         4.02274         4.02274
             210         529.213         529.213        -21.9771        -21.9771     886.925E-03     886.925E-03
             211         535.920         535.920        -10.0931        -10.0931        -10.6794        -10.6794
             212         535.786         535.786         13.1363         13.1363        -18.8994        -18.8994
             213         530.043         530.043         39.6251         39.6251        -15.3455        -15.3455
             214         529.910         529.910         39.8568         39.8568         16.5529         16.5529
             215         535.513         535.513         13.6056         13.6056         20.1435         20.1435
             216         535.502         535.502        -9.39001        -9.39001         11.9928         11.9928
             217         528.641         528.641        -21.0557        -21.0557     523.517E-03     523.517E-03
             218         494.896         494.896     10.2975E-03     10.2975E-03         1.07309         1.07309
             219         492.052         492.052     59.6137E-03     59.6137E-03     984.275E-03     984.275E-03
             220         489.631         489.631     105.321E-03     105.321E-03     766.282E-03     766.282E-03
             221         487.960         487.960     137.611E-03     137.611E-03     442.223E-03     442.223E-03
             222         487.268         487.268     148.865E-03     148.865E-03     58.9164E-03     58.9164E-03
             223         487.632         487.632     136.166E-03     136.166E-03    -322.363E-03    -322.363E-03
             224         488.964         488.964     102.433E-03     102.433E-03    -640.338E-03    -640.338E-03
             225         491.022         491.022     55.3055E-03     55.3055E-03    -848.213E-03    -848.213E-03
             226         493.472         493.472     4.56591E-03     4.56591E-03    -922.859E-03    -922.859E-03
             227         515.873         515.873        -17.4039        -17.4039         2.39877         2.39877
             228         514.692         514.692        -13.4714        -13.4714        -1.64679        -1.64679
             229         512.660         512.660        -10.0175        -10.0175        -4.19304        -4.19304
             230         510.401         510.401        -7.24223        -7.24223        -5.63354        -5.63354
             231         508.216         508.216        -5.11974        -5.11974        -6.33293        -6.33293
             232         506.220         506.220        -3.54545        -3.54545        -6.54477        -6.54477
             233         504.437         504.437        -2.39834        -2.39834        -6.42592        -6.42592
             234         502.853         502.853        -1.57177        -1.57177        -6.05638        -6.05638
             235         501.443         501.443    -980.270E-03    -980.270E-03        -5.46138        -5.46138
             236         500.189         500.189    -560.353E-03    -560.353E-03        -4.62124        -4.62124
             237         499.085         499.085    -270.832E-03    -270.832E-03        -3.47586        -3.47586
             238         498.150         498.150    -93.8740E-03    -93.8740E-03        -1.93279        -1.93279
             239         499.853         499.853    -59.3176E-03    -59.3176E-03    -954.040E-03    -954.040E-03
             240         501.606         501.606    -76.0912E-03    -76.0912E-03    -819.972E-03    -819.972E-03
             241         503.069         503.069    -85.1086E-03    -85.1086E-03    -661.076E-03    -661.076E-03
             242         504.208         504.208    -87.5212E-03    -87.5212E-03    -491.904E-03    -491.904E-03
             243         505.014         505.014    -84.4640E-03    -84.4640E-03    -324.218E-03    -324.218E-03
             244         505.500         505.500    -77.4270E-03    -77.4270E-03    -167.170E-03    -167.170E-03
             245         505.692         505.692    -67.8983E-03    -67.8983E-03    -26.9652E-03    -26.9652E-03
             246         505.627         505.627    -57.0814E-03    -57.0814E-03     92.8356E-03     92.8356E-03
             247         505.348         505.348    -46.0290E-03    -46.0290E-03     190.879E-03     190.879E-03
             248         504.895         504.895    -35.4280E-03    -35.4280E-03     267.513E-03     267.513E-03
             249         504.311         504.311    -25.7653E-03    -25.7653E-03     324.209E-03     324.209E-03
             250         503.633         503.633    -17.3005E-03    -17.3005E-03     363.163E-03     363.163E-03
             251         502.893         502.893    -10.1205E-03    -10.1205E-03     386.879E-03     386.879E-03
             252         502.118         502.118    -4.23149E-03    -4.23149E-03     397.944E-03     397.944E-03
             253         501.332         501.332     474.500E-06     474.500E-06     398.818E-03     398.818E-03
             254         500.552         500.552     4.10256E-03     4.10256E-03     391.747E-03     391.747E-03
             255         499.792         499.792     6.81584E-03     6.81584E-03     378.694E-03     378.694E-03
             256         499.062         499.062     8.74489E-03     8.74489E-03     361.330E-03     361.330E-03
             257         498.369         498.369     10.0401E-03     10.0401E-03     341.040E-03     341.040E-03
             258         497.718         497.718     10.8174E-03     10.8174E-03     318.944E-03     318.944E-03
             259         497.111         497.111     11.1922E-03     11.1922E-03     295.933E-03     295.933E-03
             260         496.550         496.550     11.2532E-03     11.2532E-03     272.693E-03     272.693E-03
             261         496.035         496.035     11.0806E-03     11.0806E-03     249.744E-03     249.744E-03
             262         495.564         495.564     10.7367E-03     10.7367E-03     227.466E-03     227.466E-03
             263         495.136         495.136     10.2734E-03     10.2734E-03     206.130E-03     206.130E-03
             264         494.750         494.750     9.73171E-03     9.73171E-03     185.911E-03     185.911E-03
             265         494.402         494.402     9.14383E-03     9.14383E-03     166.918E-03     166.918E-03
             266         494.090         494.090     8.53529E-03     8.53529E-03     149.202E-03     149.202E-03
             267         493.812         493.812     7.92506E-03     7.92506E-03     132.771E-03     132.771E-03
             268         493.565         493.565     7.32836E-03     7.32836E-03     117.603E-03     117.603E-03
             269         493.347         493.347     6.75568E-03     6.75568E-03     103.650E-03     103.650E-03
             270         493.155         493.155     6.21574E-03     6.21574E-03     90.8462E-03     90.8462E-03
             271         492.987         492.987     5.71371E-03     5.71371E-03     79.1148E-03     79.1148E-03
             272         492.842         492.842     5.25454E-03     5.25454E-03     68.3685E-03     68.3685E-03
             273         492.717         492.717     4.84001E-03     4.84001E-03     58.5149E-03     58.5149E-03
             274         492.610         492.610     4.47332E-03     4.47332E-03     49.4575E-03     49.4575E-03
             275         492.521         492.521     4.15389E-03     4.15389E-03     41.0975E-03     41.0975E-03
             276         492.448         492.448     3.88453E-03     3.88453E-03     33.3354E-03     33.3354E-03
             277         492.389         492.389     3.66376E-03     3.66376E-03     26.0695E-03     26.0695E-03
             278         492.344         492.344     3.49253E-03     3.49253E-03     19.2009E-03     19.2009E-03
             279         492.313         492.313     3.39166E-03     3.39166E-03     12.6093E-03     12.6093E-03
             280         492.294         492.294     3.29088E-03     3.29088E-03     6.43587E-03     6.43587E-03
             281         492.333         492.333     9.44917E-03     9.44917E-03     6.55121E-03     6.55121E-03
             282         492.410         492.410     27.7139E-03     27.7139E-03     12.4130E-03     12.4130E-03
             283         492.464         492.464     57.1763E-03     57.1763E-03     17.8529E-03     17.8529E-03
             284         492.497         492.497     96.9051E-03     96.9051E-03     22.7720E-03     22.7720E-03
             285         492.510         492.510     145.724E-03     145.724E-03     27.0222E-03     27.0222E-03
             286         492.506         492.506     202.236E-03     202.236E-03     30.5284E-03     30.5284E-03
             287         492.487         492.487     264.898E-03     264.898E-03     33.2176E-03     33.2176E-03
             288         492.455         492.455     332.058E-03     332.058E-03     35.0520E-03     35.0520E-03
             289         492.413         492.413     402.004E-03     402.004E-03     36.0089E-03     36.0089E-03
             290         492.363         492.363     473.001E-03     473.001E-03     36.0894E-03     36.0894E-03
             291         492.309         492.309     543.334E-03     543.334E-03     35.3112E-03     35.3112E-03
             292         492.253         492.253     611.338E-03     611.338E-03     33.7062E-03     33.7062E-03
             293         465.237         465.237         135.016         135.016        -30.8878        -30.8878
             294         470.078         470.078         123.448         123.448        -30.7248        -30.7248
             295         474.784         474.784         111.862         111.862        -29.7546        -29.7546
             296         479.242         479.242         100.497         100.497        -28.3051        -28.3051
             297         483.346         483.346         89.5360         89.5360        -26.4121        -26.4121
             298         487.023         487.023         79.1390         79.1390        -24.1667        -24.1667
             299         490.229         490.229         69.4243         69.4243        -21.6550        -21.6550
             300         492.935         492.935         60.4795         60.4795        -18.9879        -18.9879
             301         495.158         495.158         52.3420         52.3420        -16.2624        -16.2624
             302         496.911         496.911         45.0234         45.0234        -13.5662        -13.5662
             303         498.248         498.248         38.5017         38.5017        -10.9732        -10.9732
             304         499.204         499.204         32.7381         32.7381        -8.53189        -8.53189
             305         499.839         499.839         27.6819         27.6819        -6.28190        -6.28190
             306         500.195         500.195         23.2727         23.2727        -4.23822        -4.23822
             307         500.323         500.323         19.4526         19.4526        -2.41179        -2.41179
             308         500.259         500.259         16.1589         16.1589    -796.462E-03    -796.462E-03
             309         500.043         500.043         13.3365         13.3365     614.709E-03     614.709E-03
             310         499.702         499.702         10.9288         10.9288         1.83829         1.83829
             311         499.263         499.263         8.88737         8.88737         2.88998         2.88998
             312         498.748         498.748         7.16370         7.16370         3.78996         3.78996
             313         498.175         498.175         5.71615         5.71615         4.55687         4.55687
             314         497.559         497.559         4.50377         4.50377         5.21095         5.21095
             315         496.914         496.914         3.49070         3.49070         5.77083         5.77083
             316         496.250         496.250         2.64190         2.64190         6.25543         6.25543
             317         495.578         495.578         1.92577         1.92577         6.68237         6.68237
             318         494.906         494.906         1.31129         1.31129         7.06915         7.06915
             319         494.247         494.247     769.422E-03     769.422E-03         7.43251         7.43251
             320         493.608         493.608     271.119E-03     271.119E-03         7.78920         7.78920
             321         493.004         493.004    -212.091E-03    -212.091E-03         8.15569         8.15569
             322         492.448         492.448    -709.646E-03    -709.646E-03         8.54868         8.54868
             323         491.959         491.959        -1.25204        -1.25204         8.98477         8.98477
             324         491.564         491.564        -1.87220        -1.87220         9.48038         9.48038
             325         491.294         491.294        -2.60626        -2.60626         10.0507         10.0507
             326         491.195         491.195        -3.49477        -3.49477         10.7081         10.7081
             327         491.329         491.329        -4.58403        -4.58403         11.4588         11.4588
             328         491.778         491.778        -5.92587        -5.92587         12.2972         12.2972
             329         492.654         492.654        -7.57755        -7.57755         13.1960         13.1960
             330         494.102         494.102        -9.59307        -9.59307         14.0902         14.0902
             331         496.303         496.303        -12.0105        -12.0105         14.8535         14.8535
             332         499.454         499.454        -14.8055        -14.8055         15.2650         15.2650
             333         503.725         503.725        -17.8291        -17.8291         14.9882         14.9882
             334         509.130         509.130        -20.6637        -20.6637         13.5727         13.5727
             335         497.620         497.620    -67.5350E-03    -67.5350E-03    -771.658E-03    -771.658E-03
             336         498.996         498.996    -85.1304E-03    -85.1304E-03    -620.376E-03    -620.376E-03
             337         500.046         500.046    -95.2322E-03    -95.2322E-03    -441.936E-03    -441.936E-03
             338         500.732         500.732    -98.5677E-03    -98.5677E-03    -251.108E-03    -251.108E-03
             339         501.040         501.040    -96.6028E-03    -96.6028E-03    -59.6290E-03    -59.6290E-03
             340         500.978         500.978    -90.4727E-03    -90.4727E-03     123.372E-03     123.372E-03
             341         500.569         500.569    -82.0022E-03    -82.0022E-03     291.649E-03     291.649E-03
             342         499.846         499.846    -72.0010E-03    -72.0010E-03     441.622E-03     441.622E-03
             343         498.846         498.846    -61.9452E-03    -61.9452E-03     571.845E-03     571.845E-03
             344         497.609         497.609    -51.9565E-03    -51.9565E-03     682.572E-03     682.572E-03
             345         496.171         496.171    -43.1856E-03    -43.1856E-03     775.110E-03     775.110E-03
             346         494.566         494.566    -34.9692E-03    -34.9692E-03     851.455E-03     851.455E-03
             347         492.824         492.824    -28.5193E-03    -28.5193E-03     913.834E-03     913.834E-03
             348         490.970         490.970    -22.2826E-03    -22.2826E-03     964.494E-03     964.494E-03
             349         489.026         489.026    -18.0819E-03    -18.0819E-03         1.00546         1.00546
             350         487.009         487.009    -13.1674E-03    -13.1674E-03         1.03844         1.03844
             351         484.934         484.934    -10.6807E-03    -10.6807E-03         1.06474         1.06474
             352         482.812         482.812    -6.01105E-03    -6.01105E-03         1.08523         1.08523
             353         480.655         480.655    -4.64846E-03    -4.64846E-03         1.10033         1.10033
             354         478.474         478.474     1.11389E-03     1.11389E-03         1.10996         1.10996
             355         476.279         476.279     1.77751E-03     1.77751E-03         1.11365         1.11365
             356         474.084         474.084     10.3108E-03     10.3108E-03         1.11031         1.11031
             357         471.903         471.903     10.4035E-03     10.4035E-03         1.09850         1.09850
             358         469.756         469.756     24.0349E-03     24.0349E-03         1.07596         1.07596
             359         467.666         467.666     23.2526E-03     23.2526E-03         1.04011         1.04011
             360         465.663         465.663     45.5888E-03     45.5888E-03     987.024E-03     987.024E-03
             361         463.785         463.785     42.9676E-03     42.9676E-03     912.657E-03     912.657E-03
             362         462.081         462.081     80.1640E-03     80.1640E-03     810.165E-03     810.165E-03
             363         460.612         460.612     73.6037E-03     73.6037E-03     673.508E-03     673.508E-03
             364         459.458         459.458     137.170E-03     137.170E-03     489.792E-03     489.792E-03
             365         458.721         458.721     122.276E-03     122.276E-03     250.395E-03     250.395E-03
             366         458.535         458.535     236.115E-03     236.115E-03    -72.1204E-03    -72.1204E-03
             367         459.079         459.079     202.865E-03     202.865E-03    -488.509E-03    -488.509E-03
             368         460.595         460.595     423.662E-03     423.662E-03        -1.06629        -1.06629
             369         463.426         463.426     345.350E-03     345.350E-03        -1.81186        -1.81186
             370         468.063         468.063     832.338E-03     832.338E-03        -2.92007        -2.92007
             371         475.241         475.241     624.282E-03     624.282E-03        -4.35913        -4.35913
             372         486.201         486.201         1.93690         1.93690        -6.81127        -6.81127
             373         502.869         502.869         1.27936         1.27936        -10.0484        -10.0484
             374         529.777         529.777         6.23231         6.23231        -17.3506        -17.3506
             375         574.350         574.350         3.64147         3.64147        -27.5770        -27.5770
             376         677.459         677.459         48.6198         48.6198        -76.9052        -76.9052
             377         658.768         658.768         126.959         126.959        -129.577        -129.577
             378         549.817         549.817         146.358         146.358        -121.066        -121.066
             379         520.050         520.050         143.684         143.684        -101.766        -101.766
             380         499.590         499.590         143.475         143.475        -91.5098        -91.5098
             381         488.684         488.684         142.438         142.438        -80.8908        -80.8908
             382         480.687         480.687         141.909         141.909        -72.8946        -72.8946
             383         475.541         475.541         141.480         141.480        -65.1767        -65.1767
             384         471.611         471.611         141.186         141.186        -58.5736        -58.5736
             385         468.850         468.850         141.013         141.013        -52.2703        -52.2703
             386         466.687         466.687         140.878         140.878        -46.5528        -46.5528
             387         465.090         465.090         140.818         140.818        -41.0781        -41.0781
             388         463.821         463.821         140.765         140.765        -35.9504        -35.9504
             389         516.288         516.288        -18.5117        -18.5117        -4.28752        -4.28752
             390         514.954         514.954        -14.5327        -14.5327    -308.827E-03    -308.827E-03
             391         512.748         512.748        -10.9995        -10.9995         2.23976         2.23976
             392         510.279         510.279        -8.11041        -8.11041         3.73236         3.73236
             393         507.855         507.855        -5.85333        -5.85333         4.51888         4.51888
             394         505.605         505.605        -4.13856        -4.13856         4.84828         4.84828
             395         503.566         503.566        -2.85620        -2.85620         4.87826         4.87826
             396         501.737         501.737        -1.90603        -1.90603         4.69132         4.69132
             397         500.102         500.102        -1.20632        -1.20632         4.31333         4.31333
             398         498.650         498.650    -696.474E-03    -696.474E-03         3.72309         3.72309
             399         497.383         497.383    -337.847E-03    -337.847E-03         2.85643         2.85643
             400         496.332         496.332    -116.549E-03    -116.549E-03         1.61312         1.61312
             401         493.697         493.697    -765.187E-06    -765.187E-06     931.115E-03     931.115E-03
             402         491.418         491.418     45.1993E-03     45.1993E-03     881.705E-03     881.705E-03
             403         489.407         489.407     90.3846E-03     90.3846E-03     719.141E-03     719.141E-03
             404         487.935         487.935     126.227E-03     126.227E-03     456.083E-03     456.083E-03
             405         487.220         487.220     148.563E-03     148.563E-03     121.109E-03     121.109E-03
             406         487.382         487.382     147.988E-03     147.988E-03    -239.953E-03    -239.953E-03
             407         488.417         488.417     127.790E-03     127.790E-03    -574.687E-03    -574.687E-03
             408         490.207         490.207     94.9700E-03     94.9700E-03    -843.534E-03    -843.534E-03
             409         492.550         492.550     50.8326E-03     50.8326E-03        -1.01713        -1.01713
             410         495.188         495.188     5.64205E-03     5.64205E-03        -1.08073        -1.08073
             411         528.787         528.787         44.3104         44.3104         13.8902         13.8902
             412         534.390         534.390         22.6836         22.6836         20.0698         20.0698
             413         537.224         537.224    -15.9719E-03    -15.9719E-03         16.2220         16.2220
             414         534.669         534.669        -15.8487        -15.8487         6.87559         6.87559
             415         527.854         527.854        -23.2903        -23.2903        -2.76249        -2.76249
             416         528.572         528.572        -21.1420        -21.1420    -443.355E-03    -443.355E-03
             417         535.470         535.470        -9.55372        -9.55372        -11.9099        -11.9099
             418         535.545         535.545         13.3532         13.3532        -20.1039        -20.1039
             419         530.007         530.007         39.5540         39.5540        -16.6242        -16.6242
             420         465.239         465.239         135.013         135.013         30.8791         30.8791
             421         470.079         470.079         123.448         123.448         30.7122         30.7122
             422         474.782         474.782         111.865         111.865         29.7376         29.7376
             423         479.239         479.239         100.504         100.504         28.2842         28.2842
             424         483.341         483.341         89.5474         89.5474         26.3880         26.3880
             425         487.016         487.016         79.1550         79.1550         24.1408         24.1408
             426         490.221         490.221         69.4447         69.4447         21.6284         21.6284
             427         492.926         492.926         60.5040         60.5040         18.9620         18.9620
             428         495.150         495.150         52.3698         52.3698         16.2382         16.2382
             429         496.904         496.904         45.0537         45.0537         13.5447         13.5447
             430         498.242         498.242         38.5336         38.5336         10.9550         10.9550
             431         499.200         499.200         32.7708         32.7708         8.51749         8.51749
             432         499.838         499.838         27.7144         27.7144         6.27159         6.27159
             433         500.197         500.197         23.3045         23.3045         4.23203         4.23203
             434         500.327         500.327         19.4831         19.4831         2.40978         2.40978
             435         500.266         500.266         16.1875         16.1875     798.435E-03     798.435E-03
             436         500.052         500.052         13.3631         13.3631    -608.837E-03    -608.837E-03
             437         499.713         499.713         10.9532         10.9532        -1.82882        -1.82882
             438         499.276         499.276         8.90958         8.90958        -2.87705        -2.87705
             439         498.761         498.761         7.18371         7.18371        -3.77389        -3.77389
             440         498.189         498.189         5.73419         5.73419        -4.53782        -4.53782
             441         497.572         497.572         4.52004         4.52004        -5.18919        -5.18919
             442         496.926         496.926         3.50557         3.50557        -5.74655        -5.74655
             443         496.260         496.260         2.65573         2.65573        -6.22887        -6.22887
             444         495.584         495.584         1.93910         1.93910        -6.65369        -6.65369
             445         494.909         494.909         1.32467         1.32467        -7.03861        -7.03861
             446         494.244         494.244     783.580E-03     783.580E-03        -7.40033        -7.40033
             447         493.599         493.599     286.868E-03     286.868E-03        -7.75569        -7.75569
             448         492.987         492.987    -193.724E-03    -193.724E-03        -8.12125        -8.12125
             449         492.420         492.420    -687.491E-03    -687.491E-03        -8.51392        -8.51392
             450         491.919         491.919        -1.22465        -1.22465        -8.95054        -8.95054
             451         491.507         491.507        -1.83794        -1.83794        -9.44803        -9.44803
             452         491.217         491.217        -2.56320        -2.56320        -10.0223        -10.0223
             453         491.094         491.094        -3.44096        -3.44096        -10.6868        -10.6868
             454         491.197         491.197        -4.51749        -4.51749        -11.4494        -11.4494
             455         491.610         491.610        -5.84555        -5.84555        -12.3071        -12.3071
             456         492.445         492.445        -7.48398        -7.48398        -13.2356        -13.2356
             457         493.850         493.850        -9.49113        -9.49113        -14.1742        -14.1742
             458         496.014         496.014        -11.9119        -11.9119        -14.9987        -14.9987
             459         499.145         499.145        -14.7306        -14.7306        -15.4858        -15.4858
             460         503.426         503.426        -17.8023        -17.8023        -15.2868        -15.2868
             461         508.876         508.876        -20.7034        -20.7034        -13.9353        -13.9353
             462         507.632         507.632        -28.8473        -28.8473        -26.0232        -26.0232
             463         486.351         486.351        -26.1570        -26.1570        -39.0931        -39.0931
             464         451.723         451.723        -14.5746        -14.5746        -44.1106        -44.1106
             465         415.191         415.191         1.29372         1.29372        -30.8645        -30.8645
             466         408.727         408.727         4.28099         4.28099         27.4028         27.4028
             467         438.178         438.178        -9.17800        -9.17800         43.1295         43.1295
             468         470.633         470.633        -21.8172        -21.8172         44.0787         44.0787
             469         495.630         495.630        -28.4424        -28.4424         35.3766         35.3766
             470         510.330         510.330        -28.8766        -28.8766         23.7137         23.7137
             471         461.949         461.949         140.750         140.750        -25.0356        -25.0356
             472         461.281         461.281         140.755         140.755        -19.2501        -19.2501
             473         460.818         460.818         140.761         140.761        -13.6463        -13.6463
             474         460.530         460.530         140.770         140.770        -8.14868        -8.14868
             475         460.390         460.390         140.772         140.772        -2.72773        -2.72773
             476         460.391         460.391         140.770         140.770         2.68143         2.68143
             477         460.533         460.533         140.764         140.764         8.10800         8.10800
             478         460.821         460.821         140.753         140.753         13.6140         13.6140
             479         461.285         461.285         140.747         140.747         19.2274         19.2274
             480         461.953         461.953         140.744         140.744         25.0219         25.0219
             481         463.822         463.822         140.762         140.762         35.9462         35.9462
             482         465.091         465.091         140.817         140.817         41.0752         41.0752
             483         466.687         466.687         140.877         140.877         46.5506         46.5506
             484         468.851         468.851         141.013         141.013         52.2686         52.2686
             485         471.612         471.612         141.185         141.185         58.5721         58.5721
             486         475.541         475.541         141.480         141.480         65.1755         65.1755
             487         480.687         480.687         141.908         141.908         72.8936         72.8936
             488         488.684         488.684         142.438         142.438         80.8899         80.8899
             489         499.590         499.590         143.475         143.475         91.5090         91.5090
             490         520.051         520.051         143.684         143.684         101.766         101.766
             491         549.817         549.817         146.358         146.358         121.066         121.066
             492         658.768         658.768         126.959         126.959         129.577         129.577
             493         677.459         677.459         48.6197         48.6197         76.9049         76.9049
             494         574.350         574.350         3.64145         3.64145         27.5768         27.5768
             495         529.778         529.778         6.23229         6.23229         17.3505         17.3505
             496         502.870         502.870         1.27934         1.27934         10.0483         10.0483
             497         486.202         486.202         1.93689         1.93689         6.81120         6.81120
             498         475.242         475.242     624.264E-03     624.264E-03         4.35909         4.35909
             499         468.064         468.064     832.323E-03     832.323E-03         2.92006         2.92006
             500         463.426         463.426     345.336E-03     345.336E-03         1.81189         1.81189
             501         460.596         460.596     423.651E-03     423.651E-03         1.06633         1.06633
             502         459.080         459.080     202.857E-03     202.857E-03     488.576E-03     488.576E-03
             503         458.535         458.535     236.108E-03     236.108E-03     72.2024E-03     72.2024E-03
             504         458.721         458.721     122.272E-03     122.272E-03    -250.303E-03    -250.303E-03
             505         459.458         459.458     137.167E-03     137.167E-03    -489.692E-03    -489.692E-03
             506         460.612         460.612     73.6020E-03     73.6020E-03    -673.403E-03    -673.403E-03
             507         462.081         462.081     80.1629E-03     80.1629E-03    -810.057E-03    -810.057E-03
             508         463.785         463.785     42.9674E-03     42.9674E-03    -912.548E-03    -912.548E-03
             509         465.662         465.662     45.5891E-03     45.5891E-03    -986.915E-03    -986.915E-03
             510         467.665         467.665     23.2530E-03     23.2530E-03        -1.04000        -1.04000
             511         469.755         469.755     24.0358E-03     24.0358E-03        -1.07585        -1.07585
             512         471.901         471.901     10.4037E-03     10.4037E-03        -1.09839        -1.09839
             513         474.082         474.082     10.3120E-03     10.3120E-03        -1.11021        -1.11021
             514         476.277         476.277     1.77717E-03     1.77717E-03        -1.11354        -1.11354
             515         478.472         478.472     1.11527E-03     1.11527E-03        -1.10986        -1.10986
             516         480.653         480.653    -4.64973E-03    -4.64973E-03        -1.10022        -1.10022
             517         482.810         482.810    -6.00954E-03    -6.00954E-03        -1.08512        -1.08512
             518         484.931         484.931    -10.6832E-03    -10.6832E-03        -1.06463        -1.06463
             519         487.007         487.007    -13.1656E-03    -13.1656E-03        -1.03833        -1.03833
             520         489.023         489.023    -18.0853E-03    -18.0853E-03        -1.00535        -1.00535
             521         490.967         490.967    -22.2797E-03    -22.2797E-03    -964.376E-03    -964.376E-03
             522         492.820         492.820    -28.5207E-03    -28.5207E-03    -913.717E-03    -913.717E-03
             523         494.562         494.562    -34.9605E-03    -34.9605E-03    -851.340E-03    -851.340E-03
             524         496.167         496.167    -43.1755E-03    -43.1755E-03    -775.012E-03    -775.012E-03
             525         497.605         497.605    -51.9306E-03    -51.9306E-03    -682.505E-03    -682.505E-03
             526         498.842         498.842    -61.9034E-03    -61.9034E-03    -571.842E-03    -571.842E-03
             527         499.842         499.842    -71.9396E-03    -71.9396E-03    -441.715E-03    -441.715E-03
             528         500.565         500.565    -81.9077E-03    -81.9077E-03    -291.894E-03    -291.894E-03
             529         500.975         500.975    -90.3725E-03    -90.3725E-03    -123.805E-03    -123.805E-03
             530         501.038         501.038    -96.4746E-03    -96.4746E-03     58.9735E-03     58.9735E-03
             531         500.731         500.731    -98.4895E-03    -98.4895E-03     250.250E-03     250.250E-03
             532         500.048         500.048    -95.1888E-03    -95.1888E-03     440.960E-03     440.960E-03
             533         498.999         498.999    -85.1942E-03    -85.1942E-03     619.422E-03     619.422E-03
             534         497.625         497.625    -67.7802E-03    -67.7802E-03     771.304E-03     771.304E-03
             535         7.87806         7.87806        -246.578        -246.578        -1.12802        -1.12802
             536         67.3455         67.3455        -91.7539        -91.7539        -3.07017        -3.07017
             537         162.771         162.771        -17.5300        -17.5300        -3.51012        -3.51012
             538         261.240         261.240         8.92678         8.92678        -3.06578        -3.06578
             539         343.004         343.004         13.2607         13.2607        -2.21190        -2.21190
             540         531.739         531.739        -38.5583        -38.5583        -19.5968        -19.5968
             541         551.248         551.248        -58.0494        -58.0494        -35.2547        -35.2547
             542         569.682         569.682        -76.1600        -76.1600        -60.6561        -60.6561
             543         565.396         565.396        -71.0634        -71.0634        -100.471        -100.471
             544         480.599         480.599         16.5687         16.5687        -161.735        -161.735
             545         241.362         241.362         16.0332         16.0332        -127.781        -127.781
             546         112.085         112.085        -93.2340        -93.2340        -58.6424        -58.6424
             547         36.1659         36.1659        -213.366        -213.366        -9.93842        -9.93842
             548         1.19272         1.19272        -308.780        -308.780         6.95951         6.95951
             549         549.097         549.097         80.2415         80.2415     525.715E-03     525.715E-03
             550         595.742         595.742         119.550         119.550     450.298E-03     450.298E-03
             551         683.740         683.740         156.037         156.037     393.811E-03     393.811E-03
             552         840.989         840.989         167.409         167.409     334.887E-03     334.887E-03
             553     1.09859E+03     1.09859E+03         122.225         122.225     222.246E-03     222.246E-03
             554     1.19709E+03     1.19709E+03         94.6014         94.6014        -138.275        -138.275
             555     1.03827E+03     1.03827E+03         124.462         124.462        -236.352        -236.352
             556         823.808         823.808         144.966         144.966        -273.902        -273.902
             557         602.283         602.283         134.250         134.250        -254.652        -254.652
             558         486.154         486.154         18.1809         18.1809         162.704         162.704
             559         569.200         569.200        -70.7016        -70.7016         99.2571         99.2571
             560         571.817         571.817        -75.9475        -75.9475         59.2010         59.2010
             561         552.331         552.331        -57.8501        -57.8501         34.1321         34.1321
             562         532.252         532.252        -38.3801        -38.3801         18.8436         18.8436
             563        -2.08076        -2.08076        -325.108        -325.108        -7.92875        -7.92875
             564         19.5812         19.5812        -253.351        -253.351    -803.091E-03    -803.091E-03
             565         66.1194         66.1194        -155.426        -155.426         29.1098         29.1098
             566         146.351         146.351        -53.8029        -53.8029         79.3626         79.3626
             567         264.443         264.443         32.7129         32.7129         139.646         139.646
             568         533.115         533.115        -39.3256        -39.3256         19.9175         19.9175
             569         553.154         553.154        -58.6233        -58.6233         34.8713         34.8713
             570         572.616         572.616        -76.5756        -76.5756         59.6911         59.6911
             571         570.026         570.026        -71.1672        -71.1672         99.5871         99.5871
             572         486.957         486.957         18.0528         18.0528         163.042         163.042
             573         603.089         603.089         134.047         134.047         255.060         255.060
             574         824.698         824.698         145.173         145.173         274.345         274.345
             575     1.03906E+03     1.03906E+03         124.653         124.653         236.760         236.760
             576     1.19756E+03     1.19756E+03         94.7087         94.7087         138.602         138.602
             577         475.351         475.351         14.6609         14.6609        -161.133        -161.133
             578         563.119         563.119        -73.2341        -73.2341        -101.814        -101.814
             579         568.636         568.636        -77.7436        -77.7436        -62.4069        -62.4069
             580         550.918         550.918        -59.2752        -59.2752        -36.9376        -36.9376
             581         531.894         531.894        -39.6894        -39.6894        -21.2720        -21.2720
             582         548.929         548.929         81.0506         81.0506        -1.63976        -1.63976
             583         595.756         595.756         120.406         120.406        -1.74788        -1.74788
             584         684.163         684.163         156.694         156.694        -1.25021        -1.25021
             585         842.036         842.036         167.657         167.657     349.169E-03     349.169E-03
             586     1.10052E+03     1.10052E+03         121.805         121.805         3.65373         3.65373
             587     1.22071E+03     1.22071E+03         89.5432         89.5432        -118.866        -118.866
             588     1.10444E+03     1.10444E+03         114.020         114.020        -212.842        -212.842
             589         937.622         937.622         138.673         138.673        -266.143        -266.143
             590         749.574         749.574         147.638         147.638        -275.950        -275.950
             591         566.978         566.978         131.471         131.471        -249.414        -249.414
             592         602.064         602.064         133.786         133.786         254.571         254.571
             593         823.414         823.414         144.911         144.911         273.819         273.819
             594     1.03757E+03     1.03757E+03         124.363         124.363         236.349         236.349
             595     1.19604E+03     1.19604E+03         94.7104         94.7104         138.257         138.257
             596         344.101         344.101         12.0789         12.0789        -2.19894        -2.19894
             597         261.941         261.941         7.97546         7.97546        -3.03969        -3.03969
             598         163.141         163.141        -18.3789        -18.3789        -3.47246        -3.47246
             599         67.4498         67.4498        -92.6786        -92.6786        -3.02865        -3.02865
             600         7.84618         7.84618        -247.848        -247.848        -1.09484        -1.09484
             601        -2.11329        -2.11329        -326.512        -326.512        -7.97146        -7.97146
             602         19.6002         19.6002        -254.471        -254.471    -855.487E-03    -855.487E-03
             603         66.2466         66.2466        -156.180        -156.180         29.1155         29.1155
             604         146.635         146.635        -54.1956        -54.1956         79.4912         79.4912
             605         264.957         264.957         32.6289         32.6289         139.902         139.902
             606         241.729         241.729         15.7076         15.7076        -127.829        -127.829
             607         112.192         112.192        -93.9477        -93.9477        -58.5901        -58.5901
             608         36.1608         36.1608        -214.479        -214.479        -9.81762        -9.81762
             609         1.14186         1.14186        -310.198        -310.198         7.06250         7.06250
             610         510.694         510.694        -16.9952        -16.9952        -6.22497        -6.22497
             611         506.153         506.153        -15.2950        -15.2950        -8.37877        -8.37877
             612         502.142         502.142        -13.0536        -13.0536        -9.54191        -9.54191
             613         498.823         498.823        -10.6795        -10.6795        -9.93741        -9.93741
             614         496.205         496.205        -8.42787        -8.42787        -9.82483        -9.82483
             615         494.214         494.214        -6.41698        -6.41698        -9.41006        -9.41006
             616         492.746         492.746        -4.68524        -4.68524        -8.84127        -8.84127
             617         491.693         491.693        -3.22692        -3.22692        -8.21151        -8.21151
             618         490.962         490.962        -2.01920        -2.01920        -7.57650        -7.57650
             619         490.479         490.479        -1.03228        -1.03228        -6.96642        -6.96642
             620         490.181         490.181    -236.394E-03    -236.394E-03        -6.39593        -6.39593
             621         490.022         490.022     396.472E-03     396.472E-03        -5.87023        -5.87023
             622         489.965         489.965     891.199E-03     891.199E-03        -5.38928        -5.38928
             623         489.982         489.982         1.26971         1.26971        -4.95035        -4.95035
             624         490.051         490.051         1.55096         1.55096        -4.54950        -4.54950
             625         490.156         490.156         1.75134         1.75134        -4.18256        -4.18256
             626         490.284         490.284         1.88493         1.88493        -3.84553        -3.84553
             627         490.426         490.426         1.96382         1.96382        -3.53484        -3.53484
             628         490.574         490.574         1.99834         1.99834        -3.24745        -3.24745
             629         490.725         490.725         1.99732         1.99732        -2.98080        -2.98080
             630         490.872         490.872         1.96826         1.96826        -2.73281        -2.73281
             631         491.015         491.015         1.91752         1.91752        -2.50176        -2.50176
             632         491.151         491.151         1.85049         1.85049        -2.28625        -2.28625
             633         491.279         491.279         1.77166         1.77166        -2.08512        -2.08512
             634         491.398         491.398         1.68481         1.68481        -1.89739        -1.89739
             635         491.508         491.508         1.59308         1.59308        -1.72222        -1.72222
             636         491.608         491.608         1.49906         1.49906        -1.55885        -1.55885
             637         491.700         491.700         1.40486         1.40486        -1.40657        -1.40657
             638         491.782         491.782         1.31222         1.31222        -1.26473        -1.26473
             639         491.856         491.856         1.22253         1.22253        -1.13266        -1.13266
             640         491.923         491.923         1.13690         1.13690        -1.00972        -1.00972
             641         491.981         491.981         1.05622         1.05622    -895.259E-03    -895.259E-03
             642         492.033         492.033     981.181E-03     981.181E-03    -788.618E-03    -788.618E-03
             643         492.078         492.078     912.307E-03     912.307E-03    -689.125E-03    -689.125E-03
             644         492.118         492.118     850.003E-03     850.003E-03    -596.101E-03    -596.101E-03
             645         492.151         492.151     794.572E-03     794.572E-03    -508.852E-03    -508.852E-03
             646         492.179         492.179     746.234E-03     746.234E-03    -426.678E-03    -426.678E-03
             647         492.203         492.203     705.146E-03     705.146E-03    -348.868E-03    -348.868E-03
             648         492.221         492.221     671.419E-03     671.419E-03    -274.705E-03    -274.705E-03
             649         492.236         492.236     645.128E-03     645.128E-03    -203.467E-03    -203.467E-03
             650         492.246         492.246     626.321E-03     626.321E-03    -134.427E-03    -134.427E-03
             651         492.252         492.252     615.014E-03     615.014E-03    -67.0393E-03    -67.0393E-03
             652         511.070         511.070        -14.2402        -14.2402        -2.06021        -2.06021
             653         507.540         507.540        -13.4825        -13.4825        -4.48685        -4.48685
             654         504.224         504.224        -12.0557        -12.0557        -6.12748        -6.12748
             655         501.276         501.276        -10.2926        -10.2926        -7.10622        -7.10622
             656         498.786         498.786        -8.45199        -8.45199        -7.56886        -7.56886
             657         496.762         496.762        -6.69337        -6.69337        -7.66925        -7.66925
             658         495.165         495.165        -5.10045        -5.10045        -7.53236        -7.53236
             659         493.938         493.938        -3.70748        -3.70748        -7.25259        -7.25259
             660         493.017         493.017        -2.51917        -2.51917        -6.89407        -6.89407
             661         492.343         492.343        -1.52537        -1.52537        -6.49898        -6.49898
             662         491.864         491.864    -708.369E-03    -708.369E-03        -6.09329        -6.09329
             663         491.538         491.538    -48.0116E-03    -48.0116E-03        -5.69239        -5.69239
             664         491.329         491.329     476.214E-03     476.214E-03        -5.30465        -5.30465
             665         491.209         491.209     883.666E-03     883.666E-03        -4.93421        -4.93421
             666         491.155         491.155         1.19213         1.19213        -4.58263        -4.58263
             667         491.149         491.149         1.41751         1.41751        -4.25008        -4.25008
             668         491.178         491.178         1.57384         1.57384        -3.93602        -3.93602
             669         491.231         491.231         1.67338         1.67338        -3.63960        -3.63960
             670         491.299         491.299         1.72674         1.72674        -3.35990        -3.35990
             671         491.377         491.377         1.74300         1.74300        -3.09606        -3.09606
             672         491.459         491.459         1.72993         1.72993        -2.84728        -2.84728
             673         491.542         491.542         1.69412         1.69412        -2.61288        -2.61288
             674         491.623         491.623         1.64111         1.64111        -2.39226        -2.39226
             675         491.701         491.701         1.57553         1.57553        -2.18485        -2.18485
             676         491.775         491.775         1.50124         1.50124        -1.99016        -1.99016
             677         491.844         491.844         1.42144         1.42144        -1.80768        -1.80768
             678         491.908         491.908         1.33875         1.33875        -1.63692        -1.63692
             679         491.965         491.965         1.25529         1.25529        -1.47735        -1.47735
             680         492.018         492.018         1.17279         1.17279        -1.32844        -1.32844
             681         492.064         492.064         1.09264         1.09264        -1.18964        -1.18964
             682         492.106         492.106         1.01594         1.01594        -1.06033        -1.06033
             683         492.143         492.143     943.541E-03     943.541E-03    -939.906E-03    -939.906E-03
             684         492.175         492.175     876.123E-03     876.123E-03    -827.703E-03    -827.703E-03
             685         492.203         492.203     814.197E-03     814.197E-03    -723.046E-03    -723.046E-03
             686         492.227         492.227     758.150E-03     758.150E-03    -625.232E-03    -625.232E-03
             687         492.248         492.248     708.268E-03     708.268E-03    -533.543E-03    -533.543E-03
             688         492.265         492.265     664.761E-03     664.761E-03    -447.240E-03    -447.240E-03
             689         492.279         492.279     627.776E-03     627.776E-03    -365.576E-03    -365.576E-03
             690         492.290         492.290     597.416E-03     597.416E-03    -287.789E-03    -287.789E-03
             691         492.299         492.299     573.748E-03     573.748E-03    -213.114E-03    -213.114E-03
             692         492.305         492.305     556.819E-03     556.819E-03    -140.777E-03    -140.777E-03
             693         492.308         492.308     546.637E-03     546.637E-03    -70.2018E-03    -70.2018E-03
             694         510.369         510.369        -11.4677        -11.4677     978.436E-03     978.436E-03
             695         507.793         507.793        -11.4245        -11.4245        -1.43811        -1.43811
             696         505.184         505.184        -10.6383        -10.6383        -3.27315        -3.27315
             697         502.727         502.727        -9.42255        -9.42255        -4.57744        -4.57744
             698         500.527         500.527        -8.00256        -8.00256        -5.42710        -5.42710
             699         498.638         498.638        -6.54536        -6.54536        -5.91505        -5.91505
             700         497.068         497.068        -5.15565        -5.15565        -6.13456        -6.13456
             701         495.797         495.797        -3.89229        -3.89229        -6.16369        -6.16369
             702         494.790         494.790        -2.78207        -2.78207        -6.06387        -6.06387
             703         494.007         494.007        -1.83142        -1.83142        -5.87971        -5.87971
             704         493.410         493.410        -1.03503        -1.03503        -5.64287        -5.64287
             705         492.964         492.964    -380.995E-03    -380.995E-03        -5.37491        -5.37491
             706         492.639         492.639     145.520E-03     145.520E-03        -5.09038        -5.09038
             707         492.407         492.407     560.364E-03     560.364E-03        -4.79889        -4.79889
             708         492.249         492.249     879.050E-03     879.050E-03        -4.50676        -4.50676
             709         492.145         492.145         1.11617         1.11617        -4.21816        -4.21816
             710         492.084         492.084         1.28496         1.28496        -3.93585        -3.93585
             711         492.053         492.053         1.39728         1.39728        -3.66166        -3.66166
             712         492.044         492.044         1.46348         1.46348        -3.39688        -3.39688
             713         492.050         492.050         1.49256         1.49256        -3.14237        -3.14237
             714         492.066         492.066         1.49220         1.49220        -2.89875        -2.89875
             715         492.088         492.088         1.46896         1.46896        -2.66642        -2.66642
             716         492.114         492.114         1.42834         1.42834        -2.44565        -2.44565
             717         492.141         492.141         1.37493         1.37493        -2.23654        -2.23654
             718         492.168         492.168         1.31254         1.31254        -2.03911        -2.03911
             719         492.194         492.194         1.24433         1.24433        -1.85324        -1.85324
             720         492.219         492.219         1.17285         1.17285        -1.67872        -1.67872
             721         492.241         492.241         1.10019         1.10019        -1.51527        -1.51527
             722         492.261         492.261         1.02801         1.02801        -1.36248        -1.36248
             723         492.279         492.279     957.655E-03     957.655E-03        -1.21990        -1.21990
             724         492.295         492.295     890.168E-03     890.168E-03        -1.08702        -1.08702
             725         492.308         492.308     826.373E-03     826.373E-03    -963.232E-03    -963.232E-03
             726         492.320         492.320     766.904E-03     766.904E-03    -847.918E-03    -847.918E-03
             727         492.330         492.330     712.243E-03     712.243E-03    -740.401E-03    -740.401E-03
             728         492.338         492.338     662.751E-03     662.751E-03    -639.974E-03    -639.974E-03
             729         492.344         492.344     618.694E-03     618.694E-03    -545.901E-03    -545.901E-03
             730         492.350         492.350     580.262E-03     580.262E-03    -457.425E-03    -457.425E-03
             731         492.354         492.354     547.590E-03     547.590E-03    -373.772E-03    -373.772E-03
             732         492.358         492.358     520.771E-03     520.771E-03    -294.154E-03    -294.154E-03
             733         492.360         492.360     499.865E-03     499.865E-03    -217.774E-03    -217.774E-03
             734         492.362         492.362     484.910E-03     484.910E-03    -143.829E-03    -143.829E-03
             735         492.363         492.363     475.916E-03     475.916E-03    -71.7244E-03    -71.7244E-03
             736         509.077         509.077        -8.93944        -8.93944         3.02838         3.02838
             737         507.324         507.324        -9.34949        -9.34949     829.150E-03     829.150E-03
             738         505.386         505.386        -9.04282        -9.04282        -1.00970        -1.00970
             739         503.441         503.441        -8.26833        -8.26833        -2.45508        -2.45508
             740         501.606         501.606        -7.22839        -7.22839        -3.53060        -3.53060
             741         499.951         499.951        -6.07377        -6.07377        -4.28304        -4.28304
             742         498.512         498.512        -4.91374        -4.91374        -4.77010        -4.77010
             743         497.294         497.294        -3.81783        -3.81783        -5.04945        -5.04945
             744         496.285         496.285        -2.82618        -2.82618        -5.17121        -5.17121
             745         495.464         495.464        -1.95752        -1.95752        -5.17659        -5.17659
             746         494.807         494.807        -1.21640        -1.21640        -5.09748        -5.09748
             747         494.286         494.286    -598.637E-03    -598.637E-03        -4.95819        -4.95819
             748         493.878         493.878    -94.8882E-03    -94.8882E-03        -4.77680        -4.77680
             749         493.561         493.561     306.686E-03     306.686E-03        -4.56676        -4.56676
             750         493.316         493.316     618.878E-03     618.878E-03        -4.33805        -4.33805
             751         493.129         493.129     854.341E-03     854.341E-03        -4.09815        -4.09815
             752         492.987         492.987         1.02503         1.02503        -3.85268        -3.85268
             753         492.878         492.878         1.14186         1.14186        -3.60594        -3.60594
             754         492.796         492.796         1.21453         1.21453        -3.36124        -3.36124
             755         492.732         492.732         1.25155         1.25155        -3.12110        -3.12110
             756         492.684         492.684         1.26026         1.26026        -2.88750        -2.88750
             757         492.646         492.646         1.24689         1.24689        -2.66193        -2.66193
             758         492.615         492.615         1.21671         1.21671        -2.44547        -2.44547
             759         492.590         492.590         1.17410         1.17410        -2.23893        -2.23893
             760         492.569         492.569         1.12270         1.12270        -2.04282        -2.04282
             761         492.551         492.551         1.06549         1.06549        -1.85742        -1.85742
             762         492.535         492.535         1.00489         1.00489        -1.68281        -1.68281
             763         492.521         492.521     942.866E-03     942.866E-03        -1.51892        -1.51892
             764         492.508         492.508     880.982E-03     880.982E-03        -1.36551        -1.36551
             765         492.495         492.495     820.478E-03     820.478E-03        -1.22224        -1.22224
             766         492.484         492.484     762.329E-03     762.329E-03        -1.08867        -1.08867
             767         492.473         492.473     707.291E-03     707.291E-03    -964.252E-03    -964.252E-03
             768         492.463         492.463     655.943E-03     655.943E-03    -848.394E-03    -848.394E-03
             769         492.454         492.454     608.725E-03     608.725E-03    -740.437E-03    -740.437E-03
             770         492.446         492.446     565.961E-03     565.961E-03    -639.678E-03    -639.678E-03
             771         492.438         492.438     527.889E-03     527.889E-03    -545.381E-03    -545.381E-03
             772         492.432         492.432     494.678E-03     494.678E-03    -456.780E-03    -456.780E-03
             773         492.426         492.426     466.446E-03     466.446E-03    -373.092E-03    -373.092E-03
             774         492.421         492.421     443.272E-03     443.272E-03    -293.515E-03    -293.515E-03
             775         492.417         492.417     425.210E-03     425.210E-03    -217.239E-03    -217.239E-03
             776         492.415         492.415     412.290E-03     412.290E-03    -143.446E-03    -143.446E-03
             777         492.413         492.413     404.520E-03     404.520E-03    -71.5350E-03    -71.5350E-03
             778         507.559         507.559        -6.78610        -6.78610         4.30220         4.30220
             779         506.455         506.455        -7.41874        -7.41874         2.40598         2.40598
             780         505.105         505.105        -7.42532        -7.42532     691.034E-03     691.034E-03
             781         503.650         503.650        -6.98453        -6.98453    -767.191E-03    -767.191E-03
             782         502.199         502.199        -6.25817        -6.25817        -1.94533        -1.94533
             783         500.828         500.828        -5.37932        -5.37932        -2.85486        -2.85486
             784         499.582         499.582        -4.44773        -4.44773        -3.52384        -3.52384
             785         498.483         498.483        -3.53450        -3.53450        -3.98814        -3.98814
             786         497.535         497.535        -2.68481        -2.68481        -4.28453        -4.28453
             787         496.732         496.732        -1.92442        -1.92442        -4.44656        -4.44656
             788         496.060         496.060        -1.26464        -1.26464        -4.50324        -4.50324
             789         495.502         495.502    -707.116E-03    -707.116E-03        -4.47851        -4.47851
             790         495.041         495.041    -247.297E-03    -247.297E-03        -4.39185        -4.39185
             791         494.662         494.662     122.965E-03     122.965E-03        -4.25883        -4.25883
             792         494.350         494.350     413.589E-03     413.589E-03        -4.09193        -4.09193
             793         494.092         494.092     635.079E-03     635.079E-03        -3.90104        -3.90104
             794         493.877         493.877     797.725E-03     797.725E-03        -3.69409        -3.69409
             795         493.698         493.698     911.166E-03     911.166E-03        -3.47738        -3.47738
             796         493.545         493.545     984.123E-03     984.123E-03        -3.25596        -3.25596
             797         493.415         493.415         1.02431         1.02431        -3.03380        -3.03380
             798         493.303         493.303         1.03842         1.03842        -2.81407        -2.81407
             799         493.205         493.205         1.03217         1.03217        -2.59921        -2.59921
             800         493.118         493.118         1.01038         1.01038        -2.39110        -2.39110
             801         493.040         493.040     977.075E-03     977.075E-03        -2.19111        -2.19111
             802         492.970         492.970     935.584E-03     935.584E-03        -2.00023        -2.00023
             803         492.907         492.907     888.624E-03     888.624E-03        -1.81909        -1.81909
             804         492.850         492.850     838.400E-03     838.400E-03        -1.64805        -1.64805
             805         492.798         492.798     786.684E-03     786.684E-03        -1.48723        -1.48723
             806         492.751         492.751     734.888E-03     734.888E-03        -1.33654        -1.33654
             807         492.707         492.707     684.124E-03     684.124E-03        -1.19576        -1.19576
             808         492.668         492.668     635.262E-03     635.262E-03        -1.06450        -1.06450
             809         492.633         492.633     588.971E-03     588.971E-03    -942.281E-03    -942.281E-03
             810         492.601         492.601     545.762E-03     545.762E-03    -828.545E-03    -828.545E-03
             811         492.572         492.572     506.018E-03     506.018E-03    -722.657E-03    -722.657E-03
             812         492.547         492.547     470.021E-03     470.021E-03    -623.931E-03    -623.931E-03
             813         492.525         492.525     437.975E-03     437.975E-03    -531.642E-03    -531.642E-03
             814         492.506         492.506     410.024E-03     410.024E-03    -445.031E-03    -445.031E-03
             815         492.490         492.490     386.268E-03     386.268E-03    -363.319E-03    -363.319E-03
             816         492.477         492.477     366.771E-03     366.771E-03    -285.709E-03    -285.709E-03
             817         492.467         492.467     351.575E-03     351.575E-03    -211.391E-03    -211.391E-03
             818         492.460         492.460     340.707E-03     340.707E-03    -139.550E-03    -139.550E-03
             819         492.456         492.456     334.174E-03     334.174E-03    -69.5962E-03    -69.5962E-03
             820         506.023         506.023        -5.02356        -5.02356         4.99758         4.99758
             821         505.419         505.419        -5.71307        -5.71307         3.41559         3.41559
             822         504.560         504.560        -5.89127        -5.89127         1.88451         1.88451
             823         503.547         503.547        -5.67845        -5.67845     498.855E-03     498.855E-03
             824         502.470         502.470        -5.19589        -5.19589    -692.588E-03    -692.588E-03
             825         501.397         501.397        -4.55078        -4.55078        -1.67297        -1.67297
             826         500.376         500.376        -3.83002        -3.83002        -2.44751        -2.44751
             827         499.436         499.436        -3.09797        -3.09797        -3.03335        -3.03335
             828         498.590         498.590        -2.39941        -2.39941        -3.45372        -3.45372
             829         497.843         497.843        -1.76203        -1.76203        -3.73360        -3.73360
             830         497.191         497.191        -1.20064        -1.20064        -3.89700        -3.89700
             831         496.625         496.625    -720.551E-03    -720.551E-03        -3.96579        -3.96579
             832         496.136         496.136    -320.728E-03    -320.728E-03        -3.95904        -3.95904
             833         495.713         495.713     3.89871E-03     3.89871E-03        -3.89311        -3.89311
             834         495.347         495.347     260.645E-03     260.645E-03        -3.78177        -3.78177
             835         495.028         495.028     457.830E-03     457.830E-03        -3.63650        -3.63650
             836         494.749         494.749     603.957E-03     603.957E-03        -3.46679        -3.46679
             837         494.503         494.503     707.170E-03     707.170E-03        -3.28045        -3.28045
             838         494.285         494.285     774.968E-03     774.968E-03        -3.08381        -3.08381
             839         494.090         494.090     814.039E-03     814.039E-03        -2.88201        -2.88201
             840         493.915         493.915     830.226E-03     830.226E-03        -2.67911        -2.67911
             841         493.756         493.756     828.532E-03     828.532E-03        -2.47835        -2.47835
             842         493.613         493.613     813.186E-03     813.186E-03        -2.28220        -2.28220
             843         493.482         493.482     787.710E-03     787.710E-03        -2.09252        -2.09252
             844         493.364         493.364     755.011E-03     755.011E-03        -1.91066        -1.91066
             845         493.255         493.255     717.460E-03     717.460E-03        -1.73756        -1.73756
             846         493.156         493.156     676.973E-03     676.973E-03        -1.57378        -1.57378
             847         493.066         493.066     635.084E-03     635.084E-03        -1.41959        -1.41959
             848         492.984         492.984     593.009E-03     593.009E-03        -1.27505        -1.27505
             849         492.910         492.910     551.702E-03     551.702E-03        -1.13999        -1.13999
             850         492.842         492.842     511.903E-03     511.903E-03        -1.01413        -1.01413
             851         492.782         492.782     474.180E-03     474.180E-03    -897.015E-03    -897.015E-03
             852         492.728         492.728     438.962E-03     438.962E-03    -788.136E-03    -788.136E-03
             853         492.680         492.680     406.569E-03     406.569E-03    -686.887E-03    -686.887E-03
             854         492.638         492.638     377.236E-03     377.236E-03    -592.609E-03    -592.609E-03
             855         492.602         492.602     351.128E-03     351.128E-03    -504.601E-03    -504.601E-03
             856         492.571         492.571     328.362E-03     328.362E-03    -422.126E-03    -422.126E-03
             857         492.545         492.545     309.018E-03     309.018E-03    -344.424E-03    -344.424E-03
             858         492.524         492.524     293.146E-03     293.146E-03    -270.720E-03    -270.720E-03
             859         492.507         492.507     280.778E-03     280.778E-03    -200.223E-03    -200.223E-03
             860         492.496         492.496     271.934E-03     271.934E-03    -132.141E-03    -132.141E-03
             861         492.489         492.489     266.619E-03     266.619E-03    -65.9076E-03    -65.9076E-03
             862         504.573         504.573        -3.61517        -3.61517         5.26133         5.26133
             863         504.361         504.361        -4.25367        -4.25367         3.96703         3.96703
             864         503.911         503.911        -4.49807        -4.49807         2.63915         2.63915
             865         503.289         503.289        -4.42450        -4.42450         1.37352         1.37352
             866         502.561         502.561        -4.11889        -4.11889     232.002E-03     232.002E-03
             867         501.782         501.782        -3.66296        -3.66296    -752.425E-03    -752.425E-03
             868         500.996         500.996        -3.12631        -3.12631        -1.56768        -1.56768
             869         500.233         500.233        -2.56374        -2.56374        -2.21661        -2.21661
             870         499.512         499.512        -2.01466        -2.01466        -2.71096        -2.71096
             871         498.845         498.845        -1.50535        -1.50535        -3.06743        -3.06743
             872         498.234         498.234        -1.05101        -1.05101        -3.30471        -3.30471
             873         497.678         497.678    -658.635E-03    -658.635E-03        -3.44152        -3.44152
             874         497.176         497.176    -329.282E-03    -329.282E-03        -3.49555        -3.49555
             875         496.722         496.722    -60.1502E-03    -60.1502E-03        -3.48281        -3.48281
             876         496.310         496.310     153.899E-03     153.899E-03        -3.41743        -3.41743
             877         495.938         495.938     319.182E-03     319.182E-03        -3.31159        -3.31159
             878         495.599         495.599     442.404E-03     442.404E-03        -3.17567        -3.17567
             879         495.289         495.289     530.142E-03     530.142E-03        -3.01833        -3.01833
             880         495.007         495.007     588.525E-03     588.525E-03        -2.84675        -2.84675
             881         494.748         494.748     623.076E-03     623.076E-03        -2.66676        -2.66676
             882         494.511         494.511     638.631E-03     638.631E-03        -2.48307        -2.48307
             883         494.293         494.293     639.350E-03     639.350E-03        -2.29939        -2.29939
             884         494.093         494.093     628.745E-03     628.745E-03        -2.11860        -2.11860
             885         493.909         493.909     609.742E-03     609.742E-03        -1.94288        -1.94288
             886         493.741         493.741     584.749E-03     584.749E-03        -1.77383        -1.77383
             887         493.587         493.587     555.726E-03     555.726E-03        -1.61255        -1.61255
             888         493.446         493.446     524.248E-03     524.248E-03        -1.45976        -1.45976
             889         493.318         493.318     491.575E-03     491.575E-03        -1.31585        -1.31585
             890         493.201         493.201     458.698E-03     458.698E-03        -1.18093        -1.18093
             891         493.096         493.096     426.392E-03     426.392E-03        -1.05494        -1.05494
             892         493.001         493.001     395.255E-03     395.255E-03    -937.608E-03    -937.608E-03
             893         492.916         492.916     365.741E-03     365.741E-03    -828.562E-03    -828.562E-03
             894         492.841         492.841     338.194E-03     338.194E-03    -727.313E-03    -727.313E-03
             895         492.774         492.774     312.864E-03     312.864E-03    -633.300E-03    -633.300E-03
             896         492.715         492.715     289.936E-03     289.936E-03    -545.901E-03    -545.901E-03
             897         492.665         492.665     269.539E-03     269.539E-03    -464.450E-03    -464.450E-03
             898         492.621         492.621     251.760E-03     251.760E-03    -388.249E-03    -388.249E-03
             899         492.586         492.586     236.658E-03     236.658E-03    -316.575E-03    -316.575E-03
             900         492.557         492.557     224.271E-03     224.271E-03    -248.692E-03    -248.692E-03
             901         492.534         492.534     214.621E-03     214.621E-03    -183.850E-03    -183.850E-03
             902         492.519         492.519     207.721E-03     207.721E-03    -121.296E-03    -121.296E-03
             903         492.509         492.509     203.577E-03     203.577E-03    -60.5094E-03    -60.5094E-03
             904         503.262         503.262        -2.50456        -2.50456         5.18583         5.18583
             905         503.377         503.377        -3.03150        -3.03150         4.14037         4.14037
             906         503.278         503.278        -3.27110        -3.27110         3.01328         3.01328
             907         503.004         503.004        -3.26984        -3.26984         1.89335         1.89335
             908         502.596         502.596        -3.08541        -3.08541     844.762E-03     844.762E-03
             909         502.096         502.096        -2.77634        -2.77634    -91.0846E-03    -91.0846E-03
             910         501.540         501.540        -2.39502        -2.39502    -892.291E-03    -892.291E-03
             911         500.958         500.958        -1.98406        -1.98406        -1.55152        -1.55152
             912         500.369         500.369        -1.57556        -1.57556        -2.07205        -2.07205
             913         499.790         499.790        -1.19153        -1.19153        -2.46377        -2.46377
             914         499.228         499.228    -845.560E-03    -845.560E-03        -2.74047        -2.74047
             915         498.691         498.691    -544.506E-03    -544.506E-03        -2.91759        -2.91759
             916         498.182         498.182    -290.361E-03    -290.361E-03        -3.01080        -3.01080
             917         497.700         497.700    -81.7505E-03    -81.7505E-03        -3.03505        -3.03505
             918         497.247         497.247     84.7640E-03     84.7640E-03        -3.00400        -3.00400
             919         496.822         496.822     213.757E-03     213.757E-03        -2.92977        -2.92977
             920         496.424         496.424     310.247E-03     310.247E-03        -2.82289        -2.82289
             921         496.052         496.052     379.248E-03     379.248E-03        -2.69227        -2.69227
             922         495.705         495.705     425.484E-03     425.484E-03        -2.54536        -2.54536
             923         495.383         495.383     453.236E-03     453.236E-03        -2.38826        -2.38826
             924         495.083         495.083     466.266E-03     466.266E-03        -2.22591        -2.22591
             925         494.805         494.805     467.811E-03     467.811E-03        -2.06220        -2.06220
             926         494.548         494.548     460.605E-03     460.605E-03        -1.90017        -1.90017
             927         494.311         494.311     446.921E-03     446.921E-03        -1.74212        -1.74212
             928         494.093         494.093     428.625E-03     428.625E-03        -1.58973        -1.58973
             929         493.894         493.894     407.230E-03     407.230E-03        -1.44417        -1.44417
             930         493.712         493.712     383.950E-03     383.950E-03        -1.30622        -1.30622
             931         493.546         493.546     359.749E-03     359.749E-03        -1.17631        -1.17631
             932         493.396         493.396     335.383E-03     335.383E-03        -1.05461        -1.05461
             933         493.260         493.260     311.439E-03     311.439E-03    -941.063E-03    -941.063E-03
             934         493.139         493.139     288.369E-03     288.369E-03    -835.463E-03    -835.463E-03
             935         493.030         493.030     266.513E-03     266.513E-03    -737.468E-03    -737.468E-03
             936         492.933         492.933     246.124E-03     246.124E-03    -646.635E-03    -646.635E-03
             937         492.848         492.848     227.390E-03     227.390E-03    -562.449E-03    -562.449E-03
             938         492.774         492.774     210.443E-03     210.443E-03    -484.335E-03    -484.335E-03
             939         492.710         492.710     195.375E-03     195.375E-03    -411.680E-03    -411.680E-03
             940         492.655         492.655     182.250E-03     182.250E-03    -343.840E-03    -343.840E-03
             941         492.610         492.610     171.107E-03     171.107E-03    -280.153E-03    -280.153E-03
             942         492.574         492.574     161.970E-03     161.970E-03    -219.940E-03    -219.940E-03
             943         492.546         492.546     154.854E-03     154.854E-03    -162.513E-03    -162.513E-03
             944         492.526         492.526     149.765E-03     149.765E-03    -107.180E-03    -107.180E-03
             945         492.514         492.514     146.711E-03     146.711E-03    -53.4841E-03    -53.4841E-03
             946         502.114         502.114        -1.63738        -1.63738         4.81445         4.81445
             947         502.531         502.531        -2.02613        -2.02613         3.98193         3.98193
             948         502.754         502.754        -2.21993        -2.21993         3.04764         3.04764
             949         502.798         502.798        -2.24564        -2.24564         2.08912         2.08912
             950         502.686         502.686        -2.13994        -2.13994         1.16671         1.16671
             951         502.447         502.447        -1.94190        -1.94190     322.998E-03     322.998E-03
             952         502.109         502.109        -1.68774        -1.68774    -415.706E-03    -415.706E-03
             953         501.697         501.697        -1.40792        -1.40792        -1.03682        -1.03682
             954         501.233         501.233        -1.12585        -1.12585        -1.53808        -1.53808
             955         500.736         500.736    -858.142E-03    -858.142E-03        -1.92464        -1.92464
             956         500.220         500.220    -615.267E-03    -615.267E-03        -2.20631        -2.20631
             957         499.697         499.697    -402.885E-03    -402.885E-03        -2.39548        -2.39548
             958         499.176         499.176    -222.948E-03    -222.948E-03        -2.50556        -2.50556
             959         498.664         498.664    -74.8910E-03    -74.8910E-03        -2.54987        -2.54987
             960         498.166         498.166     43.4930E-03     43.4930E-03        -2.54095        -2.54095
             961         497.685         497.685     135.310E-03     135.310E-03        -2.49011        -2.49011
             962         497.225         497.225     204.061E-03     204.061E-03        -2.40732        -2.40732
             963         496.788         496.788     253.287E-03     253.287E-03        -2.30109        -2.30109
             964         496.374         496.374     286.347E-03     286.347E-03        -2.17856        -2.17856
             965         495.986         495.986     306.294E-03     306.294E-03        -2.04560        -2.04560
             966         495.622         495.622     315.816E-03     315.816E-03        -1.90696        -1.90696
             967         495.283         495.283     317.224E-03     317.224E-03        -1.76638        -1.76638
             968         494.969         494.969     312.465E-03     312.465E-03        -1.62678        -1.62678
             969         494.679         494.679     303.156E-03     303.156E-03        -1.49036        -1.49036
             970         494.413         494.413     290.620E-03     290.620E-03        -1.35872        -1.35872
             971         494.169         494.169     275.925E-03     275.925E-03        -1.23299        -1.23299
             972         493.946         493.946     259.926E-03     259.926E-03        -1.11389        -1.11389
             973         493.744         493.744     243.297E-03     243.297E-03        -1.00185        -1.00185
             974         493.561         493.561     226.565E-03     226.565E-03    -897.016E-03    -897.016E-03
             975         493.397         493.397     210.137E-03     210.137E-03    -799.370E-03    -799.370E-03
             976         493.249         493.249     194.322E-03     194.322E-03    -708.721E-03    -708.721E-03
             977         493.118         493.118     179.354E-03     179.354E-03    -624.764E-03    -624.764E-03
             978         493.001         493.001     165.404E-03     165.404E-03    -547.107E-03    -547.107E-03
             979         492.899         492.899     152.598E-03     152.598E-03    -475.289E-03    -475.289E-03
             980         492.810         492.810     141.023E-03     141.023E-03    -408.801E-03    -408.801E-03
             981         492.734         492.734     130.741E-03     130.741E-03    -347.101E-03    -347.101E-03
             982         492.669         492.669     121.790E-03     121.790E-03    -289.619E-03    -289.619E-03
             983         492.615         492.615     114.197E-03     114.197E-03    -235.771E-03    -235.771E-03
             984         492.572         492.572     107.973E-03     107.973E-03    -184.964E-03    -184.964E-03
             985         492.539         492.539     103.125E-03     103.125E-03    -136.592E-03    -136.592E-03
             986         492.516         492.516     99.6578E-03     99.6578E-03    -90.0480E-03    -90.0480E-03
             987         492.502         492.502     97.5775E-03     97.5775E-03    -44.9627E-03    -44.9627E-03
             988         501.153         501.153    -970.894E-03    -970.894E-03         4.14870         4.14870
             989         501.882         501.882        -1.22051        -1.22051         3.50530         3.50530
             990         502.423         502.423        -1.35125        -1.35125         2.76185         2.76185
             991         502.773         502.773        -1.37778        -1.37778         1.98216         1.98216
             992         502.940         502.940        -1.32135        -1.32135         1.21812         1.21812
             993         502.942         502.942        -1.20548        -1.20548     508.370E-03     508.370E-03
             994         502.799         502.799        -1.05253        -1.05253    -121.677E-03    -121.677E-03
             995         502.536         502.536    -881.654E-03    -881.654E-03    -658.082E-03    -658.082E-03
             996         502.177         502.177    -707.878E-03    -707.878E-03        -1.09628        -1.09628
             997         501.743         501.743    -541.947E-03    -541.947E-03        -1.43852        -1.43852
             998         501.255         501.255    -390.838E-03    -390.838E-03        -1.69176        -1.69176
             999         500.731         500.731    -258.356E-03    -258.356E-03        -1.86566        -1.86566
            1000         500.184         500.184    -145.959E-03    -145.959E-03        -1.97121        -1.97121
            1001         499.629         499.629    -53.4137E-03    -53.4137E-03        -2.01960        -2.01960
            1002         499.074         499.074     20.5788E-03     20.5788E-03        -2.02156        -2.02156
            1003         498.529         498.529     77.9371E-03     77.9371E-03        -1.98688        -1.98688
            1004         498.000         498.000     120.847E-03     120.847E-03        -1.92421        -1.92421
            1005         497.491         497.491     151.536E-03     151.536E-03        -1.84099        -1.84099
            1006         497.006         497.006     172.121E-03     172.121E-03        -1.74345        -1.74345
            1007         496.549         496.549     184.526E-03     184.526E-03        -1.63671        -1.63671
            1008         496.119         496.119     190.446E-03     190.446E-03        -1.52490        -1.52490
            1009         495.718         495.718     191.335E-03     191.335E-03        -1.41128        -1.41128
            1010         495.347         495.347     188.413E-03     188.413E-03        -1.29835        -1.29835
            1011         495.004         495.004     182.691E-03     182.691E-03        -1.18799        -1.18799
            1012         494.689         494.689     174.995E-03     174.995E-03        -1.08158        -1.08158
            1013         494.402         494.402     165.986E-03     165.986E-03    -980.062E-03    -980.062E-03
            1014         494.140         494.140     156.193E-03     156.193E-03    -884.053E-03    -884.053E-03
            1015         493.903         493.903     146.031E-03     146.031E-03    -793.891E-03    -793.891E-03
            1016         493.690         493.690     135.820E-03     135.820E-03    -709.703E-03    -709.703E-03
            1017         493.498         493.498     125.810E-03     125.810E-03    -631.453E-03    -631.453E-03
            1018         493.327         493.327     116.187E-03     116.187E-03    -558.975E-03    -558.975E-03
            1019         493.175         493.175     107.091E-03     107.091E-03    -492.008E-03    -492.008E-03
            1020         493.041         493.041     98.6236E-03     98.6236E-03    -430.218E-03    -430.218E-03
            1021         492.923         492.923     90.8590E-03     90.8590E-03    -373.220E-03    -373.220E-03
            1022         492.821         492.821     83.8480E-03     83.8480E-03    -320.587E-03    -320.587E-03
            1023         492.734         492.734     77.6253E-03     77.6253E-03    -271.869E-03    -271.869E-03
            1024         492.660         492.660     72.2131E-03     72.2131E-03    -226.596E-03    -226.596E-03
            1025         492.599         492.599     67.6247E-03     67.6247E-03    -184.287E-03    -184.287E-03
            1026         492.549         492.549     63.8695E-03     63.8695E-03    -144.454E-03    -144.454E-03
            1027         492.512         492.512     60.9440E-03     60.9440E-03    -106.610E-03    -106.610E-03
            1028         492.485         492.485     58.8421E-03     58.8421E-03    -70.2566E-03    -70.2566E-03
            1029         492.470         492.470     57.5808E-03     57.5808E-03    -35.1185E-03    -35.1185E-03
            1030         500.416         500.416    -481.127E-03    -481.127E-03         3.15188         3.15188
            1031         501.500         501.500    -610.782E-03    -610.782E-03         2.69385         2.69385
            1032         502.381         502.381    -680.413E-03    -680.413E-03         2.15529         2.15529
            1033         503.039         503.039    -696.929E-03    -696.929E-03         1.58370         1.58370
            1034         503.472         503.472    -670.774E-03    -670.774E-03         1.01838         1.01838
            1035         503.690         503.690    -613.699E-03    -613.699E-03     489.273E-03     489.273E-03
            1036         503.713         503.713    -537.086E-03    -537.086E-03     16.7156E-03     16.7156E-03
            1037         503.566         503.566    -450.812E-03    -450.812E-03    -387.694E-03    -387.694E-03
            1038         503.277         503.277    -362.653E-03    -362.653E-03    -719.515E-03    -719.515E-03
            1039         502.873         502.873    -278.264E-03    -278.264E-03    -979.795E-03    -979.795E-03
            1040         502.381         502.381    -201.288E-03    -201.288E-03        -1.17329        -1.17329
            1041         501.825         501.825    -133.772E-03    -133.772E-03        -1.30708        -1.30708
            1042         501.228         501.228    -76.4933E-03    -76.4933E-03        -1.38934        -1.38934
            1043         500.607         500.607    -29.3662E-03    -29.3662E-03        -1.42851        -1.42851
            1044         499.979         499.979     8.27282E-03     8.27282E-03        -1.43273        -1.43273
            1045         499.354         499.354     37.4057E-03     37.4057E-03        -1.40942        -1.40942
            1046         498.743         498.743     59.1599E-03     59.1599E-03        -1.36517        -1.36517
            1047         498.154         498.154     74.6835E-03     74.6835E-03        -1.30561        -1.30561
            1048         497.592         497.592     85.0671E-03     85.0671E-03        -1.23545        -1.23545
            1049         497.061         497.061     91.3014E-03     91.3014E-03        -1.15854        -1.15854
            1050         496.563         496.563     94.2550E-03     94.2550E-03        -1.07798        -1.07798
            1051         496.099         496.099     94.6719E-03     94.6719E-03    -996.189E-03    -996.189E-03
            1052         495.669         495.669     93.1750E-03     93.1750E-03    -915.014E-03    -915.014E-03
            1053         495.274         495.274     90.2786E-03     90.2786E-03    -835.837E-03    -835.837E-03
            1054         494.913         494.913     86.3998E-03     86.3998E-03    -759.651E-03    -759.651E-03
            1055         494.584         494.584     81.8733E-03     81.8733E-03    -687.133E-03    -687.133E-03
            1056         494.285         494.285     76.9641E-03     76.9641E-03    -618.712E-03    -618.712E-03
            1057         494.016         494.016     71.8796E-03     71.8796E-03    -554.616E-03    -554.616E-03
            1058         493.774         493.774     66.7804E-03     66.7804E-03    -494.920E-03    -494.920E-03
            1059         493.558         493.558     61.7887E-03     61.7887E-03    -439.577E-03    -439.577E-03
            1060         493.366         493.366     56.9969E-03     56.9969E-03    -388.454E-03    -388.454E-03
            1061         493.196         493.196     52.4731E-03     52.4731E-03    -341.345E-03    -341.345E-03
            1062         493.046         493.046     48.2671E-03     48.2671E-03    -297.997E-03    -297.997E-03
            1063         492.915         492.915     44.4139E-03     44.4139E-03    -258.122E-03    -258.122E-03
            1064         492.802         492.802     40.9380E-03     40.9380E-03    -221.404E-03    -221.404E-03
            1065         492.706         492.706     37.8553E-03     37.8553E-03    -187.510E-03    -187.510E-03
            1066         492.624         492.624     35.1763E-03     35.1763E-03    -156.099E-03    -156.099E-03
            1067         492.557         492.557     32.9067E-03     32.9067E-03    -126.819E-03    -126.819E-03
            1068         492.503         492.503     31.0504E-03     31.0504E-03    -99.3172E-03    -99.3172E-03
            1069         492.462         492.462     29.6134E-03     29.6134E-03    -73.2393E-03    -73.2393E-03
            1070         492.433         492.433     28.5746E-03     28.5746E-03    -48.2475E-03    -48.2475E-03
            1071         492.416         492.416     27.9284E-03     27.9284E-03    -24.1961E-03    -24.1961E-03
            1072         499.967         499.967    -169.081E-03    -169.081E-03         1.75945         1.75945
            1073         501.483         501.483    -215.801E-03    -215.801E-03         1.51089         1.51089
            1074         502.745         502.745    -241.159E-03    -241.159E-03         1.21649         1.21649
            1075         503.723         503.723    -247.612E-03    -247.612E-03     902.837E-03     902.837E-03
            1076         504.409         504.409    -238.756E-03    -238.756E-03     591.828E-03     591.828E-03
            1077         504.813         504.813    -218.742E-03    -218.742E-03     300.243E-03     300.243E-03
            1078         504.959         504.959    -191.661E-03    -191.661E-03     39.5767E-03     39.5767E-03
            1079         504.878         504.878    -161.036E-03    -161.036E-03    -183.535E-03    -183.535E-03
            1080         504.607         504.607    -129.697E-03    -129.697E-03    -366.546E-03    -366.546E-03
            1081         504.181         504.181    -99.6643E-03    -99.6643E-03    -509.960E-03    -509.960E-03
            1082         503.638         503.638    -72.2732E-03    -72.2732E-03    -616.444E-03    -616.444E-03
            1083         503.010         503.010    -48.2520E-03    -48.2520E-03    -689.936E-03    -689.936E-03
            1084         502.325         502.325    -27.8893E-03    -27.8893E-03    -735.030E-03    -735.030E-03
            1085         501.608         501.608    -11.1505E-03    -11.1505E-03    -756.445E-03    -756.445E-03
            1086         500.880         500.880     2.20331E-03     2.20331E-03    -758.724E-03    -758.724E-03
            1087         500.155         500.155     12.5257E-03     12.5257E-03    -746.010E-03    -746.010E-03
            1088         499.448         499.448     20.2239E-03     20.2239E-03    -721.951E-03    -721.951E-03
            1089         498.767         498.767     25.7092E-03     25.7092E-03    -689.661E-03    -689.661E-03
            1090         498.120         498.120     29.3738E-03     29.3738E-03    -651.730E-03    -651.730E-03
            1091         497.510         497.510     31.5711E-03     31.5711E-03    -610.267E-03    -610.267E-03
            1092         496.940         496.940     32.6118E-03     32.6118E-03    -566.951E-03    -566.951E-03
            1093         496.411         496.411     32.7598E-03     32.7598E-03    -523.088E-03    -523.088E-03
            1094         495.925         495.925     32.2367E-03     32.2367E-03    -479.670E-03    -479.670E-03
            1095         495.479         495.479     31.2241E-03     31.2241E-03    -437.430E-03    -437.430E-03
            1096         495.073         495.073     29.8691E-03     29.8691E-03    -396.889E-03    -396.889E-03
            1097         494.705         494.705     28.2895E-03     28.2895E-03    -358.398E-03    -358.398E-03
            1098         494.373         494.373     26.5781E-03     26.5781E-03    -322.171E-03    -322.171E-03
            1099         494.075         494.075     24.8074E-03     24.8074E-03    -288.317E-03    -288.317E-03
            1100         493.808         493.808     23.0332E-03     23.0332E-03    -256.865E-03    -256.865E-03
            1101         493.571         493.571     21.2980E-03     21.2980E-03    -227.777E-03    -227.777E-03
            1102         493.361         493.361     19.6336E-03     19.6336E-03    -200.973E-03    -200.973E-03
            1103         493.176         493.176     18.0635E-03     18.0635E-03    -176.335E-03    -176.335E-03
            1104         493.013         493.013     16.6047E-03     16.6047E-03    -153.720E-03    -153.720E-03
            1105         492.872         492.872     15.2691E-03     15.2691E-03    -132.968E-03    -132.968E-03
            1106         492.751         492.751     14.0648E-03     14.0648E-03    -113.907E-03    -113.907E-03
            1107         492.647         492.647     12.9977E-03     12.9977E-03    -96.3553E-03    -96.3553E-03
            1108         492.560         492.560     12.0700E-03     12.0700E-03    -80.1284E-03    -80.1284E-03
            1109         492.489         492.489     11.2857E-03     11.2857E-03    -65.0370E-03    -65.0370E-03
            1110         492.431         492.431     10.6429E-03     10.6429E-03    -50.8921E-03    -50.8921E-03
            1111         492.388         492.388     10.1496E-03     10.1496E-03    -37.4989E-03    -37.4989E-03
            1112         492.357         492.357     9.80690E-03     9.80690E-03    -24.6763E-03    -24.6763E-03
            1113         492.339         492.339     9.55855E-03     9.55855E-03    -12.4687E-03    -12.4687E-03
            1114         501.839         501.839        -20.5143        -20.5143         19.4236         19.4236
            1115         495.734         495.734        -15.9822        -15.9822         18.9123         18.9123
            1116         491.533         491.533        -11.9869        -11.9869         17.4416         17.4416
            1117         488.806         488.806        -8.69923        -8.69923         15.6102         15.6102
            1118         487.139         487.139        -6.08424        -6.08424         13.7528         13.7528
            1119         486.201         486.201        -4.02664        -4.02664         12.0288         12.0288
            1120         485.751         485.751        -2.41425        -2.41425         10.4993         10.4993
            1121         485.623         485.623        -1.15058        -1.15058         9.17476         9.17476
            1122         485.707         485.707    -161.424E-03    -161.424E-03         8.04219         8.04219
            1123         485.924         485.924     610.652E-03     610.652E-03         7.07944         7.07944
            1124         486.224         486.224         1.20894         1.20894         6.26206         6.26206
            1125         486.573         486.573         1.66690         1.66690         5.56674         5.56674
            1126         486.947         486.947         2.01040         2.01040         4.97266         4.97266
            1127         487.331         487.331         2.25999         2.25999         4.46198         4.46198
            1128         487.713         487.713         2.43220         2.43220         4.01974         4.01974
            1129         488.087         488.087         2.54064         2.54064         3.63363         3.63363
            1130         488.447         488.447         2.59659         2.59659         3.29365         3.29365
            1131         488.791         488.791         2.60960         2.60960         2.99175         2.99175
            1132         489.117         489.117         2.58780         2.58780         2.72151         2.72151
            1133         489.423         489.423         2.53812         2.53812         2.47782         2.47782
            1134         489.708         489.708         2.46653         2.46653         2.25664         2.25664
            1135         489.974         489.974         2.37816         2.37816         2.05480         2.05480
            1136         490.220         490.220         2.27741         2.27741         1.86975         1.86975
            1137         490.447         490.447         2.16805         2.16805         1.69950         1.69950
            1138         490.654         490.654         2.05329         2.05329         1.54243         1.54243
            1139         490.844         490.844         1.93584         1.93584         1.39724         1.39724
            1140         491.017         491.017         1.81799         1.81799         1.26282         1.26282
            1141         491.174         491.174         1.70167         1.70167         1.13825         1.13825
            1142         491.315         491.315         1.58845         1.58845         1.02273         1.02273
            1143         491.442         491.442         1.47966         1.47966     915.515E-03     915.515E-03
            1144         491.556         491.556         1.37634         1.37634     815.948E-03     815.948E-03
            1145         491.657         491.657         1.27936         1.27936     723.395E-03     723.395E-03
            1146         491.746         491.746         1.18939         1.18939     637.247E-03     637.247E-03
            1147         491.824         491.824         1.10697         1.10697     556.912E-03     556.912E-03
            1148         491.893         491.893         1.03251         1.03251     481.808E-03     481.808E-03
            1149         491.951         491.951     966.329E-03     966.329E-03     411.356E-03     411.356E-03
            1150         492.001         492.001     908.655E-03     908.655E-03     344.980E-03     344.980E-03
            1151         492.042         492.042     859.659E-03     859.659E-03     282.103E-03     282.103E-03
            1152         492.075         492.075     819.465E-03     819.465E-03     222.149E-03     222.149E-03
            1153         492.100         492.100     788.157E-03     788.157E-03     164.540E-03     164.540E-03
            1154         492.118         492.118     765.794E-03     765.794E-03     108.698E-03     108.698E-03
            1155         492.128         492.128     752.386E-03     752.386E-03     54.1834E-03     54.1834E-03
            1156         489.711         489.711        -18.7875        -18.7875         27.2601         27.2601
            1157         484.727         484.727        -13.1872        -13.1872         23.8629         23.8629
            1158         482.107         482.107        -8.96063        -8.96063         20.3461         20.3461
            1159         480.961         480.961        -5.85193        -5.85193         17.1499         17.1499
            1160         480.689         480.689        -3.56444        -3.56444         14.4183         14.4183
            1161         480.914         480.914        -1.86744        -1.86744         12.1473         12.1473
            1162         481.410         481.410    -592.526E-03    -592.526E-03         10.2827         10.2827
            1163         482.043         482.043     374.190E-03     374.190E-03         8.75860         8.75860
            1164         482.736         482.736         1.11196         1.11196         7.51289         7.51289
            1165         483.441         483.441         1.67497         1.67497         6.49180         6.49180
            1166         484.134         484.134         2.10171         2.10171         5.65090         5.65090
            1167         484.800         484.800         2.41976         2.41976         4.95399         4.95399
            1168         485.432         485.432         2.64968         2.64968         4.37210         4.37210
            1169         486.026         486.026         2.80719         2.80719         3.88210         3.88210
            1170         486.583         486.583         2.90476         2.90476         3.46566         3.46566
            1171         487.102         487.102         2.95251         2.95251         3.10827         3.10827
            1172         487.584         487.584         2.95894         2.95894         2.79851         2.79851
            1173         488.031         488.031         2.93128         2.93128         2.52738         2.52738
            1174         488.445         488.445         2.87580         2.87580         2.28783         2.28783
            1175         488.827         488.827         2.79795         2.79795         2.07433         2.07433
            1176         489.179         489.179         2.70252         2.70252         1.88256         1.88256
            1177         489.503         489.503         2.59372         2.59372         1.70913         1.70913
            1178         489.800         489.800         2.47522         2.47522         1.55138         1.55138
            1179         490.072         490.072         2.35023         2.35023         1.40721         1.40721
            1180         490.320         490.320         2.22155         2.22155         1.27496         1.27496
            1181         490.546         490.546         2.09157         2.09157         1.15329         1.15329
            1182         490.751         490.751         1.96236         1.96236         1.04109         1.04109
            1183         490.937         490.937         1.83565         1.83565     937.446E-03     937.446E-03
            1184         491.104         491.104         1.71291         1.71291     841.586E-03     841.586E-03
            1185         491.255         491.255         1.59537         1.59537     752.818E-03     752.818E-03
            1186         491.389         491.389         1.48403         1.48403     670.526E-03     670.526E-03
            1187         491.509         491.509         1.37970         1.37970     594.141E-03     594.141E-03
            1188         491.615         491.615         1.28305         1.28305     523.126E-03     523.126E-03
            1189         491.708         491.708         1.19459         1.19459     456.969E-03     456.969E-03
            1190         491.789         491.789         1.11473         1.11473     395.171E-03     395.171E-03
            1191         491.858         491.858         1.04378         1.04378     337.244E-03     337.244E-03
            1192         491.917         491.917     981.970E-03     981.970E-03     282.705E-03     282.705E-03
            1193         491.966         491.966     929.481E-03     929.481E-03     231.077E-03     231.077E-03
            1194         492.005         492.005     886.436E-03     886.436E-03     181.884E-03     181.884E-03
            1195         492.036         492.036     852.924E-03     852.924E-03     134.651E-03     134.651E-03
            1196         492.057         492.057     829.009E-03     829.009E-03     88.9075E-03     88.9075E-03
            1197         492.069         492.069     814.706E-03     814.706E-03     44.2936E-03     44.2936E-03
            1198         471.173         471.173        -12.8797        -12.8797         32.1669         32.1669
            1199         470.112         470.112        -7.69220        -7.69220         25.7431         25.7431
            1200         470.789         470.789        -4.29994        -4.29994         20.5435         20.5435
            1201         472.217         472.217        -2.04860        -2.04860         16.4793         16.4793
            1202         473.894         473.894    -509.438E-03    -509.438E-03         13.3334         13.3334
            1203         475.586         475.586     577.382E-03     577.382E-03         10.8961         10.8961
            1204         477.190         477.190         1.36480         1.36480         8.99666         8.99666
            1205         478.664         478.664         1.94732         1.94732         7.50574         7.50574
            1206         480.000         480.000         2.38277         2.38277         6.32567         6.32567
            1207         481.203         481.203         2.70833         2.70833         5.38372         5.38372
            1208         482.284         482.284         2.94817         2.94817         4.62498         4.62498
            1209         483.256         483.256         3.11890         3.11890         4.00816         4.00816
            1210         484.131         484.131         3.23236         3.23236         3.50178         3.50178
            1211         484.921         484.921         3.29753         3.29753         3.08183         3.08183
            1212         485.635         485.635         3.32160         3.32160         2.72986         2.72986
            1213         486.284         486.284         3.31060         3.31060         2.43167         2.43167
            1214         486.873         486.873         3.26978         3.26978         2.17627         2.17627
            1215         487.410         487.410         3.20387         3.20387         1.95519         1.95519
            1216         487.899         487.899         3.11714         3.11714         1.76183         1.76183
            1217         488.346         488.346         3.01352         3.01352         1.59109         1.59109
            1218         488.753         488.753         2.89658         2.89658         1.43901         1.43901
            1219         489.125         489.125         2.76960         2.76960         1.30251         1.30251
            1220         489.464         489.464         2.63554         2.63554         1.17917         1.17917
            1221         489.773         489.773         2.49705         2.49705         1.06711         1.06711
            1222         490.054         490.054         2.35650         2.35650     964.838E-03     964.838E-03
            1223         490.309         490.309         2.21597         2.21597     871.163E-03     871.163E-03
            1224         490.540         490.540         2.07728         2.07728     785.119E-03     785.119E-03
            1225         490.749         490.749         1.94201         1.94201     705.908E-03     705.908E-03
            1226         490.937         490.937         1.81149         1.81149     632.858E-03     632.858E-03
            1227         491.106         491.106         1.68685         1.68685     565.388E-03     565.388E-03
            1228         491.257         491.257         1.56903         1.56903     502.984E-03     502.984E-03
            1229         491.392         491.392         1.45881         1.45881     445.179E-03     445.179E-03
            1230         491.511         491.511         1.35681         1.35681     391.540E-03     391.540E-03
            1231         491.615         491.615         1.26353         1.26353     341.659E-03     341.659E-03
            1232         491.706         491.706         1.17937         1.17937     295.144E-03     295.144E-03
            1233         491.784         491.784         1.10463         1.10463     251.616E-03     251.616E-03
            1234         491.851         491.851         1.03955         1.03955     210.704E-03     210.704E-03
            1235         491.906         491.906     984.287E-03     984.287E-03     172.042E-03     172.042E-03
            1236         491.950         491.950     938.976E-03     938.976E-03     135.271E-03     135.271E-03
            1237         491.984         491.984     903.706E-03     903.706E-03     100.034E-03     100.034E-03
            1238         492.008         492.008     878.543E-03     878.543E-03     65.9804E-03     65.9804E-03
            1239         492.022         492.022     863.499E-03     863.499E-03     32.8413E-03     32.8413E-03
            1240         448.934         448.934        -3.56271        -3.56271         30.0485         30.0485
            1241         454.433         454.433    -639.839E-03    -639.839E-03         22.3257         22.3257
            1242         459.585         459.585     953.374E-03     953.374E-03         16.9027         16.9027
            1243         464.051         464.051         1.87852         1.87852         13.0451         13.0451
            1244         467.823         467.823         2.45639         2.45639         10.2467         10.2467
            1245         470.989         470.989         2.84145         2.84145         8.17712         8.17712
            1246         473.648         473.648         3.11306         3.11306         6.62155         6.62155
            1247         475.893         475.893         3.31171         3.31171         5.43414         5.43414
            1248         477.801         477.801         3.45887         3.45887         4.51568         4.51568
            1249         479.434         479.434         3.56569         3.56569         3.79614         3.79614
            1250         480.843         480.843         3.63825         3.63825         3.22586         3.22586
            1251         482.069         482.069         3.68004         3.68004         2.76859         2.76859
            1252         483.142         483.142         3.69349         3.69349         2.39783         2.39783
            1253         484.088         484.088         3.68059         3.68059         2.09375         2.09375
            1254         484.929         484.929         3.64335         3.64335         1.84150         1.84150
            1255         485.679         485.679         3.58390         3.58390         1.62982         1.62982
            1256         486.351         486.351         3.50455         3.50455         1.45014         1.45014
            1257         486.957         486.957         3.40774         3.40774         1.29591         1.29591
            1258         487.504         487.504         3.29602         3.29602         1.16209         1.16209
            1259         487.999         487.999         3.17198         3.17198         1.04480         1.04480
            1260         488.448         488.448         3.03818         3.03818     941.060E-03     941.060E-03
            1261         488.855         488.855         2.89708         2.89708     848.548E-03     848.548E-03
            1262         489.225         489.225         2.75104         2.75104     765.466E-03     765.466E-03
            1263         489.561         489.561         2.60227         2.60227     690.406E-03     690.406E-03
            1264         489.866         489.866         2.45276         2.45276     622.261E-03     622.261E-03
            1265         490.142         490.142         2.30434         2.30434     560.148E-03     560.148E-03
            1266         490.391         490.391         2.15863         2.15863     503.355E-03     503.355E-03
            1267         490.617         490.617         2.01706         2.01706     451.298E-03     451.298E-03
            1268         490.820         490.820         1.88085         1.88085     403.486E-03     403.486E-03
            1269         491.002         491.002         1.75106         1.75106     359.500E-03     359.500E-03
            1270         491.165         491.165         1.62856         1.62856     318.973E-03     318.973E-03
            1271         491.310         491.310         1.51410         1.51410     281.573E-03     281.573E-03
            1272         491.438         491.438         1.40827         1.40827     246.999E-03     246.999E-03
            1273         491.550         491.550         1.31155         1.31155     214.968E-03     214.968E-03
            1274         491.648         491.648         1.22432         1.22432     185.215E-03     185.215E-03
            1275         491.733         491.733         1.14688         1.14688     157.483E-03     157.483E-03
            1276         491.804         491.804         1.07946         1.07946     131.526E-03     131.526E-03
            1277         491.863         491.863         1.02222         1.02222     107.104E-03     107.104E-03
            1278         491.911         491.911     975.282E-03     975.282E-03     83.9848E-03     83.9848E-03
            1279         491.948         491.948     938.741E-03     938.741E-03     61.9398E-03     61.9398E-03
            1280         491.974         491.974     912.657E-03     912.657E-03     40.7472E-03     40.7472E-03
            1281         491.989         491.989     897.043E-03     897.043E-03     20.2376E-03     20.2376E-03
            1282         429.851         429.851         5.52541         5.52541         18.3851         18.3851
            1283         442.146         442.146         5.41016         5.41016         12.8834         12.8834
            1284         451.314         451.314         5.10660         5.10660         9.38020         9.38020
            1285         458.272         458.272         4.81606         4.81606         7.03115         7.03115
            1286         463.664         463.664         4.58474         4.58474         5.39382         5.39382
            1287         467.919         467.919         4.41539         4.41539         4.22035         4.22035
            1288         471.334         471.334         4.29742         4.29742         3.35874         3.35874
            1289         474.115         474.115         4.21666         4.21666         2.71423         2.71423
            1290         476.411         476.411         4.15982         4.15982         2.22367         2.22367
            1291         478.331         478.331         4.11546         4.11546         1.84489         1.84489
            1292         479.956         479.956         4.07460         4.07460         1.54833         1.54833
            1293         481.346         481.346         4.03038         4.03038         1.31323         1.31323
            1294         482.546         482.546         3.97801         3.97801         1.12450         1.12450
            1295         483.592         483.592         3.91434         3.91434     971.176E-03     971.176E-03
            1296         484.511         484.511         3.83765         3.83765     845.111E-03     845.111E-03
            1297         485.324         485.324         3.74730         3.74730     740.230E-03     740.230E-03
            1298         486.047         486.047         3.64357         3.64357     651.946E-03     651.946E-03
            1299         486.695         486.695         3.52736         3.52736     576.796E-03     576.796E-03
            1300         487.277         487.277         3.40007         3.40007     512.135E-03     512.135E-03
            1301         487.801         487.801         3.26340         3.26340     455.946E-03     455.946E-03
            1302         488.274         488.274         3.11922         3.11922     406.678E-03     406.678E-03
            1303         488.703         488.703         2.96950         2.96950     363.135E-03     363.135E-03
            1304         489.091         489.091         2.81621         2.81621     324.390E-03     324.390E-03
            1305         489.443         489.443         2.66124         2.66124     289.717E-03     289.717E-03
            1306         489.761         489.761         2.50637         2.50637     258.546E-03     258.546E-03
            1307         490.049         490.049         2.35327         2.35327     230.420E-03     230.420E-03
            1308         490.310         490.310         2.20343         2.20343     204.971E-03     204.971E-03
            1309         490.545         490.545         2.05816         2.05816     181.894E-03     181.894E-03
            1310         490.756         490.756         1.91864         1.91864     160.936E-03     160.936E-03
            1311         490.945         490.945         1.78586         1.78586     141.879E-03     141.879E-03
            1312         491.115         491.115         1.66067         1.66067     124.532E-03     124.532E-03
            1313         491.265         491.265         1.54377         1.54377     108.727E-03     108.727E-03
            1314         491.399         491.399         1.43575         1.43575     94.3115E-03     94.3115E-03
            1315         491.516         491.516         1.33707         1.33707     81.1452E-03     81.1452E-03
            1316         491.618         491.618         1.24810         1.24810     69.0990E-03     69.0990E-03
            1317         491.705         491.705         1.16913         1.16913     58.0523E-03     58.0523E-03
            1318         491.780         491.780         1.10037         1.10037     47.8922E-03     47.8922E-03
            1319         491.841         491.841         1.04200         1.04200     38.5124E-03     38.5124E-03
            1320         491.891         491.891     994.118E-03     994.118E-03     29.8135E-03     29.8135E-03
            1321         491.929         491.929     956.823E-03     956.823E-03     21.7023E-03     21.7023E-03
            1322         491.956         491.956     930.169E-03     930.169E-03     14.0927E-03     14.0927E-03
            1323         491.972         491.972     914.163E-03     914.163E-03     6.92257E-03     6.92257E-03
            1324         423.197         423.197         8.86643         8.86643        -1.25156        -1.25156
            1325         438.220         438.220         7.41928         7.41928        -1.09233        -1.09233
            1326         448.805         448.805         6.40275         6.40275    -928.168E-03    -928.168E-03
            1327         456.592         456.592         5.69066         5.69066    -791.866E-03    -791.866E-03
            1328         462.499         462.499         5.19287         5.19287    -680.277E-03    -680.277E-03
            1329         467.087         467.087         4.84947         4.84947    -589.896E-03    -589.896E-03
            1330         470.726         470.726         4.61306         4.61306    -515.871E-03    -515.871E-03
            1331         473.662         473.662         4.45032         4.45032    -455.159E-03    -455.159E-03
            1332         476.068         476.068         4.33511         4.33511    -404.861E-03    -404.861E-03
            1333         478.067         478.067         4.24876         4.24876    -363.019E-03    -363.019E-03
            1334         479.750         479.750         4.17708         4.17708    -327.926E-03    -327.926E-03
            1335         481.182         481.182         4.11011         4.11011    -298.325E-03    -298.325E-03
            1336         482.415         482.415         4.04067         4.04067    -273.148E-03    -273.148E-03
            1337         483.486         483.486         3.96415         3.96415    -251.566E-03    -251.566E-03
            1338         484.425         484.425         3.87765         3.87765    -232.880E-03    -232.880E-03
            1339         485.253         485.253         3.77978         3.77978    -216.530E-03    -216.530E-03
            1340         485.989         485.989         3.67022         3.67022    -202.052E-03    -202.052E-03
            1341         486.646         486.646         3.54945         3.54945    -189.071E-03    -189.071E-03
            1342         487.236         487.236         3.41856         3.41856    -177.282E-03    -177.282E-03
            1343         487.767         487.767         3.27900         3.27900    -166.441E-03    -166.441E-03
            1344         488.246         488.246         3.13249         3.13249    -156.354E-03    -156.354E-03
            1345         488.679         488.679         2.98086         2.98086    -146.868E-03    -146.868E-03
            1346         489.071         489.071         2.82597         2.82597    -137.868E-03    -137.868E-03
            1347         489.426         489.426         2.66966         2.66966    -129.264E-03    -129.264E-03
            1348         489.747         489.747         2.51366         2.51366    -120.992E-03    -120.992E-03
            1349         490.037         490.037         2.35958         2.35958    -113.004E-03    -113.004E-03
            1350         490.300         490.300         2.20888         2.20888    -105.266E-03    -105.266E-03
            1351         490.536         490.536         2.06287         2.06287    -97.7533E-03    -97.7533E-03
            1352         490.749         490.749         1.92270         1.92270    -90.4487E-03    -90.4487E-03
            1353         490.940         490.940         1.78934         1.78934    -83.3385E-03    -83.3385E-03
            1354         491.110         491.110         1.66365         1.66365    -76.4110E-03    -76.4110E-03
            1355         491.262         491.262         1.54630         1.54630    -69.6542E-03    -69.6542E-03
            1356         491.396         491.396         1.43789         1.43789    -63.0549E-03    -63.0549E-03
            1357         491.513         491.513         1.33886         1.33886    -56.5968E-03    -56.5968E-03
            1358         491.616         491.616         1.24959         1.24959    -50.2605E-03    -50.2605E-03
            1359         491.704         491.704         1.17035         1.17035    -44.0220E-03    -44.0220E-03
            1360         491.778         491.778         1.10135         1.10135    -37.8525E-03    -37.8525E-03
            1361         491.840         491.840         1.04277         1.04277    -31.7178E-03    -31.7178E-03
            1362         491.890         491.890     994.700E-03     994.700E-03    -25.5779E-03    -25.5779E-03
            1363         491.929         491.929     957.229E-03     957.229E-03    -19.3864E-03    -19.3864E-03
            1364         491.956         491.956     930.408E-03     930.408E-03    -13.0902E-03    -13.0902E-03
            1365         491.972         491.972     914.233E-03     914.233E-03    -6.64352E-03    -6.64352E-03
            1366         434.436         434.436         3.33178         3.33178        -21.1373        -21.1373
            1367         445.390         445.390         3.81616         3.81616        -15.3145        -15.3145
            1368         453.652         453.652         3.93377         3.93377        -11.4835        -11.4835
            1369         460.003         460.003         3.93660         3.93660        -8.83833        -8.83833
            1370         464.976         464.976         3.91314         3.91314        -6.95090        -6.95090
            1371         468.936         468.936         3.89368         3.89368        -5.56813        -5.56813
            1372         472.136         472.136         3.88627         3.88627        -4.53379        -4.53379
            1373         474.759         474.759         3.88821         3.88821        -3.74597        -3.74597
            1374         476.936         476.936         3.89432         3.89432        -3.13668        -3.13668
            1375         478.765         478.765         3.89842         3.89842        -2.65890        -2.65890
            1376         480.319         480.319         3.89530         3.89530        -2.27950        -2.27950
            1377         481.652         481.652         3.88073         3.88073        -1.97457        -1.97457
            1378         482.808         482.808         3.85181         3.85181        -1.72662        -1.72662
            1379         483.818         483.818         3.80680         3.80680        -1.52264        -1.52264
            1380         484.708         484.708         3.74504         3.74504        -1.35282        -1.35282
            1381         485.497         485.497         3.66669         3.66669        -1.20975        -1.20975
            1382         486.201         486.201         3.57266         3.57266        -1.08777        -1.08777
            1383         486.832         486.832         3.46433         3.46433    -982.500E-03    -982.500E-03
            1384         487.399         487.399         3.34349         3.34349    -890.609E-03    -890.609E-03
            1385         487.911         487.911         3.21213         3.21213    -809.506E-03    -809.506E-03
            1386         488.374         488.374         3.07238         3.07238    -737.193E-03    -737.193E-03
            1387         488.793         488.793         2.92640         2.92640    -672.124E-03    -672.124E-03
            1388         489.173         489.173         2.77629         2.77629    -613.102E-03    -613.102E-03
            1389         489.517         489.517         2.62408         2.62408    -559.197E-03    -559.197E-03
            1390         489.828         489.828         2.47164         2.47164    -509.683E-03    -509.683E-03
            1391         490.111         490.111         2.32069         2.32069    -463.989E-03    -463.989E-03
            1392         490.365         490.365         2.17279         2.17279    -421.659E-03    -421.659E-03
            1393         490.595         490.595         2.02929         2.02929    -382.328E-03    -382.328E-03
            1394         490.802         490.802         1.89139         1.89139    -345.692E-03    -345.692E-03
            1395         490.987         490.987         1.76011         1.76011    -311.491E-03    -311.491E-03
            1396         491.153         491.153         1.63630         1.63630    -279.501E-03    -279.501E-03
            1397         491.300         491.300         1.52068         1.52068    -249.517E-03    -249.517E-03
            1398         491.430         491.430         1.41383         1.41383    -221.350E-03    -221.350E-03
            1399         491.544         491.544         1.31621         1.31621    -194.819E-03    -194.819E-03
            1400         491.643         491.643         1.22819         1.22819    -169.745E-03    -169.745E-03
            1401         491.729         491.729         1.15005         1.15005    -145.954E-03    -145.954E-03
            1402         491.801         491.801         1.08201         1.08201    -123.266E-03    -123.266E-03
            1403         491.861         491.861         1.02422         1.02422    -101.504E-03    -101.504E-03
            1404         491.910         491.910     976.790E-03     976.790E-03    -80.4812E-03    -80.4812E-03
            1405         491.947         491.947     939.792E-03     939.792E-03    -60.0106E-03    -60.0106E-03
            1406         491.973         491.973     913.273E-03     913.273E-03    -39.8984E-03    -39.8984E-03
            1407         491.989         491.989     897.226E-03     897.226E-03    -19.9957E-03    -19.9957E-03
            1408         458.355         458.355        -7.55605        -7.55605        -31.3010        -31.3010
            1409         461.261         461.261        -3.71263        -3.71263        -23.9970        -23.9970
            1410         464.630         464.630        -1.40668        -1.40668        -18.6494        -18.6494
            1411         467.847         467.847     57.4681E-03     57.4681E-03        -14.7170        -14.7170
            1412         470.733         470.733         1.03797         1.03797        -11.7837        -11.7837
            1413         473.257         473.257         1.72625         1.72625        -9.56590        -9.56590
            1414         475.445         475.445         2.22694         2.22694        -7.86647        -7.86647
            1415         477.337         477.337         2.60086         2.60086        -6.54830        -6.54830
            1416         478.977         478.977         2.88300         2.88300        -5.51401        -5.51401
            1417         480.404         480.404         3.09482         3.09482        -4.69362        -4.69362
            1418         481.653         481.653         3.24955         3.24955        -4.03600        -4.03600
            1419         482.752         482.752         3.35612         3.35612        -3.50331        -3.50331
            1420         483.724         483.724         3.42085         3.42085        -3.06722        -3.06722
            1421         484.590         484.590         3.44880         3.44880        -2.70633        -2.70633
            1422         485.364         485.364         3.44421         3.44421        -2.40433        -2.40433
            1423         486.059         486.059         3.41099         3.41099        -2.14871        -2.14871
            1424         486.687         486.687         3.35281         3.35281        -1.92988        -1.92988
            1425         487.254         487.254         3.27320         3.27320        -1.74041        -1.74041
            1426         487.769         487.769         3.17556         3.17556        -1.57456        -1.57456
            1427         488.236         488.236         3.06313         3.06313        -1.42790        -1.42790
            1428         488.661         488.661         2.93901         2.93901        -1.29699        -1.29699
            1429         489.047         489.047         2.80608         2.80608        -1.17916        -1.17916
            1430         489.398         489.398         2.66704         2.66704        -1.07233        -1.07233
            1431         489.717         489.717         2.52433         2.52433    -974.891E-03    -974.891E-03
            1432         490.007         490.007         2.38015         2.38015    -885.570E-03    -885.570E-03
            1433         490.270         490.270         2.23649         2.23649    -803.360E-03    -803.360E-03
            1434         490.507         490.507         2.09506         2.09506    -727.452E-03    -727.452E-03
            1435         490.722         490.722         1.95739         1.95739    -657.184E-03    -657.184E-03
            1436         490.915         490.915         1.82475         1.82475    -592.003E-03    -592.003E-03
            1437         491.088         491.088         1.69824         1.69824    -531.433E-03    -531.433E-03
            1438         491.242         491.242         1.57878         1.57878    -475.056E-03    -475.056E-03
            1439         491.379         491.379         1.46710         1.46710    -422.489E-03    -422.489E-03
            1440         491.501         491.501         1.36381         1.36381    -373.377E-03    -373.377E-03
            1441         491.607         491.607         1.26940         1.26940    -327.382E-03    -327.382E-03
            1442         491.700         491.700         1.18424         1.18424    -284.174E-03    -284.174E-03
            1443         491.780         491.780         1.10862         1.10862    -243.429E-03    -243.429E-03
            1444         491.847         491.847         1.04276         1.04276    -204.826E-03    -204.826E-03
            1445         491.903         491.903     986.799E-03     986.799E-03    -168.042E-03    -168.042E-03
            1446         491.948         491.948     940.862E-03     940.862E-03    -132.753E-03    -132.753E-03
            1447         491.983         491.983     905.016E-03     905.016E-03    -98.6330E-03    -98.6330E-03
            1448         492.007         492.007     879.304E-03     879.304E-03    -65.3528E-03    -65.3528E-03
            1449         492.022         492.022     863.720E-03     863.720E-03    -32.6622E-03    -32.6622E-03
            1450         482.805         482.805        -16.6684        -16.6684        -29.4138        -29.4138
            1451         479.274         479.274        -11.1538        -11.1538        -24.7528        -24.7528
            1452         477.948         477.948        -7.24030        -7.24030        -20.5240        -20.5240
            1453         477.825         477.825        -4.47660        -4.47660        -16.9708        -16.9708
            1454         478.318         478.318        -2.48862        -2.48862        -14.0786        -14.0786
            1455         479.109         479.109        -1.03170        -1.03170        -11.7494        -11.7494
            1456         480.023         480.023     55.9574E-03     55.9574E-03        -9.87862        -9.87862
            1457         480.967         480.967     878.675E-03     878.675E-03        -8.37335        -8.37335
            1458         481.892         481.892         1.50607         1.50607        -7.15731        -7.15731
            1459         482.773         482.773         1.98458         1.98458        -6.16945        -6.16945
            1460         483.600         483.600         2.34652         2.34652        -5.36156        -5.36156
            1461         484.369         484.369         2.61477         2.61477        -4.69578        -4.69578
            1462         485.081         485.081         2.80628         2.80628        -4.14241        -4.14241
            1463         485.739         485.739         2.93406         2.93406        -3.67820        -3.67820
            1464         486.346         486.346         3.00849         3.00849        -3.28490        -3.28490
            1465         486.904         486.904         3.03813         3.03813        -2.94823        -2.94823
            1466         487.419         487.419         3.03028         3.03028        -2.65700        -2.65700
            1467         487.893         487.893         2.99127         2.99127        -2.40247        -2.40247
            1468         488.329         488.329         2.92666         2.92666        -2.17779        -2.17779
            1469         488.729         488.729         2.84139         2.84139        -1.97763        -1.97763
            1470         489.096         489.096         2.73985         2.73985        -1.79782        -1.79782
            1471         489.433         489.433         2.62596         2.62596        -1.63513        -1.63513
            1472         489.741         489.741         2.50316         2.50316        -1.48700        -1.48700
            1473         490.022         490.022         2.37450         2.37450        -1.35145        -1.35145
            1474         490.278         490.278         2.24265         2.24265        -1.22689        -1.22689
            1475         490.511         490.511         2.10991         2.10991        -1.11208        -1.11208
            1476         490.721         490.721         1.97827         1.97827        -1.00598        -1.00598
            1477         490.912         490.912         1.84943         1.84943    -907.744E-03    -907.744E-03
            1478         491.084         491.084         1.72481         1.72481    -816.653E-03    -816.653E-03
            1479         491.238         491.238         1.60560         1.60560    -732.078E-03    -732.078E-03
            1480         491.375         491.375         1.49277         1.49277    -653.453E-03    -653.453E-03
            1481         491.498         491.498         1.38714         1.38714    -580.258E-03    -580.258E-03
            1482         491.606         491.606         1.28933         1.28933    -512.001E-03    -512.001E-03
            1483         491.701         491.701         1.19985         1.19985    -448.212E-03    -448.212E-03
            1484         491.783         491.783         1.11909         1.11909    -388.428E-03    -388.428E-03
            1485         491.854         491.854         1.04734         1.04734    -332.197E-03    -332.197E-03
            1486         491.914         491.914     984.828E-03     984.828E-03    -279.065E-03    -279.065E-03
            1487         491.964         491.964     931.713E-03     931.713E-03    -228.582E-03    -228.582E-03
            1488         492.004         492.004     888.102E-03     888.102E-03    -180.294E-03    -180.294E-03
            1489         492.034         492.034     854.072E-03     854.072E-03    -133.748E-03    -133.748E-03
            1490         492.056         492.056     829.666E-03     829.666E-03    -88.4911E-03    -88.4911E-03
            1491         492.069         492.069     814.878E-03     814.878E-03    -44.1768E-03    -44.1768E-03
            1492         499.581         499.581        -20.2129        -20.2129        -21.0138        -21.0138
            1493         493.650         493.650        -15.4426        -15.4426        -19.9285        -19.9285
            1494         489.752         489.752        -11.3891        -11.3891        -18.0281        -18.0281
            1495         487.351         487.351        -8.14190        -8.14190        -15.9065        -15.9065
            1496         485.977         485.977        -5.60475        -5.60475        -13.8694        -13.8694
            1497         485.280         485.280        -3.63034        -3.63034        -12.0399        -12.0399
            1498         485.023         485.023        -2.09299        -2.09299        -10.4510        -10.4510
            1499         485.046         485.046    -892.788E-03    -892.788E-03        -9.09506        -9.09506
            1500         485.246         485.246     44.7070E-03     44.7070E-03        -7.94794        -7.94794
            1501         485.554         485.554     775.440E-03     775.440E-03        -6.98053        -6.98053
            1502         485.925         485.925         1.34105         1.34105        -6.16420        -6.16420
            1503         486.330         486.330         1.77328         1.77328        -5.47312        -5.47312
            1504         486.748         486.748         2.09660         2.09660        -4.88497        -4.88497
            1505         487.166         487.166         2.33036         2.33036        -4.38098        -4.38098
            1506         487.576         487.576         2.49013         2.49013        -3.94568        -3.94568
            1507         487.973         487.973         2.58873         2.58873        -3.56643        -3.56643
            1508         488.351         488.351         2.63687         2.63687        -3.23307        -3.23307
            1509         488.711         488.711         2.64363         2.64363        -2.93743        -2.93743
            1510         489.049         489.049         2.61677         2.61677        -2.67306        -2.67306
            1511         489.365         489.365         2.56296         2.56296        -2.43481        -2.43481
            1512         489.660         489.660         2.48795         2.48795        -2.21865        -2.21865
            1513         489.933         489.933         2.39672         2.39672        -2.02140        -2.02140
            1514         490.185         490.185         2.29353         2.29353        -1.84055        -1.84055
            1515         490.417         490.417         2.18208         2.18208        -1.67410        -1.67410
            1516         490.630         490.630         2.06550         2.06550        -1.52046        -1.52046
            1517         490.823         490.823         1.94646         1.94646        -1.37835        -1.37835
            1518         491.000         491.000         1.82722         1.82722        -1.24669        -1.24669
            1519         491.159         491.159         1.70966         1.70966        -1.12458        -1.12458
            1520         491.303         491.303         1.59535         1.59535        -1.01122        -1.01122
            1521         491.432         491.432         1.48558         1.48558    -905.928E-03    -905.928E-03
            1522         491.548         491.548         1.38140         1.38140    -808.039E-03    -808.039E-03
            1523         491.650         491.650         1.28365         1.28365    -716.946E-03    -716.946E-03
            1524         491.741         491.741         1.19301         1.19301    -632.062E-03    -632.062E-03
            1525         491.820         491.820         1.10999         1.10999    -552.813E-03    -552.813E-03
            1526         491.889         491.889         1.03501         1.03501    -478.633E-03    -478.633E-03
            1527         491.949         491.949     968.359E-03     968.359E-03    -408.959E-03    -408.959E-03
            1528         491.999         491.999     910.271E-03     910.271E-03    -343.229E-03    -343.229E-03
            1529         492.040         492.040     860.907E-03     860.907E-03    -280.879E-03    -280.879E-03
            1530         492.074         492.074     820.380E-03     820.380E-03    -221.345E-03    -221.345E-03
            1531         492.099         492.099     788.767E-03     788.767E-03    -164.059E-03    -164.059E-03
            1532         492.117         492.117     766.118E-03     766.118E-03    -108.454E-03    -108.454E-03
            1533         492.128         492.128     752.432E-03     752.432E-03    -54.1079E-03    -54.1079E-03
            1534         494.296         494.296     9.83267E-03     9.83267E-03        -1.68856        -1.68856
            1535         495.941         495.941     16.8660E-03     16.8660E-03        -3.00870        -3.00870
            1536         497.597         497.597     3.15893E-03     3.15893E-03        -3.97737        -3.97737
            1537         499.303         499.303    -66.3423E-03    -66.3423E-03        -4.72095        -4.72095
            1538         501.113         501.113    -242.615E-03    -242.615E-03        -5.32992        -5.32992
            1539         503.090         503.090    -596.374E-03    -596.374E-03        -5.85638        -5.85638
            1540         505.313         505.313        -1.22587        -1.22587        -6.31395        -6.31395
            1541         507.866         507.866        -2.26881        -2.26881        -6.66762        -6.66762
            1542         510.838         510.838        -3.91653        -3.91653        -6.80959        -6.80959
            1543         514.285         514.285        -6.42448        -6.42448        -6.50994        -6.50994
            1544         518.138         518.138        -10.0872        -10.0872        -5.34233        -5.34233
            1545         521.978         521.978        -15.1183        -15.1183        -2.59628        -2.59628
            1546         492.205         492.205     152.797E-03     152.797E-03        -1.55349        -1.55349
            1547         494.433         494.433     418.667E-03     418.667E-03        -2.77856        -2.77856
            1548         496.441         496.441     800.702E-03     800.702E-03        -3.70751        -3.70751
            1549         498.337         498.337         1.24922         1.24922        -4.47515        -4.47515
            1550         500.224         500.224         1.71478         1.71478        -5.18540        -5.18540
            1551         502.211         502.211         2.14075         2.14075        -5.91463        -5.91463
            1552         504.415         504.415         2.45126         2.45126        -6.71748        -6.71748
            1553         506.981         506.981         2.53285         2.53285        -7.62558        -7.62558
            1554         510.092         510.092         2.20439         2.20439        -8.63383        -8.63383
            1555         513.984         513.984         1.16754         1.16754        -9.66255        -9.66255
            1556         518.933         518.933        -1.06733        -1.06733        -10.4554        -10.4554
            1557         525.148         525.148        -5.24200        -5.24200        -10.3674        -10.3674
            1558         490.447         490.447     285.859E-03     285.859E-03        -1.17223        -1.17223
            1559         493.150         493.150     793.886E-03     793.886E-03        -2.09855        -2.09855
            1560         495.417         495.417         1.54995         1.54995        -2.81331        -2.81331
            1561         497.414         497.414         2.49784         2.49784        -3.43172        -3.43172
            1562         499.283         499.283         3.60245         3.60245        -4.04728        -4.04728
            1563         501.153         501.153         4.84183         4.84183        -4.73835        -4.73835
            1564         503.158         503.158         6.19833         6.19833        -5.57850        -5.57850
            1565         505.455         505.455         7.64638         7.64638        -6.64415        -6.64415
            1566         508.253         508.253         9.13178         9.13178        -8.02025        -8.02025
            1567         511.855         511.855         10.5300         10.5300        -9.79934        -9.79934
            1568         516.742         516.742         11.5477         11.5477        -12.0557        -12.0557
            1569         523.681         523.681         11.4857         11.4857        -14.7298        -14.7298
            1570         489.315         489.315     381.174E-03     381.174E-03    -587.039E-03    -587.039E-03
            1571         492.327         492.327         1.06318         1.06318        -1.04410        -1.04410
            1572         494.746         494.746         2.08980         2.08980        -1.39373        -1.39373
            1573         496.780         496.780         3.40358         3.40358        -1.70386        -1.70386
            1574         498.591         498.591         4.98584         4.98584        -2.03114        -2.03114
            1575         500.316         500.316         6.85071         6.85071        -2.42638        -2.42638
            1576         502.085         502.085         9.04253         9.04253        -2.94248        -2.94248
            1577         504.040         504.040         11.6375         11.6375        -3.64327        -3.64327
            1578         506.360         506.360         14.7491         14.7491        -4.61503        -4.61503
            1579         509.309         509.309         18.5364         18.5364        -5.98453        -5.98453
            1580         513.320         513.320         23.2105         23.2105        -7.95709        -7.95709
            1581         519.189         519.189         29.0002         29.0002        -10.8879        -10.8879
            1582         489.019         489.019     417.079E-03     417.079E-03     115.434E-03     115.434E-03
            1583         492.133         492.133         1.16478         1.16478     226.325E-03     226.325E-03
            1584         494.596         494.596         2.29391         2.29391     330.832E-03     330.832E-03
            1585         496.628         496.628         3.74699         3.74699     425.533E-03     425.533E-03
            1586         498.399         498.399         5.51227         5.51227     508.020E-03     508.020E-03
            1587         500.048         500.048         7.61892         7.61892     576.429E-03     576.429E-03
            1588         501.701         501.701         10.1377         10.1377     629.373E-03     629.373E-03
            1589         503.488         503.488         13.1898         13.1898     665.988E-03     665.988E-03
            1590         505.570         505.570         16.9660         16.9660     685.791E-03     685.791E-03
            1591         508.174         508.174         21.7653         21.7653     688.795E-03     688.795E-03
            1592         511.657         511.657         28.0753         28.0753     675.614E-03     675.614E-03
            1593         516.672         516.672         36.7742         36.7742     646.479E-03     646.479E-03
            1594         489.638         489.638     385.374E-03     385.374E-03     821.777E-03     821.777E-03
            1595         492.634         492.634         1.07532         1.07532         1.50404         1.50404
            1596         495.030         495.030         2.11437         2.11437         2.06559         2.06559
            1597         497.032         497.032         3.44432         3.44432         2.56751         2.56751
            1598         498.805         498.805         5.04580         5.04580         3.06165         3.06165
            1599         500.488         500.488         6.93221         6.93221         3.59510         3.59510
            1600         502.212         502.212         9.14726         9.14726         4.21808         4.21808
            1601         504.119         504.119         11.7666         11.7666         4.99264         4.99264
            1602         506.392         506.392         14.9031         14.9031         6.00428         6.00428
            1603         509.294         509.294         18.7154         18.7154         7.37972         7.37972
            1604         513.260         513.260         23.4138         23.4138         9.32489         9.32489
            1605         519.086         519.086         29.2272         29.2272         12.1976         12.1976
            1606         491.103         491.103     294.243E-03     294.243E-03         1.41856         1.41856
            1607         493.774         493.774     818.117E-03     818.117E-03         2.58035         2.58035
            1608         495.991         495.991         1.59899         1.59899         3.51573         3.51573
            1609         497.923         497.923         2.57917         2.57917         4.33305         4.33305
            1610         499.716         499.716         3.72206         3.72206         5.12108         5.12108
            1611         501.500         501.500         5.00437         5.00437         5.95456         5.95456
            1612         503.413         503.413         6.40709         6.40709         6.90442         6.90442
            1613         505.615         505.615         7.90348         7.90348         8.04552         8.04552
            1614         508.317         508.317         9.43828         9.43828         9.46211         9.46211
            1615         511.824         511.824         10.8860         10.8860         11.2469         11.2469
            1616         516.619         516.619         11.9530         11.9530         13.4747         13.4747
            1617         523.472         523.472         11.9378         11.9378         16.0873         16.0873
            1618         493.216         493.216     165.331E-03     165.331E-03         1.81912         1.81912
            1619         495.392         495.392     454.906E-03     454.906E-03         3.29673         3.29673
            1620         497.321         497.321     874.038E-03     874.038E-03         4.46073         4.46073
            1621         499.116         499.116         1.37078         1.37078         5.43907         5.43907
            1622         500.885         500.885         1.89351         1.89351         6.33105         6.33105
            1623         502.740         502.740         2.38343         2.38343         7.20953         7.20953
            1624         504.803         504.803         2.76271         2.76271         8.12670         8.12670
            1625         507.224         507.224         2.91604         2.91604         9.11282         9.11282
            1626         510.188         510.188         2.66064         2.66064         10.1624         10.1624
            1627         513.936         513.936         1.69689         1.69689         11.1962         11.1962
            1628         518.745         518.745    -465.908E-03    -465.908E-03         11.9593         11.9593
            1629         524.827         524.827        -4.56912        -4.56912         11.8066         11.8066
            1630         495.692         495.692     26.4889E-03     26.4889E-03         1.98117         1.98117
            1631         497.260         497.260     65.0176E-03     65.0176E-03         3.57765         3.57765
            1632         498.805         498.805     100.572E-03     100.572E-03         4.80148         4.80148
            1633         500.370         500.370     95.0512E-03     95.0512E-03         5.77211         5.77211
            1634         502.015         502.015    -5.53508E-03    -5.53508E-03         6.57554         6.57554
            1635         503.810         503.810    -274.771E-03    -274.771E-03         7.26056         7.26056
            1636         505.839         505.839    -813.628E-03    -813.628E-03         7.83856         7.83856
            1637         508.194         508.194        -1.76233        -1.76233         8.27339         8.27339
            1638         510.966         510.966        -3.31450        -3.31450         8.45723         8.45723
            1639         514.216         514.216        -5.72766        -5.72766         8.16115         8.16115
            1640         517.882         517.882        -9.29753        -9.29753         6.96132         6.96132
            1641         521.541         521.541        -14.2373        -14.2373         4.14992         4.14992
            1642         492.251         492.251     615.128E-03     615.128E-03     67.0383E-03     67.0383E-03
            1643         492.245         492.245     626.450E-03     626.450E-03     134.441E-03     134.441E-03
            1644         492.235         492.235     645.262E-03     645.262E-03     203.500E-03     203.500E-03
            1645         492.221         492.221     671.557E-03     671.557E-03     274.755E-03     274.755E-03
            1646         492.203         492.203     705.289E-03     705.289E-03     348.933E-03     348.933E-03
            1647         492.179         492.179     746.383E-03     746.383E-03     426.756E-03     426.756E-03
            1648         492.151         492.151     794.730E-03     794.730E-03     508.944E-03     508.944E-03
            1649         492.117         492.117     850.173E-03     850.173E-03     596.206E-03     596.206E-03
            1650         492.078         492.078     912.491E-03     912.491E-03     689.245E-03     689.245E-03
            1651         492.033         492.033     981.383E-03     981.383E-03     788.753E-03     788.753E-03
            1652         491.981         491.981         1.05645         1.05645     895.412E-03     895.412E-03
            1653         491.922         491.922         1.13715         1.13715         1.00989         1.00989
            1654         491.856         491.856         1.22280         1.22280         1.13285         1.13285
            1655         491.782         491.782         1.31252         1.31252         1.26495         1.26495
            1656         491.699         491.699         1.40520         1.40520         1.40682         1.40682
            1657         491.608         491.608         1.49943         1.49943         1.55912         1.55912
            1658         491.507         491.507         1.59350         1.59350         1.72253         1.72253
            1659         491.397         491.397         1.68527         1.68527         1.89774         1.89774
            1660         491.278         491.278         1.77215         1.77215         2.08550         2.08550
            1661         491.150         491.150         1.85102         1.85102         2.28667         2.28667
            1662         491.014         491.014         1.91809         1.91809         2.50223         2.50223
            1663         490.872         490.872         1.96884         1.96884         2.73332         2.73332
            1664         490.724         490.724         1.99791         1.99791         2.98134         2.98134
            1665         490.573         490.573         1.99891         1.99891         3.24800         3.24800
            1666         490.425         490.425         1.96434         1.96434         3.53538         3.53538
            1667         490.283         490.283         1.88535         1.88535         3.84601         3.84601
            1668         490.155         490.155         1.75161         1.75161         4.18292         4.18292
            1669         490.050         490.050         1.55099         1.55099         4.54962         4.54962
            1670         489.981         489.981         1.26942         1.26942         4.95007         4.95007
            1671         489.964         489.964     890.481E-03     890.481E-03         5.38835         5.38835
            1672         490.022         490.022     395.236E-03     395.236E-03         5.86828         5.86828
            1673         490.181         490.181    -238.212E-03    -238.212E-03         6.39244         6.39244
            1674         490.478         490.478        -1.03462        -1.03462         6.96064         6.96064
            1675         490.961         490.961        -2.02182        -2.02182         7.56742         7.56742
            1676         491.690         491.690        -3.22911        -3.22911         8.19786         8.19786
            1677         492.739         492.739        -4.68566        -4.68566         8.82171         8.82171
            1678         494.200         494.200        -6.41322        -6.41322         9.38359         9.38359
            1679         496.176         496.176        -8.41636        -8.41636         9.79223         9.79223
            1680         498.772         498.772        -10.6572        -10.6572         9.90384         9.90384
            1681         502.063         502.063        -13.0219        -13.0219         9.51805         9.51805
            1682         506.049         506.049        -15.2661        -15.2661         8.38026         8.38026
            1683         510.593         510.593        -16.9951        -16.9951         6.25638         6.25638
            1684         492.308         492.308     546.743E-03     546.743E-03     70.2113E-03     70.2113E-03
            1685         492.305         492.305     556.931E-03     556.931E-03     140.798E-03     140.798E-03
            1686         492.299         492.299     573.866E-03     573.866E-03     213.149E-03     213.149E-03
            1687         492.290         492.290     597.538E-03     597.538E-03     287.841E-03     287.841E-03
            1688         492.279         492.279     627.904E-03     627.904E-03     365.642E-03     365.642E-03
            1689         492.265         492.265     664.896E-03     664.896E-03     447.322E-03     447.322E-03
            1690         492.248         492.248     708.412E-03     708.412E-03     533.639E-03     533.639E-03
            1691         492.227         492.227     758.304E-03     758.304E-03     625.343E-03     625.343E-03
            1692         492.203         492.203     814.365E-03     814.365E-03     723.172E-03     723.172E-03
            1693         492.175         492.175     876.308E-03     876.308E-03     827.846E-03     827.846E-03
            1694         492.143         492.143     943.746E-03     943.746E-03     940.067E-03     940.067E-03
            1695         492.106         492.106         1.01616         1.01616         1.06051         1.06051
            1696         492.064         492.064         1.09289         1.09289         1.18984         1.18984
            1697         492.017         492.017         1.17307         1.17307         1.32867         1.32867
            1698         491.965         491.965         1.25560         1.25560         1.47760         1.47760
            1699         491.907         491.907         1.33909         1.33909         1.63720         1.63720
            1700         491.844         491.844         1.42183         1.42183         1.80799         1.80799
            1701         491.775         491.775         1.50166         1.50166         1.99050         1.99050
            1702         491.701         491.701         1.57599         1.57599         2.18523         2.18523
            1703         491.622         491.622         1.64160         1.64160         2.39267         2.39267
            1704         491.541         491.541         1.69465         1.69465         2.61332         2.61332
            1705         491.458         491.458         1.73049         1.73049         2.84774         2.84774
            1706         491.376         491.376         1.74357         1.74357         3.09653         3.09653
            1707         491.298         491.298         1.72732         1.72732         3.36036         3.36036
            1708         491.230         491.230         1.67395         1.67395         3.64002         3.64002
            1709         491.177         491.177         1.57437         1.57437         3.93634         3.93634
            1710         491.148         491.148         1.41797         1.41797         4.25023         4.25023
            1711         491.154         491.154         1.19249         1.19249         4.58250         4.58250
            1712         491.208         491.208     883.889E-03     883.889E-03         4.93364         4.93364
            1713         491.328         491.328     476.291E-03     476.291E-03         5.30342         5.30342
            1714         491.536         491.536    -48.0667E-03    -48.0667E-03         5.69019         5.69019
            1715         491.862         491.862    -708.461E-03    -708.461E-03         6.08972         6.08972
            1716         492.340         492.340        -1.52529        -1.52529         6.49355         6.49355
            1717         493.012         493.012        -2.51849        -2.51849         6.88620         6.88620
            1718         493.930         493.930        -3.70549        -3.70549         7.24179         7.24179
            1719         495.152         495.152        -5.09603        -5.09603         7.51841         7.51841
            1720         496.740         496.740        -6.68511        -6.68511         7.65282         7.65282
            1721         498.753         498.753        -8.43884        -8.43884         7.55240         7.55240
            1722         501.228         501.228        -10.2754        -10.2754         7.09421         7.09421
            1723         504.163         504.163        -12.0393        -12.0393         6.12617         6.12617
            1724         507.476         507.476        -13.4769        -13.4769         4.49879         4.49879
            1725         511.014         511.014        -14.2518        -14.2518         2.07812         2.07812
            1726         492.363         492.363     476.010E-03     476.010E-03     71.7365E-03     71.7365E-03
            1727         492.362         492.362     485.008E-03     485.008E-03     143.854E-03     143.854E-03
            1728         492.360         492.360     499.967E-03     499.967E-03     217.813E-03     217.813E-03
            1729         492.358         492.358     520.878E-03     520.878E-03     294.209E-03     294.209E-03
            1730         492.354         492.354     547.703E-03     547.703E-03     373.843E-03     373.843E-03
            1731         492.350         492.350     580.382E-03     580.382E-03     457.511E-03     457.511E-03
            1732         492.344         492.344     618.822E-03     618.822E-03     546.003E-03     546.003E-03
            1733         492.338         492.338     662.890E-03     662.890E-03     640.093E-03     640.093E-03
            1734         492.329         492.329     712.395E-03     712.395E-03     740.538E-03     740.538E-03
            1735         492.320         492.320     767.071E-03     767.071E-03     848.074E-03     848.074E-03
            1736         492.308         492.308     826.558E-03     826.558E-03     963.408E-03     963.408E-03
            1737         492.295         492.295     890.374E-03     890.374E-03         1.08722         1.08722
            1738         492.279         492.279     957.884E-03     957.884E-03         1.22013         1.22013
            1739         492.261         492.261         1.02827         1.02827         1.36273         1.36273
            1740         492.241         492.241         1.10047         1.10047         1.51555         1.51555
            1741         492.219         492.219         1.17317         1.17317         1.67904         1.67904
            1742         492.194         492.194         1.24468         1.24468         1.85359         1.85359
            1743         492.168         492.168         1.31293         1.31293         2.03949         2.03949
            1744         492.141         492.141         1.37535         1.37535         2.23697         2.23697
            1745         492.114         492.114         1.42880         1.42880         2.44611         2.44611
            1746         492.088         492.088         1.46946         1.46946         2.66692         2.66692
            1747         492.065         492.065         1.49274         1.49274         2.89927         2.89927
            1748         492.049         492.049         1.49313         1.49313         3.14291         3.14291
            1749         492.043         492.043         1.46408         1.46408         3.39742         3.39742
            1750         492.052         492.052         1.39790         1.39790         3.66217         3.66217
            1751         492.083         492.083         1.28561         1.28561         3.93627         3.93627
            1752         492.144         492.144         1.11682         1.11682         4.21844         4.21844
            1753         492.247         492.247     879.726E-03     879.726E-03         4.50680         4.50680
            1754         492.406         492.406     561.076E-03     561.076E-03         4.79856         4.79856
            1755         492.637         492.637     146.307E-03     146.307E-03         5.08951         5.08951
            1756         492.962         492.962    -380.045E-03    -380.045E-03         5.37329         5.37329
            1757         493.407         493.407        -1.03377        -1.03377         5.64025         5.64025
            1758         494.002         494.002        -1.82959        -1.82959         5.87584         5.87584
            1759         494.782         494.782        -2.77928        -2.77928         6.05855         6.05855
            1760         495.786         495.786        -3.88803        -3.88803         6.15691         6.15691
            1761         497.052         497.052        -5.14933        -5.14933         6.12673         6.12673
            1762         498.616         498.616        -6.53662        -6.53662         5.90733         5.90733
            1763         500.497         500.497        -7.99189        -7.99189         5.42144         5.42144
            1764         502.689         502.689        -9.41198        -9.41198         4.57648         4.57648
            1765         505.142         505.142        -10.6321        -10.6321         3.27833         3.27833
            1766         507.750         507.750        -11.4260        -11.4260         1.44754         1.44754
            1767         510.330         510.330        -11.4772        -11.4772    -969.132E-03    -969.132E-03
            1768         492.413         492.413     404.602E-03     404.602E-03     71.5483E-03     71.5483E-03
            1769         492.415         492.415     412.374E-03     412.374E-03     143.473E-03     143.473E-03
            1770         492.417         492.417     425.297E-03     425.297E-03     217.280E-03     217.280E-03
            1771         492.421         492.421     443.364E-03     443.364E-03     293.572E-03     293.572E-03
            1772         492.426         492.426     466.543E-03     466.543E-03     373.164E-03     373.164E-03
            1773         492.431         492.431     494.781E-03     494.781E-03     456.869E-03     456.869E-03
            1774         492.438         492.438     528.000E-03     528.000E-03     545.486E-03     545.486E-03
            1775         492.445         492.445     566.082E-03     566.082E-03     639.802E-03     639.802E-03
            1776         492.454         492.454     608.857E-03     608.857E-03     740.580E-03     740.580E-03
            1777         492.463         492.463     656.089E-03     656.089E-03     848.558E-03     848.558E-03
            1778         492.473         492.473     707.453E-03     707.453E-03     964.438E-03     964.438E-03
            1779         492.484         492.484     762.509E-03     762.509E-03         1.08888         1.08888
            1780         492.495         492.495     820.679E-03     820.679E-03         1.22248         1.22248
            1781         492.507         492.507     881.207E-03     881.207E-03         1.36578         1.36578
            1782         492.521         492.521     943.117E-03     943.117E-03         1.51922         1.51922
            1783         492.535         492.535         1.00517         1.00517         1.68315         1.68315
            1784         492.551         492.551         1.06580         1.06580         1.85780         1.85780
            1785         492.569         492.569         1.12304         1.12304         2.04324         2.04324
            1786         492.590         492.590         1.17448         1.17448         2.23940         2.23940
            1787         492.615         492.615         1.21713         1.21713         2.44598         2.44598
            1788         492.645         492.645         1.24735         1.24735         2.66248         2.66248
            1789         492.683         492.683         1.26077         1.26077         2.88809         2.88809
            1790         492.732         492.732         1.25211         1.25211         3.12172         3.12172
            1791         492.795         492.795         1.21513         1.21513         3.36187         3.36187
            1792         492.878         492.878         1.14252         1.14252         3.60657         3.60657
            1793         492.986         492.986         1.02576         1.02576         3.85326         3.85326
            1794         493.128         493.128     855.153E-03     855.153E-03         4.09864         4.09864
            1795         493.315         493.315     619.801E-03     619.801E-03         4.33838         4.33838
            1796         493.559         493.559     307.765E-03     307.765E-03         4.56684         4.56684
            1797         493.875         493.875    -93.5792E-03    -93.5792E-03         4.77652         4.77652
            1798         494.283         494.283    -596.993E-03    -596.993E-03         4.95744         4.95744
            1799         494.802         494.802        -1.21426        -1.21426         5.09615         5.09615
            1800         495.458         495.458        -1.95467        -1.95467         5.17462         5.17462
            1801         496.277         496.277        -2.82237        -2.82237         5.16864         5.16864
            1802         497.282         497.282        -3.81279        -3.81279         5.04652         5.04652
            1803         498.497         498.497        -4.90736        -4.90736         4.76740         4.76740
            1804         499.931         499.931        -6.06633        -6.06633         4.28147         4.28147
            1805         501.581         501.581        -7.22080        -7.22080         3.53137         3.53137
            1806         503.412         503.412        -8.26250        -8.26250         2.45899         2.45899
            1807         505.355         505.355        -9.04069        -9.04069         1.01641         1.01641
            1808         507.293         507.293        -9.35222        -9.35222    -821.325E-03    -821.325E-03
            1809         509.047         509.047        -8.94588        -8.94588        -3.02167        -3.02167
            1810         492.456         492.456     334.243E-03     334.243E-03     69.6097E-03     69.6097E-03
            1811         492.460         492.460     340.778E-03     340.778E-03     139.578E-03     139.578E-03
            1812         492.467         492.467     351.648E-03     351.648E-03     211.433E-03     211.433E-03
            1813         492.477         492.477     366.847E-03     366.847E-03     285.765E-03     285.765E-03
            1814         492.490         492.490     386.349E-03     386.349E-03     363.391E-03     363.391E-03
            1815         492.506         492.506     410.111E-03     410.111E-03     445.120E-03     445.120E-03
            1816         492.525         492.525     438.069E-03     438.069E-03     531.748E-03     531.748E-03
            1817         492.547         492.547     470.123E-03     470.123E-03     624.056E-03     624.056E-03
            1818         492.572         492.572     506.130E-03     506.130E-03     722.801E-03     722.801E-03
            1819         492.601         492.601     545.886E-03     545.886E-03     828.711E-03     828.711E-03
            1820         492.633         492.633     589.109E-03     589.109E-03     942.471E-03     942.471E-03
            1821         492.668         492.668     635.416E-03     635.416E-03         1.06471         1.06471
            1822         492.707         492.707     684.296E-03     684.296E-03         1.19600         1.19600
            1823         492.750         492.750     735.080E-03     735.080E-03         1.33682         1.33682
            1824         492.798         492.798     786.900E-03     786.900E-03         1.48754         1.48754
            1825         492.850         492.850     838.641E-03     838.641E-03         1.64840         1.64840
            1826         492.907         492.907     888.894E-03     888.894E-03         1.81948         1.81948
            1827         492.970         492.970     935.885E-03     935.885E-03         2.00067         2.00067
            1828         493.040         493.040     977.410E-03     977.410E-03         2.19160         2.19160
            1829         493.117         493.117         1.01075         1.01075         2.39164         2.39164
            1830         493.204         493.204         1.03258         1.03258         2.59981         2.59981
            1831         493.303         493.303         1.03888         1.03888         2.81471         2.81471
            1832         493.415         493.415         1.02483         1.02483         3.03449         3.03449
            1833         493.545         493.545     984.709E-03     984.709E-03         3.25668         3.25668
            1834         493.697         493.697     911.833E-03     911.833E-03         3.47813         3.47813
            1835         493.877         493.877     798.491E-03     798.491E-03         3.69484         3.69484
            1836         494.091         494.091     635.975E-03     635.975E-03         3.90176         3.90176
            1837         494.349         494.349     414.654E-03     414.654E-03         4.09258         4.09258
            1838         494.661         494.661     124.259E-03     124.259E-03         4.25939         4.25939
            1839         495.039         495.039    -245.698E-03    -245.698E-03         4.39225         4.39225
            1840         495.499         495.499    -705.105E-03    -705.105E-03         4.47872         4.47872
            1841         496.055         496.055        -1.26210        -1.26210         4.50326         4.50326
            1842         496.726         496.726        -1.92119        -1.92119         4.44644         4.44644
            1843         497.527         497.527        -2.68079        -2.68079         4.28443         4.28443
            1844         498.473         498.473        -3.52963        -3.52963         3.98836         3.98836
            1845         499.569         499.569        -4.44217        -4.44217         3.52486         3.52486
            1846         500.812         500.812        -5.37354        -5.37354         2.85726         2.85726
            1847         502.180         502.180        -6.25307        -6.25307         1.94957         1.94957
            1848         503.629         503.629        -6.98119        -6.98119     773.296E-03     773.296E-03
            1849         505.084         505.084        -7.42472        -7.42472    -683.685E-03    -683.685E-03
            1850         506.433         506.433        -7.42099        -7.42099        -2.39862        -2.39862
            1851         507.538         507.538        -6.79050        -6.79050        -4.29580        -4.29580
            1852         492.489         492.489     266.674E-03     266.674E-03     65.9207E-03     65.9207E-03
            1853         492.496         492.496     271.990E-03     271.990E-03     132.168E-03     132.168E-03
            1854         492.507         492.507     280.837E-03     280.837E-03     200.264E-03     200.264E-03
            1855         492.523         492.523     293.208E-03     293.208E-03     270.775E-03     270.775E-03
            1856         492.545         492.545     309.084E-03     309.084E-03     344.494E-03     344.494E-03
            1857         492.571         492.571     328.433E-03     328.433E-03     422.212E-03     422.212E-03
            1858         492.602         492.602     351.204E-03     351.204E-03     504.704E-03     504.704E-03
            1859         492.638         492.638     377.319E-03     377.319E-03     592.731E-03     592.731E-03
            1860         492.680         492.680     406.661E-03     406.661E-03     687.028E-03     687.028E-03
            1861         492.728         492.728     439.063E-03     439.063E-03     788.299E-03     788.299E-03
            1862         492.782         492.782     474.292E-03     474.292E-03     897.202E-03     897.202E-03
            1863         492.842         492.842     512.029E-03     512.029E-03         1.01434         1.01434
            1864         492.910         492.910     551.843E-03     551.843E-03         1.14024         1.14024
            1865         492.984         492.984     593.168E-03     593.168E-03         1.27532         1.27532
            1866         493.066         493.066     635.262E-03     635.262E-03         1.41990         1.41990
            1867         493.156         493.156     677.173E-03     677.173E-03         1.57413         1.57413
            1868         493.255         493.255     717.685E-03     717.685E-03         1.73796         1.73796
            1869         493.364         493.364     755.263E-03     755.263E-03         1.91111         1.91111
            1870         493.482         493.482     787.994E-03     787.994E-03         2.09301         2.09301
            1871         493.613         493.613     813.506E-03     813.506E-03         2.28275         2.28275
            1872         493.756         493.756     828.894E-03     828.894E-03         2.47896         2.47896
            1873         493.915         493.915     830.637E-03     830.637E-03         2.67979         2.67979
            1874         494.090         494.090     814.509E-03     814.509E-03         2.88274         2.88274
            1875         494.285         494.285     775.509E-03     775.509E-03         3.08461         3.08461
            1876         494.503         494.503     707.802E-03     707.802E-03         3.28130         3.28130
            1877         494.749         494.749     604.705E-03     604.705E-03         3.46770         3.46770
            1878         495.028         495.028     458.728E-03     458.728E-03         3.63745         3.63745
            1879         495.346         495.346     261.738E-03     261.738E-03         3.78275         3.78275
            1880         495.712         495.712     5.24407E-03     5.24407E-03         3.89412         3.89412
            1881         496.134         496.134    -319.058E-03    -319.058E-03         3.96008         3.96008
            1882         496.623         496.623    -718.476E-03    -718.476E-03         3.96689         3.96689
            1883         497.188         497.188        -1.19807        -1.19807         3.89822         3.89822
            1884         497.839         497.839        -1.75890        -1.75890         3.73504         3.73504
            1885         498.584         498.584        -2.39570        -2.39570         3.45556         3.45556
            1886         499.428         499.428        -3.09376        -3.09376         3.03585         3.03585
            1887         500.366         500.366        -3.82555        -3.82555         2.45099         2.45099
            1888         501.386         501.386        -4.54653        -4.54653         1.67770         1.67770
            1889         502.457         502.457        -5.19243        -5.19243     698.672E-03     698.672E-03
            1890         503.533         503.533        -5.67644        -5.67644    -491.637E-03    -491.637E-03
            1891         504.545         504.545        -5.89105        -5.89105        -1.87677        -1.87677
            1892         505.404         505.404        -5.71465        -5.71465        -3.40811        -3.40811
            1893         506.008         506.008        -5.02655        -5.02655        -4.99096        -4.99096
            1894         492.509         492.509     203.619E-03     203.619E-03     60.5217E-03     60.5217E-03
            1895         492.519         492.519     207.765E-03     207.765E-03     121.321E-03     121.321E-03
            1896         492.534         492.534     214.666E-03     214.666E-03     183.888E-03     183.888E-03
            1897         492.557         492.557     224.319E-03     224.319E-03     248.743E-03     248.743E-03
            1898         492.586         492.586     236.709E-03     236.709E-03     316.640E-03     316.640E-03
            1899         492.621         492.621     251.814E-03     251.814E-03     388.329E-03     388.329E-03
            1900         492.664         492.664     269.597E-03     269.597E-03     464.547E-03     464.547E-03
            1901         492.715         492.715     290.001E-03     290.001E-03     546.015E-03     546.015E-03
            1902         492.774         492.774     312.935E-03     312.935E-03     633.433E-03     633.433E-03
            1903         492.841         492.841     338.272E-03     338.272E-03     727.467E-03     727.467E-03
            1904         492.916         492.916     365.829E-03     365.829E-03     828.739E-03     828.739E-03
            1905         493.001         493.001     395.353E-03     395.353E-03     937.811E-03     937.811E-03
            1906         493.096         493.096     426.503E-03     426.503E-03         1.05517         1.05517
            1907         493.201         493.201     458.823E-03     458.823E-03         1.18120         1.18120
            1908         493.318         493.318     491.716E-03     491.716E-03         1.31614         1.31614
            1909         493.446         493.446     524.407E-03     524.407E-03         1.46010         1.46010
            1910         493.587         493.587     555.905E-03     555.905E-03         1.61293         1.61293
            1911         493.741         493.741     584.952E-03     584.952E-03         1.77426         1.77426
            1912         493.909         493.909     609.972E-03     609.972E-03         1.94336         1.94336
            1913         494.093         494.093     629.006E-03     629.006E-03         2.11914         2.11914
            1914         494.293         494.293     639.648E-03     639.648E-03         2.30000         2.30000
            1915         494.511         494.511     638.974E-03     638.974E-03         2.48375         2.48375
            1916         494.748         494.748     623.475E-03     623.475E-03         2.66752         2.66752
            1917         495.007         495.007     588.996E-03     588.996E-03         2.84759         2.84759
            1918         495.290         495.290     530.702E-03     530.702E-03         3.01926         3.01926
            1919         495.599         495.599     443.079E-03     443.079E-03         3.17669         3.17669
            1920         495.938         495.938     320.006E-03     320.006E-03         3.31272         3.31272
            1921         496.310         496.310     154.913E-03     154.913E-03         3.41867         3.41867
            1922         496.721         496.721    -58.8944E-03    -58.8944E-03         3.48420         3.48420
            1923         497.175         497.175    -327.730E-03    -327.730E-03         3.49711         3.49711
            1924         497.677         497.677    -656.726E-03    -656.726E-03         3.44332         3.44332
            1925         498.232         498.232        -1.04870        -1.04870         3.30683         3.30683
            1926         498.842         498.842        -1.50262        -1.50262         3.06999         3.06999
            1927         499.508         499.508        -2.01155        -2.01155         2.71413         2.71413
            1928         500.228         500.228        -2.56037        -2.56037         2.22057         2.22057
            1929         500.990         500.990        -3.12294        -3.12294         1.57260         1.57260
            1930         501.775         501.775        -3.65990        -3.65990     758.402E-03     758.402E-03
            1931         502.553         502.553        -4.11656        -4.11656    -225.019E-03    -225.019E-03
            1932         503.282         503.282        -4.42319        -4.42319        -1.36580        -1.36580
            1933         503.903         503.903        -4.49793        -4.49793        -2.63115        -2.63115
            1934         504.353         504.353        -4.25455        -4.25455        -3.95934        -3.95934
            1935         504.565         504.565        -3.61708        -3.61708        -5.25449        -5.25449
            1936         492.514         492.514     146.741E-03     146.741E-03     53.4951E-03     53.4951E-03
            1937         492.526         492.526     149.797E-03     149.797E-03     107.203E-03     107.203E-03
            1938         492.546         492.546     154.887E-03     154.887E-03     162.546E-03     162.546E-03
            1939         492.574         492.574     162.004E-03     162.004E-03     219.986E-03     219.986E-03
            1940         492.610         492.610     171.144E-03     171.144E-03     280.212E-03     280.212E-03
            1941         492.655         492.655     182.289E-03     182.289E-03     343.912E-03     343.912E-03
            1942         492.710         492.710     195.418E-03     195.418E-03     411.766E-03     411.766E-03
            1943         492.774         492.774     210.490E-03     210.490E-03     484.437E-03     484.437E-03
            1944         492.848         492.848     227.442E-03     227.442E-03     562.569E-03     562.569E-03
            1945         492.933         492.933     246.182E-03     246.182E-03     646.775E-03     646.775E-03
            1946         493.030         493.030     266.577E-03     266.577E-03     737.628E-03     737.628E-03
            1947         493.139         493.139     288.442E-03     288.442E-03     835.647E-03     835.647E-03
            1948         493.260         493.260     311.521E-03     311.521E-03     941.274E-03     941.274E-03
            1949         493.396         493.396     335.475E-03     335.475E-03         1.05485         1.05485
            1950         493.546         493.546     359.853E-03     359.853E-03         1.17659         1.17659
            1951         493.712         493.712     384.068E-03     384.068E-03         1.30654         1.30654
            1952         493.894         493.894     407.364E-03     407.364E-03         1.44453         1.44453
            1953         494.094         494.094     428.777E-03     428.777E-03         1.59013         1.59013
            1954         494.311         494.311     447.095E-03     447.095E-03         1.74257         1.74257
            1955         494.548         494.548     460.804E-03     460.804E-03         1.90069         1.90069
            1956         494.805         494.805     468.041E-03     468.041E-03         2.06278         2.06278
            1957         495.083         495.083     466.535E-03     466.535E-03         2.22656         2.22656
            1958         495.383         495.383     453.553E-03     453.553E-03         2.38900         2.38900
            1959         495.706         495.706     425.863E-03     425.863E-03         2.54619         2.54619
            1960         496.053         496.053     379.705E-03     379.705E-03         2.69321         2.69321
            1961         496.425         496.425     310.806E-03     310.806E-03         2.82396         2.82396
            1962         496.823         496.823     214.445E-03     214.445E-03         2.93099         2.93099
            1963         497.248         497.248     85.6179E-03     85.6179E-03         3.00539         3.00539
            1964         497.700         497.700    -80.6931E-03    -80.6931E-03         3.03666         3.03666
            1965         498.182         498.182    -289.058E-03    -289.058E-03         3.01269         3.01269
            1966         498.691         498.691    -542.923E-03    -542.923E-03         2.91983         2.91983
            1967         499.228         499.228    -843.675E-03    -843.675E-03         2.74314         2.74314
            1968         499.789         499.789        -1.18935        -1.18935         2.46700         2.46700
            1969         500.368         500.368        -1.57316        -1.57316         2.07595         2.07595
            1970         500.956         500.956        -1.98155        -1.98155         1.55621         1.55621
            1971         501.538         501.538        -2.39259        -2.39259     897.850E-03     897.850E-03
            1972         502.094         502.094        -2.77424        -2.77424     97.5165E-03     97.5165E-03
            1973         502.593         502.593        -3.08386        -3.08386    -837.567E-03    -837.567E-03
            1974         503.002         503.002        -3.26901        -3.26901        -1.88561        -1.88561
            1975         503.277         503.277        -3.27093        -3.27093        -3.00532        -3.00532
            1976         503.375         503.375        -3.03186        -3.03186        -4.13261        -4.13261
            1977         503.260         503.260        -2.50532        -2.50532        -5.17898        -5.17898
            1978         492.502         492.502     97.5981E-03     97.5981E-03     44.9721E-03     44.9721E-03
            1979         492.516         492.516     99.6789E-03     99.6789E-03     90.0668E-03     90.0668E-03
            1980         492.539         492.539     103.147E-03     103.147E-03     136.621E-03     136.621E-03
            1981         492.572         492.572     107.996E-03     107.996E-03     185.003E-03     185.003E-03
            1982         492.615         492.615     114.221E-03     114.221E-03     235.821E-03     235.821E-03
            1983         492.669         492.669     121.816E-03     121.816E-03     289.681E-03     289.681E-03
            1984         492.734         492.734     130.769E-03     130.769E-03     347.175E-03     347.175E-03
            1985         492.810         492.810     141.055E-03     141.055E-03     408.889E-03     408.889E-03
            1986         492.899         492.899     152.633E-03     152.633E-03     475.392E-03     475.392E-03
            1987         493.001         493.001     165.443E-03     165.443E-03     547.226E-03     547.226E-03
            1988         493.118         493.118     179.397E-03     179.397E-03     624.902E-03     624.902E-03
            1989         493.249         493.249     194.371E-03     194.371E-03     708.879E-03     708.879E-03
            1990         493.397         493.397     210.192E-03     210.192E-03     799.552E-03     799.552E-03
            1991         493.561         493.561     226.628E-03     226.628E-03     897.224E-03     897.224E-03
            1992         493.744         493.744     243.369E-03     243.369E-03         1.00208         1.00208
            1993         493.946         493.946     260.007E-03     260.007E-03         1.11416         1.11416
            1994         494.169         494.169     276.017E-03     276.017E-03         1.23330         1.23330
            1995         494.413         494.413     290.725E-03     290.725E-03         1.35907         1.35907
            1996         494.680         494.680     303.277E-03     303.277E-03         1.49076         1.49076
            1997         494.970         494.970     312.604E-03     312.604E-03         1.62724         1.62724
            1998         495.284         495.284     317.386E-03     317.386E-03         1.76690         1.76690
            1999         495.623         495.623     316.008E-03     316.008E-03         1.90755         1.90755
            2000         495.986         495.986     306.523E-03     306.523E-03         2.04627         2.04627
            2001         496.375         496.375     286.623E-03     286.623E-03         2.17933         2.17933
            2002         496.789         496.789     253.624E-03     253.624E-03         2.30198         2.30198
            2003         497.226         497.226     204.476E-03     204.476E-03         2.40835         2.40835
            2004         497.686         497.686     135.826E-03     135.826E-03         2.49131         2.49131
            2005         498.167         498.167     44.1354E-03     44.1354E-03         2.54235         2.54235
            2006         498.665         498.665    -74.0943E-03    -74.0943E-03         2.55153         2.55153
            2007         499.177         499.177    -221.972E-03    -221.972E-03         2.50754         2.50754
            2008         499.698         499.698    -401.707E-03    -401.707E-03         2.39785         2.39785
            2009         500.221         500.221    -613.884E-03    -613.884E-03         2.20916         2.20916
            2010         500.737         500.737    -856.572E-03    -856.572E-03         1.92806         1.92806
            2011         501.234         501.234        -1.12416        -1.12416         1.54216         1.54216
            2012         501.698         501.698        -1.40619        -1.40619         1.04162         1.04162
            2013         502.111         502.111        -1.68612        -1.68612     421.247E-03     421.247E-03
            2014         502.450         502.450        -1.94054        -1.94054    -316.756E-03    -316.756E-03
            2015         502.689         502.689        -2.13899        -2.13899        -1.15988        -1.15988
            2016         502.801         502.801        -2.24514        -2.24514        -2.08186        -2.08186
            2017         502.758         502.758        -2.21984        -2.21984        -3.04016        -3.04016
            2018         502.536         502.536        -2.02614        -2.02614        -3.97448        -3.97448
            2019         502.119         502.119        -1.63715        -1.63715        -4.80767        -4.80767
            2020         492.470         492.470     57.5930E-03     57.5930E-03     35.1259E-03     35.1259E-03
            2021         492.485         492.485     58.8545E-03     58.8545E-03     70.2715E-03     70.2715E-03
            2022         492.512         492.512     60.9570E-03     60.9570E-03     106.633E-03     106.633E-03
            2023         492.549         492.549     63.8831E-03     63.8831E-03     144.484E-03     144.484E-03
            2024         492.599         492.599     67.6392E-03     67.6392E-03     184.326E-03     184.326E-03
            2025         492.660         492.660     72.2288E-03     72.2288E-03     226.645E-03     226.645E-03
            2026         492.734         492.734     77.6424E-03     77.6424E-03     271.928E-03     271.928E-03
            2027         492.821         492.821     83.8669E-03     83.8669E-03     320.657E-03     320.657E-03
            2028         492.923         492.923     90.8800E-03     90.8800E-03     373.301E-03     373.301E-03
            2029         493.041         493.041     98.6470E-03     98.6470E-03     430.313E-03     430.313E-03
            2030         493.175         493.175     107.117E-03     107.117E-03     492.117E-03     492.117E-03
            2031         493.327         493.327     116.217E-03     116.217E-03     559.101E-03     559.101E-03
            2032         493.498         493.498     125.843E-03     125.843E-03     631.598E-03     631.598E-03
            2033         493.690         493.690     135.858E-03     135.858E-03     709.870E-03     709.870E-03
            2034         493.903         493.903     146.073E-03     146.073E-03     794.081E-03     794.081E-03
            2035         494.140         494.140     156.242E-03     156.242E-03     884.271E-03     884.271E-03
            2036         494.402         494.402     166.042E-03     166.042E-03     980.311E-03     980.311E-03
            2037         494.690         494.690     175.059E-03     175.059E-03         1.08186         1.08186
            2038         495.005         495.005     182.765E-03     182.765E-03         1.18831         1.18831
            2039         495.347         495.347     188.499E-03     188.499E-03         1.29872         1.29872
            2040         495.719         495.719     191.435E-03     191.435E-03         1.41170         1.41170
            2041         496.120         496.120     190.566E-03     190.566E-03         1.52539         1.52539
            2042         496.550         496.550     184.670E-03     184.670E-03         1.63727         1.63727
            2043         497.008         497.008     172.296E-03     172.296E-03         1.74410         1.74410
            2044         497.492         497.492     151.751E-03     151.751E-03         1.84175         1.84175
            2045         498.001         498.001     121.115E-03     121.115E-03         1.92510         1.92510
            2046         498.531         498.531     78.2718E-03     78.2718E-03         1.98793         1.98793
            2047         499.076         499.076     20.9970E-03     20.9970E-03         2.02282         2.02282
            2048         499.631         499.631    -52.8954E-03    -52.8954E-03         2.02111         2.02111
            2049         500.187         500.187    -145.324E-03    -145.324E-03         1.97302         1.97302
            2050         500.733         500.733    -257.595E-03    -257.595E-03         1.86785         1.86785
            2051         501.258         501.258    -389.952E-03    -389.952E-03         1.69440         1.69440
            2052         501.747         501.747    -540.956E-03    -540.956E-03         1.44168         1.44168
            2053         502.181         502.181    -706.820E-03    -706.820E-03         1.10001         1.10001
            2054         502.541         502.541    -880.599E-03    -880.599E-03     662.423E-03     662.423E-03
            2055         502.805         502.805        -1.05156        -1.05156     126.618E-03     126.618E-03
            2056         502.948         502.948        -1.20469        -1.20469    -502.883E-03    -502.883E-03
            2057         502.948         502.948        -1.32082        -1.32082        -1.21220        -1.21220
            2058         502.782         502.782        -1.37755        -1.37755        -1.97593        -1.97593
            2059         502.433         502.433        -1.35126        -1.35126        -2.75545        -2.75545
            2060         501.893         501.893        -1.22047        -1.22047        -3.49877        -3.49877
            2061         501.165         501.165    -970.137E-03    -970.137E-03        -4.14241        -4.14241
            2062         492.416         492.416     27.9343E-03     27.9343E-03     24.2012E-03     24.2012E-03
            2063         492.433         492.433     28.5806E-03     28.5806E-03     48.2577E-03     48.2577E-03
            2064         492.462         492.462     29.6197E-03     29.6197E-03     73.2548E-03     73.2548E-03
            2065         492.503         492.503     31.0570E-03     31.0570E-03     99.3384E-03     99.3384E-03
            2066         492.557         492.557     32.9138E-03     32.9138E-03     126.847E-03     126.847E-03
            2067         492.624         492.624     35.1840E-03     35.1840E-03     156.132E-03     156.132E-03
            2068         492.706         492.706     37.8636E-03     37.8636E-03     187.551E-03     187.551E-03
            2069         492.802         492.802     40.9472E-03     40.9472E-03     221.452E-03     221.452E-03
            2070         492.915         492.915     44.4241E-03     44.4241E-03     258.178E-03     258.178E-03
            2071         493.046         493.046     48.2785E-03     48.2785E-03     298.063E-03     298.063E-03
            2072         493.196         493.196     52.4859E-03     52.4859E-03     341.421E-03     341.421E-03
            2073         493.366         493.366     57.0114E-03     57.0114E-03     388.542E-03     388.542E-03
            2074         493.558         493.558     61.8051E-03     61.8051E-03     439.679E-03     439.679E-03
            2075         493.775         493.775     66.7989E-03     66.7989E-03     495.036E-03     495.036E-03
            2076         494.016         494.016     71.9008E-03     71.9008E-03     554.750E-03     554.750E-03
            2077         494.286         494.286     76.9882E-03     76.9882E-03     618.866E-03     618.866E-03
            2078         494.584         494.584     81.9009E-03     81.9009E-03     687.309E-03     687.309E-03
            2079         494.913         494.913     86.4315E-03     86.4315E-03     759.852E-03     759.852E-03
            2080         495.275         495.275     90.3153E-03     90.3153E-03     836.067E-03     836.067E-03
            2081         495.670         495.670     93.2179E-03     93.2179E-03     915.279E-03     915.279E-03
            2082         496.100         496.100     94.7224E-03     94.7224E-03     996.494E-03     996.494E-03
            2083         496.564         496.564     94.3153E-03     94.3153E-03         1.07834         1.07834
            2084         497.062         497.062     91.3745E-03     91.3745E-03         1.15895         1.15895
            2085         497.594         497.594     85.1566E-03     85.1566E-03         1.23592         1.23592
            2086         498.156         498.156     74.7945E-03     74.7945E-03         1.30617         1.30617
            2087         498.745         498.745     59.2984E-03     59.2984E-03         1.36584         1.36584
            2088         499.356         499.356     37.5797E-03     37.5797E-03         1.41022         1.41022
            2089         499.981         499.981     8.49063E-03     8.49063E-03         1.43368         1.43368
            2090         500.610         500.610    -29.0954E-03    -29.0954E-03         1.42967         1.42967
            2091         501.232         501.232    -76.1624E-03    -76.1624E-03         1.39075         1.39075
            2092         501.829         501.829    -133.376E-03    -133.376E-03         1.30879         1.30879
            2093         502.385         502.385    -200.830E-03    -200.830E-03         1.17536         1.17536
            2094         502.878         502.878    -277.754E-03    -277.754E-03     982.262E-03     982.262E-03
            2095         503.283         503.283    -362.117E-03    -362.117E-03     722.424E-03     722.424E-03
            2096         503.574         503.574    -450.280E-03    -450.280E-03     391.056E-03     391.056E-03
            2097         503.722         503.722    -536.611E-03    -536.611E-03    -12.9154E-03    -12.9154E-03
            2098         503.701         503.701    -613.320E-03    -613.320E-03    -485.093E-03    -485.093E-03
            2099         503.484         503.484    -670.542E-03    -670.542E-03        -1.01391        -1.01391
            2100         503.053         503.053    -696.853E-03    -696.853E-03        -1.57904        -1.57904
            2101         502.397         502.397    -680.480E-03    -680.480E-03        -2.15055        -2.15055
            2102         501.518         501.518    -610.849E-03    -610.849E-03        -2.68906        -2.68906
            2103         500.436         500.436    -480.506E-03    -480.506E-03        -3.14705        -3.14705
            2104         492.339         492.339     9.56057E-03     9.56057E-03     12.4714E-03     12.4714E-03
            2105         492.357         492.357     9.80897E-03     9.80897E-03     24.6815E-03     24.6815E-03
            2106         492.388         492.388     10.1517E-03     10.1517E-03     37.5069E-03     37.5069E-03
            2107         492.431         492.431     10.6452E-03     10.6452E-03     50.9030E-03     50.9030E-03
            2108         492.489         492.489     11.2881E-03     11.2881E-03     65.0510E-03     65.0510E-03
            2109         492.560         492.560     12.0726E-03     12.0726E-03     80.1456E-03     80.1456E-03
            2110         492.647         492.647     13.0005E-03     13.0005E-03     96.3761E-03     96.3761E-03
            2111         492.751         492.751     14.0680E-03     14.0680E-03     113.931E-03     113.931E-03
            2112         492.872         492.872     15.2726E-03     15.2726E-03     132.997E-03     132.997E-03
            2113         493.013         493.013     16.6086E-03     16.6086E-03     153.754E-03     153.754E-03
            2114         493.176         493.176     18.0679E-03     18.0679E-03     176.374E-03     176.374E-03
            2115         493.361         493.361     19.6386E-03     19.6386E-03     201.019E-03     201.019E-03
            2116         493.571         493.571     21.3036E-03     21.3036E-03     227.830E-03     227.830E-03
            2117         493.808         493.808     23.0396E-03     23.0396E-03     256.925E-03     256.925E-03
            2118         494.075         494.075     24.8147E-03     24.8147E-03     288.387E-03     288.387E-03
            2119         494.373         494.373     26.5864E-03     26.5864E-03     322.251E-03     322.251E-03
            2120         494.705         494.705     28.2990E-03     28.2990E-03     358.490E-03     358.490E-03
            2121         495.074         495.074     29.8801E-03     29.8801E-03     396.995E-03     396.995E-03
            2122         495.480         495.480     31.2368E-03     31.2368E-03     437.551E-03     437.551E-03
            2123         495.925         495.925     32.2516E-03     32.2516E-03     479.809E-03     479.809E-03
            2124         496.412         496.412     32.7774E-03     32.7774E-03     523.248E-03     523.248E-03
            2125         496.941         496.941     32.6328E-03     32.6328E-03     567.137E-03     567.137E-03
            2126         497.511         497.511     31.5967E-03     31.5967E-03     610.484E-03     610.484E-03
            2127         498.121         498.121     29.4054E-03     29.4054E-03     651.985E-03     651.985E-03
            2128         498.769         498.769     25.7484E-03     25.7484E-03     689.963E-03     689.963E-03
            2129         499.450         499.450     20.2732E-03     20.2732E-03     722.311E-03     722.311E-03
            2130         500.158         500.158     12.5878E-03     12.5878E-03     746.444E-03     746.444E-03
            2131         500.883         500.883     2.28133E-03     2.28133E-03     759.250E-03     759.250E-03
            2132         501.612         501.612    -11.0535E-03    -11.0535E-03     757.086E-03     757.086E-03
            2133         502.329         502.329    -27.7705E-03    -27.7705E-03     735.812E-03     735.812E-03
            2134         503.015         503.015    -48.1103E-03    -48.1103E-03     690.890E-03     690.890E-03
            2135         503.644         503.644    -72.1092E-03    -72.1092E-03     617.599E-03     617.599E-03
            2136         504.189         504.189    -99.4833E-03    -99.4833E-03     511.344E-03     511.344E-03
            2137         504.615         504.615    -129.507E-03    -129.507E-03     368.176E-03     368.176E-03
            2138         504.888         504.888    -160.851E-03    -160.851E-03     185.418E-03     185.418E-03
            2139         504.971         504.971    -191.494E-03    -191.494E-03    -37.4576E-03    -37.4576E-03
            2140         504.827         504.827    -218.618E-03    -218.618E-03    -297.918E-03    -297.918E-03
            2141         504.425         504.425    -238.681E-03    -238.681E-03    -589.359E-03    -589.359E-03
            2142         503.741         503.741    -247.610E-03    -247.610E-03    -900.289E-03    -900.289E-03
            2143         502.766         502.766    -241.198E-03    -241.198E-03        -1.21393        -1.21393
            2144         501.506         501.506    -215.884E-03    -215.884E-03        -1.50837        -1.50837
            2145         499.993         499.993    -168.850E-03    -168.850E-03        -1.75708        -1.75708
            2146         466.368         466.368         134.748         134.748        -36.1599        -36.1599
            2147         471.401         471.401         122.606         122.606        -35.9317        -35.9317
            2148         476.291         476.291         110.426         110.426        -34.7291        -34.7291
            2149         480.864         480.864         98.5086         98.5086        -32.9091        -32.9091
            2150         485.012         485.012         87.0804         87.0804        -30.5616        -30.5616
            2151         488.653         488.653         76.3248         76.3248        -27.7821        -27.7821
            2152         491.734         491.734         66.3849         66.3849        -24.7134        -24.7134
            2153         494.260         494.260         57.3344         57.3344        -21.4879        -21.4879
            2154         496.240         496.240         49.2084         49.2084        -18.2330        -18.2330
            2155         497.736         497.736         41.9901         41.9901        -15.0579        -15.0579
            2156         498.797         498.797         35.6380         35.6380        -12.0387        -12.0387
            2157         499.495         499.495         30.0908         30.0908        -9.23697        -9.23697
            2158         499.887         499.887         25.2750         25.2750        -6.68032        -6.68032
            2159         500.036         500.036         21.1192         21.1192        -4.38801        -4.38801
            2160         499.987         499.987         17.5477         17.5477        -2.35709        -2.35709
            2161         499.787         499.787         14.4948         14.4948    -580.841E-03    -580.841E-03
            2162         499.469         499.469         11.8945         11.8945     958.730E-03     958.730E-03
            2163         499.064         499.064         9.69109         9.69109         2.28048         2.28048
            2164         498.594         498.594         7.83049         7.83049         3.40762         3.40762
            2165         498.078         498.078         6.26667         6.26667         4.36269         4.36269
            2166         497.532         497.532         4.95561         4.95561         5.16900         5.16900
            2167         496.969         496.969         3.85902         3.85902         5.84849         5.84849
            2168         496.400         496.400         2.94036         2.94036         6.42239         6.42239
            2169         495.834         495.834         2.16689         2.16689         6.91040         6.91040
            2170         495.279         495.279         1.50703         1.50703         7.33111         7.33111
            2171         494.746         494.746     931.399E-03     931.399E-03         7.70175         7.70175
            2172         494.243         494.243     411.149E-03     411.149E-03         8.03848         8.03848
            2173         493.783         493.783    -81.7367E-03    -81.7367E-03         8.35636         8.35636
            2174         493.378         493.378    -575.535E-03    -575.535E-03         8.66944         8.66944
            2175         493.046         493.046        -1.09888        -1.09888         8.99061         8.99061
            2176         492.808         492.808        -1.68150        -1.68150         9.33124         9.33124
            2177         492.693         492.693        -2.35459        -2.35459         9.70040         9.70040
            2178         492.737         492.737        -3.15102        -3.15102         10.1034         10.1034
            2179         492.985         492.985        -4.10556        -4.10556         10.5395         10.5395
            2180         493.497         493.497        -5.25353        -5.25353         10.9976         10.9976
            2181         494.348         494.348        -6.62917        -6.62917         11.4508         11.4508
            2182         495.628         495.628        -8.25851        -8.25851         11.8462         11.8462
            2183         497.438         497.438        -10.1497        -10.1497         12.0948         12.0948
            2184         499.881         499.881        -12.2675        -12.2675         12.0543         12.0543
            2185         503.034         503.034        -14.5004        -14.5004         11.5260         11.5260
            2186         506.893         506.893        -16.6049        -16.6049         10.2560         10.2560
            2187         511.318         511.318        -18.1861        -18.1861         8.01211         8.01211
            2188         467.734         467.734         134.459         134.459        -41.3378        -41.3378
            2189         473.024         473.024         121.614         121.614        -41.0434        -41.0434
            2190         478.098         478.098         108.731         108.731        -39.5515        -39.5515
            2191         482.792         482.792         96.1678         96.1678        -37.3212        -37.3212
            2192         486.960         486.960         84.2031         84.2031        -34.4342        -34.4342
            2193         490.505         490.505         73.0695         73.0695        -31.0664        -31.0664
            2194         493.408         493.408         62.9039         62.9039        -27.3844        -27.3844
            2195         495.661         495.661         53.7894         53.7894        -23.5711        -23.5711
            2196         497.339         497.339         45.7233         45.7233        -19.7850        -19.7850
            2197         498.497         498.497         38.6665         38.6665        -16.1416        -16.1416
            2198         499.236         499.236         32.5448         32.5448        -12.7366        -12.7366
            2199         499.626         499.626         27.2660         27.2660        -9.61426        -9.61426
            2200         499.751         499.751         22.7409         22.7409        -6.80843        -6.80843
            2201         499.671         499.671         18.8737         18.8737        -4.31861        -4.31861
            2202         499.441         499.441         15.5847         15.5847        -2.14052        -2.14052
            2203         499.103         499.103         12.7936         12.7936    -252.879E-03    -252.879E-03
            2204         498.690         498.690         10.4357         10.4357         1.36589         1.36589
            2205         498.229         498.229         8.44814         8.44814         2.74373         2.74373
            2206         497.739         497.739         6.77994         6.77994         3.90721         3.90721
            2207         497.236         497.236         5.38237         5.38237         4.88400         4.88400
            2208         496.731         496.731         4.21471         4.21471         5.69969         5.69969
            2209         496.234         496.234         3.23830         3.23830         6.37881         6.37881
            2210         495.752         495.752         2.41953         2.41953         6.94365         6.94365
            2211         495.293         495.293         1.72626         1.72626         7.41475         7.41475
            2212         494.863         494.863         1.12928         1.12928         7.81059         7.81059
            2213         494.471         494.471     600.179E-03     600.179E-03         8.14779         8.14779
            2214         494.125         494.125     111.947E-03     111.947E-03         8.44112         8.44112
            2215         493.836         493.836    -362.302E-03    -362.302E-03         8.70358         8.70358
            2216         493.618         493.618    -849.135E-03    -849.135E-03         8.94622         8.94622
            2217         493.487         493.487        -1.37550        -1.37550         9.17794         9.17794
            2218         493.465         493.465        -1.96866        -1.96866         9.40495         9.40495
            2219         493.581         493.581        -2.65622        -2.65622         9.62970         9.62970
            2220         493.867         493.867        -3.46570        -3.46570         9.84938         9.84938
            2221         494.365         494.365        -4.42319        -4.42319         10.0533         10.0533
            2222         495.125         495.125        -5.55138        -5.55138         10.2196         10.2196
            2223         496.204         496.204        -6.86448        -6.86448         10.3095         10.3095
            2224         497.664         497.664        -8.36122        -8.36122         10.2627         10.2627
            2225         499.561         499.561        -10.0108        -10.0108         9.98852         9.98852
            2226         501.933         501.933        -11.7338        -11.7338         9.36601         9.36601
            2227         504.773         504.773        -13.3765        -13.3765         8.24449         8.24449
            2228         508.000         508.000        -14.6866        -14.6866         6.47620         6.47620
            2229         511.459         511.459        -15.3288        -15.3288         3.92954         3.92954
            2230         469.526         469.526         134.106         134.106        -46.8013        -46.8013
            2231         475.075         475.075         120.401         120.401        -46.3885        -46.3885
            2232         480.387         480.387         106.633         106.633        -44.5581        -44.5581
            2233         485.187         485.187         93.2758         93.2758        -41.7772        -41.7772
            2234         489.317         489.317         80.6946         80.6946        -38.2460        -38.2460
            2235         492.703         492.703         69.1382         69.1382        -34.1557        -34.1557
            2236         495.295         495.295         58.7809         58.7809        -29.7673        -29.7673
            2237         497.185         497.185         49.6535         49.6535        -25.3075        -25.3075
            2238         498.428         498.428         41.7320         41.7320        -20.9540        -20.9540
            2239         499.169         499.169         34.9251         34.9251        -16.8555        -16.8555
            2240         499.499         499.499         29.1143         29.1143        -13.0808        -13.0808
            2241         499.534         499.534         24.1841         24.1841        -9.68644        -9.68644
            2242         499.352         499.352         20.0078         20.0078        -6.67393        -6.67393
            2243         499.026         499.026         16.4859         16.4859        -4.04230        -4.04230
            2244         498.607         498.607         13.5165         13.5165        -1.76476        -1.76476
            2245         498.134         498.134         11.0228         11.0228     184.372E-03     184.372E-03
            2246         497.636         497.636         8.92948         8.92948         1.83976         1.83976
            2247         497.134         497.134         7.17892         7.17892         3.23351         3.23351
            2248         496.641         496.641         5.71605         5.71605         4.39907         4.39907
            2249         496.169         496.169         4.49718         4.49718         5.36689         5.36689
            2250         495.724         495.724         3.48095         3.48095         6.16579         6.16579
            2251         495.311         495.311         2.63287         2.63287         6.82160         6.82160
            2252         494.935         494.935         1.92021         1.92021         7.35765         7.35765
            2253         494.599         494.599         1.31419         1.31419         7.79451         7.79451
            2254         494.308         494.308     787.067E-03     787.067E-03         8.15020         8.15020
            2255         494.067         494.067     313.132E-03     313.132E-03         8.44020         8.44020
            2256         493.883         493.883    -132.912E-03    -132.912E-03         8.67754         8.67754
            2257         493.766         493.766    -575.511E-03    -575.511E-03         8.87280         8.87280
            2258         493.728         493.728        -1.03909        -1.03909         9.03394         9.03394
            2259         493.784         493.784        -1.54775        -1.54775         9.16601         9.16601
            2260         493.953         493.953        -2.12531        -2.12531         9.27050         9.27050
            2261         494.261         494.261        -2.79471        -2.79471         9.34452         9.34452
            2262         494.735         494.735        -3.57690        -3.57690         9.37912         9.37912
            2263         495.409         495.409        -4.48894        -4.48894         9.35759         9.35759
            2264         496.320         496.320        -5.54054        -5.54054         9.25235         9.25235
            2265         497.506         497.506        -6.72901        -6.72901         9.02250         9.02250
            2266         498.999         498.999        -8.03100        -8.03100         8.61002         8.61002
            2267         500.820         500.820        -9.39110        -9.39110         7.93985         7.93985
            2268         502.960         502.960        -10.7083        -10.7083         6.92121         6.92121
            2269         505.368         505.368        -11.8194        -11.8194         5.46169         5.46169
            2270         507.937         507.937        -12.5000        -12.5000         3.48354         3.48354
            2271         510.484         510.484        -12.4358        -12.4358     935.564E-03     935.564E-03
            2272         471.812         471.812         133.705         133.705        -52.5897        -52.5897
            2273         477.750         477.750         118.879         118.879        -52.0472        -52.0472
            2274         483.284         483.284         104.007         104.007        -49.7140        -49.7140
            2275         488.162         488.162         89.6938         89.6938        -46.2650        -46.2650
            2276         492.187         492.187         76.3852         76.3852        -41.8812        -41.8812
            2277         495.236         495.236         64.4246         64.4246        -36.9290        -36.9290
            2278         497.401         497.401         53.9202         53.9202        -31.7251        -31.7251
            2279         498.727         498.727         44.8947         44.8947        -26.5496        -26.5496
            2280         499.426         499.426         37.2363         37.2363        -21.6372        -21.6372
            2281         499.618         499.618         30.7906         30.7906        -17.0954        -17.0954
            2282         499.473         499.473         25.4012         25.4012        -13.0170        -13.0170
            2283         499.096         499.096         20.8943         20.8943        -9.40427        -9.40427
            2284         498.586         498.586         17.1414         17.1414        -6.26014        -6.26014
            2285         498.006         498.006         14.0082         14.0082        -3.54816        -3.54816
            2286         497.404         497.404         11.4015         11.4015        -1.23599        -1.23599
            2287         496.811         496.811         9.22808         9.22808     720.986E-03     720.986E-03
            2288         496.249         496.249         7.42193         7.42193         2.36282         2.36282
            2289         495.731         495.731         5.91939         5.91939         3.73077         3.73077
            2290         495.262         495.262         4.67305         4.67305         4.86174         4.86174
            2291         494.848         494.848         3.63808         3.63808         5.79011         5.79011
            2292         494.488         494.488         2.77902         2.77902         6.54632         6.54632
            2293         494.183         494.183         2.06241         2.06241         7.15737         7.15737
            2294         493.934         493.934         1.46007         1.46007         7.64678         7.64678
            2295         493.740         493.740     945.044E-03     945.044E-03         8.03471         8.03471
            2296         493.602         493.602     493.183E-03     493.183E-03         8.33821         8.33821
            2297         493.524         493.524     80.9392E-03     80.9392E-03         8.57126         8.57126
            2298         493.509         493.509    -313.913E-03    -313.913E-03         8.74490         8.74490
            2299         493.565         493.565    -713.367E-03    -713.367E-03         8.86718         8.86718
            2300         493.701         493.701        -1.13872        -1.13872         8.94311         8.94311
            2301         493.929         493.929        -1.61084        -1.61084         8.97426         8.97426
            2302         494.266         494.266        -2.14949        -2.14949         8.95840         8.95840
            2303         494.731         494.731        -2.77256        -2.77256         8.88857         8.88857
            2304         495.345         495.345        -3.49452        -3.49452         8.75225         8.75225
            2305         496.132         496.132        -4.32400        -4.32400         8.52981         8.52981
            2306         497.116         497.116        -5.26022        -5.26022         8.19335         8.19335
            2307         498.318         498.318        -6.28780        -6.28780         7.70512         7.70512
            2308         499.746         499.746        -7.36966        -7.36966         7.01791         7.01791
            2309         501.395         501.395        -8.43915        -8.43915         6.07645         6.07645
            2310         503.230         503.230        -9.38976        -9.38976         4.82443         4.82443
            2311         505.182         505.182        -10.0724        -10.0724         3.21548         3.21548
            2312         507.131         507.131        -10.2856        -10.2856         1.22616         1.22616
            2313         508.900         508.900        -9.78044        -9.78044        -1.11058        -1.11058
            2314         474.911         474.911         133.189         133.189        -58.8221        -58.8221
            2315         481.195         481.195         116.958         116.958        -58.0044        -58.0044
            2316         487.013         487.013         100.675         100.675        -55.0681        -55.0681
            2317         491.897         491.897         85.1772         85.1772        -50.6379        -50.6379
            2318         495.597         495.597         71.1090         71.1090        -45.2046        -45.2046
            2319         498.160         498.160         58.7544         58.7544        -39.1871        -39.1871
            2320         499.588         499.588         48.2612         48.2612        -33.0421        -33.0421
            2321         500.194         500.194         39.4978         39.4978        -27.1474        -27.1474
            2322         500.141         500.141         32.2639         32.2639        -21.6774        -21.6774
            2323         499.689         499.689         26.3380         26.3380        -16.7877        -16.7877
            2324         498.989         498.989         21.4696         21.4696        -12.4763        -12.4763
            2325         498.173         498.173         17.4877         17.4877        -8.75053        -8.75053
            2326         497.326         497.326         14.2092         14.2092        -5.55645        -5.55645
            2327         496.505         496.505         11.5182         11.5182        -2.85034        -2.85034
            2328         495.744         495.744         9.29668         9.29668    -572.454E-03    -572.454E-03
            2329         495.064         495.064         7.46775         7.46775         1.32900         1.32900
            2330         494.474         494.474         5.95648         5.95648         2.90591         2.90591
            2331         493.975         493.975         4.71100         4.71100         4.20394         4.20394
            2332         493.567         493.567         3.68214         3.68214         5.26448         5.26448
            2333         493.244         493.244         2.83336         2.83336         6.12385         6.12385
            2334         493.002         493.002         2.13034         2.13034         6.81358         6.81358
            2335         492.835         492.835         1.54560         1.54560         7.36093         7.36093
            2336         492.738         492.738         1.05313         1.05313         7.78886         7.78886
            2337         492.708         492.708     630.497E-03     630.497E-03         8.11666         8.11666
            2338         492.742         492.742     256.080E-03     256.080E-03         8.35989         8.35989
            2339         492.840         492.840    -89.9958E-03    -89.9958E-03         8.53079         8.53079
            2340         493.003         493.003    -427.245E-03    -427.245E-03         8.63824         8.63824
            2341         493.235         493.235    -774.270E-03    -774.270E-03         8.68790         8.68790
            2342         493.541         493.541        -1.14927        -1.14927         8.68202         8.68202
            2343         493.931         493.931        -1.56939        -1.56939         8.61939         8.61939
            2344         494.416         494.416        -2.05036        -2.05036         8.49486         8.49486
            2345         495.009         495.009        -2.60525        -2.60525         8.29908         8.29908
            2346         495.725         495.725        -3.24289        -3.24289         8.01776         8.01776
            2347         496.577         496.577        -3.96525        -3.96525         7.63136         7.63136
            2348         497.579         497.579        -4.76422        -4.76422         7.11456         7.11456
            2349         498.734         498.734        -5.61682        -5.61682         6.43688         6.43688
            2350         500.039         500.039        -6.48038        -6.48038         5.56403         5.56403
            2351         501.470         501.470        -7.28602        -7.28602         4.46196         4.46196
            2352         502.982         502.982        -7.93579        -7.93579         3.10378         3.10378
            2353         504.500         504.500        -8.29779        -8.29779         1.47874         1.47874
            2354         505.914         505.914        -8.21091        -8.21091    -389.503E-03    -389.503E-03
            2355         507.082         507.082        -7.49640        -7.49640        -2.42520        -2.42520
            2356         478.957         478.957         132.587         132.587        -65.5296        -65.5296
            2357         485.848         485.848         114.429         114.429        -64.4168        -64.4168
            2358         491.853         491.853         96.3232         96.3232        -60.4424        -60.4424
            2359         496.523         496.523         79.4692         79.4692        -54.7822        -54.7822
            2360         499.714         499.714         64.5480         64.5480        -47.9148        -47.9148
            2361         501.300         501.300         52.0169         52.0169        -40.6091        -40.6091
            2362         501.760         501.760         41.7483         41.7483        -33.4857        -33.4857
            2363         501.303         501.303         33.4953         33.4953        -26.8480        -26.8480
            2364         500.355         500.355         26.9250         26.9250        -20.9695        -20.9695
            2365         499.140         499.140         21.6550         21.6550        -15.8301        -15.8301
            2366         497.847         497.847         17.4510         17.4510        -11.4405        -11.4405
            2367         496.589         496.589         14.0536         14.0536        -7.71464        -7.71464
            2368         495.429         495.429         11.3171         11.3171        -4.58834        -4.58834
            2369         494.408         494.408         9.08821         9.08821        -1.97869        -1.97869
            2370         493.538         493.538         7.27723         7.27723     183.944E-03     183.944E-03
            2371         492.823         492.823         5.79462         5.79462         1.96590         1.96590
            2372         492.255         492.255         4.58362         4.58362         3.42473         3.42473
            2373         491.827         491.827         3.58992         3.58992         4.61054         4.61054
            2374         491.525         491.525         2.77597         2.77597         5.56698         5.56698
            2375         491.338         491.338         2.10653         2.10653         6.33085         6.33085
            2376         491.252         491.252         1.55505         1.55505         6.93387         6.93387
            2377         491.258         491.258         1.09658         1.09658         7.40221         7.40221
            2378         491.344         491.344     710.642E-03     710.642E-03         7.75790         7.75790
            2379         491.504         491.504     377.656E-03     377.656E-03         8.01846         8.01846
            2380         491.732         491.732     80.2611E-03     80.2611E-03         8.19783         8.19783
            2381         492.022         492.022    -198.482E-03    -198.482E-03         8.30615         8.30615
            2382         492.374         492.374    -474.421E-03    -474.421E-03         8.35023         8.35023
            2383         492.787         492.787    -763.089E-03    -763.089E-03         8.33339         8.33339
            2384         493.264         493.264        -1.07912        -1.07912         8.25565         8.25565
            2385         493.810         493.810        -1.43622        -1.43622         8.11350         8.11350
            2386         494.430         494.430        -1.84624        -1.84624         7.89996         7.89996
            2387         495.132         495.132        -2.31819        -2.31819         7.60431         7.60431
            2388         495.922         495.922        -2.85647        -2.85647         7.21224         7.21224
            2389         496.807         496.807        -3.45868        -3.45868         6.70582         6.70582
            2390         497.790         497.790        -4.11251        -4.11251         6.06430         6.06430
            2391         498.865         498.865        -4.79250        -4.79250         5.26535         5.26535
            2392         500.017         500.017        -5.45581        -5.45581         4.28778         4.28778
            2393         501.218         501.218        -6.03967        -6.03967         3.11599         3.11599
            2394         502.419         502.419        -6.45843        -6.45843         1.74581         1.74581
            2395         503.551         503.551        -6.60581        -6.60581     194.738E-03     194.738E-03
            2396         504.527         504.527        -6.36090        -6.36090        -1.48798        -1.48798
            2397         505.243         505.243        -5.60360        -5.60360        -3.20742        -3.20742
            2398         484.782         484.782         131.695         131.695        -72.9899        -72.9899
            2399         492.066         492.066         110.997         110.997        -71.0970        -71.0970
            2400         498.197         498.197         90.5592         90.5592        -65.8477        -65.8477
            2401         502.422         502.422         71.9971         71.9971        -58.2261        -58.2261
            2402         504.319         504.319         56.4985         56.4985        -49.5411        -49.5411
            2403         504.591         504.591         44.0537         44.0537        -40.8110        -40.8110
            2404         503.471         503.471         34.4232         34.4232        -32.6241        -32.6241
            2405         501.722         501.722         27.0641         27.0641        -25.4984        -25.4984
            2406         499.702         499.702         21.3467         21.3467        -19.3578        -19.3578
            2407         497.679         497.679         16.9421         16.9421        -14.2083        -14.2083
            2408         495.806         495.806         13.4681         13.4681        -9.90373        -9.90373
            2409         494.149         494.149         10.7408         10.7408        -6.34243        -6.34243
            2410         492.748         492.748         8.55834         8.55834        -3.40586        -3.40586
            2411         491.600         491.600         6.81626         6.81626    -996.853E-03    -996.853E-03
            2412         490.699         490.699         5.40743         5.40743     970.220E-03     970.220E-03
            2413         490.022         490.022         4.27027         4.27027         2.56905         2.56905
            2414         489.548         489.548         3.34504         3.34504         3.86011         3.86011
            2415         489.254         489.254         2.59359         2.59359         4.89602         4.89602
            2416         489.117         489.117         1.98008         1.98008         5.71925         5.71925
            2417         489.116         489.116         1.47921         1.47921         6.36654         6.36654
            2418         489.233         489.233         1.06740         1.06740         6.86733         6.86733
            2419         489.451         489.451     726.335E-03     726.335E-03         7.24657         7.24657
            2420         489.755         489.755     438.686E-03     438.686E-03         7.52385         7.52385
            2421         490.135         490.135     189.718E-03     189.718E-03         7.71496         7.71496
            2422         490.579         490.579    -34.8210E-03    -34.8210E-03         7.83151         7.83151
            2423         491.082         491.082    -247.948E-03    -247.948E-03         7.88170         7.88170
            2424         491.638         491.638    -462.437E-03    -462.437E-03         7.87016         7.87016
            2425         492.243         492.243    -690.295E-03    -690.295E-03         7.79827         7.79827
            2426         492.896         492.896    -943.015E-03    -943.015E-03         7.66412         7.66412
            2427         493.597         493.597        -1.23090        -1.23090         7.46266         7.46266
            2428         494.347         494.347        -1.56257        -1.56257         7.18572         7.18572
            2429         495.147         495.147        -1.94378        -1.94378         6.82230         6.82230
            2430         495.998         495.998        -2.37603        -2.37603         6.35881         6.35881
            2431         496.898         496.898        -2.85451        -2.85451         5.77996         5.77996
            2432         497.843         497.843        -3.36595        -3.36595         5.06982         5.06982
            2433         498.822         498.822        -3.88570        -3.88570         4.21387         4.21387
            2434         499.814         499.814        -4.37575        -4.37575         3.20208         3.20208
            2435         500.790         500.790        -4.78245        -4.78245         2.03284         2.03284
            2436         501.706         501.706        -5.03709        -5.03709     719.107E-03     719.107E-03
            2437         502.506         502.506        -5.05851        -5.05851    -705.543E-03    -705.543E-03
            2438         503.126         503.126        -4.76113        -4.76113        -2.17881        -2.17881
            2439         503.499         503.499        -4.06890        -4.06890        -3.60455        -3.60455
            2440         492.689         492.689         130.532         130.532        -81.1026        -81.1026
            2441         500.901         500.901         106.087         106.087        -78.3919        -78.3919
            2442         506.800         506.800         82.4132         82.4132        -70.5277        -70.5277
            2443         509.392         509.392         62.3717         62.3717        -60.3391        -60.3391
            2444         509.508         509.508         46.5249         46.5249        -49.3931        -49.3931
            2445         507.262         507.262         34.9284         34.9284        -38.9957        -38.9957
            2446         504.176         504.176         26.6025         26.6025        -30.2317        -30.2317
            2447         500.877         500.877         20.3996         20.3996        -22.8593        -22.8593
            2448         497.735         497.735         15.8513         15.8513        -16.8459        -16.8459
            2449         494.958         494.958         12.3729         12.3729        -11.9340        -11.9340
            2450         492.591         492.591         9.73526         9.73526        -7.94928        -7.94928
            2451         490.661         490.661         7.67129         7.67129        -4.72043        -4.72043
            2452         489.133         489.133         6.06177         6.06177        -2.10728        -2.10728
            2453         487.979         487.979         4.78041         4.78041     105.180E-06     105.180E-06
            2454         487.152         487.152         3.76180         3.76180         1.69704         1.69704
            2455         486.613         486.613         2.94185         2.94185         3.05539         3.05539
            2456         486.320         486.320         2.28266         2.28266         4.13821         4.13821
            2457         486.237         486.237         1.74880         1.74880         4.99346         4.99346
            2458         486.333         486.333         1.31678         1.31678         5.66298         5.66298
            2459         486.578         486.578     964.979E-03     964.979E-03         6.17904         6.17904
            2460         486.948         486.948     677.488E-03     677.488E-03         6.56925         6.56925
            2461         487.422         487.422     439.515E-03     439.515E-03         6.85489         6.85489
            2462         487.983         487.983     239.040E-03     239.040E-03         7.05343         7.05343
            2463         488.614         488.614     64.5794E-03     64.5794E-03         7.17777         7.17777
            2464         489.304         489.304    -94.0326E-03    -94.0326E-03         7.23749         7.23749
            2465         490.042         490.042    -246.752E-03    -246.752E-03         7.23849         7.23849
            2466         490.820         490.820    -402.857E-03    -402.857E-03         7.18363         7.18363
            2467         491.631         491.631    -571.391E-03    -571.391E-03         7.07253         7.07253
            2468         492.471         492.471    -760.678E-03    -760.678E-03         6.90196         6.90196
            2469         493.333         493.333    -978.206E-03    -978.206E-03         6.66580         6.66580
            2470         494.216         494.216        -1.22984        -1.22984         6.35545         6.35545
            2471         495.114         495.114        -1.51909        -1.51909         5.96013         5.96013
            2472         496.023         496.023        -1.84575        -1.84575         5.46763         5.46763
            2473         496.934         496.934        -2.20455        -2.20455         4.86527         4.86527
            2474         497.838         497.838        -2.58323        -2.58323         4.14152         4.14152
            2475         498.720         498.720        -2.96095        -2.96095         3.28823         3.28823
            2476         499.558         499.558        -3.30656        -3.30656         2.30347         2.30347
            2477         500.324         500.324        -3.57825        -3.57825         1.19553         1.19553
            2478         500.983         500.983        -3.72418        -3.72418    -13.0092E-03    -13.0092E-03
            2479         501.493         501.493        -3.68622        -3.68622        -1.28025        -1.28025
            2480         501.814         501.814        -3.40690        -3.40690        -2.54171        -2.54171
            2481         501.907         501.907        -2.83982        -2.83982        -3.70832        -3.70832
            2482         505.362         505.362         128.330         128.330        -90.7467        -90.7467
            2483         513.563         513.563         98.3674         98.3674        -85.1199        -85.1199
            2484         517.828         517.828         71.0938         71.0938        -73.9074        -73.9074
            2485         518.092         518.092         49.3651         49.3651        -59.7186        -59.7186
            2486         513.779         513.779         34.7496         34.7496        -45.8472        -45.8472
            2487         508.312         508.312         25.2904         25.2904        -34.8355        -34.8355
            2488         502.923         502.923         18.6091         18.6091        -25.9493        -25.9493
            2489         498.046         498.046         14.0492         14.0492        -18.9906        -18.9906
            2490         493.951         493.951         10.6924         10.6924        -13.5006        -13.5006
            2491         490.590         490.590         8.26229         8.26229        -9.16222        -9.16222
            2492         487.952         487.952         6.41311         6.41311        -5.73174        -5.73174
            2493         485.934         485.934         5.01327         5.01327        -3.00295        -3.00295
            2494         484.467         484.467         3.92079         3.92079    -838.731E-03    -838.731E-03
            2495         483.461         483.461         3.06851         3.06851     883.805E-03     883.805E-03
            2496         482.850         482.850         2.39171         2.39171         2.24696         2.24696
            2497         482.566         482.566         1.85404         1.85404         3.32490         3.32490
            2498         482.558         482.558         1.42268         1.42268         4.16956         4.16956
            2499         482.775         482.775         1.07665         1.07665         4.82716         4.82716
            2500         483.178         483.178     797.327E-03     797.327E-03         5.33145         5.33145
            2501         483.734         483.734     571.527E-03     571.527E-03         5.71184         5.71184
            2502         484.413         484.413     387.367E-03     387.367E-03         5.99032         5.99032
            2503         485.190         485.190     235.571E-03     235.571E-03         6.18534         6.18534
            2504         486.047         486.047     107.475E-03     107.475E-03         6.31047         6.31047
            2505         486.964         486.964    -4.32615E-03    -4.32615E-03         6.37625         6.37625
            2506         487.929         487.929    -107.026E-03    -107.026E-03         6.38957         6.38957
            2507         488.927         488.927    -207.214E-03    -207.214E-03         6.35458         6.35458
            2508         489.950         489.950    -311.393E-03    -311.393E-03         6.27235         6.27235
            2509         490.986         490.986    -425.633E-03    -425.633E-03         6.14140         6.14140
            2510         492.028         492.028    -555.685E-03    -555.685E-03         5.95754         5.95754
            2511         493.067         493.067    -706.500E-03    -706.500E-03         5.71431         5.71431
            2512         494.094         494.094    -881.918E-03    -881.918E-03         5.40317         5.40317
            2513         495.100         495.100        -1.08386        -1.08386         5.01412         5.01412
            2514         496.074         496.074        -1.31159        -1.31159         4.53642         4.53642
            2515         497.005         497.005        -1.56044        -1.56044         3.95982         3.95982
            2516         497.878         497.878        -1.82084        -1.82084         3.27623         3.27623
            2517         498.673         498.673        -2.07689        -2.07689         2.48180         2.48180
            2518         499.370         499.370        -2.30584        -2.30584         1.57978         1.57978
            2519         499.944         499.944        -2.47769        -2.47769     583.432E-03     583.432E-03
            2520         500.369         500.369        -2.55658        -2.55658    -480.427E-03    -480.427E-03
            2521         500.617         500.617        -2.50368        -2.50368        -1.56893        -1.56893
            2522         500.665         500.665        -2.28245        -2.28245        -2.62146        -2.62146
            2523         500.503         500.503        -1.86605        -1.86605        -3.56036        -3.56036
            2524         523.881         523.881         124.517         124.517        -100.480        -100.480
            2525         532.325         532.325         86.0939         86.0939        -91.8283        -91.8283
            2526         533.747         533.747         53.0657         53.0657        -72.6467        -72.6467
            2527         525.109         525.109         33.2857         33.2857        -52.6903        -52.6903
            2528         515.006         515.006         22.7198         22.7198        -38.4871        -38.4871
            2529         506.073         506.073         15.7121         15.7121        -27.8614        -27.8614
            2530         498.491         498.491         11.4126         11.4126        -19.9982        -19.9982
            2531         492.499         492.499         8.39107         8.39107        -14.1142        -14.1142
            2532         487.800         487.800         6.33161         6.33161        -9.61490        -9.61490
            2533         484.265         484.265         4.81964         4.81964        -6.17624        -6.17624
            2534         481.662         481.662         3.71443         3.71443        -3.49673        -3.49673
            2535         479.847         479.847         2.87455         2.87455        -1.41788        -1.41788
            2536         478.666         478.666         2.23272         2.23272     214.411E-03     214.411E-03
            2537         478.009         478.009         1.73239         1.73239         1.48743         1.48743
            2538         477.774         477.774         1.33978         1.33978         2.48472         2.48472
            2539         477.885         477.885         1.02865         1.02865         3.25837         3.25837
            2540         478.273         478.273     781.023E-03     781.023E-03         3.85664         3.85664
            2541         478.886         478.886     582.963E-03     582.963E-03         4.31223         4.31223
            2542         479.677         479.677     424.136E-03     424.136E-03         4.65447         4.65447
            2543         480.610         480.610     296.105E-03     296.105E-03         4.90429         4.90429
            2544         481.654         481.654     192.241E-03     192.241E-03         5.07981         5.07981
            2545         482.783         482.783     106.712E-03     106.712E-03         5.19410         5.19410
            2546         483.976         483.976     34.6247E-03     34.6247E-03         5.25780         5.25780
            2547         485.215         485.215    -28.6464E-03    -28.6464E-03         5.27808         5.27808
            2548         486.485         486.485    -87.2518E-03    -87.2518E-03         5.25986         5.25986
            2549         487.772         487.772    -145.299E-03    -145.299E-03         5.20535         5.20535
            2550         489.063         489.063    -206.625E-03    -206.625E-03         5.11459         5.11459
            2551         490.347         490.347    -275.003E-03    -275.003E-03         4.98528         4.98528
            2552         491.613         491.613    -353.857E-03    -353.857E-03         4.81309         4.81309
            2553         492.848         492.848    -446.223E-03    -446.223E-03         4.59179         4.59179
            2554         494.039         494.039    -554.307E-03    -554.307E-03         4.31358         4.31358
            2555         495.174         495.174    -679.163E-03    -679.163E-03         3.96966         3.96966
            2556         496.235         496.235    -820.001E-03    -820.001E-03         3.55097         3.55097
            2557         497.205         497.205    -973.624E-03    -973.624E-03         3.04936         3.04936
            2558         498.066         498.066        -1.13355        -1.13355         2.45907         2.45907
            2559         498.796         498.796        -1.28946        -1.28946         1.77874         1.77874
            2560         499.372         499.372        -1.42668        -1.42668         1.01357         1.01357
            2561         499.772         499.772        -1.52634        -1.52634     177.939E-03     177.939E-03
            2562         499.977         499.977        -1.56627        -1.56627    -702.440E-03    -702.440E-03
            2563         499.972         499.972        -1.52307        -1.52307        -1.58875        -1.58875
            2564         499.750         499.750        -1.37557        -1.37557        -2.42900        -2.42900
            2565         499.317         499.317        -1.10912        -1.10912        -3.15930        -3.15930
            2566         561.115         561.115         114.840         114.840        -114.757        -114.757
            2567         564.690         564.690         59.4676         59.4676        -88.9504        -88.9504
            2568         545.219         545.219         29.2954         29.2954        -57.7337        -57.7337
            2569         525.232         525.232         18.3090         18.3090        -39.0816        -39.0816
            2570         510.159         510.159         11.5132         11.5132        -27.0520        -27.0520
            2571         498.448         498.448         7.93328         7.93328        -18.7400        -18.7400
            2572         489.857         489.857         5.57776         5.57776        -13.0152        -13.0152
            2573         483.493         483.493         4.07352         4.07352        -8.79188        -8.79188
            2574         478.934         478.934         3.03183         3.03183        -5.71546        -5.71546
            2575         475.736         475.736         2.29103         2.29103        -3.36946        -3.36946
            2576         473.618         473.618         1.75357         1.75357        -1.60126        -1.60126
            2577         472.339         472.339         1.34753         1.34753    -232.247E-03    -232.247E-03
            2578         471.725         471.725         1.04132         1.04132     816.200E-03     816.200E-03
            2579         471.633         471.633     802.178E-03     802.178E-03         1.62965         1.62965
            2580         471.956         471.956     616.718E-03     616.718E-03         2.25307         2.25307
            2581         472.604         472.604     469.437E-03     469.437E-03         2.73174         2.73174
            2582         473.509         473.509     353.225E-03     353.225E-03         3.09309         3.09309
            2583         474.613         474.613     260.276E-03     260.276E-03         3.36308         3.36308
            2584         475.872         475.872     186.172E-03     186.172E-03         3.55905         3.55905
            2585         477.248         477.248     126.565E-03     126.565E-03         3.69661         3.69661
            2586         478.712         478.712     78.3631E-03     78.3631E-03         3.78667         3.78667
            2587         480.239         480.239     38.7544E-03     38.7544E-03         3.83852         3.83852
            2588         481.809         481.809     5.31573E-03     5.31573E-03         3.85849         3.85849
            2589         483.404         483.404    -24.1280E-03    -24.1280E-03         3.85137         3.85137
            2590         485.009         485.009    -51.6947E-03    -51.6947E-03         3.81980         3.81980
            2591         486.611         486.611    -79.3321E-03    -79.3321E-03         3.76485         3.76485
            2592         488.198         488.198    -109.017E-03    -109.017E-03         3.68582         3.68582
            2593         489.756         489.756    -142.572E-03    -142.572E-03         3.58047         3.58047
            2594         491.271         491.271    -181.764E-03    -181.764E-03         3.44498         3.44498
            2595         492.730         492.730    -228.063E-03    -228.063E-03         3.27422         3.27422
            2596         494.115         494.115    -282.598E-03    -282.598E-03         3.06193         3.06193
            2597         495.408         495.408    -345.818E-03    -345.818E-03         2.80117         2.80117
            2598         496.588         496.588    -417.289E-03    -417.289E-03         2.48496         2.48496
            2599         497.631         497.631    -495.231E-03    -495.231E-03         2.10718         2.10718
            2600         498.513         498.513    -576.253E-03    -576.253E-03         1.66376         1.66376
            2601         499.208         499.208    -654.893E-03    -654.893E-03         1.15418         1.15418
            2602         499.689         499.689    -723.549E-03    -723.549E-03     583.245E-03     583.245E-03
            2603         499.936         499.936    -772.460E-03    -772.460E-03    -37.2346E-03    -37.2346E-03
            2604         499.931         499.931    -790.347E-03    -790.347E-03    -686.771E-03    -686.771E-03
            2605         499.667         499.667    -765.507E-03    -765.507E-03        -1.33538        -1.33538
            2606         499.148         499.148    -687.531E-03    -687.531E-03        -1.94372        -1.94372
            2607         498.397         498.397    -549.514E-03    -549.514E-03        -2.46427        -2.46427
            2608         632.851         632.851         77.9726         77.9726        -100.877        -100.877
            2609         579.962         579.962         21.9920         21.9920        -54.8309        -54.8309
            2610         538.304         538.304         11.6639         11.6639        -31.4644        -31.4644
            2611         513.146         513.146         6.50522         6.50522        -20.6100        -20.6100
            2612         495.841         495.841         4.04671         4.04671        -13.4450        -13.4450
            2613         484.214         484.214         2.75328         2.75328        -9.17331        -9.17331
            2614         476.180         476.180         1.88136         1.88136        -6.08801        -6.08801
            2615         470.755         470.755         1.39036         1.39036        -4.00029        -4.00029
            2616         467.183         467.183         1.00784         1.00784        -2.42998        -2.42998
            2617         464.994         464.994     772.414E-03     772.414E-03        -1.29291        -1.29291
            2618         463.841         463.841     579.533E-03     579.533E-03    -421.055E-03    -421.055E-03
            2619         463.476         463.476     450.000E-03     450.000E-03     231.738E-03     231.738E-03
            2620         463.715         463.715     342.824E-03     342.824E-03     734.817E-03     734.817E-03
            2621         464.417         464.417     265.615E-03     265.615E-03         1.11535         1.11535
            2622         465.474         465.474     202.036E-03     202.036E-03         1.40626         1.40626
            2623         466.803         466.803     153.963E-03     153.963E-03         1.62419         1.62419
            2624         468.338         468.338     114.728E-03     114.728E-03         1.78669         1.78669
            2625         470.027         470.027     84.1686E-03     84.1686E-03         1.90428         1.90428
            2626         471.828         471.828     59.4207E-03     59.4207E-03         1.98707         1.98707
            2627         473.709         473.709     39.7465E-03     39.7465E-03         2.04176         2.04176
            2628         475.643         475.643     23.7628E-03     23.7628E-03         2.07437         2.07437
            2629         477.609         477.609     10.6463E-03     10.6463E-03         2.08896         2.08896
            2630         479.590         479.590    -435.215E-06    -435.215E-06         2.08887         2.08887
            2631         481.571         481.571    -10.2717E-03    -10.2717E-03         2.07611         2.07611
            2632         483.540         483.540    -19.5193E-03    -19.5193E-03         2.05195         2.05195
            2633         485.484         485.484    -28.9290E-03    -28.9290E-03         2.01660         2.01660
            2634         487.392         487.392    -39.1162E-03    -39.1162E-03         1.96947         1.96947
            2635         489.252         489.252    -50.7836E-03    -50.7836E-03         1.90907         1.90907
            2636         491.047         491.047    -64.4968E-03    -64.4968E-03         1.83310         1.83310
            2637         492.763         492.763    -80.8206E-03    -80.8206E-03         1.73852         1.73852
            2638         494.379         494.379    -100.112E-03    -100.112E-03         1.62168         1.62168
            2639         495.872         495.872    -122.560E-03    -122.560E-03         1.47856         1.47856
            2640         497.216         497.216    -147.964E-03    -147.964E-03         1.30515         1.30515
            2641         498.379         498.379    -175.710E-03    -175.710E-03         1.09794         1.09794
            2642         499.331         499.331    -204.528E-03    -204.528E-03     854.566E-03     854.566E-03
            2643         500.035         500.035    -232.479E-03    -232.479E-03     574.759E-03     574.759E-03
            2644         500.461         500.461    -256.776E-03    -256.776E-03     261.202E-03     261.202E-03
            2645         500.579         500.579    -273.953E-03    -273.953E-03    -79.3809E-03    -79.3809E-03
            2646         500.371         500.371    -279.931E-03    -279.931E-03    -435.463E-03    -435.463E-03
            2647         499.829         499.829    -270.597E-03    -270.597E-03    -790.250E-03    -790.250E-03
            2648         498.966         498.966    -242.346E-03    -242.346E-03        -1.12187        -1.12187
            2649         497.815         497.815    -192.733E-03    -192.733E-03        -1.40374        -1.40374
            2650         521.280         521.280        -16.3315        -16.3315         1.26448         1.26448
            2651         517.909         517.909        -11.3264        -11.3264         4.39800         4.39800
            2652         514.298         514.298        -7.52579        -7.52579         5.90486         5.90486
            2653         510.956         510.956        -4.81746        -4.81746         6.45541         6.45541
            2654         508.014         508.014        -2.96740        -2.96740         6.48034         6.48034
            2655         505.459         505.459        -1.74667        -1.74667         6.23109         6.23109
            2656         503.225         503.225    -970.523E-03    -970.523E-03         5.83579         5.83579
            2657         501.238         501.238    -499.652E-03    -499.652E-03         5.34412         5.34412
            2658         499.425         499.425    -231.972E-03    -231.972E-03         4.75190         4.75190
            2659         497.727         497.727    -93.1112E-03    -93.1112E-03         4.01276         4.01276
            2660         496.094         496.094    -29.6341E-03    -29.6341E-03         3.03933         3.03933
            2661         494.493         494.493    -5.98838E-03    -5.98838E-03         1.70579         1.70579
            2662         524.856         524.856        -9.66324        -9.66324         8.04330         8.04330
            2663         519.261         519.261        -4.68142        -4.68142         9.21489         9.21489
            2664         514.488         514.488        -1.59705        -1.59705         9.10453         9.10453
            2665         510.584         510.584     162.641E-03     162.641E-03         8.46725         8.46725
            2666         507.404         507.404         1.05601         1.05601         7.66827         7.66827
            2667         504.763         504.763         1.40251         1.40251         6.86456         6.86456
            2668         502.497         502.497         1.41359         1.41359         6.10603         6.10603
            2669         500.469         500.469         1.22849         1.22849         5.38610         5.38610
            2670         498.565         498.565     942.336E-03     942.336E-03         4.66357         4.66357
            2671         496.678         496.678     625.179E-03     625.179E-03         3.86861         3.86861
            2672         494.709         494.709     334.562E-03     334.562E-03         2.89907         2.89907
            2673         492.554         492.554     123.907E-03     123.907E-03         1.61867         1.61867
            2674         525.277         525.277         2.46880         2.46880         13.7416         13.7416
            2675         518.291         518.291         5.29240         5.29240         12.2659         12.2659
            2676         513.102         513.102         6.24298         6.24298         10.4911         10.4911
            2677         509.196         509.196         6.19054         6.19054         8.85424         8.85424
            2678         506.154         506.154         5.62480         5.62480         7.47619         7.47619
            2679         503.677         503.677         4.81532         4.81532         6.34906         6.34906
            2680         501.547         501.547         3.90936         3.90936         5.42480         5.42480
            2681         499.597         499.597         2.99214         2.99214         4.64157         4.64157
            2682         497.690         497.690         2.11917         2.11917         3.92994         3.92994
            2683         495.692         495.692         1.33595         1.33595         3.20986         3.20986
            2684         493.463         493.463     692.004E-03     692.004E-03         2.38237         2.38237
            2685         490.840         490.840     251.023E-03     251.023E-03         1.32350         1.32350
            2686         522.330         522.330         18.3048         18.3048         15.0120         15.0120
            2687         515.469         515.469         16.6515         16.6515         11.6301         11.6301
            2688         510.757         510.757         14.3721         14.3721         9.02666         9.02666
            2689         507.343         507.343         12.0327         12.0327         7.09080         7.09080
            2690         504.713         504.713         9.83939         9.83939         5.65753         5.65753
            2691         502.551         502.551         7.84763         7.84763         4.58831         4.58831
            2692         500.645         500.645         6.06401         6.06401         3.77551         3.77551
            2693         498.835         498.835         4.48144         4.48144         3.13434         3.13434
            2694         496.980         496.980         3.09650         3.09650         2.59241         2.59241
            2695         494.937         494.937         1.91939         1.91939         2.08114         2.08114
            2696         492.541         492.541     983.002E-03     983.002E-03         1.52662         1.52662
            2697         489.583         489.583     353.528E-03     353.528E-03     842.409E-03     842.409E-03
            2698         518.166         518.166         32.4159         32.4159         9.49938         9.49938
            2699         512.503         512.503         25.7254         25.7254         6.52576         6.52576
            2700         508.670         508.670         20.3940         20.3940         4.59442         4.59442
            2701         505.862         505.862         16.1356         16.1356         3.30330         3.30330
            2702         503.653         503.653         12.6773         12.6773         2.41759         2.41759
            2703         501.783         501.783         9.82085         9.82085         1.80011         1.80011
            2704         500.076         500.076         7.42619         7.42619         1.36351         1.36351
            2705         498.392         498.392         5.39987         5.39987         1.04800         1.04800
            2706         496.599         496.599         3.68649         3.68649     810.109E-03     810.109E-03
            2707         494.556         494.556         2.26592         2.26592     614.696E-03     614.696E-03
            2708         492.089         492.089         1.15498         1.15498     430.831E-03     430.831E-03
            2709         488.973         488.973     415.020E-03     415.020E-03     229.580E-03     229.580E-03
            2710         516.514         516.514         37.2513         37.2513        -1.64195        -1.64195
            2711         511.547         511.547         28.3997         28.3997        -1.76919        -1.76919
            2712         508.100         508.100         21.9768         21.9768        -1.76778        -1.76778
            2713         505.526         505.526         17.1024         17.1024        -1.71999        -1.71999
            2714         503.465         503.465         13.2749         13.2749        -1.64667        -1.64667
            2715         501.696         501.696         10.1878         10.1878        -1.55688        -1.55688
            2716         500.058         500.058         7.64505         7.64505        -1.45227        -1.45227
            2717         498.423         498.423         5.52259         5.52259        -1.33025        -1.33025
            2718         496.665         496.665         3.74780         3.74780        -1.18426        -1.18426
            2719         494.648         494.648         2.29031         2.29031        -1.00208        -1.00208
            2720         492.203         492.203         1.16085         1.16085    -762.938E-03    -762.938E-03
            2721         489.116         489.116     415.033E-03     415.033E-03    -432.907E-03    -432.907E-03
            2722         519.249         519.249         28.7222         28.7222        -12.4768        -12.4768
            2723         513.464         513.464         22.8047         22.8047        -9.78341        -9.78341
            2724         509.500         509.500         18.1397         18.1397        -7.92965        -7.92965
            2725         506.585         506.585         14.3926         14.3926        -6.59361        -6.59361
            2726         504.297         504.297         11.3281         11.3281        -5.59554        -5.59554
            2727         502.377         502.377         8.77940         8.77940        -4.81994        -4.81994
            2728         500.646         500.646         6.63131         6.63131        -4.18662        -4.18662
            2729         498.964         498.964         4.80849         4.80849        -3.63378        -3.63378
            2730         497.203         497.203         3.26767         3.26767        -3.10707        -3.10707
            2731         495.233         495.233         1.99534         1.99534        -2.55022        -2.55022
            2732         492.899         492.899         1.00882         1.00882        -1.89463        -1.89463
            2733         490.019         490.019     359.513E-03     359.513E-03        -1.05357        -1.05357
            2734         523.563         523.563         11.4735         11.4735        -16.0820        -16.0820
            2735         516.771         516.771         11.3166         11.3166        -13.5343        -13.5343
            2736         512.012         512.012         10.2219         10.2219        -11.3904        -11.3904
            2737         508.514         508.514         8.81810         8.81810        -9.67414        -9.67414
            2738         505.809         505.809         7.35451         7.35451        -8.30534        -8.30534
            2739         503.601         503.601         5.93893         5.93893        -7.19584        -7.19584
            2740         501.684         501.684         4.61914         4.61914        -6.26408        -6.26408
            2741         499.904         499.904         3.41888         3.41888        -5.43642        -5.43642
            2742         498.130         498.130         2.35585         2.35585        -4.64035        -4.64035
            2743         496.240         496.240         1.45170         1.45170        -3.79645        -3.79645
            2744         494.106         494.106     738.854E-03     738.854E-03        -2.80730        -2.80730
            2745         491.585         491.585     265.045E-03     265.045E-03        -1.55313        -1.55313
            2746         524.814         524.814        -4.84218        -4.84218        -11.6979        -11.6979
            2747         518.761         518.761    -848.527E-03    -848.527E-03        -11.8466        -11.8466
            2748         513.993         513.993         1.26182         1.26182        -11.1204        -11.1204
            2749         510.276         510.276         2.22229         2.22229        -10.1374        -10.1374
            2750         507.331         507.331         2.50757         2.50757        -9.13615        -9.13615
            2751         504.921         504.921         2.40198         2.40198        -8.18910        -8.18910
            2752         502.867         502.867         2.07985         2.07985        -7.30089        -7.30089
            2753         501.026         501.026         1.65154         1.65154        -6.44082        -6.44082
            2754         499.281         499.281         1.19169         1.19169        -5.55614        -5.55614
            2755         497.530         497.530     755.986E-03     755.986E-03        -4.57241        -4.57241
            2756         495.678         495.678     391.232E-03     391.232E-03        -3.38832        -3.38832
            2757         493.632         493.632     141.491E-03     141.491E-03        -1.87437        -1.87437
            2758         521.474         521.474        -14.3462        -14.3462        -4.05647        -4.05647
            2759         517.825         517.825        -9.44264        -9.44264        -6.86134        -6.86134
            2760         514.184         514.184        -5.90329        -5.90329        -8.06911        -8.06911
            2761         510.960         510.960        -3.50534        -3.50534        -8.38399        -8.38399
            2762         508.211         508.211        -1.95228        -1.95228        -8.22384        -8.22384
            2763         505.874         505.874    -989.164E-03    -989.164E-03        -7.81231        -7.81231
            2764         503.860         503.860    -426.982E-03    -426.982E-03        -7.25377        -7.25377
            2765         502.080         502.080    -128.945E-03    -128.945E-03        -6.58317        -6.58317
            2766         500.456         500.456     3.05554E-03     3.05554E-03        -5.78838        -5.78838
            2767         498.923         498.923     39.7651E-03     39.7651E-03        -4.82058        -4.82058
            2768         497.428         497.428     32.0286E-03     32.0286E-03        -3.59427        -3.59427
            2769         495.936         495.936     13.9874E-03     13.9874E-03        -1.99206        -1.99206
            2770         464.287         464.287         135.256         135.256         25.1679         25.1679
            2771         468.928         468.928         124.208         124.208         25.0332         25.0332
            2772         473.473         473.473         113.147         113.147         24.2753         24.2753
            2773         477.804         477.804         102.283         102.283         23.1429         23.1429
            2774         481.845         481.845         91.7605         91.7605         21.6765         21.6765
            2775         485.528         485.528         81.7105         81.7105         19.9247         19.9247
            2776         488.804         488.804         72.2418         72.2418         17.9595         17.9595
            2777         491.649         491.649         63.4315         63.4315         15.8529         15.8529
            2778         494.053         494.053         55.3305         55.3305         13.6810         13.6810
            2779         496.028         496.028         47.9588         47.9588         11.5114         11.5114
            2780         497.596         497.596         41.3150         41.3150         9.40097         9.40097
            2781         498.791         498.791         35.3782         35.3782         7.39587         7.39587
            2782         499.649         499.649         30.1141         30.1141         5.52664         5.52664
            2783         500.211         500.211         25.4803         25.4803         3.81511         3.81511
            2784         500.514         500.514         21.4279         21.4279         2.26962         2.26962
            2785         500.595         500.595         17.9075         17.9075     893.116E-03     893.116E-03
            2786         500.489         500.489         14.8676         14.8676    -320.380E-03    -320.380E-03
            2787         500.225         500.225         12.2597         12.2597        -1.37940        -1.37940
            2788         499.831         499.831         10.0357         10.0357        -2.29733        -2.29733
            2789         499.328         499.328         8.15120         8.15120        -3.08824        -3.08824
            2790         498.737         498.737         6.56364         6.56364        -3.76837        -3.76837
            2791         498.075         498.075         5.23382         5.23382        -4.35369        -4.35369
            2792         497.357         497.357         4.12459         4.12459        -4.86095        -4.86095
            2793         496.593         496.593         3.20163         3.20163        -5.30637        -5.30637
            2794         495.795         495.795         2.43245         2.43245        -5.70649        -5.70649
            2795         494.972         494.972         1.78662         1.78662        -6.07758        -6.07758
            2796         494.132         494.132         1.23500         1.23500        -6.43643        -6.43643
            2797         493.283         493.283     749.612E-03     749.612E-03        -6.80022        -6.80022
            2798         492.432         492.432     302.913E-03     302.913E-03        -7.18723        -7.18723
            2799         491.588         491.588    -132.708E-03    -132.708E-03        -7.61713        -7.61713
            2800         490.763         490.763    -585.892E-03    -585.892E-03        -8.11157        -8.11157
            2801         489.970         489.970        -1.08738        -1.08738        -8.69462        -8.69462
            2802         489.231         489.231        -1.67160        -1.67160        -9.39316        -9.39316
            2803         488.577         488.577        -2.37891        -2.37891        -10.2369        -10.2369
            2804         488.052         488.052        -3.25841        -3.25841        -11.2578        -11.2578
            2805         487.724         487.724        -4.37242        -4.37242        -12.4875        -12.4875
            2806         487.697         487.697        -5.80084        -5.80084        -13.9527        -13.9527
            2807         488.130         488.130        -7.64816        -7.64816        -15.6628        -15.6628
            2808         489.258         489.258        -10.0439        -10.0439        -17.5859        -17.5859
            2809         491.432         491.432        -13.1386        -13.1386        -19.5999        -19.5999
            2810         495.121         495.121        -17.0317        -17.0317        -21.3994        -21.3994
            2811         500.860         500.860        -21.6367        -21.6367        -22.3905        -22.3905
            2812         463.534         463.534         135.457         135.457         19.3363         19.3363
            2813         468.025         468.025         124.822         124.822         19.2265         19.2265
            2814         472.430         472.430         114.184         114.184         18.6528         18.6528
            2815         476.656         476.656         103.721         103.721         17.8112         17.8112
            2816         480.633         480.633         93.5540         93.5540         16.7222         16.7222
            2817         484.303         484.303         83.7951         83.7951         15.4251         15.4251
            2818         487.621         487.621         74.5381         74.5381         13.9625         13.9625
            2819         490.554         490.554         65.8583         65.8583         12.3884         12.3884
            2820         493.090         493.090         57.8065         57.8065         10.7538         10.7538
            2821         495.225         495.225         50.4132         50.4132         9.10838         9.10838
            2822         496.973         496.973         43.6879         43.6879         7.49568         7.49568
            2823         498.352         498.352         37.6238         37.6238         5.95000         5.95000
            2824         499.392         499.392         32.2007         32.2007         4.49878         4.49878
            2825         500.121         500.121         27.3877         27.3877         3.15871         3.15871
            2826         500.572         500.572         23.1480         23.1480         1.94105         1.94105
            2827         500.778         500.778         19.4394         19.4394     848.299E-03     848.299E-03
            2828         500.771         500.771         16.2187         16.2187    -120.335E-03    -120.335E-03
            2829         500.578         500.578         13.4407         13.4407    -971.366E-03    -971.366E-03
            2830         500.226         500.226         11.0618         11.0618        -1.71285        -1.71285
            2831         499.739         499.739         9.03917         9.03917        -2.35596        -2.35596
            2832         499.138         499.138         7.33202         7.33202        -2.91230        -2.91230
            2833         498.440         498.440         5.90140         5.90140        -3.39492        -3.39492
            2834         497.660         497.660         4.71096         4.71096        -3.81684        -3.81684
            2835         496.812         496.812         3.72634         3.72634        -4.19177        -4.19177
            2836         495.904         495.904         2.91562         2.91562        -4.53341        -4.53341
            2837         494.944         494.944         2.24877         2.24877        -4.85614        -4.85614
            2838         493.939         493.939         1.69778         1.69778        -5.17484        -5.17484
            2839         492.892         492.892         1.23612         1.23612        -5.50562        -5.50562
            2840         491.805         491.805     838.572E-03     838.572E-03        -5.86610        -5.86610
            2841         490.680         490.680     480.631E-03     480.631E-03        -6.27630        -6.27630
            2842         489.515         489.515     137.876E-03     137.876E-03        -6.75941        -6.75941
            2843         488.312         488.312    -215.032E-03    -215.032E-03        -7.34304        -7.34304
            2844         487.072         487.072    -605.839E-03    -605.839E-03        -8.06055        -8.06055
            2845         485.798         485.798        -1.06680        -1.06680        -8.95300        -8.95300
            2846         484.502         484.502        -1.63834        -1.63834        -10.0713        -10.0713
            2847         483.209         483.209        -2.37388        -2.37388        -11.4787        -11.4787
            2848         481.967         481.967        -3.34901        -3.34901        -13.2534        -13.2534
            2849         480.869         480.869        -4.67316        -4.67316        -15.4898        -15.4898
            2850         480.089         480.089        -6.51249        -6.51249        -18.2938        -18.2938
            2851         479.944         479.944        -9.11556        -9.11556        -21.7644        -21.7644
            2852         481.021         481.021        -12.8599        -12.8599        -25.9167        -25.9167
            2853         484.321         484.321        -18.1995        -18.1995        -30.5071        -30.5071
            2854         463.018         463.018         135.606         135.606         13.6771         13.6771
            2855         467.396         467.396         125.262         125.262         13.5823         13.5823
            2856         471.703         471.703         114.921         114.921         13.1703         13.1703
            2857         475.849         475.849         104.741         104.741         12.5759         12.5759
            2858         479.776         479.776         94.8279         94.8279         11.8173         11.8173
            2859         483.428         483.428         85.2796         85.2796         10.9150         10.9150
            2860         486.763         486.763         76.1823         76.1823         9.90108         9.90108
            2861         489.748         489.748         67.6053         67.6053         8.80729         8.80729
            2862         492.364         492.364         59.6016         59.6016         7.66953         7.66953
            2863         494.605         494.605         52.2049         52.2049         6.52038         6.52038
            2864         496.471         496.471         45.4329         45.4329         5.38940         5.38940
            2865         497.978         497.978         39.2871         39.2871         4.30164         4.30164
            2866         499.143         499.143         33.7565         33.7565         3.27542         3.27542
            2867         499.992         499.992         28.8197         28.8197         2.32495         2.32495
            2868         500.551         500.551         24.4469         24.4469         1.45741         1.45741
            2869         500.850         500.850         20.6034         20.6034     677.047E-03     677.047E-03
            2870         500.917         500.917         17.2505         17.2505    -17.2860E-03    -17.2860E-03
            2871         500.779         500.779         14.3478         14.3478    -628.381E-03    -628.381E-03
            2872         500.462         500.462         11.8542         11.8542        -1.16246        -1.16246
            2873         499.990         499.990         9.72905         9.72905        -1.62640        -1.62640
            2874         499.384         499.384         7.93276         7.93276        -2.02895        -2.02895
            2875         498.661         498.661         6.42757         6.42757        -2.37897        -2.37897
            2876         497.837         497.837         5.17746         5.17746        -2.68630        -2.68630
            2877         496.924         496.924         4.14884         4.14884        -2.96076        -2.96076
            2878         495.931         495.931         3.31022         3.31022        -3.21283        -3.21283
            2879         494.865         494.865         2.63261         2.63261        -3.45327        -3.45327
            2880         493.728         493.728         2.08918         2.08918        -3.69375        -3.69375
            2881         492.521         492.521         1.65541         1.65541        -3.94689        -3.94689
            2882         491.239         491.239         1.30877         1.30877        -4.22703        -4.22703
            2883         489.876         489.876         1.02864         1.02864        -4.55076        -4.55076
            2884         488.420         488.420     795.917E-03     795.917E-03        -4.93800        -4.93800
            2885         486.854         486.854     592.549E-03     592.549E-03        -5.41326        -5.41326
            2886         485.158         485.158     400.767E-03     400.767E-03        -6.00756        -6.00756
            2887         483.305         483.305     201.702E-03     201.702E-03        -6.76099        -6.76099
            2888         481.260         481.260    -26.4968E-03    -26.4968E-03        -7.72665        -7.72665
            2889         478.986         478.986    -312.707E-03    -312.707E-03        -8.97612        -8.97612
            2890         476.438         476.438    -698.281E-03    -698.281E-03        -10.6082        -10.6082
            2891         473.574         473.574        -1.24949        -1.24949        -12.7611        -12.7611
            2892         470.370         470.370        -2.07566        -2.07566        -15.6329        -15.6329
            2893         466.853         466.853        -3.37229        -3.37229        -19.5083        -19.5083
            2894         463.204         463.204        -5.50121        -5.50121        -24.8039        -24.8039
            2895         460.034         460.034        -9.16185        -9.16185        -32.0613        -32.0613
            2896         462.691         462.691         135.707         135.707         8.13436         8.13436
            2897         467.002         467.002         125.547         125.547         8.05158         8.05158
            2898         471.244         471.244         115.393         115.393         7.78302         7.78302
            2899         475.339         475.339         105.392         105.392         7.41360         7.41360
            2900         479.231         479.231         95.6399         95.6399         6.95033         6.95033
            2901         482.869         482.869         86.2267         86.2267         6.40903         6.40903
            2902         486.211         486.211         77.2322         77.2322         5.80472         5.80472
            2903         489.225         489.225         68.7240         68.7240         5.15824         5.15824
            2904         491.888         491.888         60.7540         60.7540         4.48816         4.48816
            2905         494.190         494.190         53.3592         53.3592         3.81396         3.81396
            2906         496.129         496.129         46.5607         46.5607         3.15234         3.15234
            2907         497.714         497.714         40.3657         40.3657         2.51714         2.51714
            2908         498.958         498.958         34.7688         34.7688         1.91977         1.91977
            2909         499.882         499.882         29.7539         29.7539         1.36723         1.36723
            2910         500.510         500.510         25.2969         25.2969     864.838E-03     864.838E-03
            2911         500.869         500.869         21.3668         21.3668     413.792E-03     413.792E-03
            2912         500.984         500.984         17.9290         17.9290     14.4014E-03     14.4014E-03
            2913         500.882         500.882         14.9455         14.9455    -336.014E-03    -336.014E-03
            2914         500.589         500.589         12.3775         12.3775    -640.429E-03    -640.429E-03
            2915         500.127         500.127         10.1858         10.1858    -903.637E-03    -903.637E-03
            2916         499.518         499.518         8.33178         8.33178        -1.13037        -1.13037
            2917         498.780         498.780         6.77831         6.77831        -1.32633        -1.32633
            2918         497.927         497.927         5.49006         5.49006        -1.49706        -1.49706
            2919         496.972         496.972         4.43372         4.43372        -1.64863        -1.64863
            2920         495.924         495.924         3.57848         3.57848        -1.78705        -1.78705
            2921         494.786         494.786         2.89597         2.89597        -1.91881        -1.91881
            2922         493.562         493.562         2.36048         2.36048        -2.05065        -2.05065
            2923         492.246         492.246         1.94899         1.94899        -2.19005        -2.19005
            2924         490.832         490.832         1.64123         1.64123        -2.34540        -2.34540
            2925         489.305         489.305         1.41971         1.41971        -2.52653        -2.52653
            2926         487.646         487.646         1.26979         1.26979        -2.74527        -2.74527
            2927         485.825         485.825         1.17968         1.17968        -3.01645        -3.01645
            2928         483.803         483.803         1.14044         1.14044        -3.35904        -3.35904
            2929         481.526         481.526         1.14597         1.14597        -3.79825        -3.79825
            2930         478.923         478.923         1.19256         1.19256        -4.36825        -4.36825
            2931         475.898         475.898         1.27865         1.27865        -5.11697        -5.11697
            2932         472.316         472.316         1.40283         1.40283        -6.11312        -6.11312
            2933         467.997         467.997         1.56214         1.56214        -7.45923        -7.45923
            2934         462.685         462.685         1.74372         1.74372        -9.31206        -9.31206
            2935         456.014         456.014         1.91314         1.91314        -11.9252        -11.9252
            2936         447.450         447.450         1.97831         1.97831        -15.7273        -15.7273
            2937         436.209         436.209         1.68357         1.68357        -21.5252        -21.5252
            2938         462.534         462.534         135.756         135.756         2.66598         2.66598
            2939         466.811         466.811         125.683         125.683         2.59660         2.59660
            2940         471.024         471.024         115.618         115.618         2.47073         2.47073
            2941         475.095         475.095         105.701         105.701         2.31487         2.31487
            2942         478.971         478.971         96.0233         96.0233         2.13553         2.13553
            2943         482.602         482.602         86.6721         86.6721         1.93594         1.93594
            2944         485.948         485.948         77.7247         77.7247         1.72421         1.72421
            2945         488.975         488.975         69.2469         69.2469         1.50533         1.50533
            2946         491.660         491.660         61.2913         61.2913         1.28672         1.28672
            2947         493.991         493.991         53.8956         53.8956         1.07348         1.07348
            2948         495.963         495.963         47.0834         47.0834     870.608E-03     870.608E-03
            2949         497.583         497.583         40.8641         40.8641     681.982E-03     681.982E-03
            2950         498.863         498.863         35.2350         35.2350     509.785E-03     509.785E-03
            2951         499.822         499.822         30.1829         30.1829     356.096E-03     356.096E-03
            2952         500.482         500.482         25.6856         25.6856     220.834E-03     220.834E-03
            2953         500.867         500.867         21.7148         21.7148     104.398E-03     104.398E-03
            2954         501.004         501.004         18.2370         18.2370     5.34174E-03     5.34174E-03
            2955         500.918         500.918         15.2159         15.2159    -77.1044E-03    -77.1044E-03
            2956         500.635         500.635         12.6134         12.6134    -144.965E-03    -144.965E-03
            2957         500.178         500.178         10.3910         10.3910    -199.611E-03    -199.611E-03
            2958         499.568         499.568         8.51048         8.51048    -243.131E-03    -243.131E-03
            2959         498.822         498.822         6.93504         6.93504    -277.070E-03    -277.070E-03
            2960         497.957         497.957         5.62949         5.62949    -303.325E-03    -303.325E-03
            2961         496.984         496.984         4.56069         4.56069    -323.373E-03    -323.373E-03
            2962         495.911         495.911         3.69801         3.69801    -338.841E-03    -338.841E-03
            2963         494.743         494.743         3.01332         3.01332    -351.053E-03    -351.053E-03
            2964         493.480         493.480         2.48136         2.48136    -361.392E-03    -361.392E-03
            2965         492.118         492.118         2.07969         2.07969    -371.045E-03    -371.045E-03
            2966         490.647         490.647         1.78898         1.78898    -381.241E-03    -381.241E-03
            2967         489.051         489.051         1.59305         1.59305    -393.111E-03    -393.111E-03
            2968         487.306         487.306         1.47923         1.47923    -407.862E-03    -407.862E-03
            2969         485.376         485.376         1.43839         1.43839    -426.695E-03    -426.695E-03
            2970         483.216         483.216         1.46565         1.46565    -450.993E-03    -450.993E-03
            2971         480.761         480.761         1.56049         1.56049    -482.222E-03    -482.222E-03
            2972         477.920         477.920         1.72799         1.72799    -522.262E-03    -522.262E-03
            2973         474.573         474.573         1.97896         1.97896    -573.152E-03    -573.152E-03
            2974         470.545         470.545         2.33285         2.33285    -637.858E-03    -637.858E-03
            2975         465.588         465.588         2.81721         2.81721    -719.405E-03    -719.405E-03
            2976         459.335         459.335         3.47457         3.47457    -822.636E-03    -822.636E-03
            2977         451.219         451.219         4.36070         4.36070    -950.939E-03    -950.939E-03
            2978         440.324         440.324         5.56216         5.56216        -1.10734        -1.10734
            2979         425.005         425.005         7.20211         7.20211        -1.25871        -1.25871
            2980         462.534         462.534         135.756         135.756        -2.77019        -2.77019
            2981         466.813         466.813         125.679         125.679        -2.81309        -2.81309
            2982         471.029         471.029         115.609         115.609        -2.79056        -2.79056
            2983         475.103         475.103         105.687         105.687        -2.72539        -2.72539
            2984         478.982         478.982         96.0026         96.0026        -2.62066        -2.62066
            2985         482.616         482.616         86.6442         86.6442        -2.47671        -2.47671
            2986         485.964         485.964         77.6893         77.6893        -2.29982        -2.29982
            2987         488.992         488.992         69.2043         69.2043        -2.09407        -2.09407
            2988         491.678         491.678         61.2422         61.2422        -1.86724        -1.86724
            2989         494.008         494.008         53.8413         53.8413        -1.62566        -1.62566
            2990         495.979         495.979         47.0251         47.0251        -1.37645        -1.37645
            2991         497.596         497.596         40.8034         40.8034        -1.12613        -1.12613
            2992         498.873         498.873         35.1733         35.1733    -879.828E-03    -879.828E-03
            2993         499.828         499.828         30.1216         30.1216    -642.652E-03    -642.652E-03
            2994         500.483         500.483         25.6259         25.6259    -417.364E-03    -417.364E-03
            2995         500.864         500.864         21.6576         21.6576    -206.975E-03    -206.975E-03
            2996         500.997         500.997         18.1830         18.1830    -12.2034E-03    -12.2034E-03
            2997         500.908         500.908         15.1655         15.1655     165.947E-03     165.947E-03
            2998         500.622         500.622         12.5669         12.5669     328.249E-03     328.249E-03
            2999         500.163         500.163         10.3483         10.3483     475.253E-03     475.253E-03
            3000         499.552         499.552         8.47136         8.47136     608.728E-03     608.728E-03
            3001         498.808         498.808         6.89909         6.89909     730.324E-03     730.324E-03
            3002         497.945         497.945         5.59601         5.59601     842.512E-03     842.512E-03
            3003         496.976         496.976         4.52887         4.52887     947.791E-03     947.791E-03
            3004         495.910         495.910         3.66674         3.66674         1.04931         1.04931
            3005         494.750         494.750         2.98128         2.98128         1.15047         1.15047
            3006         493.500         493.500         2.44684         2.44684         1.25539         1.25539
            3007         492.153         492.153         2.04060         2.04060         1.36884         1.36884
            3008         490.702         490.702         1.74262         1.74262         1.49669         1.49669
            3009         489.132         489.132         1.53597         1.53597         1.64615         1.64615
            3010         487.421         487.421         1.40681         1.40681         1.82646         1.82646
            3011         485.536         485.536         1.34459         1.34459         2.04951         2.04951
            3012         483.436         483.436         1.34207         1.34207         2.33128         2.33128
            3013         481.062         481.062         1.39561         1.39561         2.69329         2.69329
            3014         478.333         478.333         1.50512         1.50512         3.16585         3.16585
            3015         475.143         475.143         1.67419         1.67419         3.79174         3.79174
            3016         471.342         471.342         1.90941         1.90941         4.63473         4.63473
            3017         466.722         466.722         2.21919         2.21919         5.79014         5.79014
            3018         460.987         460.987         2.60927         2.60927         7.41051         7.41051
            3019         453.705         453.705         3.07260         3.07260         9.74429         9.74429
            3020         444.232         444.232         3.55934         3.55934         13.2347         13.2347
            3021         431.648         431.648         3.86408         3.86408         18.7276         18.7276
            3022         462.691         462.691         135.708         135.708        -8.22327        -8.22327
            3023         467.008         467.008         125.539         125.539        -8.23470        -8.23470
            3024         471.258         471.258         115.374         115.374        -8.05346        -8.05346
            3025         475.361         475.361         105.358         105.358        -7.76038        -7.76038
            3026         479.260         479.260         95.5878         95.5878        -7.35943        -7.35943
            3027         482.906         482.906         86.1553         86.1553        -6.86406        -6.86406
            3028         486.254         486.254         77.1411         77.1411        -6.28767        -6.28767
            3029         489.271         489.271         68.6141         68.6141        -5.65059        -5.65059
            3030         491.936         491.936         60.6272         60.6272        -4.97175        -4.97175
            3031         494.236         494.236         53.2186         53.2186        -4.27194        -4.27194
            3032         496.171         496.171         46.4099         46.4099        -3.56978        -3.56978
            3033         497.748         497.748         40.2086         40.2086        -2.88150        -2.88150
            3034         498.983         498.983         34.6092         34.6092        -2.22108        -2.22108
            3035         499.896         499.896         29.5953         29.5953        -1.59809        -1.59809
            3036         500.514         500.514         25.1423         25.1423        -1.02028        -1.02028
            3037         500.861         500.861         21.2188         21.2188    -490.970E-03    -490.970E-03
            3038         500.965         500.965         17.7893         17.7893    -12.2955E-03    -12.2955E-03
            3039         500.855         500.855         14.8153         14.8153     417.046E-03     417.046E-03
            3040         500.555         500.555         12.2574         12.2574     798.991E-03     798.991E-03
            3041         500.089         500.089         10.0756         10.0756         1.13772         1.13772
            3042         499.478         499.478         8.23090         8.23090         1.43770         1.43770
            3043         498.742         498.742         6.68561         6.68561         1.70473         1.70473
            3044         497.896         497.896         5.40388         5.40388         1.94480         1.94480
            3045         496.952         496.952         4.35190         4.35190         2.16477         2.16477
            3046         495.920         495.920         3.49829         3.49829         2.37181         2.37181
            3047         494.805         494.805         2.81399         2.81399         2.57395         2.57395
            3048         493.610         493.610         2.27250         2.27250         2.77998         2.77998
            3049         492.334         492.334         1.84970         1.84970         3.00001         3.00001
            3050         490.970         490.970         1.52393         1.52393         3.24573         3.24573
            3051         489.510         489.510         1.27579         1.27579         3.53130         3.53130
            3052         487.936         487.936         1.08799         1.08799         3.87408         3.87408
            3053         486.228         486.228     945.042E-03     945.042E-03         4.29616         4.29616
            3054         484.356         484.356     832.756E-03     832.756E-03         4.82603         4.82603
            3055         482.281         482.281     737.348E-03     737.348E-03         5.50165         5.50165
            3056         479.954         479.954     643.819E-03     643.819E-03         6.37420         6.37420
            3057         477.313         477.313     533.364E-03     533.364E-03         7.51503         7.51503
            3058         474.280         474.280     377.900E-03     377.900E-03         9.02451         9.02451
            3059         470.763         470.763     131.334E-03     131.334E-03         11.0495         11.0495
            3060         466.661         466.661    -290.594E-03    -290.594E-03         13.8058         13.8058
            3061         461.886         461.886        -1.04647        -1.04647         17.6246         17.6246
            3062         456.444         456.444        -2.46115        -2.46115         23.0129         23.0129
            3063         450.676         450.676        -5.20041        -5.20041         30.7054         30.7054
            3064         463.018         463.018         135.610         135.610        -13.7456        -13.7456
            3065         467.405         467.405         125.255         125.255        -13.7217        -13.7217
            3066         471.722         471.722         114.898         114.898        -13.3753        -13.3753
            3067         475.878         475.878         104.698         104.698        -12.8378        -12.8378
            3068         479.815         479.815         94.7620         94.7620        -12.1252        -12.1252
            3069         483.477         483.477         85.1886         85.1886        -11.2557        -11.2557
            3070         486.819         486.819         76.0656         76.0656        -10.2605        -10.2605
            3071         489.809         489.809         67.4643         67.4643        -9.17110        -9.17110
            3072         492.426         492.426         59.4391         59.4391        -8.02394        -8.02394
            3073         494.663         494.663         52.0250         52.0250        -6.85287        -6.85287
            3074         496.523         496.523         45.2403         45.2403        -5.68920        -5.68920
            3075         498.020         498.020         39.0869         39.0869        -4.55999        -4.55999
            3076         499.173         499.173         33.5537         33.5537        -3.48561        -3.48561
            3077         500.008         500.008         28.6187         28.6187        -2.48227        -2.48227
            3078         500.553         500.553         24.2515         24.2515        -1.55893        -1.55893
            3079         500.837         500.837         20.4168         20.4168    -721.419E-03    -721.419E-03
            3080         500.890         500.890         17.0748         17.0748     30.2052E-03     30.2052E-03
            3081         500.741         500.741         14.1844         14.1844     697.744E-03     697.744E-03
            3082         500.415         500.415         11.7037         11.7037         1.28678         1.28678
            3083         499.938         499.938         9.59133         9.59133         1.80377         1.80377
            3084         499.330         499.330         7.80700         7.80700         2.25732         2.25732
            3085         498.610         498.610         6.31235         6.31235         2.65637         2.65637
            3086         497.794         497.794         5.07075         5.07075         3.01102         3.01102
            3087         496.894         496.894         4.04800         4.04800         3.33159         3.33159
            3088         495.921         495.921         3.21194         3.21194         3.62924         3.62924
            3089         494.883         494.883         2.53282         2.53282         3.91563         3.91563
            3090         493.782         493.782         1.98286         1.98286         4.20354         4.20354
            3091         492.623         492.623         1.53633         1.53633         4.50697         4.50697
            3092         491.402         491.402         1.16915         1.16915         4.84196         4.84196
            3093         490.118         490.118     858.591E-03     858.591E-03         5.22714         5.22714
            3094         488.764         488.764     582.696E-03     582.696E-03         5.68492         5.68492
            3095         487.332         487.332     319.497E-03     319.497E-03         6.24274         6.24274
            3096         485.810         485.810     45.7959E-03     45.7959E-03         6.93509         6.93509
            3097         484.188         484.188    -264.914E-03    -264.914E-03         7.80585         7.80585
            3098         482.456         482.456    -645.346E-03    -645.346E-03         8.91219         8.91219
            3099         480.608         480.608        -1.14009        -1.14009         10.3287         10.3287
            3100         478.654         478.654        -1.81327        -1.81327         12.1548         12.1548
            3101         476.633         476.633        -2.76485        -2.76485         14.5211         14.5211
            3102         474.648         474.648        -4.15235        -4.15235         17.5995         17.5995
            3103         472.934         472.934        -6.23969        -6.23969         21.6007         21.6007
            3104         471.991         471.991        -9.45909        -9.45909         26.7422         26.7422
            3105         472.806         472.806        -14.4683        -14.4683         33.1118         33.1118
            3106         463.534         463.534         135.461         135.461        -19.3840        -19.3840
            3107         468.034         468.034         124.815         124.815        -19.3220        -19.3220
            3108         472.448         472.448         114.163         114.163        -18.7915        -18.7915
            3109         476.684         476.684         103.680         103.680        -17.9874        -17.9874
            3110         480.671         480.671         93.4909         93.4909        -16.9280        -16.9280
            3111         484.350         484.350         83.7078         83.7078        -15.6511        -15.6511
            3112         487.674         487.674         74.4267         74.4267        -14.1987        -14.1987
            3113         490.611         490.611         65.7243         65.7243        -12.6248        -12.6248
            3114         493.147         493.147         57.6527         57.6527        -10.9811        -10.9811
            3115         495.278         495.278         50.2439         50.2439        -9.31861        -9.31861
            3116         497.019         497.019         43.5077         43.5077        -7.68206        -7.68206
            3117         498.388         498.388         37.4376         37.4376        -6.10736        -6.10736
            3118         499.415         499.415         32.0130         32.0130        -4.62346        -4.62346
            3119         500.129         500.129         27.2027         27.2027        -3.24835        -3.24835
            3120         500.567         500.567         22.9691         22.9691        -1.99451        -1.99451
            3121         500.759         500.759         19.2693         19.2693    -865.333E-03    -865.333E-03
            3122         500.739         500.739         16.0592         16.0592     139.206E-03     139.206E-03
            3123         500.535         500.535         13.2930         13.2930         1.02512         1.02512
            3124         500.175         500.175         10.9265         10.9265         1.80010         1.80010
            3125         499.684         499.684         8.91586         8.91586         2.47512         2.47512
            3126         499.081         499.081         7.22000         7.22000         3.06173         3.06173
            3127         498.386         498.386         5.79935         5.79935         3.57303         3.57303
            3128         497.613         497.613         4.61710         4.61710         4.02219         4.02219
            3129         496.776         496.776         3.63835         3.63835         4.42314         4.42314
            3130         495.886         495.886         2.83066         2.83066         4.78989         4.78989
            3131         494.951         494.951         2.16340         2.16340         5.13717         5.13717
            3132         493.977         493.977         1.60782         1.60782         5.48027         5.48027
            3133         492.971         492.971         1.13648         1.13648         5.83574         5.83574
            3134         491.937         491.937     722.980E-03     722.980E-03         6.22166         6.22166
            3135         490.878         490.878     341.277E-03     341.277E-03         6.65849         6.65849
            3136         489.799         489.799    -35.0724E-03    -35.0724E-03         7.16972         7.16972
            3137         488.705         488.705    -434.076E-03    -434.076E-03         7.78303         7.78303
            3138         487.604         487.604    -887.031E-03    -887.031E-03         8.53126         8.53126
            3139         486.513         486.513        -1.43083        -1.43083         9.45397         9.45397
            3140         485.458         485.458        -2.11205        -2.11205         10.5985         10.5985
            3141         484.484         484.484        -2.99178        -2.99178         12.0209         12.0209
            3142         483.669         483.669        -4.15525        -4.15525         13.7854         13.7854
            3143         483.146         483.146        -5.72135        -5.72135         15.9595         15.9595
            3144         483.142         483.142        -7.86284        -7.86284         18.5988         18.5988
            3145         484.031         484.031        -10.8139        -10.8139         21.7081         21.7081
            3146         486.413         486.413        -14.8740        -14.8740         25.1436         25.1436
            3147         491.178         491.178        -20.3010        -20.3010         28.4638         28.4638
            3148         464.285         464.285         135.259         135.259        -25.1936        -25.1936
            3149         468.932         468.932         124.203         124.203        -25.0819        -25.0819
            3150         473.483         473.483         113.133         113.133        -24.3450        -24.3450
            3151         477.820         477.820         102.256         102.256        -23.2307        -23.2307
            3152         481.867         481.867         91.7191         91.7191        -21.7784        -21.7784
            3153         485.556         485.556         81.6538         81.6538        -20.0356        -20.0356
            3154         488.835         488.835         72.1701         72.1701        -18.0742        -18.0742
            3155         491.682         491.682         63.3460         63.3460        -15.9663        -15.9663
            3156         494.085         494.085         55.2333         55.2333        -13.7885        -13.7885
            3157         496.057         496.057         47.8525         47.8525        -11.6091        -11.6091
            3158         497.620         497.620         41.2028         41.2028        -9.48579        -9.48579
            3159         498.808         498.808         35.2630         35.2630        -7.46568        -7.46568
            3160         499.658         499.658         29.9988         29.9988        -5.57998        -5.57998
            3161         500.211         500.211         25.3673         25.3673        -3.85128        -3.85128
            3162         500.504         500.504         21.3193         21.3193        -2.28838        -2.28838
            3163         500.578         500.578         17.8048         17.8048    -894.707E-03    -894.707E-03
            3164         500.464         500.464         14.7718         14.7718     335.456E-03     335.456E-03
            3165         500.193         500.193         12.1715         12.1715         1.41040         1.41040
            3166         499.794         499.794         9.95521         9.95521         2.34341         2.34341
            3167         499.288         499.288         8.07831         8.07831         3.14848         3.14848
            3168         498.697         498.697         6.49779         6.49779         3.84186         3.84186
            3169         498.036         498.036         5.17423         5.17423         4.43955         4.43955
            3170         497.322         497.322         4.07015         4.07015         4.95833         4.95833
            3171         496.565         496.565         3.15101         3.15101         5.41451         5.41451
            3172         495.778         495.778         2.38399         2.38399         5.82470         5.82470
            3173         494.969         494.969         1.73836         1.73836         6.20525         6.20525
            3174         494.148         494.148         1.18459         1.18459         6.57297         6.57297
            3175         493.322         493.322     694.243E-03     694.243E-03         6.94507         6.94507
            3176         492.501         492.501     239.181E-03     239.181E-03         7.33975         7.33975
            3177         491.694         491.694    -208.947E-03    -208.947E-03         7.77645         7.77645
            3178         490.916         490.916    -679.709E-03    -679.709E-03         8.27642         8.27642
            3179         490.183         490.183        -1.20502        -1.20502         8.86289         8.86289
            3180         489.520         489.520        -1.82069        -1.82069         9.56133         9.56133
            3181         488.961         488.961        -2.56876        -2.56876         10.3990         10.3990
            3182         488.558         488.558        -3.49994        -3.49994         11.4037         11.4037
            3183         488.386         488.386        -4.67806        -4.67806         12.6004         12.6004
            3184         488.558         488.558        -6.18269        -6.18269         14.0044         14.0044
            3185         489.239         489.239        -8.11497        -8.11497         15.6071         15.6071
            3186         490.667         490.667        -10.5908        -10.5908         17.3488         17.3488
            3187         493.173         493.173        -13.7284        -13.7284         19.0710         19.0710
            3188         497.170         497.170        -17.5649        -17.5649         20.4394         20.4394
            3189         503.087         503.087        -21.9299        -21.9299         20.8541         20.8541
            3190         511.400         511.400        -18.1484        -18.1484        -7.96501        -7.96501
            3191         506.983         506.983        -16.6123        -16.6123        -10.2463        -10.2463
            3192         503.102         503.102        -14.5160        -14.5160        -11.5452        -11.5452
            3193         499.922         499.922        -12.2769        -12.2769        -12.0848        -12.0848
            3194         497.457         497.457        -10.1503        -10.1503        -12.1250        -12.1250
            3195         495.634         495.634        -8.25304        -8.25304        -11.8708        -11.8708
            3196         494.348         494.348        -6.62084        -6.62084        -11.4689        -11.4689
            3197         493.495         493.495        -5.24456        -5.24456        -11.0101        -11.0101
            3198         492.982         492.982        -4.09713        -4.09713        -10.5477        -10.5477
            3199         492.734         492.734        -3.14372        -3.14372        -10.1085        -10.1085
            3200         492.691         492.691        -2.34854        -2.34854        -9.70339        -9.70339
            3201         492.807         492.807        -1.67667        -1.67667        -9.33282        -9.33282
            3202         493.045         493.045        -1.09511        -1.09511        -8.99127        -8.99127
            3203         493.377         493.377    -572.656E-03    -572.656E-03        -8.66951        -8.66951
            3204         493.783         493.783    -79.5608E-03    -79.5608E-03        -8.35607        -8.35607
            3205         494.243         494.243     412.774E-03     412.774E-03        -8.03797        -8.03797
            3206         494.746         494.746     932.615E-03     932.615E-03        -7.70111        -7.70111
            3207         495.280         495.280         1.50794         1.50794        -7.33039        -7.33039
            3208         495.834         495.834         2.16759         2.16759        -6.90964        -6.90964
            3209         496.400         496.400         2.94092         2.94092        -6.42159        -6.42159
            3210         496.970         496.970         3.85949         3.85949        -5.84767        -5.84767
            3211         497.532         497.532         4.95602         4.95602        -5.16814        -5.16814
            3212         498.078         498.078         6.26706         6.26706        -4.36180        -4.36180
            3213         498.594         498.594         7.83084         7.83084        -3.40669        -3.40669
            3214         499.064         499.064         9.69143         9.69143        -2.27949        -2.27949
            3215         499.469         499.469         11.8948         11.8948    -957.684E-03    -957.684E-03
            3216         499.787         499.787         14.4951         14.4951     581.939E-03     581.939E-03
            3217         499.987         499.987         17.5479         17.5479         2.35826         2.35826
            3218         500.035         500.035         21.1194         21.1194         4.38923         4.38923
            3219         499.887         499.887         25.2750         25.2750         6.68160         6.68160
            3220         499.495         499.495         30.0907         30.0907         9.23830         9.23830
            3221         498.796         498.796         35.6377         35.6377         12.0401         12.0401
            3222         497.736         497.736         41.9896         41.9896         15.0593         15.0593
            3223         496.239         496.239         49.2075         49.2075         18.2344         18.2344
            3224         494.259         494.259         57.3332         57.3332         21.4893         21.4893
            3225         491.733         491.733         66.3833         66.3833         24.7148         24.7148
            3226         488.653         488.653         76.3226         76.3226         27.7833         27.7833
            3227         485.012         485.012         87.0777         87.0777         30.5626         30.5626
            3228         480.864         480.864         98.5052         98.5052         32.9098         32.9098
            3229         476.292         476.292         110.422         110.422         34.7290         34.7290
            3230         471.402         471.402         122.602         122.602         35.9305         35.9305
            3231         466.369         466.369         134.744         134.744         36.1569         36.1569
            3232         511.482         511.482        -15.2718        -15.2718        -3.91078        -3.91078
            3233         508.045         508.045        -14.6663        -14.6663        -6.46032        -6.46032
            3234         504.820         504.820        -13.3753        -13.3753        -8.24390        -8.24390
            3235         501.969         501.969        -11.7372        -11.7372        -9.37694        -9.37694
            3236         499.585         499.585        -10.0126        -10.0126        -10.0044        -10.0044
            3237         497.677         497.677        -8.35992        -8.35992        -10.2788        -10.2788
            3238         496.211         496.211        -6.86073        -6.86073        -10.3234        -10.3234
            3239         495.128         495.128        -5.54637        -5.54637        -10.2305        -10.2305
            3240         494.365         494.365        -4.41788        -4.41788        -10.0614        -10.0614
            3241         493.866         493.866        -3.46067        -3.46067        -9.85516        -9.85516
            3242         493.580         493.580        -2.65180        -2.65180        -9.63367        -9.63367
            3243         493.465         493.465        -1.96495        -1.96495        -9.40760        -9.40760
            3244         493.487         493.487        -1.37249        -1.37249        -9.17964        -9.17964
            3245         493.618         493.618    -846.746E-03    -846.746E-03        -8.94725        -8.94725
            3246         493.836         493.836    -360.449E-03    -360.449E-03        -8.70416        -8.70416
            3247         494.125         494.125     113.371E-03     113.371E-03        -8.44140        -8.44140
            3248         494.471         494.471     601.262E-03     601.262E-03        -8.14785        -8.14785
            3249         494.864         494.864         1.13011         1.13011        -7.81052        -7.81052
            3250         495.293         495.293         1.72690         1.72690        -7.41458        -7.41458
            3251         495.752         495.752         2.42004         2.42004        -6.94341        -6.94341
            3252         496.234         496.234         3.23872         3.23872        -6.37851        -6.37851
            3253         496.731         496.731         4.21508         4.21508        -5.69934        -5.69934
            3254         497.236         497.236         5.38270         5.38270        -4.88359        -4.88359
            3255         497.739         497.739         6.78025         6.78025        -3.90675        -3.90675
            3256         498.229         498.229         8.44843         8.44843        -2.74321        -2.74321
            3257         498.690         498.690         10.4359         10.4359        -1.36531        -1.36531
            3258         499.102         499.102         12.7938         12.7938     253.532E-03     253.532E-03
            3259         499.441         499.441         15.5849         15.5849         2.14124         2.14124
            3260         499.670         499.670         18.8737         18.8737         4.31940         4.31940
            3261         499.751         499.751         22.7409         22.7409         6.80929         6.80929
            3262         499.625         499.625         27.2658         27.2658         9.61519         9.61519
            3263         499.235         499.235         32.5444         32.5444         12.7376         12.7376
            3264         498.497         498.497         38.6659         38.6659         16.1426         16.1426
            3265         497.339         497.339         45.7225         45.7225         19.7860         19.7860
            3266         495.661         495.661         53.7883         53.7883         23.5722         23.5722
            3267         493.408         493.408         62.9024         62.9024         27.3854         27.3854
            3268         490.505         490.505         73.0676         73.0676         31.0672         31.0672
            3269         486.960         486.960         84.2007         84.2007         34.4348         34.4348
            3270         482.792         482.792         96.1649         96.1649         37.3214         37.3214
            3271         478.098         478.098         108.728         108.728         39.5511         39.5511
            3272         473.025         473.025         121.611         121.611         41.0420         41.0420
            3273         467.735         467.735         134.457         134.457         41.3353         41.3353
            3274         510.486         510.486        -12.3914        -12.3914    -944.052E-03    -944.052E-03
            3275         507.955         507.955        -12.4731        -12.4731        -3.47903        -3.47903
            3276         505.394         505.394        -11.8079        -11.8079        -5.45876        -5.45876
            3277         502.986         502.986        -10.7050        -10.7050        -6.92385        -6.92385
            3278         500.840         500.840        -9.39034        -9.39034        -7.94692        -7.94692
            3279         499.014         499.014        -8.03007        -8.03007        -8.61908        -8.61908
            3280         497.515         497.515        -6.72709        -6.72709        -9.03161        -9.03161
            3281         496.326         496.326        -5.53775        -5.53775        -9.26037        -9.26037
            3282         495.412         495.412        -4.48571        -4.48571        -9.36409        -9.36409
            3283         494.737         494.737        -3.57363        -3.57363        -9.38412        -9.38412
            3284         494.262         494.262        -2.79166        -2.79166        -9.34818        -9.34818
            3285         493.954         493.954        -2.12262        -2.12262        -9.27309        -9.27309
            3286         493.784         493.784        -1.54548        -1.54548        -9.16775        -9.16775
            3287         493.728         493.728        -1.03724        -1.03724        -9.03506        -9.03506
            3288         493.766         493.766    -574.032E-03    -574.032E-03        -8.87346        -8.87346
            3289         493.883         493.883    -131.753E-03    -131.753E-03        -8.67787        -8.67787
            3290         494.067         494.067     314.035E-03     314.035E-03        -8.44029        -8.44029
            3291         494.308         494.308     787.768E-03     787.768E-03        -8.15012        -8.15012
            3292         494.599         494.599         1.31474         1.31474        -7.79431        -7.79431
            3293         494.935         494.935         1.92065         1.92065        -7.35735        -7.35735
            3294         495.311         495.311         2.63323         2.63323        -6.82123        -6.82123
            3295         495.724         495.724         3.48126         3.48126        -6.16536        -6.16536
            3296         496.169         496.169         4.49746         4.49746        -5.36641        -5.36641
            3297         496.641         496.641         5.71630         5.71630        -4.39853        -4.39853
            3298         497.133         497.133         7.17914         7.17914        -3.23291        -3.23291
            3299         497.636         497.636         8.92968         8.92968        -1.83910        -1.83910
            3300         498.133         498.133         11.0230         11.0230    -183.658E-03    -183.658E-03
            3301         498.606         498.606         13.5166         13.5166         1.76554         1.76554
            3302         499.026         499.026         16.4859         16.4859         4.04313         4.04313
            3303         499.351         499.351         20.0077         20.0077         6.67481         6.67481
            3304         499.533         499.533         24.1838         24.1838         9.68735         9.68735
            3305         499.498         499.498         29.1140         29.1140         13.0818         13.0818
            3306         499.168         499.168         34.9245         34.9245         16.8565         16.8565
            3307         498.428         498.428         41.7312         41.7312         20.9549         20.9549
            3308         497.185         497.185         49.6524         49.6524         25.3084         25.3084
            3309         495.295         495.295         58.7795         58.7795         29.7681         29.7681
            3310         492.703         492.703         69.1364         69.1364         34.1563         34.1563
            3311         489.318         489.318         80.6925         80.6925         38.2463         38.2463
            3312         485.188         485.188         93.2735         93.2735         41.7772         41.7772
            3313         480.388         480.388         106.630         106.630         44.5575         44.5575
            3314         475.076         475.076         120.399         120.399         46.3871         46.3871
            3315         469.527         469.527         134.105         134.105         46.7993         46.7993
            3316         508.900         508.900        -9.75654        -9.75654         1.08939         1.08939
            3317         507.138         507.138        -10.2643        -10.2643        -1.23187        -1.23187
            3318         505.195         505.195        -10.0589        -10.0589        -3.21611        -3.21611
            3319         503.246         503.246        -9.38267        -9.38267        -4.82539        -4.82539
            3320         501.410         501.410        -8.43574        -8.43574        -6.07943        -6.07943
            3321         499.758         499.758        -7.36772        -7.36772        -7.02259        -7.02259
            3322         498.327         498.327        -6.28612        -6.28612        -7.71053        -7.71053
            3323         497.123         497.123        -5.25837        -5.25837        -8.19866        -8.19866
            3324         496.137         496.137        -4.32196        -4.32196        -8.53450        -8.53450
            3325         495.348         495.348        -3.49241        -3.49241        -8.75611        -8.75611
            3326         494.733         494.733        -2.77053        -2.77053        -8.89156        -8.89156
            3327         494.268         494.268        -2.14764        -2.14764        -8.96060        -8.96060
            3328         493.930         493.930        -1.60924        -1.60924        -8.97581        -8.97581
            3329         493.701         493.701        -1.13737        -1.13737        -8.94412        -8.94412
            3330         493.565         493.565    -712.261E-03    -712.261E-03        -8.86778        -8.86778
            3331         493.509         493.509    -313.025E-03    -313.025E-03        -8.74518        -8.74518
            3332         493.524         493.524     81.6426E-03     81.6426E-03        -8.57130        -8.57130
            3333         493.602         493.602     493.739E-03     493.739E-03        -8.33809        -8.33809
            3334         493.740         493.740     945.486E-03     945.486E-03        -8.03445        -8.03445
            3335         493.934         493.934         1.46042         1.46042        -7.64642        -7.64642
            3336         494.183         494.183         2.06271         2.06271        -7.15693        -7.15693
            3337         494.488         494.488         2.77927         2.77927        -6.54582        -6.54582
            3338         494.847         494.847         3.63830         3.63830        -5.78955        -5.78955
            3339         495.262         495.262         4.67325         4.67325        -4.86113        -4.86113
            3340         495.730         495.730         5.91956         5.91956        -3.73010        -3.73010
            3341         496.249         496.249         7.42207         7.42207        -2.36211        -2.36211
            3342         496.811         496.811         9.22818         9.22818    -720.225E-03    -720.225E-03
            3343         497.403         497.403         11.4015         11.4015         1.23679         1.23679
            3344         498.005         498.005         14.0082         14.0082         3.54900         3.54900
            3345         498.586         498.586         17.1413         17.1413         6.26101         6.26101
            3346         499.096         499.096         20.8941         20.8941         9.40516         9.40516
            3347         499.472         499.472         25.4008         25.4008         13.0179         13.0179
            3348         499.618         499.618         30.7900         30.7900         17.0963         17.0963
            3349         499.425         499.425         37.2356         37.2356         21.6381         21.6381
            3350         498.727         498.727         44.8937         44.8937         26.5504         26.5504
            3351         497.401         497.401         53.9189         53.9189         31.7257         31.7257
            3352         495.236         495.236         64.4231         64.4231         36.9294         36.9294
            3353         492.188         492.188         76.3834         76.3834         41.8814         41.8814
            3354         488.163         488.163         89.6919         89.6919         46.2647         46.2647
            3355         483.285         483.285         104.005         104.005         49.7132         49.7132
            3356         477.751         477.751         118.878         118.878         52.0460         52.0460
            3357         471.812         471.812         133.704         133.704         52.5881         52.5881
            3358         507.087         507.087        -7.48990        -7.48990         2.40261         2.40261
            3359         505.918         505.918        -8.19860        -8.19860     378.836E-03     378.836E-03
            3360         504.508         504.508        -8.28685        -8.28685        -1.48292        -1.48292
            3361         502.992         502.992        -7.92809        -7.92809        -3.10562        -3.10562
            3362         501.480         501.480        -7.28125        -7.28125        -4.46375        -4.46375
            3363         500.048         500.048        -6.47744        -6.47744        -5.56652        -5.56652
            3364         498.742         498.742        -5.61482        -5.61482        -6.43997        -6.43997
            3365         497.585         497.585        -4.76259        -4.76259        -7.11785        -7.11785
            3366         496.582         496.582        -3.96377        -3.96377        -7.63448        -7.63448
            3367         495.728         495.728        -3.24146        -3.24146        -8.02047        -8.02047
            3368         495.011         495.011        -2.60391        -2.60391        -8.30128        -8.30128
            3369         494.418         494.418        -2.04913        -2.04913        -8.49654        -8.49654
            3370         493.932         493.932        -1.56830        -1.56830        -8.62058        -8.62058
            3371         493.542         493.542        -1.14834        -1.14834        -8.68280        -8.68280
            3372         493.235         493.235    -773.493E-03    -773.493E-03        -8.68834        -8.68834
            3373         493.003         493.003    -426.610E-03    -426.610E-03        -8.63841        -8.63841
            3374         492.840         492.840    -89.4827E-03    -89.4827E-03        -8.53075        -8.53075
            3375         492.743         492.743     256.491E-03     256.491E-03        -8.35969        -8.35969
            3376         492.708         492.708     630.829E-03     630.829E-03        -8.11634        -8.11634
            3377         492.738         492.738         1.05340         1.05340        -7.78844        -7.78844
            3378         492.835         492.835         1.54582         1.54582        -7.36044        -7.36044
            3379         493.002         493.002         2.13053         2.13053        -6.81302        -6.81302
            3380         493.244         493.244         2.83353         2.83353        -6.12324        -6.12324
            3381         493.566         493.566         3.68229         3.68229        -5.26382        -5.26382
            3382         493.975         493.975         4.71113         4.71113        -4.20323        -4.20323
            3383         494.474         494.474         5.95658         5.95658        -2.90517        -2.90517
            3384         495.064         495.064         7.46782         7.46782        -1.32822        -1.32822
            3385         495.744         495.744         9.29669         9.29669     573.266E-03     573.266E-03
            3386         496.504         496.504         11.5182         11.5182         2.85118         2.85118
            3387         497.326         497.326         14.2091         14.2091         5.55730         5.55730
            3388         498.173         498.173         17.4874         17.4874         8.75138         8.75138
            3389         498.988         498.988         21.4692         21.4692         12.4771         12.4771
            3390         499.689         499.689         26.3374         26.3374         16.7885         16.7885
            3391         500.141         500.141         32.2632         32.2632         21.6781         21.6781
            3392         500.194         500.194         39.4969         39.4969         27.1480         27.1480
            3393         499.588         499.588         48.2601         48.2601         33.0425         33.0425
            3394         498.161         498.161         58.7531         58.7531         39.1874         39.1874
            3395         495.598         495.598         71.1076         71.1076         45.2046         45.2046
            3396         491.898         491.898         85.1758         85.1758         50.6375         50.6375
            3397         487.013         487.013         100.674         100.674         55.0673         55.0673
            3398         481.195         481.195         116.957         116.957         58.0033         58.0033
            3399         474.912         474.912         133.188         133.188         58.8207         58.8207
            3400         505.252         505.252        -5.60769        -5.60769         3.18940         3.18940
            3401         504.532         504.532        -6.35643        -6.35643         1.47680         1.47680
            3402         503.556         503.556        -6.59882        -6.59882    -200.618E-03    -200.618E-03
            3403         502.424         502.424        -6.45202        -6.45202        -1.74879        -1.74879
            3404         501.224         501.224        -6.03479        -6.03479        -3.11784        -3.11784
            3405         500.023         500.023        -5.45243        -5.45243        -4.28948        -4.28948
            3406         498.870         498.870        -4.79020        -4.79020        -5.26720        -5.26720
            3407         497.794         497.794        -4.11087        -4.11087        -6.06628        -6.06628
            3408         496.811         496.811        -3.45741        -3.45741        -6.70776        -6.70776
            3409         495.925         495.925        -2.85542        -2.85542        -7.21399        -7.21399
            3410         495.134         495.134        -2.31728        -2.31728        -7.60577        -7.60577
            3411         494.431         494.431        -1.84544        -1.84544        -7.90108        -7.90108
            3412         493.811         493.811        -1.43552        -1.43552        -8.11429        -8.11429
            3413         493.265         493.265        -1.07852        -1.07852        -8.25614        -8.25614
            3414         492.787         492.787    -762.582E-03    -762.582E-03        -8.33362        -8.33362
            3415         492.374         492.374    -474.000E-03    -474.000E-03        -8.35025        -8.35025
            3416         492.022         492.022    -198.136E-03    -198.136E-03        -8.30600        -8.30600
            3417         491.731         491.731     80.5437E-03     80.5437E-03        -8.19754        -8.19754
            3418         491.504         491.504     377.888E-03     377.888E-03        -8.01807        -8.01807
            3419         491.344         491.344     710.834E-03     710.834E-03        -7.75742        -7.75742
            3420         491.258         491.258         1.09675         1.09675        -7.40167        -7.40167
            3421         491.252         491.252         1.55519         1.55519        -6.93327        -6.93327
            3422         491.338         491.338         2.10666         2.10666        -6.33020        -6.33020
            3423         491.525         491.525         2.77607         2.77607        -5.56630        -5.56630
            3424         491.827         491.827         3.59001         3.59001        -4.60982        -4.60982
            3425         492.255         492.255         4.58369         4.58369        -3.42398        -3.42398
            3426         492.822         492.822         5.79465         5.79465        -1.96513        -1.96513
            3427         493.538         493.538         7.27722         7.27722    -183.145E-03    -183.145E-03
            3428         494.408         494.408         9.08815         9.08815         1.97950         1.97950
            3429         495.429         495.429         11.3169         11.3169         4.58915         4.58915
            3430         496.589         496.589         14.0534         14.0534         7.71543         7.71543
            3431         497.847         497.847         17.4507         17.4507         11.4413         11.4413
            3432         499.140         499.140         21.6546         21.6546         15.8308         15.8308
            3433         500.355         500.355         26.9244         26.9244         20.9701         20.9701
            3434         501.303         501.303         33.4946         33.4946         26.8484         26.8484
            3435         501.760         501.760         41.7474         41.7474         33.4860         33.4860
            3436         501.300         501.300         52.0159         52.0159         40.6092         40.6092
            3437         499.715         499.715         64.5469         64.5469         47.9146         47.9146
            3438         496.524         496.524         79.4681         79.4681         54.7818         54.7818
            3439         491.853         491.853         96.3222         96.3222         60.4416         60.4416
            3440         485.848         485.848         114.429         114.429         64.4158         64.4158
            3441         478.957         478.957         132.586         132.586         65.5285         65.5285
            3442         503.508         503.508        -4.07780        -4.07780         3.59259         3.59259
            3443         503.131         503.131        -4.76165        -4.76165         2.16968         2.16968
            3444         502.510         502.510        -5.05502        -5.05502     699.590E-03     699.590E-03
            3445         501.709         501.709        -5.03248        -5.03248    -722.669E-03    -722.669E-03
            3446         500.794         500.794        -4.77826        -4.77826        -2.03504        -2.03504
            3447         499.818         499.818        -4.37248        -4.37248        -3.20364        -3.20364
            3448         498.826         498.826        -3.88336        -3.88336        -4.21521        -4.21521
            3449         497.847         497.847        -3.36432        -3.36432        -5.07107        -5.07107
            3450         496.901         496.901        -2.85337        -2.85337        -5.78113        -5.78113
            3451         496.000         496.000        -2.37519        -2.37519        -6.35985        -6.35985
            3452         495.148         495.148        -1.94314        -1.94314        -6.82314        -6.82314
            3453         494.348         494.348        -1.56205        -1.56205        -7.18635        -7.18635
            3454         493.598         493.598        -1.23047        -1.23047        -7.46307        -7.46307
            3455         492.896         492.896    -942.653E-03    -942.653E-03        -7.66432        -7.66432
            3456         492.243         492.243    -689.990E-03    -689.990E-03        -7.79829        -7.79829
            3457         491.638         491.638    -462.182E-03    -462.182E-03        -7.87002        -7.87002
            3458         491.082         491.082    -247.736E-03    -247.736E-03        -7.88144        -7.88144
            3459         490.579         490.579    -34.6445E-03    -34.6445E-03        -7.83114        -7.83114
            3460         490.134         490.134     189.865E-03     189.865E-03        -7.71451        -7.71451
            3461         489.755         489.755     438.811E-03     438.811E-03        -7.52333        -7.52333
            3462         489.451         489.451     726.443E-03     726.443E-03        -7.24600        -7.24600
            3463         489.233         489.233         1.06750         1.06750        -6.86672        -6.86672
            3464         489.116         489.116         1.47929         1.47929        -6.36588        -6.36588
            3465         489.117         489.117         1.98015         1.98015        -5.71857        -5.71857
            3466         489.254         489.254         2.59364         2.59364        -4.89531        -4.89531
            3467         489.548         489.548         3.34508         3.34508        -3.85938        -3.85938
            3468         490.021         490.021         4.27028         4.27028        -2.56830        -2.56830
            3469         490.699         490.699         5.40741         5.40741    -969.458E-03    -969.458E-03
            3470         491.600         491.600         6.81619         6.81619     997.616E-03     997.616E-03
            3471         492.748         492.748         8.55821         8.55821         3.40661         3.40661
            3472         494.149         494.149         10.7406         10.7406         6.34315         6.34315
            3473         495.806         495.806         13.4678         13.4678         9.90440         9.90440
            3474         497.679         497.679         16.9417         16.9417         14.2089         14.2089
            3475         499.702         499.702         21.3462         21.3462         19.3583         19.3583
            3476         501.722         501.722         27.0635         27.0635         25.4988         25.4988
            3477         503.471         503.471         34.4225         34.4225         32.6243         32.6243
            3478         504.591         504.591         44.0529         44.0529         40.8110         40.8110
            3479         504.320         504.320         56.4977         56.4977         49.5409         49.5409
            3480         502.423         502.423         71.9963         71.9963         58.2256         58.2256
            3481         498.198         498.198         90.5585         90.5585         65.8470         65.8470
            3482         492.066         492.066         110.996         110.996         71.0961         71.0961
            3483         484.783         484.783         131.695         131.695         72.9888         72.9888
            3484         501.915         501.915        -2.84973        -2.84973         3.70181         3.70181
            3485         501.818         501.818        -3.40973        -3.40973         2.53528         2.53528
            3486         501.496         501.496        -3.68496        -3.68496         1.27517         1.27517
            3487         500.985         500.985        -3.72119        -3.72119     9.37940E-03     9.37940E-03
            3488         500.326         500.326        -3.57500        -3.57500        -1.19797        -1.19797
            3489         499.560         499.560        -3.30379        -3.30379        -2.30512        -2.30512
            3490         498.722         498.722        -2.95884        -2.95884        -3.28940        -3.28940
            3491         497.840         497.840        -2.58175        -2.58175        -4.14241        -4.14241
            3492         496.936         496.936        -2.20355        -2.20355        -4.86596        -4.86596
            3493         496.024         496.024        -1.84508        -1.84508        -5.46817        -5.46817
            3494         495.115         495.115        -1.51863        -1.51863        -5.96052        -5.96052
            3495         494.217         494.217        -1.22951        -1.22951        -6.35569        -6.35569
            3496         493.334         493.334    -977.956E-03    -977.956E-03        -6.66589        -6.66589
            3497         492.470         492.470    -760.480E-03    -760.480E-03        -6.90192        -6.90192
            3498         491.631         491.631    -571.228E-03    -571.228E-03        -7.07237        -7.07237
            3499         490.819         490.819    -402.721E-03    -402.721E-03        -7.18337        -7.18337
            3500         490.041         490.041    -246.637E-03    -246.637E-03        -7.23814        -7.23814
            3501         489.303         489.303    -93.9348E-03    -93.9348E-03        -7.23707        -7.23707
            3502         488.613         488.613     64.6633E-03     64.6633E-03        -7.17729        -7.17729
            3503         487.982         487.982     239.113E-03     239.113E-03        -7.05290        -7.05290
            3504         487.422         487.422     439.580E-03     439.580E-03        -6.85432        -6.85432
            3505         486.948         486.948     677.546E-03     677.546E-03        -6.56865        -6.56865
            3506         486.578         486.578     965.031E-03     965.031E-03        -6.17841        -6.17841
            3507         486.332         486.332         1.31683         1.31683        -5.66232        -5.66232
            3508         486.237         486.237         1.74884         1.74884        -4.99279        -4.99279
            3509         486.319         486.319         2.28269         2.28269        -4.13752        -4.13752
            3510         486.613         486.613         2.94185         2.94185        -3.05469        -3.05469
            3511         487.152         487.152         3.76178         3.76178        -1.69634        -1.69634
            3512         487.979         487.979         4.78035         4.78035     592.418E-06     592.418E-06
            3513         489.133         489.133         6.06167         6.06167         2.10796         2.10796
            3514         490.661         490.661         7.67113         7.67113         4.72107         4.72107
            3515         492.591         492.591         9.73503         9.73503         7.94987         7.94987
            3516         494.958         494.958         12.3726         12.3726         11.9345         11.9345
            3517         497.735         497.735         15.8509         15.8509         16.8463         16.8463
            3518         500.878         500.878         20.3992         20.3992         22.8596         22.8596
            3519         504.176         504.176         26.6020         26.6020         30.2318         30.2318
            3520         507.263         507.263         34.9278         34.9278         38.9956         38.9956
            3521         509.508         509.508         46.5242         46.5242         49.3928         49.3928
            3522         509.393         509.393         62.3711         62.3711         60.3386         60.3386
            3523         506.800         506.800         82.4127         82.4127         70.5270         70.5270
            3524         500.902         500.902         106.087         106.087         78.3911         78.3911
            3525         492.689         492.689         130.532         130.532         81.1017         81.1017
            3526         500.508         500.508        -1.87471        -1.87471         3.55785         3.55785
            3527         500.668         500.668        -2.28561        -2.28561         2.61739         2.61739
            3528         500.618         500.618        -2.50346        -2.50346         1.56485         1.56485
            3529         500.370         500.370        -2.55472        -2.55472     477.041E-03     477.041E-03
            3530         499.945         499.945        -2.47538        -2.47538    -585.943E-03    -585.943E-03
            3531         499.371         499.371        -2.30371        -2.30371        -1.58149        -1.58149
            3532         498.674         498.674        -2.07522        -2.07522        -2.48292        -2.48292
            3533         497.878         497.878        -1.81963        -1.81963        -3.27693        -3.27693
            3534         497.006         497.006        -1.55964        -1.55964        -3.96024        -3.96024
            3535         496.075         496.075        -1.31107        -1.31107        -4.53663        -4.53663
            3536         495.100         495.100        -1.08354        -1.08354        -5.01419        -5.01419
            3537         494.093         494.093    -881.716E-03    -881.716E-03        -5.40313        -5.40313
            3538         493.066         493.066    -706.367E-03    -706.367E-03        -5.71417        -5.71417
            3539         492.027         492.027    -555.590E-03    -555.590E-03        -5.95731        -5.95731
            3540         490.985         490.985    -425.560E-03    -425.560E-03        -6.14110        -6.14110
            3541         489.949         489.949    -311.333E-03    -311.333E-03        -6.27200        -6.27200
            3542         488.926         488.926    -207.163E-03    -207.163E-03        -6.35417        -6.35417
            3543         487.928         487.928    -106.980E-03    -106.980E-03        -6.38912        -6.38912
            3544         486.963         486.963    -4.28545E-03    -4.28545E-03        -6.37576        -6.37576
            3545         486.046         486.046     107.512E-03     107.512E-03        -6.30995        -6.30995
            3546         485.189         485.189     235.605E-03     235.605E-03        -6.18480        -6.18480
            3547         484.412         484.412     387.399E-03     387.399E-03        -5.98976        -5.98976
            3548         483.733         483.733     571.557E-03     571.557E-03        -5.71126        -5.71126
            3549         483.178         483.178     797.353E-03     797.353E-03        -5.33085        -5.33085
            3550         482.774         482.774         1.07667         1.07667        -4.82655        -4.82655
            3551         482.557         482.557         1.42270         1.42270        -4.16894        -4.16894
            3552         482.566         482.566         1.85404         1.85404        -3.32427        -3.32427
            3553         482.850         482.850         2.39169         2.39169        -2.24633        -2.24633
            3554         483.461         483.461         3.06847         3.06847    -883.193E-03    -883.193E-03
            3555         484.467         484.467         3.92072         3.92072     839.320E-03     839.320E-03
            3556         485.934         485.934         5.01316         5.01316         3.00350         3.00350
            3557         487.952         487.952         6.41295         6.41295         5.73223         5.73223
            3558         490.591         490.591         8.26208         8.26208         9.16264         9.16264
            3559         493.951         493.951         10.6921         10.6921         13.5009         13.5009
            3560         498.047         498.047         14.0489         14.0489         18.9908         18.9908
            3561         502.923         502.923         18.6087         18.6087         25.9494         25.9494
            3562         508.312         508.312         25.2899         25.2899         34.8354         34.8354
            3563         513.780         513.780         34.7492         34.7492         45.8469         45.8469
            3564         518.093         518.093         49.3647         49.3647         59.7181         59.7181
            3565         517.828         517.828         71.0935         71.0935         73.9068         73.9068
            3566         513.564         513.564         98.3671         98.3671         85.1191         85.1191
            3567         505.362         505.362         128.330         128.330         90.7459         90.7459
            3568         499.320         499.320        -1.11531        -1.11531         3.15908         3.15908
            3569         499.752         499.752        -1.37786        -1.37786         2.42637         2.42637
            3570         499.973         499.973        -1.52307        -1.52307         1.58545         1.58545
            3571         499.978         499.978        -1.56515        -1.56515     699.409E-03     699.409E-03
            3572         499.772         499.772        -1.52484        -1.52484    -180.298E-03    -180.298E-03
            3573         499.371         499.371        -1.42526        -1.42526        -1.01521        -1.01521
            3574         498.795         498.795        -1.28831        -1.28831        -1.77976        -1.77976
            3575         498.066         498.066        -1.13271        -1.13271        -2.45963        -2.45963
            3576         497.205         497.205    -973.068E-03    -973.068E-03        -3.04959        -3.04959
            3577         496.234         496.234    -819.660E-03    -819.660E-03        -3.55099        -3.55099
            3578         495.173         495.173    -678.963E-03    -678.963E-03        -3.96954        -3.96954
            3579         494.038         494.038    -554.196E-03    -554.196E-03        -4.31337        -4.31337
            3580         492.846         492.846    -446.161E-03    -446.161E-03        -4.59151        -4.59151
            3581         491.611         491.611    -353.821E-03    -353.821E-03        -4.81278        -4.81278
            3582         490.346         490.346    -274.979E-03    -274.979E-03        -4.98492        -4.98492
            3583         489.062         489.062    -206.606E-03    -206.606E-03        -5.11421        -5.11421
            3584         487.771         487.771    -145.283E-03    -145.283E-03        -5.20495        -5.20495
            3585         486.484         486.484    -87.2361E-03    -87.2361E-03        -5.25944        -5.25944
            3586         485.214         485.214    -28.6308E-03    -28.6308E-03        -5.27764        -5.27764
            3587         483.975         483.975     34.6402E-03     34.6402E-03        -5.25735        -5.25735
            3588         482.782         482.782     106.727E-03     106.727E-03        -5.19363        -5.19363
            3589         481.653         481.653     192.257E-03     192.257E-03        -5.07933        -5.07933
            3590         480.609         480.609     296.120E-03     296.120E-03        -4.90380        -4.90380
            3591         479.676         479.676     424.149E-03     424.149E-03        -4.65396        -4.65396
            3592         478.885         478.885     582.973E-03     582.973E-03        -4.31172        -4.31172
            3593         478.273         478.273     781.028E-03     781.028E-03        -3.85612        -3.85612
            3594         477.885         477.885         1.02864         1.02864        -3.25785        -3.25785
            3595         477.774         477.774         1.33977         1.33977        -2.48421        -2.48421
            3596         478.009         478.009         1.73237         1.73237        -1.48693        -1.48693
            3597         478.666         478.666         2.23267         2.23267    -213.930E-03    -213.930E-03
            3598         479.847         479.847         2.87448         2.87448         1.41833         1.41833
            3599         481.662         481.662         3.71433         3.71433         3.49713         3.49713
            3600         484.265         484.265         4.81951         4.81951         6.17658         6.17658
            3601         487.801         487.801         6.33144         6.33144         9.61515         9.61515
            3602         492.499         492.499         8.39086         8.39086         14.1144         14.1144
            3603         498.492         498.492         11.4124         11.4124         19.9983         19.9983
            3604         506.073         506.073         15.7119         15.7119         27.8613         27.8613
            3605         515.006         515.006         22.7195         22.7195         38.4868         38.4868
            3606         525.109         525.109         33.2854         33.2854         52.6898         52.6898
            3607         533.747         533.747         53.0654         53.0654         72.6461         72.6461
            3608         532.326         532.326         86.0937         86.0937         91.8276         91.8276
            3609         523.882         523.882         124.517         124.517         100.479         100.479
            3610         498.398         498.398    -552.804E-03    -552.804E-03         2.46455         2.46455
            3611         499.149         499.149    -688.592E-03    -688.592E-03         1.94165         1.94165
            3612         499.667         499.667    -765.467E-03    -765.467E-03         1.33270         1.33270
            3613         499.931         499.931    -789.738E-03    -789.738E-03     684.295E-03     684.295E-03
            3614         499.935         499.935    -771.651E-03    -771.651E-03     35.2807E-03     35.2807E-03
            3615         499.688         499.688    -722.766E-03    -722.766E-03    -584.590E-03    -584.590E-03
            3616         499.206         499.206    -654.258E-03    -654.258E-03        -1.15499        -1.15499
            3617         498.511         498.511    -575.789E-03    -575.789E-03        -1.66415        -1.66415
            3618         497.629         497.629    -494.928E-03    -494.928E-03        -2.10728        -2.10728
            3619         496.586         496.586    -417.104E-03    -417.104E-03        -2.48487        -2.48487
            3620         495.406         495.406    -345.718E-03    -345.718E-03        -2.80096        -2.80096
            3621         494.113         494.113    -282.547E-03    -282.547E-03        -3.06166        -3.06166
            3622         492.728         492.728    -228.040E-03    -228.040E-03        -3.27392        -3.27392
            3623         491.269         491.269    -181.755E-03    -181.755E-03        -3.44466        -3.44466
            3624         489.754         489.754    -142.569E-03    -142.569E-03        -3.58015        -3.58015
            3625         488.196         488.196    -109.015E-03    -109.015E-03        -3.68549        -3.68549
            3626         486.610         486.610    -79.3298E-03    -79.3298E-03        -3.76452        -3.76452
            3627         485.008         485.008    -51.6916E-03    -51.6916E-03        -3.81946        -3.81946
            3628         483.402         483.402    -24.1239E-03    -24.1239E-03        -3.85103        -3.85103
            3629         481.807         481.807     5.32065E-03     5.32065E-03        -3.85814        -3.85814
            3630         480.238         480.238     38.7601E-03     38.7601E-03        -3.83816        -3.83816
            3631         478.711         478.711     78.3692E-03     78.3692E-03        -3.78631        -3.78631
            3632         477.247         477.247     126.571E-03     126.571E-03        -3.69624        -3.69624
            3633         475.871         475.871     186.178E-03     186.178E-03        -3.55868        -3.55868
            3634         474.613         474.613     260.280E-03     260.280E-03        -3.36270        -3.36270
            3635         473.508         473.508     353.227E-03     353.227E-03        -3.09271        -3.09271
            3636         472.604         472.604     469.435E-03     469.435E-03        -2.73136        -2.73136
            3637         471.956         471.956     616.711E-03     616.711E-03        -2.25269        -2.25269
            3638         471.633         471.633     802.163E-03     802.163E-03        -1.62929        -1.62929
            3639         471.725         471.725         1.04129         1.04129    -815.851E-03    -815.851E-03
            3640         472.339         472.339         1.34749         1.34749     232.570E-03     232.570E-03
            3641         473.619         473.619         1.75352         1.75352         1.60155         1.60155
            3642         475.736         475.736         2.29097         2.29097         3.36970         3.36970
            3643         478.935         478.935         3.03175         3.03175         5.71563         5.71563
            3644         483.493         483.493         4.07341         4.07341         8.79197         8.79197
            3645         489.858         489.858         5.57763         5.57763         13.0152         13.0152
            3646         498.448         498.448         7.93314         7.93314         18.7399         18.7399
            3647         510.159         510.159         11.5131         11.5131         27.0518         27.0518
            3648         525.233         525.233         18.3089         18.3089         39.0813         39.0813
            3649         545.219         545.219         29.2952         29.2952         57.7332         57.7332
            3650         564.690         564.690         59.4674         59.4674         88.9498         88.9498
            3651         561.115         561.115         114.840         114.840         114.757         114.757
            3652         497.818         497.818    -193.783E-03    -193.783E-03         1.40359         1.40359
            3653         498.969         498.969    -242.612E-03    -242.612E-03         1.12042         1.12042
            3654         499.831         499.831    -270.551E-03    -270.551E-03     788.591E-03     788.591E-03
            3655         500.371         500.371    -279.692E-03    -279.692E-03     433.965E-03     433.965E-03
            3656         500.578         500.578    -273.642E-03    -273.642E-03     78.2223E-03     78.2223E-03
            3657         500.458         500.458    -256.483E-03    -256.483E-03    -261.990E-03    -261.990E-03
            3658         500.032         500.032    -232.237E-03    -232.237E-03    -575.209E-03    -575.209E-03
            3659         499.327         499.327    -204.355E-03    -204.355E-03    -854.763E-03    -854.763E-03
            3660         498.376         498.376    -175.596E-03    -175.596E-03        -1.09795        -1.09795
            3661         497.212         497.212    -147.897E-03    -147.897E-03        -1.30506        -1.30506
            3662         495.869         495.869    -122.524E-03    -122.524E-03        -1.47841        -1.47841
            3663         494.376         494.376    -100.096E-03    -100.096E-03        -1.62149        -1.62149
            3664         492.760         492.760    -80.8147E-03    -80.8147E-03        -1.73832        -1.73832
            3665         491.045         491.045    -64.4957E-03    -64.4957E-03        -1.83290        -1.83290
            3666         489.249         489.249    -50.7846E-03    -50.7846E-03        -1.90887        -1.90887
            3667         487.390         487.390    -39.1171E-03    -39.1171E-03        -1.96927        -1.96927
            3668         485.482         485.482    -28.9298E-03    -28.9298E-03        -2.01640        -2.01640
            3669         483.538         483.538    -19.5192E-03    -19.5192E-03        -2.05175        -2.05175
            3670         481.569         481.569    -10.2712E-03    -10.2712E-03        -2.07591        -2.07591
            3671         479.588         479.588    -434.044E-06    -434.044E-06        -2.08867        -2.08867
            3672         477.607         477.607     10.6478E-03     10.6478E-03        -2.08876        -2.08876
            3673         475.641         475.641     23.7646E-03     23.7646E-03        -2.07417        -2.07417
            3674         473.708         473.708     39.7485E-03     39.7485E-03        -2.04156        -2.04156
            3675         471.827         471.827     59.4225E-03     59.4225E-03        -1.98686        -1.98686
            3676         470.026         470.026     84.1701E-03     84.1701E-03        -1.90407        -1.90407
            3677         468.338         468.338     114.728E-03     114.728E-03        -1.78649        -1.78649
            3678         466.803         466.803     153.962E-03     153.962E-03        -1.62399        -1.62399
            3679         465.474         465.474     202.033E-03     202.033E-03        -1.40605        -1.40605
            3680         464.417         464.417     265.610E-03     265.610E-03        -1.11516        -1.11516
            3681         463.715         463.715     342.815E-03     342.815E-03    -734.628E-03    -734.628E-03
            3682         463.477         463.477     449.987E-03     449.987E-03    -231.564E-03    -231.564E-03
            3683         463.842         463.842     579.514E-03     579.514E-03     421.209E-03     421.209E-03
            3684         464.995         464.995     772.389E-03     772.389E-03         1.29304         1.29304
            3685         467.184         467.184         1.00781         1.00781         2.43007         2.43007
            3686         470.756         470.756         1.39032         1.39032         4.00034         4.00034
            3687         476.181         476.181         1.88131         1.88131         6.08800         6.08800
            3688         484.214         484.214         2.75323         2.75323         9.17324         9.17324
            3689         495.841         495.841         4.04666         4.04666         13.4448         13.4448
            3690         513.147         513.147         6.50516         6.50516         20.6098         20.6098
            3691         538.304         538.304         11.6638         11.6638         31.4641         31.4641
            3692         579.962         579.962         21.9920         21.9920         54.8306         54.8306
            3693         632.851         632.851         77.9725         77.9725         100.876         100.876
            3694         28.8175         28.8175        -221.947        -221.947        -27.0498        -27.0498
            3695         104.569         104.569        -90.8511        -90.8511        -71.4638        -71.4638
            3696         203.411         203.411        -28.4919        -28.4919        -77.8942        -77.8942
            3697         296.300         296.300        -4.83857        -4.83857        -64.4403        -64.4403
            3698         368.875         368.875         1.61139         1.61139        -45.6549        -45.6549
            3699         91.8844         91.8844        -164.536        -164.536        -62.2510        -62.2510
            3700         202.874         202.874        -91.0657        -91.0657        -125.028        -125.028
            3701         301.747         301.747        -53.6432        -53.6432        -124.421        -124.421
            3702         375.366         375.366        -33.3381        -33.3381        -96.8062        -96.8062
            3703         424.432         424.432        -21.0885        -21.0885        -65.8005        -65.8005
            3704         197.058         197.058        -95.0258        -95.0258        -103.449        -103.449
            3705         335.013         335.013        -91.9191        -91.9191        -146.755        -146.755
            3706         416.114         416.114        -76.8696        -76.8696        -127.548        -127.548
            3707         458.098         458.098        -56.4294        -56.4294        -91.3685        -91.3685
            3708         478.395         478.395        -37.9427        -37.9427        -58.6653        -58.6653
            3709         335.678         335.678        -33.3647        -33.3647        -138.344        -138.344
            3710         465.167         465.167        -88.6583        -88.6583        -133.095        -133.095
            3711         508.951         508.951        -84.8061        -84.8061        -98.4195        -98.4195
            3712         516.779         516.779        -63.2541        -63.2541        -64.3092        -64.3092
            3713         512.951         512.951        -41.9463        -41.9463        -38.6979        -38.6979
            3714         553.418         553.418         62.4646         62.4646         22.4976         22.4976
            3715         598.818         598.818         96.2589         96.2589         26.4994         26.4994
            3716         680.330         680.330         131.199         131.199         19.3056         19.3056
            3717         822.412         822.412         149.682         149.682        -13.4894        -13.4894
            3718     1.05464E+03     1.05464E+03         123.215         123.215        -88.3393        -88.3393
            3719         559.824         559.824         23.2003         23.2003         27.0258         27.0258
            3720         602.149         602.149         42.3892         42.3892         32.2949         32.2949
            3721         668.916         668.916         69.8377         69.8377         22.3788         22.3788
            3722         773.936         773.936         101.031         101.031        -27.3932        -27.3932
            3723         938.227         938.227         120.451         120.451        -151.270        -151.270
            3724         558.088         558.088        -12.1886        -12.1886         14.6059         14.6059
            3725         595.565         595.565        -10.6939        -10.6939         16.0369         16.0369
            3726         646.761         646.761         1.09438         1.09438         4.65960         4.65960
            3727         709.859         709.859         35.1562         35.1562        -44.8412        -44.8412
            3728         783.879         783.879         102.257         102.257        -178.722        -178.722
            3729         546.575         546.575        -31.2336        -31.2336        -3.02104        -3.02104
            3730         576.448         576.448        -43.5041        -43.5041        -9.41414        -9.41414
            3731         612.699         612.699        -49.7841        -49.7841        -26.0058        -26.0058
            3732         640.668         640.668        -28.4184        -28.4184        -69.0996        -69.0996
            3733         625.984         625.984         63.6976         63.6976        -177.406        -177.406
            3734         358.864         358.864        -23.9676        -23.9676         143.560         143.560
            3735         485.040         485.040        -87.8446        -87.8446         129.524         129.524
            3736         522.231         522.231        -85.2943        -85.2943         92.7620         92.7620
            3737         524.705         524.705        -63.5686        -63.5686         59.3924         59.3924
            3738         517.391         517.391        -41.9896        -41.9896         35.1852         35.1852
            3739         238.353         238.353        -72.8181        -72.8181         116.607         116.607
            3740         379.814         379.814        -92.0369        -92.0369         147.484         147.484
            3741         451.271         451.271        -82.3752        -82.3752         121.991         121.991
            3742         481.839         481.839        -61.4158        -61.4158         84.6992         84.6992
            3743         493.098         493.098        -41.2960        -41.2960         53.1439         53.1439
            3744         137.631         137.631        -130.846        -130.846         82.2980         82.2980
            3745         265.512         265.512        -92.0127        -92.0127         141.663         141.663
            3746         359.157         359.157        -66.9056        -66.9056         133.020         133.020
            3747         418.702         418.702        -47.1349        -47.1349         99.7138         99.7138
            3748         453.570         453.570        -31.5191        -31.5191         66.0011         66.0011
            3749         64.5855         64.5855        -188.613        -188.613         48.9267         48.9267
            3750         162.802         162.802        -91.5300        -91.5300         111.075         111.075
            3751         263.121         263.121        -44.5906        -44.5906         115.325         115.325
            3752         345.287         345.287        -23.3371        -23.3371         92.4096         92.4096
            3753         403.796         403.796        -13.3479        -13.3479         64.0625         64.0625
            3754         21.6311         21.6311        -232.257        -232.257         21.7137         21.7137
            3755         91.7784         91.7784        -91.9496        -91.9496         60.8974         60.8974
            3756         189.194         189.194        -25.0904        -25.0904         67.4719         67.4719
            3757         283.867         283.867    -190.207E-03    -190.207E-03         56.5306         56.5306
            3758         359.620         359.620         5.63611         5.63611         40.4711         40.4711
            3759         547.178         547.178        -32.0852        -32.0852         4.17324         4.17324
            3760         577.000         577.000        -44.2345        -44.2345         10.2855         10.2855
            3761         613.201         613.201        -50.3806        -50.3806         26.6551         26.6551
            3762         641.240         641.240        -28.8842        -28.8842         69.6002         69.6002
            3763         626.714         626.714         63.3895         63.3895         177.834         177.834
            3764         558.538         558.538        -12.8350        -12.8350        -13.5143        -13.5143
            3765         595.982         595.982        -11.2139        -11.2139        -15.2022        -15.2022
            3766         647.154         647.154     732.037E-03     732.037E-03        -4.03455        -4.03455
            3767         710.312         710.312         34.9688         34.9688         45.2917         45.2917
            3768         784.577         784.577         102.313         102.313         179.126         179.126
            3769         560.112         560.112         22.7865         22.7865        -25.9726        -25.9726
            3770         602.409         602.409         42.0961         42.0961        -31.4555        -31.4555
            3771         669.153         669.153         69.6983         69.6983        -21.7221        -21.7221
            3772         774.228         774.228         101.081         101.081         27.9106         27.9106
            3773         938.798         938.798         120.624         120.624         151.705         151.705
            3774         553.553         553.553         62.2720         62.2720        -21.4496        -21.4496
            3775         598.933         598.933         96.1436         96.1436        -25.6233        -25.6233
            3776         680.427         680.427         131.190         131.190        -18.5652        -18.5652
            3777         822.553         822.553         149.777         149.777         14.1134         14.1134
            3778     1.05497E+03     1.05497E+03         123.337         123.337         88.7851         88.7851
            3779         600.928         600.928         57.0612         57.0612        -176.312        -176.312
            3780         629.664         629.664        -38.1635        -38.1635        -73.6192        -73.6192
            3781         607.104         607.104        -57.2222        -57.2222        -31.8286        -31.8286
            3782         573.368         573.368        -48.2958        -48.2958        -14.4898        -14.4898
            3783         544.939         544.939        -34.2850        -34.2850        -7.03365        -7.03365
            3784         731.029         731.029         93.0680         93.0680        -182.555        -182.555
            3785         687.760         687.760         12.9316         12.9316        -52.2712        -52.2712
            3786         637.643         637.643        -19.5810        -19.5810        -4.71950        -4.71950
            3787         591.514         591.514        -25.6334        -25.6334         7.37588         7.37588
            3788         556.141         556.141        -21.8660        -21.8660         7.77392         7.77392
            3789         865.474         865.474         114.976         114.976        -171.449        -171.449
            3790         744.027         744.027         69.8748         69.8748        -35.9273        -35.9273
            3791         660.140         660.140         34.5407         34.5407         16.0004         16.0004
            3792         601.431         601.431         13.3843         13.3843         26.3077         26.3077
            3793         561.235         561.235         2.83780         2.83780         21.8179         21.8179
            3794         986.498         986.498         122.933         122.933        -136.276        -136.276
            3795         794.109         794.109         120.992         120.992        -23.4478        -23.4478
            3796         674.553         674.553         93.5204         93.5204         23.6176         23.6176
            3797         602.263         602.263         62.2150         62.2150         33.3277         33.3277
            3798         558.718         558.718         37.0110         37.0110         27.7357         27.7357
            3799     1.07220E+03     1.07220E+03         122.522         122.522        -76.2707        -76.2707
            3800         830.121         830.121         155.676         155.676        -12.0734        -12.0734
            3801         682.280         682.280         139.885         139.885         16.5452         16.5452
            3802         598.173         598.173         104.529         104.529         23.0208         23.0208
            3803         552.161         552.161         68.8121         68.8121         19.4754         19.4754
            3804         546.482         546.482        -31.3328        -31.3328         3.12022         3.12022
            3805         576.314         576.314        -43.6472        -43.6472         9.56358         9.56358
            3806         612.506         612.506        -49.9554        -49.9554         26.2021         26.2021
            3807         640.456         640.456        -28.6442        -28.6442         69.3036         69.3036
            3808         625.777         625.777         63.3262         63.3262         177.460         177.460
            3809         558.039         558.039        -12.3378        -12.3378        -14.5088        -14.5088
            3810         595.480         595.480        -10.8773        -10.8773        -15.8875        -15.8875
            3811         646.614         646.614     900.929E-03     900.929E-03        -4.46167        -4.46167
            3812         709.606         709.606         34.9516         34.9516         45.0050         45.0050
            3813         783.520         783.520         102.122         102.122         178.736         178.736
            3814         559.826         559.826         23.0086         23.0086        -26.9364        -26.9364
            3815         602.109         602.109         42.1909         42.1909        -32.1371        -32.1371
            3816         668.794         668.794         69.6514         69.6514        -22.1869        -22.1869
            3817         773.652         773.652         100.893         100.893         27.5828         27.5828
            3818         937.676         937.676         120.356         120.356         151.361         151.361
            3819         553.480         553.480         62.2504         62.2504        -22.4473        -22.4473
            3820         598.848         598.848         96.0280         96.0280        -26.3735        -26.3735
            3821         680.234         680.234         131.040         131.040        -19.1027        -19.1027
            3822         822.121         822.121         149.675         149.675         13.6929         13.6929
            3823     1.05392E+03     1.05392E+03         123.300         123.300         88.4168         88.4168
            3824         359.516         359.516        -24.2809        -24.2809         143.852         143.852
            3825         485.850         485.850        -88.4655        -88.4655         129.893         129.893
            3826         523.078         523.078        -86.0459        -86.0459         93.2545         93.2545
            3827         525.612         525.612        -64.4503        -64.4503         60.0850         60.0850
            3828         518.388         518.388        -43.0471        -43.0471         36.1726         36.1726
            3829         238.820         238.820        -73.3486        -73.3486         116.845         116.845
            3830         380.531         380.531        -92.7643        -92.7643         147.876         147.876
            3831         452.103         452.103        -83.2068        -83.2068         122.474         122.474
            3832         482.782         482.782        -62.3650        -62.3650         85.3143         85.3143
            3833         494.195         494.195        -42.4251        -42.4251         53.9848         53.9848
            3834         137.914         137.914        -131.617        -131.617         82.4664         82.4664
            3835         266.059         266.059        -92.8240        -92.8240         142.044         142.044
            3836         359.898         359.898        -67.7796        -67.7796         133.478         133.478
            3837         419.625         419.625        -48.1231        -48.1231         100.248         100.248
            3838         454.721         454.721        -32.6978        -32.6978         66.6847         66.6847
            3839         64.7095         64.7095        -189.621        -189.621         49.0330         49.0330
            3840         163.151         163.151        -92.4016        -92.4016         111.393         111.393
            3841         263.712         263.712        -45.4692        -45.4692         115.710         115.710
            3842         346.136         346.136        -24.3279        -24.3279         92.8311         92.8311
            3843         404.951         404.951        -14.5463        -14.5463         64.5653         64.5653
            3844         21.6474         21.6474        -233.450        -233.450         21.7749         21.7749
            3845         91.9605         91.9605        -92.8600        -92.8600         61.0987         61.0987
            3846         189.639         189.639        -25.9530        -25.9530         67.7151         67.7151
            3847         284.623         284.623        -1.16013        -1.16013         56.7844         56.7844
            3848         360.745         360.745         4.44240         4.44240         40.7535         40.7535
            3849         513.928         513.928        -42.9987        -42.9987        -39.6552        -39.6552
            3850         517.620         517.620        -64.1125        -64.1125        -64.9879        -64.9879
            3851         509.661         509.661        -85.5146        -85.5146        -98.8970        -98.8970
            3852         465.776         465.776        -89.2654        -89.2654        -133.382        -133.382
            3853         336.149         336.149        -33.8127        -33.8127        -138.461        -138.461
            3854         479.473         479.473        -39.0725        -39.0725        -59.4330        -59.4330
            3855         458.958         458.958        -57.3616        -57.3616        -91.9346        -91.9346
            3856         416.794         416.794        -77.6857        -77.6857        -127.975        -127.975
            3857         335.534         335.534        -92.6909        -92.6909        -147.060        -147.060
            3858         197.331         197.331        -95.7632        -95.7632        -103.546        -103.546
            3859         425.541         425.541        -22.2561        -22.2561        -66.3499        -66.3499
            3860         376.173         376.173        -34.2979        -34.2979        -97.2296        -97.2296
            3861         302.305         302.305        -54.4984        -54.4984        -124.769        -124.769
            3862         203.198         203.198        -91.9269        -91.9269        -125.285        -125.285
            3863         91.9847         91.9847        -165.538        -165.538        -62.2885        -62.2885
            3864         369.973         369.973     434.280E-03     434.280E-03        -45.9369        -45.9369
            3865         297.029         297.029        -5.79277        -5.79277        -64.6624        -64.6624
            3866         203.828         203.828        -29.3438        -29.3438        -78.0796        -78.0796
            3867         104.725         104.725        -91.7611        -91.7611        -71.5927        -71.5927
            3868         28.8134         28.8134        -223.150        -223.150        -27.0432        -27.0432


  Minimum               -8.11970        -8.11970        -349.989        -349.989        -275.950        -275.950
         At Node              28              28              28              28             590             590

  Maximum            1.25874E+03     1.25874E+03         167.657         167.657         274.345         274.345
         At Node              27              27             585             585             574             574

           Total     1.91126E+06     1.91126E+06     30.7042E+03     30.7042E+03         921.964         921.964


