********************************************************************************
Field Output Report, written Thu Feb 22 21:47:41 2024

Source 1
---------

   ODB: C:/Users/Isabel Haycock/OneDrive - Imperial College London/Fourth Year/FYP/Isabel Haycock/06 - FE models/Specimen_2/Plate_hole_1.odb
   Step: load
   Frame: Increment      5: Step Time =   0.5000

Loc 1 : Nodal values at shell < composite > < elset = ASSEMBLY_PLATE_1-1_COMPOSITELAYUP-1-1 > from source 1 : SNEG, (fraction = -1.0), Layer = 1
Loc 2 : Nodal values at shell < composite > < elset = ASSEMBLY_PLATE_1-1_COMPOSITELAYUP-1-1 > from source 1 : SPOS, (fraction = 1.0), Layer = 8

Output sorted by column "Node Label".

Field Output reported at nodes for part: PLATE_1-1
   Computation algorithm: EXTRAPOLATE_COMPUTE_AVERAGE
   Averaged at nodes
   Averaging regions: ODB_REGIONS

      Node Label           S.S11           S.S11           S.S22           S.S22           S.S12           S.S12
                          @Loc 1          @Loc 2          @Loc 1          @Loc 2          @Loc 1          @Loc 2
-----------------------------------------------------------------------------------------------------------------
               1         861.541         861.541        -40.0922        -40.0922        -17.6365        -17.6365
               2         819.517         819.517         1.11720         1.11720    -51.2364E-03    -51.2364E-03
               3         819.667         819.667     5.45495E-03     5.45495E-03    -5.76751E-03    -5.76751E-03
               4         828.677         828.677    -51.8465E-03    -51.8465E-03         1.73691         1.73691
               5         861.890         861.890        -39.9498        -39.9498         16.9952         16.9952
               6         819.517         819.517         1.11736         1.11736     51.2317E-03     51.2317E-03
               7         660.114         660.114         18.3569         18.3569        -2.54246        -2.54246
               8         825.659         825.659    -63.3897E-03    -63.3897E-03        -1.46184        -1.46184
               9         863.299         863.299        -41.7632        -41.7632         19.3590         19.3590
              10         876.698         876.698         86.2099         86.2099     986.772E-03     986.772E-03
              11         828.840         828.840    -53.9677E-03    -53.9677E-03        -1.73676        -1.73676
              12         819.666         819.666     5.45611E-03     5.45611E-03     5.76875E-03     5.76875E-03
              13         770.592         770.592         234.340         234.340        -51.0690        -51.0690
              14     1.25292E+03     1.25292E+03         173.474         173.474        -202.541        -202.541
              15         862.367         862.367        -42.0290        -42.0290        -20.5077        -20.5077
              16         825.763         825.763    -66.0601E-03    -66.0601E-03         1.46327         1.46327
              17         876.372         876.372         87.2963         87.2963        -2.50355        -2.50355
              18         770.597         770.597         234.334         234.334         51.0572         51.0572
              19         662.575         662.575         15.9706         15.9706        -2.53923        -2.53923
              20     1.25291E+03     1.25291E+03         173.473         173.473         202.541         202.541
              21        -13.4759        -13.4759        -578.341        -578.341     501.593E-03     501.593E-03
              22         679.596         679.596         154.754         154.754        -332.578        -332.578
              23     2.09027E+03     2.09027E+03         133.621         133.621     237.034E-03     237.034E-03
              24         690.094         690.094         159.299         159.299         337.213         337.213
              25         691.343         691.343         159.485         159.485         337.880         337.880
              26         667.275         667.275         152.589         152.589        -329.055        -329.055
              27     2.09437E+03     2.09437E+03         132.183         132.183         9.73045         9.73045
              28        -13.5704        -13.5704        -580.856        -580.856     544.221E-03     544.221E-03
              29         845.503         845.503        -32.1883        -32.1883        -20.6840        -20.6840
              30         836.184         836.184        -27.0886        -27.0886        -22.6962        -22.6962
              31         828.792         828.792        -21.7298        -21.7298        -22.7894        -22.7894
              32         823.294         823.294        -16.8122        -16.8122        -21.7381        -21.7381
              33         819.379         819.379        -12.5759        -12.5759        -20.1208        -20.1208
              34         816.697         816.697        -9.04952        -9.04952        -18.3083        -18.3083
              35         814.932         814.932        -6.16247        -6.16247        -16.5083        -16.5083
              36         813.837         813.837        -3.82408        -3.82408        -14.8237        -14.8237
              37         813.221         813.221        -1.94418        -1.94418        -13.2981        -13.2981
              38         812.949         812.949    -444.688E-03    -444.688E-03        -11.9410        -11.9410
              39         812.917         812.917     740.330E-03     740.330E-03        -10.7449        -10.7449
              40         813.053         813.053         1.66510         1.66510        -9.69440        -9.69440
              41         813.303         813.303         2.37434         2.37434        -8.77143        -8.77143
              42         813.627         813.627         2.90497         2.90497        -7.95789        -7.95789
              43         813.998         813.998         3.28769         3.28769        -7.23723        -7.23723
              44         814.394         814.394         3.54824         3.54824        -6.59493        -6.59493
              45         814.799         814.799         3.70829         3.70829        -6.01872        -6.01872
              46         815.204         815.204         3.78624         3.78624        -5.49836        -5.49836
              47         815.599         815.599         3.79771         3.79771        -5.02553        -5.02553
              48         815.980         815.980         3.75603         3.75603        -4.59351        -4.59351
              49         816.342         816.342         3.67255         3.67255        -4.19690        -4.19690
              50         816.684         816.684         3.55694         3.55694        -3.83140        -3.83140
              51         817.003         817.003         3.41738         3.41738        -3.49355        -3.49355
              52         817.299         817.299         3.26083         3.26083        -3.18060        -3.18060
              53         817.572         817.572         3.09312         3.09312        -2.89026        -2.89026
              54         817.822         817.822         2.91915         2.91915        -2.62065        -2.62065
              55         818.051         818.051         2.74298         2.74298        -2.37018        -2.37018
              56         818.258         818.258         2.56798         2.56798        -2.13742        -2.13742
              57         818.445         818.445         2.39691         2.39691        -1.92111        -1.92111
              58         818.612         818.612         2.23201         2.23201        -1.72006        -1.72006
              59         818.762         818.762         2.07509         2.07509        -1.53315        -1.53315
              60         818.896         818.896         1.92759         1.92759        -1.35928        -1.35928
              61         819.013         819.013         1.79062         1.79062        -1.19739        -1.19739
              62         819.116         819.116         1.66507         1.66507        -1.04639        -1.04639
              63         819.205         819.205         1.55160         1.55160    -905.235E-03    -905.235E-03
              64         819.282         819.282         1.45072         1.45072    -772.838E-03    -772.838E-03
              65         819.347         819.347         1.36278         1.36278    -648.122E-03    -648.122E-03
              66         819.400         819.400         1.28805         1.28805    -530.002E-03    -530.002E-03
              67         819.443         819.443         1.22672         1.22672    -417.388E-03    -417.388E-03
              68         819.476         819.476         1.17891         1.17891    -309.183E-03    -309.183E-03
              69         819.499         819.499         1.14469         1.14469    -204.290E-03    -204.290E-03
              70         819.513         819.513         1.12409         1.12409    -101.886E-03    -101.886E-03
              71         819.614         819.614         1.00572         1.00572    -55.5346E-03    -55.5346E-03
              72         819.706         819.706     893.949E-03     893.949E-03    -58.1565E-03    -58.1565E-03
              73         819.795         819.795     778.369E-03     778.369E-03    -59.4311E-03    -59.4311E-03
              74         819.875         819.875     661.697E-03     661.697E-03    -59.2898E-03    -59.2898E-03
              75         819.944         819.944     546.748E-03     546.748E-03    -57.7064E-03    -57.7064E-03
              76         819.996         819.996     436.366E-03     436.366E-03    -54.6780E-03    -54.6780E-03
              77         820.027         820.027     333.359E-03     333.359E-03    -50.2434E-03    -50.2434E-03
              78         820.034         820.034     240.435E-03     240.435E-03    -44.4652E-03    -44.4652E-03
              79         820.012         820.012     160.121E-03     160.121E-03    -37.4645E-03    -37.4645E-03
              80         819.958         819.958     94.7026E-03     94.7026E-03    -29.3662E-03    -29.3662E-03
              81         819.868         819.868     46.1010E-03     46.1010E-03    -20.4147E-03    -20.4147E-03
              82         819.740         819.740     15.8350E-03     15.8350E-03    -10.7733E-03    -10.7733E-03
              83         819.677         819.677     5.57137E-03     5.57137E-03    -10.5809E-03    -10.5809E-03
              84         819.708         819.708     5.73718E-03     5.73718E-03    -20.7298E-03    -20.7298E-03
              85         819.760         819.760     5.90319E-03     5.90319E-03    -31.5703E-03    -31.5703E-03
              86         819.833         819.833     6.18492E-03     6.18492E-03    -42.8697E-03    -42.8697E-03
              87         819.930         819.930     6.54787E-03     6.54787E-03    -54.8279E-03    -54.8279E-03
              88         820.051         820.051     6.99044E-03     6.99044E-03    -67.6090E-03    -67.6090E-03
              89         820.198         820.198     7.51475E-03     7.51475E-03    -81.3815E-03    -81.3815E-03
              90         820.374         820.374     8.11611E-03     8.11611E-03    -96.3113E-03    -96.3113E-03
              91         820.580         820.580     8.79493E-03     8.79493E-03    -112.562E-03    -112.562E-03
              92         820.820         820.820     9.54589E-03     9.54589E-03    -130.296E-03    -130.296E-03
              93         821.096         821.096     10.3653E-03     10.3653E-03    -149.666E-03    -149.666E-03
              94         821.413         821.413     11.2450E-03     11.2450E-03    -170.818E-03    -170.818E-03
              95         821.773         821.773     12.1753E-03     12.1753E-03    -193.883E-03    -193.883E-03
              96         822.181         822.181     13.1420E-03     13.1420E-03    -218.971E-03    -218.971E-03
              97         822.641         822.641     14.1261E-03     14.1261E-03    -246.164E-03    -246.164E-03
              98         823.157         823.157     15.1029E-03     15.1029E-03    -275.502E-03    -275.502E-03
              99         823.732         823.732     16.0386E-03     16.0386E-03    -306.976E-03    -306.976E-03
             100         824.372         824.372     16.8921E-03     16.8921E-03    -340.504E-03    -340.504E-03
             101         825.080         825.080     17.6066E-03     17.6066E-03    -375.913E-03    -375.913E-03
             102         825.860         825.860     18.1162E-03     18.1162E-03    -412.915E-03    -412.915E-03
             103         826.714         826.714     18.3301E-03     18.3301E-03    -451.069E-03    -451.069E-03
             104         827.644         827.644     18.1481E-03     18.1481E-03    -489.753E-03    -489.753E-03
             105         828.650         828.650     17.4313E-03     17.4313E-03    -528.110E-03    -528.110E-03
             106         829.730         829.730     16.0371E-03     16.0371E-03    -565.007E-03    -565.007E-03
             107         830.881         830.881     13.7664E-03     13.7664E-03    -598.977E-03    -598.977E-03
             108         832.094         832.094     10.4337E-03     10.4337E-03    -628.165E-03    -628.165E-03
             109         833.358         833.358     5.77995E-03     5.77995E-03    -650.279E-03    -650.279E-03
             110         834.656         834.656    -401.099E-06    -401.099E-06    -662.544E-03    -662.544E-03
             111         835.966         835.966    -8.39137E-03    -8.39137E-03    -661.702E-03    -661.702E-03
             112         837.257         837.257    -18.3497E-03    -18.3497E-03    -644.016E-03    -644.016E-03
             113         838.492         838.492    -30.4663E-03    -30.4663E-03    -605.388E-03    -605.388E-03
             114         839.627         839.627    -44.7093E-03    -44.7093E-03    -541.500E-03    -541.500E-03
             115         840.605         840.605    -60.9405E-03    -60.9405E-03    -448.166E-03    -448.166E-03
             116         841.366         841.366    -78.7038E-03    -78.7038E-03    -321.695E-03    -321.695E-03
             117         841.842         841.842    -97.1811E-03    -97.1811E-03    -159.603E-03    -159.603E-03
             118         841.961         841.961    -115.218E-03    -115.218E-03     38.7551E-03     38.7551E-03
             119         841.654         841.654    -131.016E-03    -131.016E-03     271.174E-03     271.174E-03
             120         840.858         840.858    -142.613E-03    -142.613E-03     531.817E-03     531.817E-03
             121         839.529         839.529    -147.397E-03    -147.397E-03     810.399E-03     810.399E-03
             122         837.646         837.646    -143.054E-03    -143.054E-03         1.09178         1.09178
             123         835.223         835.223    -127.440E-03    -127.440E-03         1.35641         1.35641
             124         832.316         832.316    -99.0887E-03    -99.0887E-03         1.57974         1.57974
             125         829.396         829.396    -150.338E-03    -150.338E-03         3.20352         3.20352
             126         830.983         830.983    -437.223E-03    -437.223E-03         5.76216         5.76216
             127         832.843         832.843    -908.745E-03    -908.745E-03         7.65940         7.65940
             128         834.948         834.948        -1.59568        -1.59568         9.05016         9.05016
             129         837.307         837.307        -2.56854        -2.56854         10.0346         10.0346
             130         839.956         839.956        -3.93437        -3.93437         10.6449         10.6449
             131         842.934         842.934        -5.83684        -5.83684         10.8376         10.8376
             132         846.267         846.267        -8.45361        -8.45361         10.4772         10.4772
             133         849.912         849.912        -11.9843        -11.9843         9.30093         9.30093
             134         853.675         853.675        -16.5984        -16.5984         6.88744         6.88744
             135         857.051         857.051        -22.3324        -22.3324         2.63654         2.63654
             136         859.017         859.017        -28.8498        -28.8498        -4.08843        -4.08843
             137         845.936         845.936        -32.1012        -32.1012         20.0407         20.0407
             138         836.686         836.686        -27.1161        -27.1161         22.1689         22.1689
             139         829.313         829.313        -21.8414        -21.8414         22.3954         22.3954
             140         823.785         823.785        -16.9664        -16.9664         21.4709         21.4709
             141         819.812         819.812        -12.7387        -12.7387         19.9552         19.9552
             142         817.062         817.062        -9.20076        -9.20076         18.2162         18.2162
             143         815.233         815.233        -6.29377        -6.29377         16.4650         16.4650
             144         814.081         814.081        -3.93404        -3.93404         14.8120         14.8120
             145         813.420         813.420        -2.03423        -2.03423         13.3058         13.3058
             146         813.109         813.109    -517.623E-03    -517.623E-03         11.9600         11.9600
             147         813.047         813.047     681.618E-03     681.618E-03         10.7702         10.7702
             148         813.159         813.159         1.61787         1.61787         9.72255         9.72255
             149         813.390         813.390         2.33629         2.33629         8.80035         8.80035
             150         813.699         813.699         2.87416         2.87416         7.98627         7.98627
             151         814.057         814.057         3.26259         3.26259         7.26430         7.26430
             152         814.443         814.443         3.52762         3.52762         6.62025         6.62025
             153         814.841         814.841         3.69122         3.69122         6.04205         6.04205
             154         815.238         815.238         3.77197         3.77197         5.51963         5.51963
             155         815.628         815.628         3.78568         3.78568         5.04475         5.04475
             156         816.005         816.005         3.74581         3.74581         4.61073         4.61073
             157         816.363         816.363         3.66381         3.66381         4.21222         4.21222
             158         816.701         816.701         3.54942         3.54942         3.84495         3.84495
             159         817.017         817.017         3.41090         3.41090         3.50546         3.50546
             160         817.311         817.311         3.25522         3.25522         3.19099         3.19099
             161         817.582         817.582         3.08826         3.08826         2.89928         2.89928
             162         817.831         817.831         2.91494         2.91494         2.62844         2.62844
             163         818.058         818.058         2.73935         2.73935         2.37685         2.37685
             164         818.263         818.263         2.56485         2.56485         2.14310         2.14310
             165         818.449         818.449         2.39423         2.39423         1.92590         1.92590
             166         818.616         818.616         2.22973         2.22973         1.72407         1.72407
             167         818.766         818.766         2.07316         2.07316         1.53648         1.53648
             168         818.898         818.898         1.92596         1.92596         1.36202         1.36202
             169         819.015         819.015         1.78927         1.78927         1.19961         1.19961
             170         819.117         819.117         1.66397         1.66397         1.04818         1.04818
             171         819.206         819.206         1.55072         1.55072     906.640E-03     906.640E-03
             172         819.283         819.283         1.45002         1.45002     773.923E-03     773.923E-03
             173         819.347         819.347         1.36226         1.36226     648.941E-03     648.941E-03
             174         819.400         819.400         1.28769         1.28769     530.600E-03     530.600E-03
             175         819.443         819.443         1.22650         1.22650     417.805E-03     417.805E-03
             176         819.476         819.476         1.17882         1.17882     309.453E-03     309.453E-03
             177         819.499         819.499         1.14472         1.14472     204.439E-03     204.439E-03
             178         819.513         819.513         1.12422         1.12422     101.930E-03     101.930E-03
             179         819.415         819.415         1.23036         1.23036     44.8468E-03     44.8468E-03
             180         819.319         819.319         1.33233         1.33233     36.6426E-03     36.6426E-03
             181         819.242         819.242         1.41212         1.41212     27.1519E-03     27.1519E-03
             182         819.188         819.188         1.46693         1.46693     16.7071E-03     16.7071E-03
             183         819.161         819.161         1.49481         1.49481     5.67245E-03     5.67245E-03
             184         819.161         819.161         1.49479         1.49479    -5.56697E-03    -5.56697E-03
             185         819.189         819.189         1.46687         1.46687    -16.6170E-03    -16.6170E-03
             186         819.242         819.242         1.41204         1.41204    -27.0949E-03    -27.0949E-03
             187         819.319         819.319         1.33221         1.33221    -36.6220E-03    -36.6220E-03
             188         819.415         819.415         1.23021         1.23021    -44.8380E-03    -44.8380E-03
             189         678.310         678.310         9.52754         9.52754         44.9492         44.9492
             190         727.177         727.177        -12.7628        -12.7628         70.6429         70.6429
             191         781.153         781.153        -33.7668        -33.7668         71.8991         71.8991
             192         822.906         822.906        -44.8891        -44.8891         57.1659         57.1659
             193         847.683         847.683        -45.8030        -45.8030         37.5112         37.5112
             194         843.159         843.159        -45.7321        -45.7321        -41.4139        -41.4139
             195         807.436         807.436        -41.0652        -41.0652        -63.4676        -63.4676
             196         749.739         749.739        -21.7513        -21.7513        -72.1728        -72.1728
             197         689.065         689.065         4.56097         4.56097        -50.6606        -50.6606
             198         826.443         826.443    -183.973E-03    -183.973E-03        -2.66900        -2.66900
             199         828.202         828.202    -534.513E-03    -534.513E-03        -4.72612        -4.72612
             200         830.307         830.307        -1.10560        -1.10560        -6.16393        -6.16393
             201         832.715         832.715        -1.92170        -1.92170        -7.14893        -7.14893
             202         835.424         835.424        -3.04714        -3.04714        -7.78835        -7.78835
             203         838.456         838.456        -4.58298        -4.58298        -8.11954        -8.11954
             204         841.842         841.842        -6.66731        -6.66731        -8.10231        -8.10231
             205         845.592         845.592        -9.47241        -9.47241        -7.60262        -7.60262
             206         849.654         849.654        -13.1930        -13.1930        -6.35725        -6.35725
             207         853.824         853.824        -17.9940        -17.9940        -3.94217        -3.94217
             208         857.586         857.586        -23.9075        -23.9075     247.367E-03     247.367E-03
             209         859.902         859.902        -30.5973        -30.5973         6.86259         6.86259
             210         881.080         881.080        -36.5200        -36.5200         1.73548         1.73548
             211         892.346         892.346        -16.8221        -16.8221        -17.4990        -17.4990
             212         892.232         892.232         21.7747         21.7747        -31.2333        -31.2333
             213         882.747         882.747         65.8387         65.8387        -25.4255        -25.4255
             214         882.529         882.529         66.2203         66.2203         27.4166         27.4166
             215         891.783         891.783         22.5481         22.5481         33.2852         33.2852
             216         891.655         891.655        -15.6628        -15.6628         19.6659         19.6659
             217         880.136         880.136        -35.0005        -35.0005     592.585E-03     592.585E-03
             218         824.138         824.138     19.1000E-03     19.1000E-03         1.77896         1.77896
             219         819.411         819.411     102.595E-03     102.595E-03         1.63297         1.63297
             220         815.386         815.386     179.940E-03     179.940E-03         1.27183         1.27183
             221         812.608         812.608     234.572E-03     234.572E-03     733.877E-03     733.877E-03
             222         811.457         811.457     253.630E-03     253.630E-03     97.0899E-03     97.0899E-03
             223         812.066         812.066     232.190E-03     232.190E-03    -536.347E-03    -536.347E-03
             224         814.284         814.284     175.181E-03     175.181E-03        -1.06425        -1.06425
             225         817.711         817.711     95.5043E-03     95.5043E-03        -1.40866        -1.40866
             226         821.785         821.785     9.67879E-03     9.67879E-03        -1.53122        -1.53122
             227         858.879         858.879        -28.9101        -28.9101         4.18186         4.18186
             228         856.952         856.952        -22.3950        -22.3950        -2.56909        -2.56909
             229         853.599         853.599        -16.6653        -16.6653        -6.82974        -6.82974
             230         849.859         849.859        -12.0559        -12.0559        -9.24989        -9.24989
             231         846.235         846.235        -8.52703        -8.52703        -10.4340        -10.4340
             232         842.921         842.921        -5.90721        -5.90721        -10.8035        -10.8035
             233         839.960         839.960        -3.99665        -3.99665        -10.6199        -10.6199
             234         837.328         837.328        -2.61893        -2.61893        -10.0169        -10.0169
             235         834.989         834.989        -1.63247        -1.63247        -9.03754        -9.03754
             236         832.908         832.908    -932.054E-03    -932.054E-03        -7.64986        -7.64986
             237         831.081         831.081    -449.443E-03    -449.443E-03        -5.75500        -5.75500
             238         829.535         829.535    -155.172E-03    -155.172E-03        -3.20050        -3.20050
             239         832.364         832.364    -98.9577E-03    -98.9577E-03        -1.57802        -1.57802
             240         835.266         835.266    -127.550E-03    -127.550E-03        -1.35423        -1.35423
             241         837.685         837.685    -143.065E-03    -143.065E-03        -1.08953        -1.08953
             242         839.564         839.564    -147.435E-03    -147.435E-03    -808.144E-03    -808.144E-03
             243         840.888         840.888    -142.564E-03    -142.564E-03    -529.613E-03    -529.613E-03
             244         841.679         841.679    -130.961E-03    -130.961E-03    -269.104E-03    -269.104E-03
             245         841.983         841.983    -115.124E-03    -115.124E-03    -36.8609E-03    -36.8609E-03
             246         841.860         841.860    -97.0794E-03    -97.0794E-03     161.279E-03     161.279E-03
             247         841.382         841.382    -78.5972E-03    -78.5972E-03     323.147E-03     323.147E-03
             248         840.618         840.618    -60.8361E-03    -60.8361E-03     449.393E-03     449.393E-03
             249         839.637         839.637    -44.6181E-03    -44.6181E-03     542.523E-03     542.523E-03
             250         838.501         838.501    -30.3832E-03    -30.3832E-03     606.229E-03     606.229E-03
             251         837.264         837.264    -18.2841E-03    -18.2841E-03     644.703E-03     644.703E-03
             252         835.972         835.972    -8.33415E-03    -8.33415E-03     662.262E-03     662.262E-03
             253         834.661         834.661    -358.507E-06    -358.507E-06     663.002E-03     663.002E-03
             254         833.362         833.362     5.81662E-03     5.81662E-03     650.654E-03     650.654E-03
             255         832.098         832.098     10.4603E-03     10.4603E-03     628.477E-03     628.477E-03
             256         830.884         830.884     13.7896E-03     13.7896E-03     599.237E-03     599.237E-03
             257         829.733         829.733     16.0539E-03     16.0539E-03     565.226E-03     565.226E-03
             258         828.652         828.652     17.4464E-03     17.4464E-03     528.296E-03     528.296E-03
             259         827.645         827.645     18.1592E-03     18.1592E-03     489.912E-03     489.912E-03
             260         826.715         826.715     18.3405E-03     18.3405E-03     451.206E-03     451.206E-03
             261         825.861         825.861     18.1241E-03     18.1241E-03     413.033E-03     413.033E-03
             262         825.081         825.081     17.6141E-03     17.6141E-03     376.016E-03     376.016E-03
             263         824.373         824.373     16.8979E-03     16.8979E-03     340.593E-03     340.593E-03
             264         823.733         823.733     16.0443E-03     16.0443E-03     307.054E-03     307.054E-03
             265         823.157         823.157     15.1073E-03     15.1073E-03     275.570E-03     275.570E-03
             266         822.641         822.641     14.1304E-03     14.1304E-03     246.223E-03     246.223E-03
             267         822.182         822.182     13.1455E-03     13.1455E-03     219.023E-03     219.023E-03
             268         821.774         821.774     12.1786E-03     12.1786E-03     193.928E-03     193.928E-03
             269         821.413         821.413     11.2477E-03     11.2477E-03     170.857E-03     170.857E-03
             270         821.096         821.096     10.3679E-03     10.3679E-03     149.699E-03     149.699E-03
             271         820.820         820.820     9.54809E-03     9.54809E-03     130.325E-03     130.325E-03
             272         820.580         820.580     8.79699E-03     8.79699E-03     112.587E-03     112.587E-03
             273         820.373         820.373     8.11790E-03     8.11790E-03     96.3321E-03     96.3321E-03
             274         820.198         820.198     7.51644E-03     7.51644E-03     81.3991E-03     81.3991E-03
             275         820.051         820.051     6.99195E-03     6.99195E-03     67.6235E-03     67.6235E-03
             276         819.930         819.930     6.54930E-03     6.54930E-03     54.8396E-03     54.8396E-03
             277         819.833         819.833     6.18624E-03     6.18624E-03     42.8789E-03     42.8789E-03
             278         819.760         819.760     5.90447E-03     5.90447E-03     31.5770E-03     31.5770E-03
             279         819.708         819.708     5.73840E-03     5.73840E-03     20.7343E-03     20.7343E-03
             280         819.677         819.677     5.57258E-03     5.57258E-03     10.5831E-03     10.5831E-03
             281         819.740         819.740     15.8384E-03     15.8384E-03     10.7756E-03     10.7756E-03
             282         819.867         819.867     46.1109E-03     46.1109E-03     20.4190E-03     20.4190E-03
             283         819.957         819.957     94.7228E-03     94.7228E-03     29.3724E-03     29.3724E-03
             284         820.012         820.012     160.155E-03     160.155E-03     37.4724E-03     37.4724E-03
             285         820.034         820.034     240.485E-03     240.485E-03     44.4744E-03     44.4744E-03
             286         820.027         820.027     333.429E-03     333.429E-03     50.2536E-03     50.2536E-03
             287         819.996         819.996     436.457E-03     436.457E-03     54.6890E-03     54.6890E-03
             288         819.943         819.943     546.860E-03     546.860E-03     57.7174E-03     57.7174E-03
             289         819.875         819.875     661.830E-03     661.830E-03     59.3009E-03     59.3009E-03
             290         819.794         819.794     778.522E-03     778.522E-03     59.4404E-03     59.4404E-03
             291         819.706         819.706     894.120E-03     894.120E-03     58.1648E-03     58.1648E-03
             292         819.614         819.614         1.00589         1.00589     55.5262E-03     55.5262E-03
             293         774.622         774.622         224.764         224.764        -51.4004        -51.4004
             294         782.693         782.693         205.481         205.481        -51.1190        -51.1190
             295         790.535         790.535         186.171         186.171        -49.4917        -49.4917
             296         797.964         797.964         167.233         167.233        -47.0661        -47.0661
             297         804.800         804.800         148.972         148.972        -43.9027        -43.9027
             298         810.922         810.922         131.656         131.656        -40.1541        -40.1541
             299         816.259         816.259         115.479         115.479        -35.9645        -35.9645
             300         820.760         820.760         100.588         100.588        -31.5190        -31.5190
             301         824.457         824.457         87.0447         87.0447        -26.9791        -26.9791
             302         827.371         827.371         74.8666         74.8666        -22.4911        -22.4911
             303         829.591         829.591         64.0168         64.0168        -18.1773        -18.1773
             304         831.178         831.178         54.4301         54.4301        -14.1186        -14.1186
             305         832.231         832.231         46.0213         46.0213        -10.3801        -10.3801
             306         832.820         832.820         38.6899         38.6899        -6.98654        -6.98654
             307         833.029         833.029         32.3389         32.3389        -3.95547        -3.95547
             308         832.921         832.921         26.8639         26.8639        -1.27635        -1.27635
             309         832.559         832.559         22.1731         22.1731         1.06277         1.06277
             310         831.990         831.990         18.1721         18.1721         3.08973         3.08973
             311         831.259         831.259         14.7804         14.7804         4.83090         4.83090
             312         830.401         830.401         11.9171         11.9171         6.32005         6.32005
             313         829.448         829.448         9.51308         9.51308         7.58833         7.58833
             314         828.423         828.423         7.50017         7.50017         8.66951         8.66951
             315         827.350         827.350         5.81875         5.81875         9.59466         9.59466
             316         826.245         826.245         4.41057         4.41057         10.3953         10.3953
             317         825.126         825.126         3.22313         3.22313         11.1007         11.1007
             318         824.010         824.010         2.20488         2.20488         11.7400         11.7400
             319         822.912         822.912         1.30760         1.30760         12.3411         12.3411
             320         821.849         821.849     483.061E-03     483.061E-03         12.9317         12.9317
             321         820.842         820.842    -316.024E-03    -316.024E-03         13.5394         13.5394
             322         819.915         819.915        -1.13852        -1.13852         14.1918         14.1918
             323         819.100         819.100        -2.03506        -2.03506         14.9167         14.9167
             324         818.438         818.438        -3.06031        -3.06031         15.7413         15.7413
             325         817.984         817.984        -4.27425        -4.27425         16.6912         16.6912
             326         817.814         817.814        -5.74427        -5.74427         17.7872         17.7872
             327         818.028         818.028        -7.54729        -7.54729         19.0400         19.0400
             328         818.765         818.765        -9.76954        -9.76954         20.4411         20.4411
             329         820.211         820.211        -12.5064        -12.5064         21.9458         21.9458
             330         822.608         822.608        -15.8483        -15.8483         23.4473         23.4473
             331         826.256         826.256        -19.8595        -19.8595         24.7370         24.7370
             332         831.486         831.486        -24.5013        -24.5013         25.4486         25.4486
             333         838.584         838.584        -29.5291        -29.5291         25.0236         25.0236
             334         847.578         847.578        -34.2515        -34.2515         22.7113         22.7113
             335         828.675         828.675    -112.422E-03    -112.422E-03        -1.27713        -1.27713
             336         830.955         830.955    -142.331E-03    -142.331E-03        -1.02484        -1.02484
             337         832.691         832.691    -159.594E-03    -159.594E-03    -727.769E-03    -727.769E-03
             338         833.819         833.819    -165.431E-03    -165.431E-03    -410.504E-03    -410.504E-03
             339         834.319         834.319    -162.301E-03    -162.301E-03    -92.5450E-03    -92.5450E-03
             340         834.203         834.203    -152.117E-03    -152.117E-03     210.984E-03     210.984E-03
             341         833.512         833.512    -137.940E-03    -137.940E-03     489.774E-03     489.774E-03
             342         832.298         832.298    -121.136E-03    -121.136E-03     737.959E-03     737.959E-03
             343         830.627         830.627    -104.182E-03    -104.182E-03     953.220E-03     953.220E-03
             344         828.562         828.562    -87.2899E-03    -87.2899E-03         1.13605         1.13605
             345         826.164         826.164    -72.3900E-03    -72.3900E-03         1.28870         1.28870
             346         823.492         823.492    -58.3774E-03    -58.3774E-03         1.41451         1.41451
             347         820.593         820.593    -47.2836E-03    -47.2836E-03         1.51724         1.51724
             348         817.511         817.511    -36.5130E-03    -36.5130E-03         1.60063         1.60063
             349         814.279         814.279    -29.1157E-03    -29.1157E-03         1.66806         1.66806
             350         810.927         810.927    -20.4943E-03    -20.4943E-03         1.72238         1.72238
             351         807.478         807.478    -15.9022E-03    -15.9022E-03         1.76576         1.76576
             352         803.952         803.952    -7.62843E-03    -7.62843E-03         1.79963         1.79963
             353         800.368         800.368    -4.85164E-03    -4.85164E-03         1.82470         1.82470
             354         796.744         796.744     5.31742E-03     5.31742E-03         1.84084         1.84084
             355         793.096         793.096     6.99817E-03     6.99817E-03         1.84722         1.84722
             356         789.448         789.448     21.8809E-03     21.8809E-03         1.84207         1.84207
             357         785.822         785.822     22.6923E-03     22.6923E-03         1.82296         1.82296
             358         782.252         782.252     46.1982E-03     46.1982E-03         1.78616         1.78616
             359         778.775         778.775     45.6468E-03     45.6468E-03         1.72736         1.72736
             360         775.442         775.442     83.8314E-03     83.8314E-03         1.64003         1.64003
             361         772.315         772.315     80.3208E-03     80.3208E-03         1.51749         1.51749
             362         769.475         769.475     143.511E-03     143.511E-03         1.34831         1.34831
             363         767.024         767.024     133.541E-03     133.541E-03         1.12255         1.12255
             364         765.095         765.095     241.027E-03     241.027E-03     818.652E-03     818.652E-03
             365         763.856         763.856     217.254E-03     217.254E-03     422.568E-03     422.568E-03
             366         763.531         763.531     409.043E-03     409.043E-03    -111.684E-03    -111.684E-03
             367         764.419         764.419     354.702E-03     354.702E-03    -801.206E-03    -801.206E-03
             368         766.921         766.921     725.518E-03     725.518E-03        -1.75928        -1.75928
             369         771.604         771.604     595.982E-03     595.982E-03        -2.99442        -2.99442
             370         779.289         779.289         1.41138         1.41138        -4.83348        -4.83348
             371         791.197         791.197         1.06539         1.06539        -7.21747        -7.21747
             372         809.388         809.388         3.25655         3.25655        -11.2894        -11.2894
             373         837.069         837.069         2.16145         2.16145        -16.6501        -16.6501
             374         881.776         881.776         10.4051         10.4051        -28.7830        -28.7830
             375         955.857         955.857         6.08825         6.08825        -45.7058        -45.7058
             376     1.12742E+03     1.12742E+03         80.7520         80.7520        -127.761        -127.761
             377     1.09664E+03     1.09664E+03         211.046         211.046        -215.486        -215.486
             378         915.516         915.516         243.438         243.438        -201.430        -201.430
             379         865.899         865.899         239.047         239.047        -169.376        -169.376
             380         831.849         831.849         238.747         238.747        -152.293        -152.293
             381         813.675         813.675         237.048         237.048        -134.631        -134.631
             382         800.360         800.360         236.189         236.189        -121.316        -121.316
             383         791.785         791.785         235.491         235.491        -108.474        -108.474
             384         785.240         785.240         235.014         235.014        -97.4816        -97.4816
             385         780.639         780.639         234.736         234.736        -86.9923        -86.9923
             386         777.035         777.035         234.519         234.519        -77.4752        -77.4752
             387         774.375         774.375         234.426         234.426        -68.3644        -68.3644
             388         772.260         772.260         234.343         234.343        -59.8299        -59.8299
             389         859.560         859.560        -30.7364        -30.7364        -7.30209        -7.30209
             390         857.382         857.382        -24.1455        -24.1455    -661.732E-03    -661.732E-03
             391         853.742         853.742        -18.2856        -18.2856         3.60313         3.60313
             392         849.655         849.655        -13.4888        -13.4888         6.11002         6.11002
             393         845.637         845.637        -9.73799        -9.73799         7.43880         7.43880
             394         841.904         841.904        -6.88626        -6.88626         8.00313         8.00313
             395         838.522         838.522        -4.75236        -4.75236         8.06574         8.06574
             396         835.486         835.486        -3.17052        -3.17052         7.76456         7.76456
             397         832.774         832.774        -2.00540        -2.00540         7.14351         7.14351
             398         830.367         830.367        -1.15655        -1.15655         6.16831         6.16831
             399         828.270         828.270    -559.914E-03    -559.914E-03         4.73335         4.73335
             400         826.532         826.532    -192.523E-03    -192.523E-03         2.67327         2.67327
             401         822.160         822.160     655.860E-06     655.860E-06         1.54481         1.54481
             402         818.369         818.369     78.4256E-03     78.4256E-03         1.46413         1.46413
             403         815.023         815.023     154.824E-03     154.824E-03         1.19505         1.19505
             404         812.572         812.572     215.416E-03     215.416E-03     758.507E-03     758.507E-03
             405         811.378         811.378     253.100E-03     253.100E-03     202.069E-03     202.069E-03
             406         811.646         811.646     252.135E-03     252.135E-03    -397.851E-03    -397.851E-03
             407         813.368         813.368     217.991E-03     217.991E-03    -953.839E-03    -953.839E-03
             408         816.344         816.344     162.417E-03     162.417E-03        -1.39994        -1.39994
             409         820.238         820.238     87.7359E-03     87.7359E-03        -1.68727        -1.68727
             410         824.621         824.621     11.2273E-03     11.2273E-03        -1.79144        -1.79144
             411         880.668         880.668         73.6344         73.6344         23.0239         23.0239
             412         889.943         889.943         37.6499         37.6499         33.2112         33.2112
             413         894.574         894.574    -89.5932E-03    -89.5932E-03         26.7389         26.7389
             414         890.227         890.227        -26.3749        -26.3749         11.1633         11.1633
             415         878.803         878.803        -38.6928        -38.6928        -4.85117        -4.85117
             416         880.020         880.020        -35.1431        -35.1431    -459.362E-03    -459.362E-03
             417         891.602         891.602        -15.9337        -15.9337        -19.5275        -19.5275
             418         891.835         891.835         22.1293         22.1293        -33.2179        -33.2179
             419         882.690         882.690         65.7163         65.7163        -27.5333        -27.5333
             420         774.626         774.626         224.759         224.759         51.3859         51.3859
             421         782.693         782.693         205.480         205.480         51.0979         51.0979
             422         790.532         790.532         186.176         186.176         49.4634         49.4634
             423         797.958         797.958         167.244         167.244         47.0314         47.0314
             424         804.791         804.791         148.991         148.991         43.8627         43.8627
             425         810.911         810.911         131.682         131.682         40.1111         40.1111
             426         816.246         816.246         115.513         115.513         35.9203         35.9203
             427         820.746         820.746         100.629         100.629         31.4760         31.4760
             428         824.443         824.443         87.0909         87.0909         26.9390         26.9390
             429         827.359         827.359         74.9171         74.9171         22.4555         22.4555
             430         829.582         829.582         64.0698         64.0698         18.1472         18.1472
             431         831.172         831.172         54.4843         54.4843         14.0948         14.0948
             432         832.229         832.229         46.0753         46.0753         10.3631         10.3631
             433         832.823         832.823         38.7427         38.7427         6.97639         6.97639
             434         833.037         833.037         32.3894         32.3894         3.95226         3.95226
             435         832.933         832.933         26.9114         26.9114         1.27975         1.27975
             436         832.574         832.574         22.2172         22.2172        -1.05290        -1.05290
             437         832.008         832.008         18.2126         18.2126        -3.07390        -3.07390
             438         831.280         831.280         14.8171         14.8171        -4.80935        -4.80935
             439         830.424         830.424         11.9502         11.9502        -6.29328        -6.29328
             440         829.471         829.471         9.54294         9.54294        -7.55663        -7.55663
             441         828.445         828.445         7.52708         7.52708        -8.63334        -8.63334
             442         827.369         827.369         5.84334         5.84334        -9.55430        -9.55430
             443         826.261         826.261         4.43343         4.43343        -10.3511        -10.3511
             444         825.138         825.138         3.24515         3.24515        -11.0530        -11.0530
             445         824.015         824.015         2.22698         2.22698        -11.6893        -11.6893
             446         822.908         822.908         1.33100         1.33100        -12.2876        -12.2876
             447         821.835         821.835     509.086E-03     509.086E-03        -12.8761        -12.8761
             448         820.814         820.814    -285.666E-03    -285.666E-03        -13.4821        -13.4821
             449         819.870         819.870        -1.10190        -1.10190        -14.1340        -14.1340
             450         819.034         819.034        -1.98977        -1.98977        -14.8597        -14.8597
             451         818.345         818.345        -3.00364        -3.00364        -15.6874        -15.6874
             452         817.858         817.858        -4.20300        -4.20300        -16.6436        -16.6436
             453         817.646         817.646        -5.65517        -5.65517        -17.7513        -17.7513
             454         817.810         817.810        -7.43706        -7.43706        -19.0238        -19.0238
             455         818.488         818.488        -9.63638        -9.63638        -20.4566        -20.4566
             456         819.865         819.865        -12.3512        -12.3512        -22.0104        -22.0104
             457         822.190         822.190        -15.6789        -15.6789        -23.5854        -23.5854
             458         825.775         825.775        -19.6953        -19.6953        -24.9764        -24.9764
             459         830.971         830.971        -24.3759        -24.3759        -25.8137        -25.8137
             460         838.085         838.085        -29.4831        -29.4831        -25.5182        -25.5182
             461         847.153         847.153        -34.3158        -34.3158        -23.3129        -23.3129
             462         845.004         845.004        -47.7943        -47.7943        -43.4422        -43.4422
             463         809.583         809.583        -43.2812        -43.2812        -65.0797        -65.0797
             464         752.077         752.077        -24.0689        -24.0689        -73.3025        -73.3025
             465         691.492         691.492         2.19462         2.19462        -51.2375        -51.2375
             466         680.778         680.778         7.13654         7.13654         45.4819         45.4819
             467         729.604         729.604        -15.1309        -15.1309         71.6375         71.6375
             468         783.464         783.464        -36.0706        -36.0706         73.3049         73.3049
             469         825.010         825.010        -47.0835        -47.0835         58.9401         58.9401
             470         849.502         849.502        -47.8527        -47.8527         39.6145         39.6145
             471         769.141         769.141         234.327         234.327        -41.6649        -41.6649
             472         768.028         768.028         234.339         234.339        -32.0367        -32.0367
             473         767.256         767.256         234.351         234.351        -22.7105        -22.7105
             474         766.776         766.776         234.367         234.367        -13.5613        -13.5613
             475         766.543         766.543         234.372         234.372        -4.53952        -4.53952
             476         766.546         766.546         234.368         234.368         4.46246         4.46246
             477         766.782         766.782         234.357         234.357         13.4936         13.4936
             478         767.263         767.263         234.338         234.338         22.6567         22.6567
             479         768.035         768.035         234.325         234.325         31.9989         31.9989
             480         769.148         769.148         234.317         234.317         41.6422         41.6422
             481         772.262         772.262         234.339         234.339         59.8229         59.8229
             482         774.376         774.376         234.424         234.424         68.3596         68.3596
             483         777.036         777.036         234.518         234.518         77.4715         77.4715
             484         780.640         780.640         234.736         234.736         86.9894         86.9894
             485         785.241         785.241         235.014         235.014         97.4792         97.4792
             486         791.786         791.786         235.491         235.491         108.472         108.472
             487         800.360         800.360         236.189         236.189         121.315         121.315
             488         813.676         813.676         237.048         237.048         134.630         134.630
             489         831.849         831.849         238.747         238.747         152.292         152.292
             490         865.900         865.900         239.047         239.047         169.375         169.375
             491         915.516         915.516         243.438         243.438         201.429         201.429
             492     1.09664E+03     1.09664E+03         211.046         211.046         215.485         215.485
             493     1.12741E+03     1.12741E+03         80.7520         80.7520         127.761         127.761
             494         955.857         955.857         6.08822         6.08822         45.7055         45.7055
             495         881.777         881.777         10.4051         10.4051         28.7827         28.7827
             496         837.070         837.070         2.16142         2.16142         16.6500         16.6500
             497         809.389         809.389         3.25652         3.25652         11.2892         11.2892
             498         791.198         791.198         1.06536         1.06536         7.21741         7.21741
             499         779.291         779.291         1.41136         1.41136         4.83348         4.83348
             500         771.606         771.606     595.959E-03     595.959E-03         2.99446         2.99446
             501         766.922         766.922     725.499E-03     725.499E-03         1.75936         1.75936
             502         764.421         764.421     354.688E-03     354.688E-03     801.317E-03     801.317E-03
             503         763.533         763.533     409.031E-03     409.031E-03     111.819E-03     111.819E-03
             504         763.857         763.857     217.246E-03     217.246E-03    -422.415E-03    -422.415E-03
             505         765.095         765.095     241.021E-03     241.021E-03    -818.486E-03    -818.486E-03
             506         767.025         767.025     133.538E-03     133.538E-03        -1.12237        -1.12237
             507         769.475         769.475     143.509E-03     143.509E-03        -1.34813        -1.34813
             508         772.314         772.314     80.3205E-03     80.3205E-03        -1.51731        -1.51731
             509         775.441         775.441     83.8319E-03     83.8319E-03        -1.63985        -1.63985
             510         778.774         778.774     45.6476E-03     45.6476E-03        -1.72718        -1.72718
             511         782.250         782.250     46.2000E-03     46.2000E-03        -1.78598        -1.78598
             512         785.820         785.820     22.6929E-03     22.6929E-03        -1.82279        -1.82279
             513         789.445         789.445     21.8833E-03     21.8833E-03        -1.84190        -1.84190
             514         793.094         793.094     6.99802E-03     6.99802E-03        -1.84704        -1.84704
             515         796.741         796.741     5.32033E-03     5.32033E-03        -1.84066        -1.84066
             516         800.365         800.365    -4.85311E-03    -4.85311E-03        -1.82452        -1.82452
             517         803.949         803.949    -7.62504E-03    -7.62504E-03        -1.79946        -1.79946
             518         807.474         807.474    -15.9054E-03    -15.9054E-03        -1.76558        -1.76558
             519         810.922         810.922    -20.4901E-03    -20.4901E-03        -1.72220        -1.72220
             520         814.274         814.274    -29.1200E-03    -29.1200E-03        -1.66787        -1.66787
             521         817.506         817.506    -36.5063E-03    -36.5063E-03        -1.60043        -1.60043
             522         820.588         820.588    -47.2842E-03    -47.2842E-03        -1.51705        -1.51705
             523         823.486         823.486    -58.3608E-03    -58.3608E-03        -1.41433        -1.41433
             524         826.158         826.158    -72.3708E-03    -72.3708E-03        -1.28854        -1.28854
             525         828.555         828.555    -87.2439E-03    -87.2439E-03        -1.13595        -1.13595
             526         830.620         830.620    -104.110E-03    -104.110E-03    -953.224E-03    -953.224E-03
             527         832.292         832.292    -121.030E-03    -121.030E-03    -738.123E-03    -738.123E-03
             528         833.506         833.506    -137.779E-03    -137.779E-03    -490.193E-03    -490.193E-03
             529         834.199         834.199    -151.947E-03    -151.947E-03    -211.716E-03    -211.716E-03
             530         834.316         834.316    -162.084E-03    -162.084E-03     91.4391E-03     91.4391E-03
             531         833.819         833.819    -165.299E-03    -165.299E-03     409.058E-03     409.058E-03
             532         832.694         832.694    -159.521E-03    -159.521E-03     726.123E-03     726.123E-03
             533         830.961         830.961    -142.443E-03    -142.443E-03         1.02323         1.02323
             534         828.683         828.683    -112.840E-03    -112.840E-03         1.27651         1.27651
             535         13.2004         13.2004        -408.852        -408.852        -1.90225        -1.90225
             536         112.548         112.548        -151.622        -151.622        -5.12975        -5.12975
             537         271.681         271.681        -28.7172        -28.7172        -5.84713        -5.84713
             538         435.616         435.616         14.9398         14.9398        -5.09680        -5.09680
             539         571.597         571.597         22.0209         22.0209        -3.67286        -3.67286
             540         885.125         885.125        -63.9734        -63.9734        -32.9451        -32.9451
             541         917.461         917.461        -96.2425        -96.2425        -59.1547        -59.1547
             542         947.989         947.989        -126.056        -126.056        -101.571        -101.571
             543         940.805         940.805        -117.018        -117.018        -167.951        -167.951
             544         800.269         800.269         29.4361         29.4361        -270.398        -270.398
             545         402.718         402.718         29.0003         29.0003        -214.189        -214.189
             546         187.438         187.438        -152.942        -152.942        -98.9039        -98.9039
             547         60.7222         60.7222        -353.133        -353.133        -17.5266        -17.5266
             548         2.10984         2.10984        -512.179        -512.179         11.0408         11.0408
             549         914.680         914.680         133.261         133.261     867.282E-03     867.282E-03
             550         992.691         992.691         198.280         198.280     743.010E-03     743.010E-03
             551     1.13966E+03     1.13966E+03         258.298         258.298     649.473E-03     649.473E-03
             552     1.40161E+03     1.40161E+03         276.429         276.429     551.367E-03     551.367E-03
             553     1.82907E+03     1.82907E+03         201.365         201.365     365.213E-03     365.213E-03
             554     1.99191E+03     1.99191E+03         156.224         156.224        -230.901        -230.901
             555     1.72793E+03     1.72793E+03         206.781         206.781        -394.728        -394.728
             556     1.37142E+03     1.37142E+03         241.962         241.962        -457.546        -457.546
             557     1.00314E+03     1.00314E+03         225.024         225.024        -425.559        -425.559
             558         809.506         809.506         32.1255         32.1255         272.020         272.020
             559         947.122         947.122        -116.406        -116.406         165.938         165.938
             560         951.540         951.540        -125.702        -125.702         99.1578         99.1578
             561         919.265         919.265        -95.9142        -95.9142         57.2914         57.2914
             562         885.982         885.982        -63.6803        -63.6803         31.6944         31.6944
             563        -3.40255        -3.40255        -539.402        -539.402        -12.7372        -12.7372
             564         32.9648         32.9648        -419.774        -419.774    -479.094E-03    -479.094E-03
             565         110.781         110.781        -256.552        -256.552         49.6120         49.6120
             566         244.550         244.550        -87.2387        -87.2387         133.480         133.480
             567         441.149         441.149         56.7717         56.7717         233.978         233.978
             568         887.409         887.409        -65.2397        -65.2397         33.4675         33.4675
             569         920.625         920.625        -97.1893        -97.1893         58.5123         58.5123
             570         952.858         952.858        -126.737        -126.737         99.9685         99.9685
             571         948.483         948.483        -117.171        -117.171         166.485         166.485
             572         810.832         810.832         31.9195         31.9195         272.581         272.581
             573     1.00446E+03     1.00446E+03         224.688         224.688         426.235         426.235
             574     1.37289E+03     1.37289E+03         242.304         242.304         458.280         458.280
             575     1.72923E+03     1.72923E+03         207.094         207.094         395.402         395.402
             576     1.99269E+03     1.99269E+03         156.399         156.399         231.440         231.440
             577         791.532         791.532         26.2753         26.2753        -269.380        -269.380
             578         937.010         937.010        -120.625        -120.625        -170.158        -170.158
             579         946.237         946.237        -128.682        -128.682        -104.465        -104.465
             580         916.898         916.898        -98.2679        -98.2679        -61.9378        -61.9378
             581         885.369         885.369        -65.8383        -65.8383        -35.7142        -35.7142
             582         914.406         914.406         134.603         134.603        -2.70800        -2.70800
             583         992.726         992.726         199.694         199.694        -2.87365        -2.87365
             584     1.14038E+03     1.14038E+03         259.372         259.372        -2.02373        -2.02373
             585     1.40336E+03     1.40336E+03         276.820         276.820     655.513E-03     655.513E-03
             586     1.83229E+03     1.83229E+03         200.654         200.654         6.14002         6.14002
             587     2.03115E+03     2.03115E+03         147.683         147.683        -198.473        -198.473
             588     1.83790E+03     1.83790E+03         189.058         189.058        -355.425        -355.425
             589     1.56061E+03     1.56061E+03         230.951         230.951        -444.508        -444.508
             590     1.24801E+03     1.24801E+03         246.743         246.743        -461.006        -461.006
             591         944.436         944.436         220.530         220.530        -416.840        -416.840
             592     1.00277E+03     1.00277E+03         224.252         224.252         425.423         425.423
             593     1.37077E+03     1.37077E+03         241.872         241.872         457.409         457.409
             594     1.72677E+03     1.72677E+03         206.619         206.619         394.720         394.720
             595     1.99019E+03     1.99019E+03         156.410         156.410         230.869         230.869
             596         573.412         573.412         20.0700         20.0700        -3.65116        -3.65116
             597         436.775         436.775         13.3692         13.3692        -5.05318        -5.05318
             598         272.292         272.292        -30.1183        -30.1183        -5.78417        -5.78417
             599         112.719         112.719        -153.147        -153.147        -5.06035        -5.06035
             600         13.1462         13.1462        -410.947        -410.947        -1.84686        -1.84686
             601        -3.45702        -3.45702        -541.720        -541.720        -12.8057        -12.8057
             602         32.9967         32.9967        -421.621        -421.621    -562.322E-03    -562.322E-03
             603         110.993         110.993        -257.791        -257.791         49.6255         49.6255
             604         245.022         245.022        -87.8807        -87.8807         133.697         133.697
             605         442.000         442.000         56.6399         56.6399         234.406         234.406
             606         403.316         403.316         28.4645         28.4645        -214.269        -214.269
             607         187.614         187.614        -154.119        -154.119        -98.8187        -98.8187
             608         60.7134         60.7134        -354.969        -354.969        -17.3290        -17.3290
             609         2.02479         2.02479        -514.520        -514.520         11.2097         11.2097
             610         850.232         850.232        -28.2041        -28.2041        -10.5164        -10.5164
             611         842.665         842.665        -25.3623        -25.3623        -14.0675        -14.0675
             612         835.990         835.990        -21.6290        -21.6290        -15.9720        -15.9720
             613         830.471         830.471        -17.6816        -17.6816        -16.6034        -16.6034
             614         826.124         826.124        -13.9424        -13.9424        -16.3947        -16.3947
             615         822.823         822.823        -10.6061        -10.6061        -15.6881        -15.6881
             616         820.390         820.390        -7.73521        -7.73521        -14.7292        -14.7292
             617         818.648         818.648        -5.31921        -5.31921        -13.6721        -13.6721
             618         817.442         817.442        -3.31969        -3.31969        -12.6085        -12.6085
             619         816.645         816.645        -1.68676        -1.68676        -11.5882        -11.5882
             620         816.156         816.156    -370.805E-03    -370.805E-03        -10.6350        -10.6350
             621         815.897         815.897     674.830E-03     674.830E-03        -9.75727        -9.75727
             622         815.806         815.806         1.49153         1.49153        -8.95466        -8.95466
             623         815.837         815.837         2.11573         2.11573        -8.22245        -8.22245
             624         815.955         815.955         2.57891         2.57891        -7.55402        -7.55402
             625         816.131         816.131         2.90829         2.90829        -6.94232        -6.94232
             626         816.345         816.345         3.12723         3.12723        -6.38065        -6.38065
             627         816.582         816.582         3.25577         3.25577        -5.86305        -5.86305
             628         816.830         816.830         3.31104         3.31104        -5.38443        -5.38443
             629         817.080         817.080         3.30767         3.30767        -4.94052        -4.94052
             630         817.326         817.326         3.25808         3.25808        -4.52783        -4.52783
             631         817.563         817.563         3.17281         3.17281        -4.14348        -4.14348
             632         817.789         817.789         3.06073         3.06073        -3.78515        -3.78515
             633         818.001         818.001         2.92930         2.92930        -3.45088        -3.45088
             634         818.198         818.198         2.78476         2.78476        -3.13904        -3.13904
             635         818.380         818.380         2.63228         2.63228        -2.84821        -2.84821
             636         818.547         818.547         2.47613         2.47613        -2.57710        -2.57710
             637         818.698         818.698         2.31982         2.31982        -2.32454        -2.32454
             638         818.835         818.835         2.16617         2.16617        -2.08940        -2.08940
             639         818.958         818.958         2.01750         2.01750        -1.87059        -1.87059
             640         819.068         819.068         1.87562         1.87562        -1.66701        -1.66701
             641         819.165         819.165         1.74200         1.74200        -1.47758        -1.47758
             642         819.250         819.250         1.61775         1.61775        -1.30119        -1.30119
             643         819.325         819.325         1.50374         1.50374        -1.13671        -1.13671
             644         819.390         819.390         1.40064         1.40064    -983.017E-03    -983.017E-03
             645         819.445         819.445         1.30893         1.30893    -838.940E-03    -838.940E-03
             646         819.492         819.492         1.22896         1.22896    -703.312E-03    -703.312E-03
             647         819.530         819.530         1.16101         1.16101    -574.949E-03    -574.949E-03
             648         819.561         819.561         1.10523         1.10523    -452.656E-03    -452.656E-03
             649         819.585         819.585         1.06176         1.06176    -335.229E-03    -335.229E-03
             650         819.601         819.601         1.03066         1.03066    -221.462E-03    -221.462E-03
             651         819.611         819.611         1.01197         1.01197    -110.438E-03    -110.438E-03
             652         850.895         850.895        -23.6490        -23.6490        -3.58217        -3.58217
             653         845.003         845.003        -22.3724        -22.3724        -7.59739        -7.59739
             654         839.476         839.476        -19.9896        -19.9896        -10.3033        -10.3033
             655         834.569         834.569        -17.0534        -17.0534        -11.9089        -11.9089
             656         830.429         830.429        -13.9930        -13.9930        -12.6583        -12.6583
             657         827.066         827.066        -11.0724        -11.0724        -12.8081        -12.8081
             658         824.417         824.417        -8.42936        -8.42936        -12.5663        -12.5663
             659         822.383         822.383        -6.11997        -6.11997        -12.0896        -12.0896
             660         820.857         820.857        -4.15130        -4.15130        -11.4841        -11.4841
             661         819.742         819.742        -2.50603        -2.50603        -10.8195        -10.8195
             662         818.951         818.951        -1.15439        -1.15439        -10.1388        -10.1388
             663         818.414         818.414    -62.7116E-03    -62.7116E-03        -9.46717        -9.46717
             664         818.070         818.070     803.219E-03     803.219E-03        -8.81831        -8.81831
             665         817.873         817.873         1.47563         1.47563        -8.19894        -8.19894
             666         817.786         817.786         1.98411         1.98411        -7.61153        -7.61153
             667         817.779         817.779         2.35506         2.35506        -7.05627        -7.05627
             668         817.828         817.828         2.61181         2.61181        -6.53219        -6.53219
             669         817.917         817.917         2.77468         2.77468        -6.03782        -6.03782
             670         818.031         818.031         2.86126         2.86126        -5.57159        -5.57159
             671         818.160         818.160         2.88661         2.88661        -5.13202        -5.13202
             672         818.297         818.297         2.86361         2.86361        -4.71778        -4.71778
             673         818.435         818.435         2.80314         2.80314        -4.32770        -4.32770
             674         818.570         818.570         2.71437         2.71437        -3.96074        -3.96074
             675         818.700         818.700         2.60497         2.60497        -3.61595        -3.61595
             676         818.823         818.823         2.48130         2.48130        -3.29248        -3.29248
             677         818.937         818.937         2.34864         2.34864        -2.98947        -2.98947
             678         819.042         819.042         2.21131         2.21131        -2.70606        -2.70606
             679         819.137         819.137         2.07282         2.07282        -2.44139        -2.44139
             680         819.224         819.224         1.93602         1.93602        -2.19455        -2.19455
             681         819.301         819.301         1.80318         1.80318        -1.96457        -1.96457
             682         819.370         819.370         1.67610         1.67610        -1.75046        -1.75046
             683         819.431         819.431         1.55621         1.55621        -1.55116        -1.55116
             684         819.484         819.484         1.44460         1.44460        -1.36558        -1.36558
             685         819.530         819.530         1.34211         1.34211        -1.19257        -1.19257
             686         819.570         819.570         1.24937         1.24937        -1.03097        -1.03097
             687         819.604         819.604         1.16685         1.16685    -879.573E-03    -879.573E-03
             688         819.633         819.633         1.09489         1.09489    -737.142E-03    -737.142E-03
             689         819.656         819.656         1.03373         1.03373    -602.430E-03    -602.430E-03
             690         819.674         819.674     983.531E-03     983.531E-03    -474.173E-03    -474.173E-03
             691         819.688         819.688     944.401E-03     944.401E-03    -351.092E-03    -351.092E-03
             692         819.698         819.698     916.414E-03     916.414E-03    -231.901E-03    -231.901E-03
             693         819.704         819.704     899.581E-03     899.581E-03    -115.637E-03    -115.637E-03
             694         849.758         849.758        -19.0574        -19.0574         1.48611         1.48611
             695         845.451         845.451        -18.9695        -18.9695        -2.52142        -2.52142
             696         841.098         841.098        -17.6507        -17.6507        -5.55775        -5.55775
             697         837.003         837.003        -15.6220        -15.6220        -7.70979        -7.70979
             698         833.339         833.339        -13.2580        -13.2580        -9.10582        -9.10582
             699         830.198         830.198        -10.8355        -10.8355        -9.90153        -9.90153
             700         827.589         827.589        -8.52779        -8.52779        -10.2526        -10.2526
             701         825.478         825.478        -6.43177        -6.43177        -10.2889        -10.2889
             702         823.807         823.807        -4.59130        -4.59130        -10.1126        -10.1126
             703         822.509         822.509        -3.01654        -3.01654        -9.79764        -9.79764
             704         821.521         821.521        -1.69829        -1.69829        -9.39647        -9.39647
             705         820.783         820.783    -616.468E-03    -616.468E-03        -8.94473        -8.94473
             706         820.245         820.245     253.740E-03     253.740E-03        -8.46642        -8.46642
             707         819.862         819.862     938.785E-03     938.785E-03        -7.97738        -7.97738
             708         819.601         819.601         1.46451         1.46451        -7.48801        -7.48801
             709         819.431         819.431         1.85517         1.85517        -7.00513        -7.00513
             710         819.330         819.330         2.13279         2.13279        -6.53324        -6.53324
             711         819.279         819.279         2.31702         2.31702        -6.07537        -6.07537
             712         819.265         819.265         2.42506         2.42506        -5.63355        -5.63355
             713         819.275         819.275         2.47180         2.47180        -5.20921        -5.20921
             714         819.302         819.302         2.47000         2.47000        -4.80330        -4.80330
             715         819.340         819.340         2.43048         2.43048        -4.41649        -4.41649
             716         819.383         819.383         2.36234         2.36234        -4.04915        -4.04915
             717         819.428         819.428         2.27319         2.27319        -3.70145        -3.70145
             718         819.473         819.473         2.16933         2.16933        -3.37337        -3.37337
             719         819.516         819.516         2.05594         2.05594        -3.06469        -3.06469
             720         819.556         819.556         1.93725         1.93725        -2.77504        -2.77504
             721         819.593         819.593         1.81670         1.81670        -2.50391        -2.50391
             722         819.626         819.626         1.69703         1.69703        -2.25062        -2.25062
             723         819.656         819.656         1.58044         1.58044        -2.01441        -2.01441
             724         819.681         819.681         1.46865         1.46865        -1.79437        -1.79437
             725         819.704         819.704         1.36303         1.36303        -1.58952        -1.58952
             726         819.723         819.723         1.26459         1.26459        -1.39881        -1.39881
             727         819.739         819.739         1.17415         1.17415        -1.22109        -1.22109
             728         819.752         819.752         1.09227         1.09227        -1.05518        -1.05518
             729         819.763         819.763         1.01940         1.01940    -899.859E-03    -899.859E-03
             730         819.772         819.772     955.846E-03     955.846E-03    -753.854E-03    -753.854E-03
             731         819.780         819.780     901.825E-03     901.825E-03    -615.875E-03    -615.875E-03
             732         819.785         819.785     857.486E-03     857.486E-03    -484.610E-03    -484.610E-03
             733         819.789         819.789     822.927E-03     822.927E-03    -358.732E-03    -358.732E-03
             734         819.792         819.792     798.207E-03     798.207E-03    -236.904E-03    -236.904E-03
             735         819.794         819.794     783.341E-03     783.341E-03    -118.133E-03    -118.133E-03
             736         847.630         847.630        -14.8647        -14.8647         4.91299         4.91299
             737         844.694         844.694        -15.5333        -15.5333         1.25970         1.25970
             738         841.455         841.455        -15.0123        -15.0123        -1.78920        -1.78920
             739         838.208         838.208        -13.7167        -13.7167        -4.18078        -4.18078
             740         835.149         835.149        -11.9830        -11.9830        -5.95595        -5.95595
             741         832.394         832.394        -10.0616        -10.0616        -7.19366        -7.19366
             742         829.999         829.999        -8.13377        -8.13377        -7.99070        -7.99070
             743         827.973         827.973        -6.31431        -6.31431        -8.44339        -8.44339
             744         826.297         826.297        -4.66940        -4.66940        -8.63527        -8.63527
             745         824.935         824.935        -3.22964        -3.22964        -8.63489        -8.63489
             746         823.843         823.843        -2.00223        -2.00223        -8.49523        -8.49523
             747         822.980         822.980    -979.863E-03    -979.863E-03        -8.25661        -8.25661
             748         822.303         822.303    -146.833E-03    -146.833E-03        -7.94899        -7.94899
             749         821.778         821.778     516.690E-03     516.690E-03        -7.59463        -7.59463
             750         821.374         821.374         1.03205         1.03205        -7.21002        -7.21002
             751         821.064         821.064         1.42032         1.42032        -6.80752        -6.80752
             752         820.828         820.828         1.70138         1.70138        -6.39640        -6.39640
             753         820.648         820.648         1.89334         1.89334        -5.98374        -5.98374
             754         820.511         820.511         2.01234         2.01234        -5.57497        -5.57497
             755         820.406         820.406         2.07245         2.07245        -5.17427        -5.17427
             756         820.326         820.326         2.08584         2.08584        -4.78483        -4.78483
             757         820.262         820.262         2.06284         2.06284        -4.40908        -4.40908
             758         820.212         820.212         2.01213         2.01213        -4.04882        -4.04882
             759         820.170         820.170         1.94100         1.94100        -3.70531        -3.70531
             760         820.136         820.136         1.85543         1.85543        -3.37937        -3.37937
             761         820.106         820.106         1.76035         1.76035        -3.07143        -3.07143
             762         820.079         820.079         1.65976         1.65976        -2.78162        -2.78162
             763         820.055         820.055         1.55689         1.55689        -2.50975        -2.50975
             764         820.033         820.033         1.45431         1.45431        -2.25545        -2.25545
             765         820.012         820.012         1.35408         1.35408        -2.01809        -2.01809
             766         819.993         819.993         1.25779         1.25779        -1.79693        -1.79693
             767         819.975         819.975         1.16669         1.16669        -1.59106        -1.59106
             768         819.959         819.959         1.08172         1.08172        -1.39945        -1.39945
             769         819.944         819.944         1.00360         1.00360        -1.22102        -1.22102
             770         819.930         819.930     932.875E-03     932.875E-03        -1.05458        -1.05458
             771         819.917         819.917     869.918E-03     869.918E-03    -898.902E-03    -898.902E-03
             772         819.906         819.906     815.009E-03     815.009E-03    -752.706E-03    -752.706E-03
             773         819.897         819.897     768.338E-03     768.338E-03    -614.684E-03    -614.684E-03
             774         819.889         819.889     730.035E-03     730.035E-03    -483.501E-03    -483.501E-03
             775         819.883         819.883     700.181E-03     700.181E-03    -357.808E-03    -357.808E-03
             776         819.879         819.879     678.829E-03     678.829E-03    -236.244E-03    -236.244E-03
             777         819.876         819.876     665.990E-03     665.990E-03    -117.807E-03    -117.807E-03
             778         845.122         845.122        -11.2899        -11.2899         7.04896         7.04896
             779         843.267         843.267        -12.3321        -12.3321         3.89480         3.89480
             780         841.006         841.006        -12.3338        -12.3338         1.04706         1.04706
             781         838.573         838.573        -11.5936        -11.5936        -1.37017        -1.37017
             782         836.151         836.151        -10.3809        -10.3809        -3.31939        -3.31939
             783         833.865         833.865        -8.91703        -8.91703        -4.82081        -4.82081
             784         831.788         831.788        -7.36764        -7.36764        -5.92194        -5.92194
             785         829.958         829.958        -5.85051        -5.85051        -6.68300        -6.68300
             786         828.382         828.382        -4.44027        -4.44027        -7.16555        -7.16555
             787         827.046         827.046        -3.17929        -3.17929        -7.42556        -7.42556
             788         825.929         825.929        -2.08601        -2.08601        -7.51135        -7.51135
             789         825.002         825.002        -1.16287        -1.16287        -7.46274        -7.46274
             790         824.237         824.237    -402.078E-03    -402.078E-03        -7.31210        -7.31210
             791         823.608         823.608     210.063E-03     210.063E-03        -7.08529        -7.08529
             792         823.089         823.089     690.134E-03     690.134E-03        -6.80296        -6.80296
             793         822.661         822.661         1.05565         1.05565        -6.48152        -6.48152
             794         822.305         822.305         1.32374         1.32374        -6.13407        -6.13407
             795         822.006         822.006         1.51042         1.51042        -5.77104        -5.77104
             796         821.754         821.754         1.63016         1.63016        -5.40073        -5.40073
             797         821.538         821.538         1.69577         1.69577        -5.02972        -5.02972
             798         821.351         821.351         1.71832         1.71832        -4.66318        -4.66318
             799         821.188         821.188         1.70729         1.70729        -4.30514        -4.30514
             800         821.043         821.043         1.67066         1.67066        -3.95866        -3.95866
             801         820.914         820.914         1.61508         1.61508        -3.62598        -3.62598
             802         820.799         820.799         1.54604         1.54604        -3.30870        -3.30870
             803         820.694         820.694         1.46804         1.46804        -3.00783        -3.00783
             804         820.599         820.599         1.38471         1.38471        -2.72394        -2.72394
             805         820.513         820.513         1.29897         1.29897        -2.45718        -2.45718
             806         820.434         820.434         1.21315         1.21315        -2.20740        -2.20740
             807         820.362         820.362         1.12909         1.12909        -1.97417        -1.97417
             808         820.297         820.297         1.04821         1.04821        -1.75685        -1.75685
             809         820.238         820.238     971.609E-03     971.609E-03        -1.55463        -1.55463
             810         820.186         820.186     900.130E-03     900.130E-03        -1.36656        -1.36656
             811         820.138         820.138     834.399E-03     834.399E-03        -1.19156        -1.19156
             812         820.097         820.097     774.878E-03     774.878E-03        -1.02850        -1.02850
             813         820.060         820.060     721.900E-03     721.900E-03    -876.150E-03    -876.150E-03
             814         820.029         820.029     675.700E-03     675.700E-03    -733.253E-03    -733.253E-03
             815         820.003         820.003     636.436E-03     636.436E-03    -598.506E-03    -598.506E-03
             816         819.981         819.981     604.217E-03     604.217E-03    -470.581E-03    -470.581E-03
             817         819.965         819.965     579.108E-03     579.108E-03    -348.130E-03    -348.130E-03
             818         819.953         819.953     561.151E-03     561.151E-03    -229.798E-03    -229.798E-03
             819         819.946         819.946     550.356E-03     550.356E-03    -114.599E-03    -114.599E-03
             820         842.577         842.577        -8.36116        -8.36116         8.22138         8.22138
             821         841.557         841.557        -9.50128        -9.50128         5.58698         5.58698
             822         840.114         840.114        -9.79078        -9.79078         3.04162         3.04162
             823         838.417         838.417        -9.43090        -9.43090     741.697E-03     741.697E-03
             824         836.616         836.616        -8.62400        -8.62400        -1.23260        -1.23260
             825         834.823         834.823        -7.54856        -7.54856        -2.85420        -2.85420
             826         833.119         833.119        -6.34903        -6.34903        -4.13260        -4.13260
             827         831.551         831.551        -5.13219        -5.13219        -5.09691        -5.09691
             828         830.142         830.142        -3.97217        -3.97217        -5.78628        -5.78628
             829         828.898         828.898        -2.91464        -2.91464        -6.24255        -6.24255
             830         827.812         827.812        -1.98392        -1.98392        -6.50584        -6.50584
             831         826.871         826.871        -1.18858        -1.18858        -6.61260        -6.61260
             832         826.057         826.057    -526.692E-03    -526.692E-03        -6.59461        -6.59461
             833         825.354         825.354     10.3235E-03     10.3235E-03        -6.47909        -6.47909
             834         824.745         824.745     434.725E-03     434.725E-03        -6.28889        -6.28889
             835         824.215         824.215     760.399E-03     760.399E-03        -6.04306        -6.04306
             836         823.751         823.751         1.00150         1.00150        -5.75733        -5.75733
             837         823.342         823.342         1.17159         1.17159        -5.44460        -5.44460
             838         822.979         822.979         1.28309         1.28309        -5.11536        -5.11536
             839         822.655         822.655         1.34712         1.34712        -4.77807        -4.77807
             840         822.364         822.364         1.37336         1.37336        -4.43945        -4.43945
             841         822.101         822.101         1.37009         1.37009        -4.10478        -4.10478
             842         821.863         821.863         1.34430         1.34430        -3.77814        -3.77814
             843         821.646         821.646         1.30183         1.30183        -3.46258        -3.46258
             844         821.449         821.449         1.24747         1.24747        -3.16029        -3.16029
             845         821.269         821.269         1.18515         1.18515        -2.87276        -2.87276
             846         821.104         821.104         1.11803         1.11803        -2.60092        -2.60092
             847         820.955         820.955         1.04863         1.04863        -2.34518        -2.34518
             848         820.819         820.819     978.959E-03     978.959E-03        -2.10560        -2.10560
             849         820.696         820.696     910.591E-03     910.591E-03        -1.88188        -1.88188
             850         820.585         820.585     844.743E-03     844.743E-03        -1.67352        -1.67352
             851         820.485         820.485     782.348E-03     782.348E-03        -1.47977        -1.47977
             852         820.395         820.395     724.112E-03     724.112E-03        -1.29974        -1.29974
             853         820.316         820.316     670.559E-03     670.559E-03        -1.13243        -1.13243
             854         820.247         820.247     622.072E-03     622.072E-03    -976.734E-03    -976.734E-03
             855         820.186         820.186     578.924E-03     578.924E-03    -831.472E-03    -831.472E-03
             856         820.135         820.135     541.305E-03     541.305E-03    -695.415E-03    -695.415E-03
             857         820.092         820.092     509.343E-03     509.343E-03    -567.299E-03    -567.299E-03
             858         820.057         820.057     483.120E-03     483.120E-03    -445.828E-03    -445.828E-03
             859         820.030         820.030     462.689E-03     462.689E-03    -329.690E-03    -329.690E-03
             860         820.011         820.011     448.078E-03     448.078E-03    -217.565E-03    -217.565E-03
             861         820.000         820.000     439.299E-03     439.299E-03    -108.509E-03    -108.509E-03
             862         840.175         840.175        -6.01909        -6.01909         8.67403         8.67403
             863         839.809         839.809        -7.07728        -7.07728         6.51669         6.51669
             864         839.048         839.048        -7.47923        -7.47923         4.30716         4.30716
             865         838.001         838.001        -7.35255        -7.35255         2.20447         2.20447
             866         836.779         836.779        -6.84080        -6.84080     310.886E-03     310.886E-03
             867         835.474         835.474        -6.08023        -6.08023        -1.31948        -1.31948
             868         834.159         834.159        -5.18664        -5.18664        -2.66723        -2.66723
             869         832.884         832.884        -4.25104        -4.25104        -3.73774        -3.73774
             870         831.682         831.682        -3.33880        -3.33880        -4.55101        -4.55101
             871         830.568         830.568        -2.49335        -2.49335        -5.13522        -5.13522
             872         829.549         829.549        -1.73972        -1.73972        -5.52170        -5.52170
             873         828.623         828.623        -1.08934        -1.08934        -5.74177        -5.74177
             874         827.786         827.786    -543.778E-03    -543.778E-03        -5.82494        -5.82494
             875         827.029         827.029    -98.2635E-03    -98.2635E-03        -5.79788        -5.79788
             876         826.345         826.345     255.835E-03     255.835E-03        -5.68408        -5.68408
             877         825.724         825.724     529.071E-03     529.071E-03        -5.50379        -5.50379
             878         825.160         825.160     732.618E-03     732.618E-03        -5.27421        -5.27421
             879         824.645         824.645     877.413E-03     877.413E-03        -5.00968        -5.00968
             880         824.175         824.175     973.640E-03     973.640E-03        -4.72208        -4.72208
             881         823.745         823.745         1.03046         1.03046        -4.42106        -4.42106
             882         823.351         823.351         1.05588         1.05588        -4.11436        -4.11436
             883         822.989         822.989         1.05681         1.05681        -3.80810        -3.80810
             884         822.656         822.656         1.03905         1.03905        -3.50701        -3.50701
             885         822.351         822.351         1.00745         1.00745        -3.21465        -3.21465
             886         822.072         822.072     965.973E-03     965.973E-03        -2.93364        -2.93364
             887         821.816         821.816     917.870E-03     917.870E-03        -2.66578        -2.66578
             888         821.583         821.583     865.740E-03     865.740E-03        -2.41220        -2.41220
             889         821.371         821.371     811.660E-03     811.660E-03        -2.17352        -2.17352
             890         821.178         821.178     757.265E-03     757.265E-03        -1.94993        -1.94993
             891         821.003         821.003     703.833E-03     703.833E-03        -1.74124        -1.74124
             892         820.846         820.846     652.348E-03     652.348E-03        -1.54703        -1.54703
             893         820.706         820.706     603.559E-03     603.559E-03        -1.36665        -1.36665
             894         820.580         820.580     558.029E-03     558.029E-03        -1.19926        -1.19926
             895         820.470         820.470     516.173E-03     516.173E-03        -1.04393        -1.04393
             896         820.373         820.373     478.290E-03     478.290E-03    -899.616E-03    -899.616E-03
             897         820.289         820.289     444.591E-03     444.591E-03    -765.195E-03    -765.195E-03
             898         820.218         820.218     415.223E-03     415.223E-03    -639.506E-03    -639.506E-03
             899         820.159         820.159     390.279E-03     390.279E-03    -521.346E-03    -521.346E-03
             900         820.111         820.111     369.820E-03     369.820E-03    -409.486E-03    -409.486E-03
             901         820.074         820.074     353.883E-03     353.883E-03    -302.681E-03    -302.681E-03
             902         820.048         820.048     342.488E-03     342.488E-03    -199.676E-03    -199.676E-03
             903         820.033         820.033     335.643E-03     335.643E-03    -99.6054E-03    -99.6054E-03
             904         837.999         837.999        -4.17104        -4.17104         8.56081         8.56081
             905         838.180         838.180        -5.04597        -5.04597         6.81693         6.81693
             906         838.005         838.005        -5.44204        -5.44204         4.94024         4.94024
             907         837.537         837.537        -5.43728        -5.43728         3.07837         3.07837
             908         836.847         836.847        -5.12817        -5.12817         1.33765         1.33765
             909         836.006         836.006        -4.61239        -4.61239    -213.553E-03    -213.553E-03
             910         835.074         835.074        -3.97722        -3.97722        -1.53942        -1.53942
             911         834.097         834.097        -3.29350        -3.29350        -2.62830        -2.62830
             912         833.112         833.112        -2.61452        -2.61452        -3.48613        -3.48613
             913         832.142         832.142        -1.97670        -1.97670        -4.12977        -4.12977
             914         831.204         831.204        -1.40251        -1.40251        -4.58243        -4.58243
             915         830.308         830.308    -903.178E-03    -903.178E-03        -4.87002        -4.87002
             916         829.457         829.457    -481.893E-03    -481.893E-03        -5.01872        -5.01872
             917         828.654         828.654    -136.278E-03    -136.278E-03        -5.05345        -5.05345
             918         827.899         827.899     139.454E-03     139.454E-03        -4.99698        -4.99698
             919         827.191         827.191     352.945E-03     352.945E-03        -4.86945        -4.86945
             920         826.528         826.528     512.563E-03     512.563E-03        -4.68832        -4.68832
             921         825.909         825.909     626.645E-03     626.645E-03        -4.46836        -4.46836
             922         825.332         825.332     703.043E-03     703.043E-03        -4.22191        -4.22191
             923         824.795         824.795     748.854E-03     748.854E-03        -3.95905        -3.95905
             924         824.297         824.297     770.321E-03     770.321E-03        -3.68791        -3.68791
             925         823.835         823.835     772.805E-03     772.805E-03        -3.41492        -3.41492
             926         823.409         823.409     760.833E-03     760.833E-03        -3.14507        -3.14507
             927         823.016         823.016     738.164E-03     738.164E-03        -2.88213        -2.88213
             928         822.655         822.655     707.884E-03     707.884E-03        -2.62883        -2.62883
             929         822.324         822.324     672.495E-03     672.495E-03        -2.38710        -2.38710
             930         822.022         822.022     634.003E-03     634.003E-03        -2.15819        -2.15819
             931         821.747         821.747     593.999E-03     593.999E-03        -1.94276        -1.94276
             932         821.499         821.499     553.731E-03     553.731E-03        -1.74109        -1.74109
             933         821.274         821.274     514.168E-03     514.168E-03        -1.55305        -1.55305
             934         821.073         821.073     476.054E-03     476.054E-03        -1.37829        -1.37829
             935         820.893         820.893     439.949E-03     439.949E-03        -1.21621        -1.21621
             936         820.733         820.733     406.274E-03     406.274E-03        -1.06607        -1.06607
             937         820.592         820.592     375.333E-03     375.333E-03    -926.992E-03    -926.992E-03
             938         820.469         820.469     347.346E-03     347.346E-03    -798.025E-03    -798.025E-03
             939         820.364         820.364     322.464E-03     322.464E-03    -678.140E-03    -678.140E-03
             940         820.274         820.274     300.792E-03     300.792E-03    -566.262E-03    -566.262E-03
             941         820.199         820.199     282.393E-03     282.393E-03    -461.286E-03    -461.286E-03
             942         820.139         820.139     267.308E-03     267.308E-03    -362.081E-03    -362.081E-03
             943         820.093         820.093     255.559E-03     255.559E-03    -267.505E-03    -267.505E-03
             944         820.060         820.060     247.157E-03     247.157E-03    -176.408E-03    -176.408E-03
             945         820.041         820.041     242.115E-03     242.115E-03    -88.0253E-03    -88.0253E-03
             946         836.096         836.096        -2.72736        -2.72736         7.95440         7.95440
             947         836.780         836.780        -3.37412        -3.37412         6.56496         6.56496
             948         837.141         837.141        -3.69570        -3.69570         5.00861         5.00861
             949         837.203         837.203        -3.73724        -3.73724         3.41436         3.41436
             950         837.006         837.006        -3.56017        -3.56017         1.88242         1.88242
             951         836.598         836.598        -3.22972        -3.22972     483.198E-03     483.198E-03
             952         836.025         836.025        -2.80631        -2.80631    -739.989E-03    -739.989E-03
             953         835.331         835.331        -2.34063        -2.34063        -1.76670        -1.76670
             954         834.551         834.551        -1.87159        -1.87159        -2.59361        -2.59361
             955         833.718         833.718        -1.42671        -1.42671        -3.22967        -3.22967
             956         832.854         832.854        -1.02334        -1.02334        -3.69146        -3.69146
             957         831.979         831.979    -670.783E-03    -670.783E-03        -3.99985        -3.99985
             958         831.109         831.109    -372.220E-03    -372.220E-03        -4.17727        -4.17727
             959         830.254         830.254    -126.643E-03    -126.643E-03        -4.24595        -4.24595
             960         829.422         829.422     69.6558E-03     69.6558E-03        -4.22678        -4.22678
             961         828.622         828.622     221.868E-03     221.868E-03        -4.13857        -4.13857
             962         827.855         827.855     335.828E-03     335.828E-03        -3.99787        -3.99787
             963         827.127         827.127     417.425E-03     417.425E-03        -3.81877        -3.81877
             964         826.440         826.440     472.238E-03     472.238E-03        -3.61311        -3.61311
             965         825.793         825.793     505.336E-03     505.336E-03        -3.39059        -3.39059
             966         825.189         825.189     521.174E-03     521.174E-03        -3.15905        -3.15905
             967         824.626         824.626     523.582E-03     523.582E-03        -2.92465        -2.92465
             968         824.105         824.105     515.787E-03     515.787E-03        -2.69218        -2.69218
             969         823.624         823.624     500.464E-03     500.464E-03        -2.46525        -2.46525
             970         823.182         823.182     479.802E-03     479.802E-03        -2.24648        -2.24648
             971         822.777         822.777     455.569E-03     455.569E-03        -2.03771        -2.03771
             972         822.408         822.408     429.177E-03     429.177E-03        -1.84011        -1.84011
             973         822.073         822.073     401.741E-03     401.741E-03        -1.65435        -1.65435
             974         821.771         821.771     374.133E-03     374.133E-03        -1.48067        -1.48067
             975         821.498         821.498     347.023E-03     347.023E-03        -1.31899        -1.31899
             976         821.254         821.254     320.925E-03     320.925E-03        -1.16900        -1.16900
             977         821.037         821.037     296.224E-03     296.224E-03        -1.03016        -1.03016
             978         820.845         820.845     273.203E-03     273.203E-03    -901.822E-03    -901.822E-03
             979         820.676         820.676     252.069E-03     252.069E-03    -783.202E-03    -783.202E-03
             980         820.529         820.529     232.966E-03     232.966E-03    -673.450E-03    -673.450E-03
             981         820.403         820.403     215.996E-03     215.996E-03    -571.658E-03    -571.658E-03
             982         820.296         820.296     201.224E-03     201.224E-03    -476.878E-03    -476.878E-03
             983         820.207         820.207     188.693E-03     188.693E-03    -388.135E-03    -388.135E-03
             984         820.136         820.136     178.422E-03     178.422E-03    -304.443E-03    -304.443E-03
             985         820.081         820.081     170.420E-03     170.420E-03    -224.794E-03    -224.794E-03
             986         820.043         820.043     164.698E-03     164.698E-03    -148.181E-03    -148.181E-03
             987         820.020         820.020     161.265E-03     161.265E-03    -73.9864E-03    -73.9864E-03
             988         834.505         834.505        -1.61745        -1.61745         6.85814         6.85814
             989         835.708         835.708        -2.03382        -2.03382         5.78400         5.78400
             990         836.598         836.598        -2.25170        -2.25170         4.54527         4.54527
             991         837.169         837.169        -2.29571        -2.29571         3.24819         3.24819
             992         837.435         837.435        -2.20148        -2.20148         1.97897         1.97897
             993         837.426         837.426        -2.00833        -2.00833     801.585E-03     801.585E-03
             994         837.177         837.177        -1.75357        -1.75357    -242.025E-03    -242.025E-03
             995         836.730         836.730        -1.46911        -1.46911        -1.12908        -1.12908
             996         836.123         836.123        -1.17998        -1.17998        -1.85235        -1.85235
             997         835.393         835.393    -904.017E-03    -904.017E-03        -2.41592        -2.41592
             998         834.574         834.574    -652.794E-03    -652.794E-03        -2.83159        -2.83159
             999         833.695         833.695    -432.596E-03    -432.596E-03        -3.11565        -3.11565
            1000         832.781         832.781    -245.819E-03    -245.819E-03        -3.28649        -3.28649
            1001         831.853         831.853    -92.0415E-03    -92.0415E-03        -3.36282        -3.36282
            1002         830.928         830.928     30.9134E-03     30.9134E-03        -3.36250        -3.36250
            1003         830.019         830.019     126.248E-03     126.248E-03        -3.30181        -3.30181
            1004         829.137         829.137     197.602E-03     197.602E-03        -3.19511        -3.19511
            1005         828.291         828.291     248.677E-03     248.677E-03        -3.05475        -3.05475
            1006         827.485         827.485     282.992E-03     282.992E-03        -2.89102        -2.89102
            1007         826.724         826.724     303.740E-03     303.740E-03        -2.71241        -2.71241
            1008         826.010         826.010     313.733E-03     313.733E-03        -2.52571        -2.52571
            1009         825.345         825.345     315.378E-03     315.378E-03        -2.33629        -2.33629
            1010         824.728         824.728     310.701E-03     310.701E-03        -2.14826        -2.14826
            1011         824.160         824.160     301.378E-03     301.378E-03        -1.96474        -1.96474
            1012         823.638         823.638     288.773E-03     288.773E-03        -1.78794        -1.78794
            1013         823.161         823.161     273.985E-03     273.985E-03        -1.61942        -1.61942
            1014         822.728         822.728     257.888E-03     257.888E-03        -1.46017        -1.46017
            1015         822.336         822.336     241.169E-03     241.169E-03        -1.31072        -1.31072
            1016         821.982         821.982     224.361E-03     224.361E-03        -1.17127        -1.17127
            1017         821.665         821.665     207.875E-03     207.875E-03        -1.04173        -1.04173
            1018         821.382         821.382     192.022E-03     192.022E-03    -921.830E-03    -921.830E-03
            1019         821.131         821.131     177.032E-03     177.032E-03    -811.113E-03    -811.113E-03
            1020         820.909         820.909     163.075E-03     163.075E-03    -709.016E-03    -709.016E-03
            1021         820.715         820.715     150.275E-03     150.275E-03    -614.891E-03    -614.891E-03
            1022         820.546         820.546     138.714E-03     138.714E-03    -528.026E-03    -528.026E-03
            1023         820.402         820.402     128.453E-03     128.453E-03    -447.667E-03    -447.667E-03
            1024         820.280         820.280     119.527E-03     119.527E-03    -373.032E-03    -373.032E-03
            1025         820.179         820.179     111.958E-03     111.958E-03    -303.319E-03    -303.319E-03
            1026         820.098         820.098     105.764E-03     105.764E-03    -237.716E-03    -237.716E-03
            1027         820.036         820.036     100.938E-03     100.938E-03    -175.416E-03    -175.416E-03
            1028         819.992         819.992     97.4706E-03     97.4706E-03    -115.588E-03    -115.588E-03
            1029         819.966         819.966     95.3899E-03     95.3899E-03    -57.7760E-03    -57.7760E-03
            1030         833.286         833.286    -801.697E-03    -801.697E-03         5.21202         5.21202
            1031         835.080         835.080        -1.01892        -1.01892         4.44730         4.44730
            1032         836.534         836.534        -1.13571        -1.13571         3.54992         3.54992
            1033         837.616         837.616        -1.16370        -1.16370         2.59901         2.59901
            1034         838.323         838.323        -1.12039        -1.12039         1.65987         1.65987
            1035         838.673         838.673        -1.02544        -1.02544     782.095E-03     782.095E-03
            1036         838.698         838.698    -897.890E-03    -897.890E-03    -731.543E-06    -731.543E-06
            1037         838.442         838.442    -754.219E-03    -754.219E-03    -669.608E-03    -669.608E-03
            1038         837.949         837.949    -607.402E-03    -607.402E-03        -1.21743        -1.21743
            1039         837.267         837.267    -466.856E-03    -466.856E-03        -1.64617        -1.64617
            1040         836.441         836.441    -338.650E-03    -338.650E-03        -1.96396        -1.96396
            1041         835.510         835.510    -226.182E-03    -226.182E-03        -2.18270        -2.18270
            1042         834.511         834.511    -130.743E-03    -130.743E-03        -2.31608        -2.31608
            1043         833.474         833.474    -52.1832E-03    -52.1832E-03        -2.37822        -2.37822
            1044         832.425         832.425     10.6020E-03     10.6020E-03        -2.38264        -2.38264
            1045         831.384         831.384     59.2470E-03     59.2470E-03        -2.34173        -2.34173
            1046         830.367         830.367     95.6265E-03     95.6265E-03        -2.26639        -2.26639
            1047         829.387         829.387     121.648E-03     121.648E-03        -2.16595        -2.16595
            1048         828.453         828.453     139.123E-03     139.123E-03        -2.04823        -2.04823
            1049         827.570         827.570     149.697E-03     149.697E-03        -1.91958        -1.91958
            1050         826.742         826.742     154.811E-03     154.811E-03        -1.78511        -1.78511
            1051         825.972         825.972     155.700E-03     155.700E-03        -1.64880        -1.64880
            1052         825.260         825.260     153.398E-03     153.398E-03        -1.51370        -1.51370
            1053         824.605         824.605     148.759E-03     148.759E-03        -1.38207        -1.38207
            1054         824.006         824.006     142.475E-03     142.475E-03        -1.25552        -1.25552
            1055         823.461         823.461     135.102E-03     135.102E-03        -1.13518        -1.13518
            1056         822.967         822.967     127.080E-03     127.080E-03        -1.02172        -1.02172
            1057         822.521         822.521     118.756E-03     118.756E-03    -915.500E-03    -915.500E-03
            1058         822.121         822.121     110.394E-03     110.394E-03    -816.641E-03    -816.641E-03
            1059         821.764         821.764     102.200E-03     102.200E-03    -725.051E-03    -725.051E-03
            1060         821.446         821.446     94.3267E-03     94.3267E-03    -640.494E-03    -640.494E-03
            1061         821.165         821.165     86.8888E-03     86.8888E-03    -562.624E-03    -562.624E-03
            1062         820.917         820.917     79.9693E-03     79.9693E-03    -491.015E-03    -491.015E-03
            1063         820.702         820.702     73.6272E-03     73.6272E-03    -425.180E-03    -425.180E-03
            1064         820.515         820.515     67.9038E-03     67.9038E-03    -364.591E-03    -364.591E-03
            1065         820.356         820.356     62.8259E-03     62.8259E-03    -308.697E-03    -308.697E-03
            1066         820.221         820.221     58.4119E-03     58.4119E-03    -256.923E-03    -256.923E-03
            1067         820.110         820.110     54.6716E-03     54.6716E-03    -208.689E-03    -208.689E-03
            1068         820.021         820.021     51.6116E-03     51.6116E-03    -163.403E-03    -163.403E-03
            1069         819.954         819.954     49.2426E-03     49.2426E-03    -120.481E-03    -120.481E-03
            1070         819.906         819.906     47.5299E-03     47.5299E-03    -79.3608E-03    -79.3608E-03
            1071         819.877         819.877     46.4645E-03     46.4645E-03    -39.7984E-03    -39.7984E-03
            1072         832.548         832.548    -281.855E-03    -281.855E-03         2.90999         2.90999
            1073         835.058         835.058    -360.698E-03    -360.698E-03         2.49502         2.49502
            1074         837.144         837.144    -403.685E-03    -403.685E-03         2.00452         2.00452
            1075         838.756         838.756    -414.941E-03    -414.941E-03         1.48277         1.48277
            1076         839.882         839.882    -400.505E-03    -400.505E-03     966.128E-03     966.128E-03
            1077         840.539         840.539    -367.332E-03    -367.332E-03     482.417E-03     482.417E-03
            1078         840.767         840.767    -322.279E-03    -322.279E-03     50.6134E-03     50.6134E-03
            1079         840.618         840.618    -271.246E-03    -271.246E-03    -318.407E-03    -318.407E-03
            1080         840.154         840.154    -218.969E-03    -218.969E-03    -620.563E-03    -620.563E-03
            1081         839.436         839.436    -168.831E-03    -168.831E-03    -856.823E-03    -856.823E-03
            1082         838.523         838.523    -123.067E-03    -123.067E-03        -1.03173        -1.03173
            1083         837.471         837.471    -82.8982E-03    -82.8982E-03        -1.15192        -1.15192
            1084         836.326         836.326    -48.8123E-03    -48.8123E-03        -1.22508        -1.22508
            1085         835.129         835.129    -20.7556E-03    -20.7556E-03        -1.25909        -1.25909
            1086         833.914         833.914     1.66553E-03     1.66553E-03        -1.26151        -1.26151
            1087         832.708         832.708     19.0371E-03     19.0371E-03        -1.23923        -1.23923
            1088         831.531         831.531     32.0347E-03     32.0347E-03        -1.19831        -1.19831
            1089         830.399         830.399     41.3409E-03     41.3409E-03        -1.14390        -1.14390
            1090         829.323         829.323     47.6075E-03     47.6075E-03        -1.08029        -1.08029
            1091         828.310         828.310     51.4212E-03     51.4212E-03        -1.01096        -1.01096
            1092         827.364         827.364     53.2987E-03     53.2987E-03    -938.688E-03    -938.688E-03
            1093         826.487         826.487     53.6792E-03     53.6792E-03    -865.616E-03    -865.616E-03
            1094         825.680         825.680     52.9311E-03     52.9311E-03    -793.378E-03    -793.378E-03
            1095         824.942         824.942     51.3569E-03     51.3569E-03    -723.175E-03    -723.175E-03
            1096         824.269         824.269     49.2021E-03     49.2021E-03    -655.857E-03    -655.857E-03
            1097         823.660         823.660     46.6628E-03     46.6628E-03    -591.995E-03    -591.995E-03
            1098         823.110         823.110     43.8944E-03     43.8944E-03    -531.934E-03    -531.934E-03
            1099         822.617         822.617     41.0181E-03     41.0181E-03    -475.847E-03    -475.847E-03
            1100         822.176         822.176     38.1275E-03     38.1275E-03    -423.772E-03    -423.772E-03
            1101         821.784         821.784     35.2940E-03     35.2940E-03    -375.642E-03    -375.642E-03
            1102         821.437         821.437     32.5714E-03     32.5714E-03    -331.318E-03    -331.318E-03
            1103         821.131         821.131     29.9993E-03     29.9993E-03    -290.599E-03    -290.599E-03
            1104         820.863         820.863     27.6066E-03     27.6066E-03    -253.245E-03    -253.245E-03
            1105         820.631         820.631     25.4141E-03     25.4141E-03    -218.989E-03    -218.989E-03
            1106         820.430         820.430     23.4352E-03     23.4352E-03    -187.542E-03    -187.542E-03
            1107         820.259         820.259     21.6805E-03     21.6805E-03    -158.602E-03    -158.602E-03
            1108         820.116         820.116     20.1543E-03     20.1543E-03    -131.860E-03    -131.860E-03
            1109         819.998         819.998     18.8633E-03     18.8633E-03    -107.003E-03    -107.003E-03
            1110         819.903         819.903     17.8048E-03     17.8048E-03    -83.7162E-03    -83.7162E-03
            1111         819.831         819.831     16.9921E-03     16.9921E-03    -61.6758E-03    -61.6758E-03
            1112         819.781         819.781     16.4275E-03     16.4275E-03    -40.5815E-03    -40.5815E-03
            1113         819.750         819.750     16.0184E-03     16.0184E-03    -20.5055E-03    -20.5055E-03
            1114         835.419         835.419        -33.9834        -33.9834         32.4290         32.4290
            1115         825.282         825.282        -26.4551        -26.4551         31.5308         31.5308
            1116         818.316         818.316        -19.8257        -19.8257         29.0506         29.0506
            1117         813.803         813.803        -14.3751        -14.3751         25.9819         25.9819
            1118         811.050         811.050        -10.0425        -10.0425         22.8782         22.8782
            1119         809.506         809.506        -6.63534        -6.63534         20.0020         20.0020
            1120         808.771         808.771        -3.96671        -3.96671         17.4529         17.4529
            1121         808.570         808.570        -1.87625        -1.87625         15.2469         15.2469
            1122         808.717         808.717    -240.794E-03    -240.794E-03         13.3616         13.3616
            1123         809.086         809.086         1.03499         1.03499         11.7595         11.7595
            1124         809.591         809.591         2.02290         2.02290         10.3996         10.3996
            1125         810.175         810.175         2.77841         2.77841         9.24305         9.24305
            1126         810.800         810.800         3.34442         3.34442         8.25496         8.25496
            1127         811.441         811.441         3.75501         3.75501         7.40562         7.40562
            1128         812.078         812.078         4.03759         4.03759         6.67011         6.67011
            1129         812.701         812.701         4.21468         4.21468         6.02798         6.02798
            1130         813.301         813.301         4.30504         4.30504         5.46257         5.46257
            1131         813.874         813.874         4.32448         4.32448         4.96052         4.96052
            1132         814.415         814.415         4.28644         4.28644         4.51115         4.51115
            1133         814.924         814.924         4.20244         4.20244         4.10599         4.10599
            1134         815.399         815.399         4.08237         4.08237         3.73832         3.73832
            1135         815.840         815.840         3.93469         3.93469         3.40285         3.40285
            1136         816.248         816.248         3.76671         3.76671         3.09539         3.09539
            1137         816.624         816.624         3.58464         3.58464         2.81260         2.81260
            1138         816.969         816.969         3.39378         3.39378         2.55180         2.55180
            1139         817.283         817.283         3.19862         3.19862         2.31081         2.31081
            1140         817.570         817.570         3.00295         3.00295         2.08780         2.08780
            1141         817.829         817.829         2.80992         2.80992         1.88122         1.88122
            1142         818.063         818.063         2.62214         2.62214         1.68973         1.68973
            1143         818.274         818.274         2.44177         2.44177         1.51211         1.51211
            1144         818.462         818.462         2.27056         2.27056         1.34724         1.34724
            1145         818.629         818.629         2.10989         2.10989         1.19406         1.19406
            1146         818.777         818.777         1.96090         1.96090         1.05156         1.05156
            1147         818.906         818.906         1.82444         1.82444     918.748E-03     918.748E-03
            1148         819.019         819.019         1.70119         1.70119     794.648E-03     794.648E-03
            1149         819.116         819.116         1.59167         1.59167     678.295E-03     678.295E-03
            1150         819.198         819.198         1.49624         1.49624     568.729E-03     568.729E-03
            1151         819.266         819.266         1.41518         1.41518     464.988E-03     464.988E-03
            1152         819.320         819.320         1.34870         1.34870     366.112E-03     366.112E-03
            1153         819.362         819.362         1.29691         1.29691     271.137E-03     271.137E-03
            1154         819.391         819.391         1.25993         1.25993     179.103E-03     179.103E-03
            1155         819.409         819.409         1.23775         1.23775     89.2742E-03     89.2742E-03
            1156         815.230         815.230        -31.0882        -31.0882         45.3991         45.3991
            1157         806.978         806.978        -21.8026        -21.8026         39.7077         39.7077
            1158         802.655         802.655        -14.8000        -14.8000         33.8351         33.8351
            1159         800.776         800.776        -9.65259        -9.65259         28.5071         28.5071
            1160         800.343         800.343        -5.86667        -5.86667         23.9584         23.9584
            1161         800.733         800.733        -3.05924        -3.05924         20.1794         20.1794
            1162         801.570         801.570    -950.897E-03    -950.897E-03         17.0783         17.0783
            1163         802.633         802.633     647.055E-03     647.055E-03         14.5444         14.5444
            1164         803.791         803.791         1.86594         1.86594         12.4739         12.4739
            1165         804.970         804.970         2.79547         2.79547         10.7771         10.7771
            1166         806.126         806.126         3.49940         3.49940         9.37983         9.37983
            1167         807.236         807.236         4.02340         4.02340         8.22193         8.22193
            1168         808.289         808.289         4.40154         4.40154         7.25514         7.25514
            1169         809.280         809.280         4.65985         4.65985         6.44100         6.44100
            1170         810.206         810.206         4.81899         4.81899         5.74905         5.74905
            1171         811.069         811.069         4.89577         4.89577         5.15518         5.15518
            1172         811.871         811.871         4.90425         4.90425         4.64043         4.64043
            1173         812.615         812.615         4.85644         4.85644         4.18986         4.18986
            1174         813.303         813.303         4.76271         4.76271         3.79178         3.79178
            1175         813.938         813.938         4.63211         4.63211         3.43701         3.43701
            1176         814.522         814.522         4.47259         4.47259         3.11837         3.11837
            1177         815.060         815.060         4.29108         4.29108         2.83025         2.83025
            1178         815.553         815.553         4.09370         4.09370         2.56823         2.56823
            1179         816.004         816.004         3.88574         3.88574         2.32883         2.32883
            1180         816.416         816.416         3.67182         3.67182         2.10928         2.10928
            1181         816.790         816.790         3.45590         3.45590         1.90736         1.90736
            1182         817.130         817.130         3.24138         3.24138         1.72123         1.72123
            1183         817.438         817.438         3.03113         3.03113         1.54938         1.54938
            1184         817.715         817.715         2.82757         2.82757         1.39050         1.39050
            1185         817.964         817.964         2.63270         2.63270         1.24344         1.24344
            1186         818.187         818.187         2.44818         2.44818         1.10718         1.10718
            1187         818.385         818.385         2.27534         2.27534     980.758E-03     980.758E-03
            1188         818.560         818.560         2.11526         2.11526     863.288E-03     863.288E-03
            1189         818.714         818.714         1.96879         1.96879     753.911E-03     753.911E-03
            1190         818.848         818.848         1.83659         1.83659     651.794E-03     651.794E-03
            1191         818.963         818.963         1.71916         1.71916     556.123E-03     556.123E-03
            1192         819.061         819.061         1.61689         1.61689     466.093E-03     466.093E-03
            1193         819.141         819.141         1.53004         1.53004     380.906E-03     380.906E-03
            1194         819.206         819.206         1.45883         1.45883     299.772E-03     299.772E-03
            1195         819.256         819.256         1.40340         1.40340     221.900E-03     221.900E-03
            1196         819.291         819.291         1.36384         1.36384     146.503E-03     146.503E-03
            1197         819.312         819.312         1.34018         1.34018     72.9844E-03     72.9844E-03
            1198         784.434         784.434        -21.2803        -21.2803         53.4789         53.4789
            1199         782.715         782.715        -12.6924        -12.6924         42.7771         42.7771
            1200         783.874         783.874        -7.07956        -7.07956         34.1242         34.1242
            1201         786.271         786.271        -3.35607        -3.35607         27.3657         27.3657
            1202         789.077         789.077    -811.297E-03    -811.297E-03         22.1371         22.1371
            1203         791.902         791.902     985.041E-03     985.041E-03         18.0876         18.0876
            1204         794.576         794.576         2.28603         2.28603         14.9326         14.9326
            1205         797.033         797.033         3.24805         3.24805         12.4568         12.4568
            1206         799.259         799.259         3.96670         3.96670         10.4974         10.4974
            1207         801.262         801.262         4.50349         4.50349         8.93349         8.93349
            1208         803.061         803.061         4.89837         4.89837         7.67386         7.67386
            1209         804.678         804.678         5.17884         5.17884         6.64984         6.64984
            1210         806.134         806.134         5.36449         5.36449         5.80912         5.80912
            1211         807.448         807.448         5.47022         5.47022         5.11186         5.11186
            1212         808.636         808.636         5.50793         5.50793         4.52742         4.52742
            1213         809.714         809.714         5.48762         5.48762         4.03222         4.03222
            1214         810.694         810.694         5.41805         5.41805         3.60806         3.60806
            1215         811.586         811.586         5.30703         5.30703         3.24086         3.24086
            1216         812.399         812.399         5.16167         5.16167         2.91969         2.91969
            1217         813.141         813.141         4.98847         4.98847         2.63609         2.63609
            1218         813.818         813.818         4.79339         4.79339         2.38350         2.38350
            1219         814.435         814.435         4.58182         4.58182         2.15679         2.15679
            1220         814.998         814.998         4.35869         4.35869         1.95198         1.95198
            1221         815.510         815.510         4.12837         4.12837         1.76595         1.76595
            1222         815.976         815.976         3.89479         3.89479         1.59620         1.59620
            1223         816.399         816.399         3.66140         3.66140         1.44077         1.44077
            1224         816.782         816.782         3.43118         3.43118         1.29805         1.29805
            1225         817.128         817.128         3.20674         3.20674         1.16672         1.16672
            1226         817.440         817.440         2.99027         2.99027         1.04565         1.04565
            1227         817.719         817.719         2.78364         2.78364     933.882E-03     933.882E-03
            1228         817.969         817.969         2.58838         2.58838     830.554E-03     830.554E-03
            1229         818.192         818.192         2.40577         2.40577     734.888E-03     734.888E-03
            1230         818.389         818.389         2.23683         2.23683     646.161E-03     646.161E-03
            1231         818.562         818.562         2.08237         2.08237     563.693E-03     563.693E-03
            1232         818.712         818.712         1.94305         1.94305     486.830E-03     486.830E-03
            1233         818.842         818.842         1.81935         1.81935     414.939E-03     414.939E-03
            1234         818.951         818.951         1.71164         1.71164     347.400E-03     347.400E-03
            1235         819.042         819.042         1.62020         1.62020     283.606E-03     283.606E-03
            1236         819.115         819.115         1.54524         1.54524     222.957E-03     222.957E-03
            1237         819.171         819.171         1.48689         1.48689     164.861E-03     164.861E-03
            1238         819.211         819.211         1.44527         1.44527     108.729E-03     108.729E-03
            1239         819.234         819.234         1.42038         1.42038     54.1167E-03     54.1167E-03
            1240         747.542         747.542        -5.85275        -5.85275         49.8978         49.8978
            1241         756.716         756.716        -1.02133        -1.02133         37.0628         37.0628
            1242         765.302         765.302         1.61047         1.61047         28.0542         28.0542
            1243         772.738         772.738         3.13809         3.13809         21.6483         21.6483
            1244         779.017         779.017         4.09194         4.09194         17.0023         17.0023
            1245         784.285         784.285         4.72731         4.72731         13.5672         13.5672
            1246         788.709         788.709         5.17523         5.17523         10.9855         10.9855
            1247         792.443         792.443         5.50253         5.50253         9.01508         9.01508
            1248         795.616         795.616         5.74463         5.74463         7.49108         7.49108
            1249         798.332         798.332         5.91989         5.91989         6.29717         6.29717
            1250         800.675         800.675         6.03835         6.03835         5.35091         5.35091
            1251         802.712         802.712         6.10581         6.10581         4.59217         4.59217
            1252         804.496         804.496         6.12625         6.12625         3.97692         3.97692
            1253         806.070         806.070         6.10303         6.10303         3.47227         3.47227
            1254         807.466         807.466         6.03950         6.03950         3.05360         3.05360
            1255         808.713         808.713         5.93920         5.93920         2.70222         2.70222
            1256         809.830         809.830         5.80599         5.80599         2.40393         2.40393
            1257         810.836         810.836         5.64394         5.64394         2.14786         2.14786
            1258         811.744         811.744         5.45731         5.45731         1.92565         1.92565
            1259         812.566         812.566         5.25038         5.25038         1.73090         1.73090
            1260         813.312         813.312         5.02741         5.02741         1.55864         1.55864
            1261         813.988         813.988         4.79251         4.79251         1.40504         1.40504
            1262         814.602         814.602         4.54957         4.54957         1.26711         1.26711
            1263         815.159         815.159         4.30223         4.30223         1.14253         1.14253
            1264         815.664         815.664         4.05383         4.05383         1.02944         1.02944
            1265         816.122         816.122         3.80737         3.80737     926.399E-03     926.399E-03
            1266         816.536         816.536         3.56553         3.56553     832.211E-03     832.211E-03
            1267         816.909         816.909         3.33065         3.33065     745.909E-03     745.909E-03
            1268         817.246         817.246         3.10475         3.10475     666.677E-03     666.677E-03
            1269         817.547         817.547         2.88958         2.88958     593.817E-03     593.817E-03
            1270         817.817         817.817         2.68657         2.68657     526.715E-03     526.715E-03
            1271         818.057         818.057         2.49693         2.49693     464.823E-03     464.823E-03
            1272         818.269         818.269         2.32164         2.32164     407.634E-03     407.634E-03
            1273         818.455         818.455         2.16148         2.16148     354.680E-03     354.680E-03
            1274         818.617         818.617         2.01707         2.01707     305.514E-03     305.514E-03
            1275         818.756         818.756         1.88890         1.88890     259.712E-03     259.712E-03
            1276         818.875         818.875         1.77731         1.77731     216.861E-03     216.861E-03
            1277         818.973         818.973         1.68260         1.68260     176.564E-03     176.564E-03
            1278         819.052         819.052         1.60495         1.60495     138.431E-03     138.431E-03
            1279         819.112         819.112         1.54449         1.54449     102.083E-03     102.083E-03
            1280         819.155         819.155         1.50135         1.50135     67.1494E-03     67.1494E-03
            1281         819.180         819.180         1.47552         1.47552     33.3491E-03     33.3491E-03
            1282         715.914         715.914         9.17714         9.17714         30.5088         30.5088
            1283         736.358         736.358         8.98076         8.98076         21.3755         21.3755
            1284         751.599         751.599         8.47522         8.47522         15.5616         15.5616
            1285         763.166         763.166         7.99256         7.99256         11.6637         11.6637
            1286         772.128         772.128         7.60864         7.60864         8.94706         8.94706
            1287         779.201         779.201         7.32759         7.32759         7.00026         7.00026
            1288         784.876         784.876         7.13168         7.13168         5.57095         5.57095
            1289         789.498         789.498         6.99728         6.99728         4.50185         4.50185
            1290         793.314         793.314         6.90232         6.90232         3.68814         3.68814
            1291         796.506         796.506         6.82785         6.82785         3.05986         3.05986
            1292         799.206         799.206         6.75898         6.75898         2.56793         2.56793
            1293         801.515         801.515         6.68439         6.68439         2.17793         2.17793
            1294         803.509         803.509         6.59616         6.59616         1.86482         1.86482
            1295         805.247         805.247         6.48911         6.48911         1.61045         1.61045
            1296         806.774         806.774         6.36043         6.36043         1.40126         1.40126
            1297         808.125         808.125         6.20912         6.20912         1.22721         1.22721
            1298         809.327         809.327         6.03566         6.03566         1.08069         1.08069
            1299         810.402         810.402         5.84159         5.84159     955.947E-03     955.947E-03
            1300         811.368         811.368         5.62924         5.62924     848.612E-03     848.612E-03
            1301         812.239         812.239         5.40144         5.40144     755.337E-03     755.337E-03
            1302         813.025         813.025         5.16134         5.16134     673.553E-03     673.553E-03
            1303         813.736         813.736         4.91219         4.91219     601.278E-03     601.278E-03
            1304         814.380         814.380         4.65725         4.65725     536.975E-03     536.975E-03
            1305         814.963         814.963         4.39967         4.39967     479.440E-03     479.440E-03
            1306         815.491         815.491         4.14241         4.14241     427.728E-03     427.728E-03
            1307         815.969         815.969         3.88820         3.88820     381.081E-03     381.081E-03
            1308         816.401         816.401         3.63950         3.63950     338.886E-03     338.886E-03
            1309         816.790         816.790         3.39850         3.39850     300.639E-03     300.639E-03
            1310         817.140         817.140         3.16712         3.16712     265.917E-03     265.917E-03
            1311         817.454         817.454         2.94700         2.94700     234.356E-03     234.356E-03
            1312         817.734         817.734         2.73952         2.73952     205.642E-03     205.642E-03
            1313         817.984         817.984         2.54585         2.54585     179.491E-03     179.491E-03
            1314         818.204         818.204         2.36693         2.36693     155.649E-03     155.649E-03
            1315         818.398         818.398         2.20352         2.20352     133.885E-03     133.885E-03
            1316         818.566         818.566         2.05623         2.05623     113.982E-03     113.982E-03
            1317         818.711         818.711         1.92551         1.92551     95.7385E-03     95.7385E-03
            1318         818.834         818.834         1.81173         1.81173     78.9668E-03     78.9668E-03
            1319         818.936         818.936         1.71513         1.71513     63.4900E-03     63.4900E-03
            1320         819.018         819.018         1.63592         1.63592     49.1421E-03     49.1421E-03
            1321         819.081         819.081         1.57422         1.57422     35.7682E-03     35.7682E-03
            1322         819.126         819.126         1.53013         1.53013     23.2246E-03     23.2246E-03
            1323         819.152         819.152         1.50366         1.50366     11.4078E-03     11.4078E-03
            1324         704.891         704.891         14.6993         14.6993        -2.07659        -2.07659
            1325         729.855         729.855         12.3007         12.3007        -1.81201        -1.81201
            1326         747.443         747.443         10.6168         10.6168        -1.53956        -1.53956
            1327         760.384         760.384         9.43746         9.43746        -1.31336        -1.31336
            1328         770.198         770.198         8.61320         8.61320        -1.12822        -1.12822
            1329         777.824         777.824         8.04459         8.04459    -978.290E-03    -978.290E-03
            1330         783.870         783.870         7.65299         7.65299    -855.502E-03    -855.502E-03
            1331         788.748         788.748         7.38317         7.38317    -754.807E-03    -754.807E-03
            1332         792.745         792.745         7.19180         7.19180    -671.387E-03    -671.387E-03
            1333         796.068         796.068         7.04798         7.04798    -601.992E-03    -601.992E-03
            1334         798.864         798.864         6.92822         6.92822    -543.786E-03    -543.786E-03
            1335         801.244         801.244         6.81604         6.81604    -494.685E-03    -494.685E-03
            1336         803.293         803.293         6.69964         6.69964    -452.916E-03    -452.916E-03
            1337         805.073         805.073         6.57136         6.57136    -417.103E-03    -417.103E-03
            1338         806.632         806.632         6.42650         6.42650    -386.086E-03    -386.086E-03
            1339         808.008         808.008         6.26277         6.26277    -358.940E-03    -358.940E-03
            1340         809.230         809.230         6.07968         6.07968    -334.893E-03    -334.893E-03
            1341         810.322         810.322         5.87809         5.87809    -313.327E-03    -313.327E-03
            1342         811.301         811.301         5.65978         5.65978    -293.734E-03    -293.734E-03
            1343         812.182         812.182         5.42723         5.42723    -275.713E-03    -275.713E-03
            1344         812.977         812.977         5.18326         5.18326    -258.942E-03    -258.942E-03
            1345         813.696         813.696         4.93095         4.93095    -243.170E-03    -243.170E-03
            1346         814.346         814.346         4.67339         4.67339    -228.207E-03    -228.207E-03
            1347         814.935         814.935         4.41359         4.41359    -213.905E-03    -213.905E-03
            1348         815.468         815.468         4.15445         4.15445    -200.158E-03    -200.158E-03
            1349         815.949         815.949         3.89861         3.89861    -186.886E-03    -186.886E-03
            1350         816.384         816.384         3.64850         3.64850    -174.036E-03    -174.036E-03
            1351         816.776         816.776         3.40628         3.40628    -161.565E-03    -161.565E-03
            1352         817.129         817.129         3.17382         3.17382    -149.446E-03    -149.446E-03
            1353         817.444         817.444         2.95275         2.95275    -137.657E-03    -137.657E-03
            1354         817.727         817.727         2.74444         2.74444    -126.176E-03    -126.176E-03
            1355         817.977         817.977         2.55003         2.55003    -114.986E-03    -114.986E-03
            1356         818.199         818.199         2.37046         2.37046    -104.063E-03    -104.063E-03
            1357         818.394         818.394         2.20648         2.20648    -93.3805E-03    -93.3805E-03
            1358         818.563         818.563         2.05868         2.05868    -82.9059E-03    -82.9059E-03
            1359         818.709         818.709         1.92752         1.92752    -72.5991E-03    -72.5991E-03
            1360         818.832         818.832         1.81335         1.81335    -62.4121E-03    -62.4121E-03
            1361         818.935         818.935         1.71640         1.71640    -52.2880E-03    -52.2880E-03
            1362         819.017         819.017         1.63688         1.63688    -42.1599E-03    -42.1599E-03
            1363         819.080         819.080         1.57489         1.57489    -31.9508E-03    -31.9508E-03
            1364         819.125         819.125         1.53053         1.53053    -21.5722E-03    -21.5722E-03
            1365         819.152         819.152         1.50377         1.50377    -10.9478E-03    -10.9478E-03
            1366         723.512         723.512         5.54957         5.54957        -35.0827        -35.0827
            1367         741.732         741.732         6.34561         6.34561        -25.4139        -25.4139
            1368         755.472         755.472         6.53673         6.53673        -19.0539        -19.0539
            1369         766.033         766.033         6.53924         6.53924        -14.6635        -14.6635
            1370         774.302         774.302         6.49899         6.49899        -11.5312        -11.5312
            1371         780.885         780.885         6.46571         6.46571        -9.23677        -9.23677
            1372         786.205         786.205         6.45252         6.45252        -7.52062        -7.52062
            1373         790.564         790.564         6.45478         6.45478        -6.21358        -6.21358
            1374         794.183         794.183         6.46384         6.46384        -5.20280        -5.20280
            1375         797.223         797.223         6.46942         6.46942        -4.41017        -4.41017
            1376         799.806         799.806         6.46290         6.46290        -3.78076        -3.78076
            1377         802.023         802.023         6.43725         6.43725        -3.27486        -3.27486
            1378         803.944         803.944         6.38774         6.38774        -2.86346        -2.86346
            1379         805.622         805.622         6.31151         6.31151        -2.52496        -2.52496
            1380         807.101         807.101         6.20747         6.20747        -2.24313        -2.24313
            1381         808.412         808.412         6.07598         6.07598        -2.00565        -2.00565
            1382         809.581         809.581         5.91852         5.91852        -1.80313        -1.80313
            1383         810.629         810.629         5.73746         5.73746        -1.62834        -1.62834
            1384         811.571         811.571         5.53575         5.53575        -1.47575        -1.47575
            1385         812.421         812.421         5.31674         5.31674        -1.34105        -1.34105
            1386         813.189         813.189         5.08395         5.08395        -1.22096        -1.22096
            1387         813.885         813.885         4.84097         4.84097        -1.11289        -1.11289
            1388         814.515         814.515         4.59130         4.59130        -1.01488        -1.01488
            1389         815.086         815.086         4.33828         4.33828    -925.382E-03    -925.382E-03
            1390         815.603         815.603         4.08503         4.08503    -843.190E-03    -843.190E-03
            1391         816.070         816.070         3.83438         3.83438    -767.359E-03    -767.359E-03
            1392         816.493         816.493         3.58891         3.58891    -697.137E-03    -697.137E-03
            1393         816.874         816.874         3.35084         3.35084    -631.913E-03    -631.913E-03
            1394         817.216         817.216         3.12216         3.12216    -571.182E-03    -571.182E-03
            1395         817.523         817.523         2.90452         2.90452    -514.514E-03    -514.514E-03
            1396         817.797         817.797         2.69934         2.69934    -461.535E-03    -461.535E-03
            1397         818.040         818.040         2.50778         2.50778    -411.904E-03    -411.904E-03
            1398         818.255         818.255         2.33080         2.33080    -365.305E-03    -365.305E-03
            1399         818.444         818.444         2.16916         2.16916    -321.434E-03    -321.434E-03
            1400         818.609         818.609         2.02344         2.02344    -279.997E-03    -279.997E-03
            1401         818.750         818.750         1.89412         1.89412    -240.698E-03    -240.698E-03
            1402         818.870         818.870         1.78152         1.78152    -203.243E-03    -203.243E-03
            1403         818.969         818.969         1.68589         1.68589    -167.331E-03    -167.331E-03
            1404         819.049         819.049         1.60742         1.60742    -132.656E-03    -132.656E-03
            1405         819.110         819.110         1.54622         1.54622    -98.9031E-03    -98.9031E-03
            1406         819.154         819.154         1.50236         1.50236    -65.7507E-03    -65.7507E-03
            1407         819.180         819.180         1.47582         1.47582    -32.9505E-03    -32.9505E-03
            1408         763.167         763.167        -12.4637        -12.4637        -52.0029        -52.0029
            1409         768.038         768.038        -6.10603        -6.10603        -39.8539        -39.8539
            1410         773.664         773.664        -2.29333        -2.29333        -30.9648        -30.9648
            1411         779.029         779.029     126.772E-03     126.772E-03        -24.4308        -24.4308
            1412         783.838         783.838         1.74700         1.74700        -19.5586        -19.5586
            1413         788.042         788.042         2.88404         2.88404        -15.8756        -15.8756
            1414         791.685         791.685         3.71084         3.71084        -13.0541        -13.0541
            1415         794.834         794.834         4.32797         4.32797        -10.8658        -10.8658
            1416         797.563         797.563         4.79320         4.79320        -9.14901        -9.14901
            1417         799.938         799.938         5.14201         5.14201        -7.78734        -7.78734
            1418         802.015         802.015         5.39626         5.39626        -6.69583        -6.69583
            1419         803.843         803.843         5.57072         5.57072        -5.81166        -5.81166
            1420         805.460         805.460         5.67590         5.67590        -5.08779        -5.08779
            1421         806.899         806.899         5.72013         5.72013        -4.48868        -4.48868
            1422         808.186         808.186         5.71051         5.71051        -3.98728        -3.98728
            1423         809.343         809.343         5.65352         5.65352        -3.56284        -3.56284
            1424         810.385         810.385         5.55527         5.55527        -3.19943        -3.19943
            1425         811.328         811.328         5.42163         5.42163        -2.88474        -2.88474
            1426         812.183         812.183         5.25823         5.25823        -2.60927        -2.60927
            1427         812.959         812.959         5.07049         5.07049        -2.36566        -2.36566
            1428         813.664         813.664         4.86352         4.86352        -2.14822        -2.14822
            1429         814.305         814.305         4.64213         4.64213        -1.95251        -1.95251
            1430         814.888         814.888         4.41076         4.41076        -1.77510        -1.77510
            1431         815.418         815.418         4.17345         4.17345        -1.61332        -1.61332
            1432         815.898         815.898         3.93388         3.93388        -1.46505        -1.46505
            1433         816.334         816.334         3.69529         3.69529        -1.32863        -1.32863
            1434         816.728         816.728         3.46055         3.46055        -1.20271        -1.20271
            1435         817.083         817.083         3.23213         3.23213        -1.08619        -1.08619
            1436         817.402         817.402         3.01217         3.01217    -978.149E-03    -978.149E-03
            1437         817.689         817.689         2.80244         2.80244    -877.799E-03    -877.799E-03
            1438         817.944         817.944         2.60446         2.60446    -784.440E-03    -784.440E-03
            1439         818.172         818.172         2.41944         2.41944    -697.434E-03    -697.434E-03
            1440         818.372         818.372         2.24837         2.24837    -616.189E-03    -616.189E-03
            1441         818.549         818.549         2.09204         2.09204    -540.139E-03    -540.139E-03
            1442         818.702         818.702         1.95107         1.95107    -468.736E-03    -468.736E-03
            1443         818.834         818.834         1.82591         1.82591    -401.438E-03    -401.438E-03
            1444         818.945         818.945         1.71692         1.71692    -337.710E-03    -337.710E-03
            1445         819.038         819.038         1.62433         1.62433    -277.013E-03    -277.013E-03
            1446         819.112         819.112         1.54834         1.54834    -218.808E-03    -218.808E-03
            1447         819.169         819.169         1.48905         1.48905    -162.551E-03    -162.551E-03
            1448         819.210         819.210         1.44652         1.44652    -107.695E-03    -107.695E-03
            1449         819.234         819.234         1.42075         1.42075    -53.8216E-03    -53.8216E-03
            1450         803.755         803.755        -27.5682        -27.5682        -48.9492        -48.9492
            1451         797.925         797.925        -18.4305        -18.4305        -41.1647        -41.1647
            1452         795.753         795.753        -11.9499        -11.9499        -34.1156        -34.1156
            1453         795.574         795.574        -7.37557        -7.37557        -28.1992        -28.1992
            1454         796.412         796.412        -4.08639        -4.08639        -23.3870        -23.3870
            1455         797.741         797.741        -1.67674        -1.67674        -19.5137        -19.5137
            1456         799.272         799.272     121.524E-03     121.524E-03        -16.4038        -16.4038
            1457         800.849         800.849         1.48116         1.48116        -13.9022        -13.9022
            1458         802.393         802.393         2.51743         2.51743        -11.8817        -11.8817
            1459         803.863         803.863         3.30722         3.30722        -10.2406        -10.2406
            1460         805.241         805.241         3.90402         3.90402        -8.89859        -8.89859
            1461         806.522         806.522         4.34569         4.34569        -7.79266        -7.79266
            1462         807.709         807.709         4.66036         4.66036        -6.87345        -6.87345
            1463         808.803         808.803         4.86954         4.86954        -6.10230        -6.10230
            1464         809.813         809.813         4.99045         4.99045        -5.44890        -5.44890
            1465         810.743         810.743         5.03730         5.03730        -4.88953        -4.88953
            1466         811.599         811.599         5.02220         5.02220        -4.40563        -4.40563
            1467         812.386         812.386         4.95561         4.95561        -3.98268        -3.98268
            1468         813.110         813.110         4.84680         4.84680        -3.60932        -3.60932
            1469         813.775         813.775         4.70394         4.70394        -3.27672        -3.27672
            1470         814.385         814.385         4.53431         4.53431        -2.97796        -2.97796
            1471         814.944         814.944         4.34439         4.34439        -2.70767        -2.70767
            1472         815.455         815.455         4.13989         4.13989        -2.46163        -2.46163
            1473         815.921         815.921         3.92586         3.92586        -2.23653        -2.23653
            1474         816.346         816.346         3.70669         3.70669        -2.02975        -2.02975
            1475         816.732         816.732         3.48621         3.48621        -1.83921        -1.83921
            1476         817.081         817.081         3.26768         3.26768        -1.66319        -1.66319
            1477         817.397         817.397         3.05389         3.05389        -1.50029        -1.50029
            1478         817.682         817.682         2.84721         2.84721        -1.34931        -1.34931
            1479         817.937         817.937         2.64958         2.64958        -1.20919        -1.20919
            1480         818.165         818.165         2.46261         2.46261        -1.07899        -1.07899
            1481         818.367         818.367         2.28761         2.28761    -957.844E-03    -957.844E-03
            1482         818.546         818.546         2.12561         2.12561    -844.932E-03    -844.932E-03
            1483         818.703         818.703         1.97746         1.97746    -739.465E-03    -739.465E-03
            1484         818.839         818.839         1.84377         1.84377    -640.675E-03    -640.675E-03
            1485         818.956         818.956         1.72503         1.72503    -547.802E-03    -547.802E-03
            1486         819.055         819.055         1.62159         1.62159    -460.093E-03    -460.093E-03
            1487         819.138         819.138         1.53371         1.53371    -376.795E-03    -376.795E-03
            1488         819.204         819.204         1.46157         1.46157    -297.153E-03    -297.153E-03
            1489         819.254         819.254         1.40529         1.40529    -220.413E-03    -220.413E-03
            1490         819.290         819.290         1.36492         1.36492    -145.818E-03    -145.818E-03
            1491         819.312         819.312         1.34047         1.34047    -72.7922E-03    -72.7922E-03
            1492         831.660         831.660        -33.4770        -33.4770        -35.0613        -35.0613
            1493         821.816         821.816        -25.5564        -25.5564        -33.2094        -33.2094
            1494         815.357         815.357        -18.8328        -18.8328        -30.0166        -30.0166
            1495         811.386         811.386        -13.4508        -13.4508        -26.4676        -26.4676
            1496         809.121         809.121        -9.24802        -9.24802        -23.0671        -23.0671
            1497         807.979         807.979        -5.97909        -5.97909        -20.0168        -20.0168
            1498         807.563         807.563        -3.43498        -3.43498        -17.3700        -17.3700
            1499         807.613         807.613        -1.44973        -1.44973        -15.1126        -15.1126
            1500         807.954         807.954     100.162E-03     100.162E-03        -13.2036        -13.2036
            1501         808.473         808.473         1.30751         1.30751        -11.5942        -11.5942
            1502         809.095         809.095         2.24134         2.24134        -10.2364        -10.2364
            1503         809.772         809.772         2.95431         2.95431        -9.08708        -9.08708
            1504         810.470         810.470         3.48695         3.48695        -8.10899        -8.10899
            1505         811.168         811.168         3.87136         3.87136        -7.27090        -7.27090
            1506         811.852         811.852         4.13336         4.13336        -6.54701        -6.54701
            1507         812.512         812.512         4.29421         4.29421        -5.91635        -5.91635
            1508         813.143         813.143         4.37166         4.37166        -5.36199        -5.36199
            1509         813.740         813.740         4.38076         4.38076        -4.87038        -4.87038
            1510         814.302         814.302         4.33437         4.33437        -4.43078        -4.43078
            1511         814.828         814.828         4.24354         4.24354        -4.03468        -4.03468
            1512         815.318         815.318         4.11780         4.11780        -3.67535        -3.67535
            1513         815.772         815.772         3.96538         3.96538        -3.34753        -3.34753
            1514         816.191         816.191         3.79337         3.79337        -3.04703        -3.04703
            1515         816.575         816.575         3.60783         3.60783        -2.77056        -2.77056
            1516         816.928         816.928         3.41396         3.41396        -2.51545        -2.51545
            1517         817.249         817.249         3.21618         3.21618        -2.27957        -2.27957
            1518         817.541         817.541         3.01819         3.01819        -2.06113        -2.06113
            1519         817.805         817.805         2.82312         2.82312        -1.85863        -1.85863
            1520         818.044         818.044         2.63353         2.63353        -1.67074        -1.67074
            1521         818.258         818.258         2.45155         2.45155        -1.49628        -1.49628
            1522         818.449         818.449         2.27891         2.27891        -1.33419        -1.33419
            1523         818.618         818.618         2.11698         2.11698        -1.18342        -1.18342
            1524         818.768         818.768         1.96687         1.96687        -1.04301        -1.04301
            1525         818.900         818.900         1.82942         1.82942    -911.989E-03    -911.989E-03
            1526         819.014         819.014         1.70531         1.70531    -789.414E-03    -789.414E-03
            1527         819.112         819.112         1.59501         1.59501    -674.345E-03    -674.345E-03
            1528         819.195         819.195         1.49890         1.49890    -565.845E-03    -565.845E-03
            1529         819.264         819.264         1.41724         1.41724    -462.973E-03    -462.973E-03
            1530         819.319         819.319         1.35020         1.35020    -364.788E-03    -364.788E-03
            1531         819.361         819.361         1.29792         1.29792    -270.345E-03    -270.345E-03
            1532         819.391         819.391         1.26046         1.26046    -178.702E-03    -178.702E-03
            1533         819.409         819.409         1.23783         1.23783    -89.1502E-03    -89.1502E-03
            1534         823.148         823.148     20.0176E-03     20.0176E-03        -2.80170        -2.80170
            1535         825.872         825.872     33.9261E-03     33.9261E-03        -4.99212        -4.99212
            1536         828.617         828.617     11.6129E-03     11.6129E-03        -6.59901        -6.59901
            1537         831.448         831.448    -104.935E-03    -104.935E-03        -7.83138        -7.83138
            1538         834.453         834.453    -400.298E-03    -400.298E-03        -8.83875        -8.83875
            1539         837.739         837.739    -991.922E-03    -991.922E-03        -9.70678        -9.70678
            1540         841.432         841.432        -2.04300        -2.04300        -10.4571        -10.4571
            1541         845.677         845.677        -3.78214        -3.78214        -11.0302        -11.0302
            1542         850.615         850.615        -6.52667        -6.52667        -11.2452        -11.2452
            1543         856.340         856.340        -10.6996        -10.6996        -10.7184        -10.7184
            1544         862.732         862.732        -16.7872        -16.7872        -8.73949        -8.73949
            1545         869.087         869.087        -25.1388        -25.1388        -4.12884        -4.12884
            1546         819.671         819.671     260.421E-03     260.421E-03        -2.58003        -2.58003
            1547         823.363         823.363     706.807E-03     706.807E-03        -4.61489        -4.61489
            1548         826.694         826.694         1.34401         1.34401        -6.15794        -6.15794
            1549         829.841         829.841         2.08986         2.08986        -7.43259        -7.43259
            1550         832.977         832.977         2.86242         2.86242        -8.61089        -8.61089
            1551         836.280         836.280         3.56752         3.56752        -9.81909        -9.81909
            1552         839.947         839.947         4.07895         4.07895        -11.1471        -11.1471
            1553         844.218         844.218         4.20790         4.20790        -12.6463        -12.6463
            1554         849.397         849.397         3.65310         3.65310        -14.3064        -14.3064
            1555         855.876         855.876         1.91872         1.91872        -15.9919        -15.9919
            1556         864.109         864.109        -1.80778        -1.80778        -17.2728        -17.2728
            1557         874.438         874.438        -8.75514        -8.75514        -17.0714        -17.0714
            1558         816.744         816.744     484.158E-03     484.158E-03        -1.94837        -1.94837
            1559         821.226         821.226         1.33533         1.33533        -3.48840        -3.48840
            1560         824.987         824.987         2.59629         2.59629        -4.67698        -4.67698
            1561         828.304         828.304         4.17421         4.17421        -5.70525        -5.70525
            1562         831.410         831.410         6.01106         6.01106        -6.72819        -6.72819
            1563         834.520         834.520         8.07051         8.07051        -7.87570        -7.87570
            1564         837.858         837.858         10.3230         10.3230        -9.26949        -9.26949
            1565         841.685         841.685         12.7258         12.7258        -11.0358        -11.0358
            1566         846.348         846.348         15.1882         15.1882        -13.3145        -13.3145
            1567         852.353         852.353         17.5021         17.5021        -16.2571        -16.2571
            1568         860.499         860.499         19.1790         19.1790        -19.9827        -19.9827
            1569         872.061         872.061         19.0561         19.0561        -24.3846        -24.3846
            1570         814.857         814.857     644.406E-03     644.406E-03    -976.846E-03    -976.846E-03
            1571         819.853         819.853         1.78646         1.78646        -1.73778        -1.73778
            1572         823.869         823.869         3.49877         3.49877        -2.32019        -2.32019
            1573         827.246         827.246         5.68661         5.68661        -2.83684        -2.83684
            1574         830.256         830.256         8.31944         8.31944        -3.38168        -3.38168
            1575         833.125         833.125         11.4210         11.4210        -4.03900        -4.03900
            1576         836.071         836.071         15.0650         15.0650        -4.89653        -4.89653
            1577         839.329         839.329         19.3782         19.3782        -6.06003        -6.06003
            1578         843.199         843.199         24.5485         24.5485        -7.67232        -7.67232
            1579         848.122         848.122         30.8396         30.8396        -9.94307        -9.94307
            1580         854.818         854.818         38.6009         38.6009        -13.2115        -13.2115
            1581         864.618         864.618         48.2101         48.2101        -18.0628        -18.0628
            1582         814.362         814.362     704.728E-03     704.728E-03     190.225E-03     190.225E-03
            1583         819.529         819.529         1.95656         1.95656     372.964E-03     372.964E-03
            1584         823.616         823.616         3.83985         3.83985     545.192E-03     545.192E-03
            1585         826.990         826.990         6.25984         6.25984     701.274E-03     701.274E-03
            1586         829.934         829.934         9.19764         9.19764     837.243E-03     837.243E-03
            1587         832.677         832.677         12.7020         12.7020     950.027E-03     950.027E-03
            1588         835.430         835.430         16.8909         16.8909         1.03734         1.03734
            1589         838.410         838.410         21.9654         21.9654         1.09775         1.09775
            1590         841.884         841.884         28.2430         28.2430         1.13047         1.13047
            1591         846.232         846.232         36.2196         36.2196         1.13551         1.13551
            1592         852.053         852.053         46.7051         46.7051         1.11389         1.11389
            1593         860.437         860.437         61.1562         61.1562         1.06597         1.06597
            1594         815.391         815.391     651.328E-03     651.328E-03         1.36369         1.36369
            1595         820.361         820.361         1.80645         1.80645         2.49576         2.49576
            1596         824.337         824.337         3.53924         3.53924         3.42744         3.42744
            1597         827.662         827.662         5.75373         5.75373         4.26019         4.26019
            1598         830.609         830.609         8.41820         8.41820         5.08010         5.08010
            1599         833.410         833.410         11.5552         11.5552         5.96530         5.96530
            1600         836.280         836.280         15.2376         15.2376         6.99909         6.99909
            1601         839.460         839.460         19.5908         19.5908         8.28430         8.28430
            1602         843.252         843.252         24.8021         24.8021         9.96248         9.96248
            1603         848.097         848.097         31.1346         31.1346         12.2432         12.2432
            1604         854.719         854.719         38.9359         38.9359         15.4667         15.4667
            1605         864.448         864.448         48.5840         48.5840         20.2224         20.2224
            1606         817.828         817.828     497.970E-03     497.970E-03         2.35438         2.35438
            1607         822.257         822.257         1.37524         1.37524         4.28251         4.28251
            1608         825.936         825.936         2.67706         2.67706         5.83476         5.83476
            1609         829.145         829.145         4.30816         4.30816         7.19093         7.19093
            1610         832.125         832.125         6.20810         6.20810         8.49823         8.49823
            1611         835.094         835.094         8.33827         8.33827         9.88057         9.88057
            1612         838.280         838.280         10.6670         10.6670         11.4553         11.4553
            1613         841.950         841.950         13.1495         13.1495         13.3461         13.3461
            1614         846.454         846.454         15.6933         15.6933         15.6917         15.6917
            1615         852.302         852.302         18.0888         18.0888         18.6439         18.6439
            1616         860.296         860.296         19.8469         19.8469         22.3226         22.3226
            1617         871.717         871.717         19.8011         19.8011         26.6232         26.6232
            1618         821.340         821.340     281.056E-03     281.056E-03         3.01794         3.01794
            1619         824.947         824.947     766.480E-03     766.480E-03         5.46913         5.46913
            1620         828.147         828.147         1.46478         1.46478         7.39975         7.39975
            1621         831.128         831.128         2.29009         2.29009         9.02184         9.02184
            1622         834.069         834.069         3.15683         3.15683         10.4998         10.4998
            1623         837.154         837.154         3.96733         3.96733         11.9542         11.9542
            1624         840.589         840.589         4.59213         4.59213         13.4709         13.4709
            1625         844.620         844.620         4.83937         4.83937         15.0988         15.0988
            1626         849.556         849.556         4.40505         4.40505         16.8271         16.8271
            1627         855.796         855.796         2.79126         2.79126         18.5213         18.5213
            1628         863.798         863.798    -816.336E-03    -816.336E-03         19.7533         19.7533
            1629         873.909         873.909        -7.64575        -7.64575         19.4455         19.4455
            1630         825.453         825.453     47.4190E-03     47.4190E-03         3.28423         3.28423
            1631         828.051         828.051     113.181E-03     113.181E-03         5.93037         5.93037
            1632         830.612         830.612     172.001E-03     172.001E-03         7.95810         7.95810
            1633         833.210         833.210     160.861E-03     160.861E-03         9.56501         9.56501
            1634         835.943         835.943    -9.77558E-03    -9.77558E-03         10.8932         10.8932
            1635         838.929         838.929    -462.073E-03    -462.073E-03         12.0229         12.0229
            1636         842.303         842.303        -1.36370        -1.36370         12.9720         12.9720
            1637         846.218         846.218        -2.94743        -2.94743         13.6791         13.6791
            1638         850.827         850.827        -5.53436        -5.53436         13.9634         13.9634
            1639         856.228         856.228        -9.55087        -9.55087         13.4426         13.4426
            1640         862.310         862.310        -15.4852        -15.4852         11.4109         11.4109
            1641         868.366         868.366        -23.6862        -23.6862         6.69286         6.69286
            1642         819.611         819.611         1.01215         1.01215     110.437E-03     110.437E-03
            1643         819.601         819.601         1.03087         1.03087     221.484E-03     221.484E-03
            1644         819.584         819.584         1.06198         1.06198     335.284E-03     335.284E-03
            1645         819.561         819.561         1.10546         1.10546     452.738E-03     452.738E-03
            1646         819.530         819.530         1.16124         1.16124     575.055E-03     575.055E-03
            1647         819.491         819.491         1.22921         1.22921     703.440E-03     703.440E-03
            1648         819.445         819.445         1.30918         1.30918     839.089E-03     839.089E-03
            1649         819.389         819.389         1.40091         1.40091     983.189E-03     983.189E-03
            1650         819.325         819.325         1.50404         1.50404         1.13691         1.13691
            1651         819.250         819.250         1.61808         1.61808         1.30141         1.30141
            1652         819.164         819.164         1.74236         1.74236         1.47783         1.47783
            1653         819.067         819.067         1.87603         1.87603         1.66729         1.66729
            1654         818.957         818.957         2.01795         2.01795         1.87091         1.87091
            1655         818.834         818.834         2.16668         2.16668         2.08976         2.08976
            1656         818.698         818.698         2.32037         2.32037         2.32494         2.32494
            1657         818.546         818.546         2.47675         2.47675         2.57756         2.57756
            1658         818.379         818.379         2.63296         2.63296         2.84872         2.84872
            1659         818.197         818.197         2.78551         2.78551         3.13962         3.13962
            1660         818.000         818.000         2.93011         2.93011         3.45152         3.45152
            1661         817.788         817.788         3.06160         3.06160         3.78586         3.78586
            1662         817.562         817.562         3.17373         3.17373         4.14426         4.14426
            1663         817.325         817.325         3.25904         3.25904         4.52866         4.52866
            1664         817.078         817.078         3.30863         3.30863         4.94141         4.94141
            1665         816.828         816.828         3.31197         3.31197         5.38535         5.38535
            1666         816.580         816.580         3.25661         3.25661         5.86395         5.86395
            1667         816.343         816.343         3.12791         3.12791         6.38146         6.38146
            1668         816.129         816.129         2.90871         2.90871         6.94293         6.94293
            1669         815.953         815.953         2.57894         2.57894         7.55425         7.55425
            1670         815.835         815.835         2.11522         2.11522         8.22203         8.22203
            1671         815.804         815.804         1.49032         1.49032         8.95317         8.95317
            1672         815.895         815.895     672.758E-03     672.758E-03         9.75411         9.75411
            1673         816.155         816.155    -373.847E-03    -373.847E-03         10.6293         10.6293
            1674         816.644         816.644        -1.69068        -1.69068         11.5787         11.5787
            1675         817.440         817.440        -3.32408        -3.32408         12.5936         12.5936
            1676         818.643         818.643        -5.32293        -5.32293         13.6496         13.6496
            1677         820.379         820.379        -7.73604        -7.73604         14.6969         14.6969
            1678         822.800         822.800        -10.6001        -10.6001         15.6443         15.6443
            1679         826.077         826.077        -13.9236        -13.9236         16.3407         16.3407
            1680         830.387         830.387        -17.6448        -17.6448         16.5476         16.5476
            1681         835.858         835.858        -21.5765        -21.5765         15.9321         15.9321
            1682         842.492         842.492        -25.3143        -25.3143         14.0695         14.0695
            1683         850.065         850.065        -28.2036        -28.2036         10.5682         10.5682
            1684         819.704         819.704     899.755E-03     899.755E-03     115.653E-03     115.653E-03
            1685         819.698         819.698     916.597E-03     916.597E-03     231.935E-03     231.935E-03
            1686         819.688         819.688     944.595E-03     944.595E-03     351.150E-03     351.150E-03
            1687         819.674         819.674     983.733E-03     983.733E-03     474.258E-03     474.258E-03
            1688         819.655         819.655         1.03394         1.03394     602.540E-03     602.540E-03
            1689         819.632         819.632         1.09512         1.09512     737.275E-03     737.275E-03
            1690         819.604         819.604         1.16709         1.16709     879.730E-03     879.730E-03
            1691         819.570         819.570         1.24963         1.24963         1.03115         1.03115
            1692         819.530         819.530         1.34239         1.34239         1.19278         1.19278
            1693         819.484         819.484         1.44490         1.44490         1.36581         1.36581
            1694         819.430         819.430         1.55655         1.55655         1.55142         1.55142
            1695         819.370         819.370         1.67647         1.67647         1.75076         1.75076
            1696         819.301         819.301         1.80359         1.80359         1.96490         1.96490
            1697         819.223         819.223         1.93648         1.93648         2.19492         2.19492
            1698         819.137         819.137         2.07334         2.07334         2.44181         2.44181
            1699         819.041         819.041         2.21188         2.21188         2.70653         2.70653
            1700         818.936         818.936         2.34927         2.34927         2.98998         2.98998
            1701         818.822         818.822         2.48199         2.48199         3.29305         3.29305
            1702         818.699         818.699         2.60572         2.60572         3.61657         3.61657
            1703         818.569         818.569         2.71518         2.71518         3.96141         3.96141
            1704         818.433         818.433         2.80401         2.80401         4.32842         4.32842
            1705         818.295         818.295         2.86452         2.86452         4.71854         4.71854
            1706         818.159         818.159         2.88755         2.88755         5.13280         5.13280
            1707         818.030         818.030         2.86220         2.86220         5.57235         5.57235
            1708         817.915         817.915         2.77560         2.77560         6.03851         6.03851
            1709         817.826         817.826         2.61266         2.61266         6.53273         6.53273
            1710         817.777         817.777         2.35579         2.35579         7.05654         7.05654
            1711         817.784         817.784         1.98467         1.98467         7.61134         7.61134
            1712         817.871         817.871         1.47597         1.47597         8.19802         8.19802
            1713         818.067         818.067     803.311E-03     803.311E-03         8.81631         8.81631
            1714         818.411         818.411    -62.8461E-03    -62.8461E-03         9.46357         9.46357
            1715         818.948         818.948        -1.15460        -1.15460         10.1330         10.1330
            1716         819.737         819.737        -2.50597        -2.50597         10.8106         10.8106
            1717         820.849         820.849        -4.15027        -4.15027         11.4711         11.4711
            1718         822.369         822.369        -6.11678        -6.11678         12.0717         12.0717
            1719         824.395         824.395        -8.42217        -8.42217         12.5433         12.5433
            1720         827.030         827.030        -11.0588        -11.0588         12.7809         12.7809
            1721         830.373         830.373        -13.9713        -13.9713         12.6309         12.6309
            1722         834.490         834.490        -17.0250        -17.0250         11.8888         11.8888
            1723         839.375         839.375        -19.9623        -19.9623         10.3009         10.3009
            1724         844.896         844.896        -22.3630        -22.3630         7.61699         7.61699
            1725         850.801         850.801        -23.6679        -23.6679         3.61181         3.61181
            1726         819.794         819.794     783.497E-03     783.497E-03     118.153E-03     118.153E-03
            1727         819.792         819.792     798.368E-03     798.368E-03     236.945E-03     236.945E-03
            1728         819.789         819.789     823.095E-03     823.095E-03     358.796E-03     358.796E-03
            1729         819.785         819.785     857.663E-03     857.663E-03     484.700E-03     484.700E-03
            1730         819.779         819.779     902.011E-03     902.011E-03     615.990E-03     615.990E-03
            1731         819.772         819.772     956.042E-03     956.042E-03     753.995E-03     753.995E-03
            1732         819.763         819.763         1.01961         1.01961     900.026E-03     900.026E-03
            1733         819.752         819.752         1.09250         1.09250         1.05538         1.05538
            1734         819.738         819.738         1.17439         1.17439         1.22131         1.22131
            1735         819.722         819.722         1.26487         1.26487         1.39906         1.39906
            1736         819.703         819.703         1.36333         1.36333         1.58981         1.58981
            1737         819.681         819.681         1.46899         1.46899         1.79470         1.79470
            1738         819.655         819.655         1.58081         1.58081         2.01478         2.01478
            1739         819.626         819.626         1.69745         1.69745         2.25104         2.25104
            1740         819.592         819.592         1.81716         1.81716         2.50437         2.50437
            1741         819.556         819.556         1.93777         1.93777         2.77556         2.77556
            1742         819.515         819.515         2.05651         2.05651         3.06526         3.06526
            1743         819.472         819.472         2.16996         2.16996         3.37400         3.37400
            1744         819.427         819.427         2.27388         2.27388         3.70215         3.70215
            1745         819.382         819.382         2.36309         2.36309         4.04991         4.04991
            1746         819.339         819.339         2.43129         2.43129         4.41731         4.41731
            1747         819.301         819.301         2.47088         2.47088         4.80417         4.80417
            1748         819.274         819.274         2.47273         2.47273         5.21011         5.21011
            1749         819.263         819.263         2.42604         2.42604         5.63445         5.63445
            1750         819.278         819.278         2.31804         2.31804         6.07621         6.07621
            1751         819.328         819.328         2.13383         2.13383         6.53395         6.53395
            1752         819.429         819.429         1.85623         1.85623         7.00560         7.00560
            1753         819.599         819.599         1.46559         1.46559         7.48809         7.48809
            1754         819.860         819.860     939.925E-03     939.925E-03         7.97685         7.97685
            1755         820.241         820.241     254.997E-03     254.997E-03         8.46501         8.46501
            1756         820.779         820.779    -614.948E-03    -614.948E-03         8.94207         8.94207
            1757         821.515         821.515        -1.69626        -1.69626         9.39217         9.39217
            1758         822.501         822.501        -3.01358        -3.01358         9.79126         9.79126
            1759         823.794         823.794        -4.58677        -4.58677         10.1038         10.1038
            1760         825.459         825.459        -6.42481        -6.42481         10.2777         10.2777
            1761         827.562         827.562        -8.51741        -8.51741         10.2396         10.2396
            1762         830.160         830.160        -10.8211        -10.8211         9.88867         9.88867
            1763         833.289         833.289        -13.2404        -13.2404         9.09633         9.09633
            1764         836.939         836.939        -15.6045        -15.6045         7.70806         7.70806
            1765         841.027         841.027        -17.6402        -17.6402         5.56622         5.56622
            1766         845.380         845.380        -18.9719        -18.9719         2.53699         2.53699
            1767         849.693         849.693        -19.0729        -19.0729        -1.47069        -1.47069
            1768         819.876         819.876     666.125E-03     666.125E-03     117.829E-03     117.829E-03
            1769         819.878         819.878     678.968E-03     678.968E-03     236.288E-03     236.288E-03
            1770         819.883         819.883     700.325E-03     700.325E-03     357.876E-03     357.876E-03
            1771         819.889         819.889     730.186E-03     730.186E-03     483.594E-03     483.594E-03
            1772         819.897         819.897     768.498E-03     768.498E-03     614.802E-03     614.802E-03
            1773         819.906         819.906     815.179E-03     815.179E-03     752.851E-03     752.851E-03
            1774         819.917         819.917     870.101E-03     870.101E-03     899.075E-03     899.075E-03
            1775         819.929         819.929     933.074E-03     933.074E-03         1.05478         1.05478
            1776         819.943         819.943         1.00382         1.00382         1.22126         1.22126
            1777         819.958         819.958         1.08196         1.08196         1.39972         1.39972
            1778         819.975         819.975         1.16695         1.16695         1.59136         1.59136
            1779         819.993         819.993         1.25809         1.25809         1.79728         1.79728
            1780         820.012         820.012         1.35441         1.35441         2.01849         2.01849
            1781         820.032         820.032         1.45468         1.45468         2.25589         2.25589
            1782         820.055         820.055         1.55730         1.55730         2.51025         2.51025
            1783         820.079         820.079         1.66022         1.66022         2.78217         2.78217
            1784         820.105         820.105         1.76086         1.76086         3.07205         3.07205
            1785         820.135         820.135         1.85600         1.85600         3.38006         3.38006
            1786         820.170         820.170         1.94162         1.94162         3.70607         3.70607
            1787         820.211         820.211         2.01282         2.01282         4.04965         4.04965
            1788         820.262         820.262         2.06359         2.06359         4.40999         4.40999
            1789         820.325         820.325         2.08667         2.08667         4.78580         4.78580
            1790         820.406         820.406         2.07336         2.07336         5.17529         5.17529
            1791         820.510         820.510         2.01332         2.01332         5.57602         5.57602
            1792         820.647         820.647         1.89442         1.89442         5.98477         5.98477
            1793         820.826         820.826         1.70256         1.70256         6.39736         6.39736
            1794         821.062         821.062         1.42163         1.42163         6.80832         6.80832
            1795         821.371         821.371         1.03354         1.03354         7.21056         7.21056
            1796         821.775         821.775     518.435E-03     518.435E-03         7.59475         7.59475
            1797         822.299         822.299    -144.715E-03    -144.715E-03         7.94853         7.94853
            1798         822.974         822.974    -977.198E-03    -977.198E-03         8.25538         8.25538
            1799         823.836         823.836        -1.99875        -1.99875         8.49303         8.49303
            1800         824.925         824.925        -3.22500        -3.22500         8.63162         8.63162
            1801         826.284         826.284        -4.66316        -4.66316         8.63100         8.63100
            1802         827.954         827.954        -6.30604        -6.30604         8.43852         8.43852
            1803         829.973         829.973        -8.12327        -8.12327         7.98617         7.98617
            1804         832.360         832.360        -10.0494        -10.0494         7.19100         7.19100
            1805         835.108         835.108        -11.9704        -11.9704         5.95714         5.95714
            1806         838.160         838.160        -13.7070        -13.7070         4.18719         4.18719
            1807         841.404         841.404        -15.0087        -15.0087         1.80029         1.80029
            1808         844.643         844.643        -15.5377        -15.5377        -1.24673        -1.24673
            1809         847.581         847.581        -14.8752        -14.8752        -4.90185        -4.90185
            1810         819.946         819.946     550.469E-03     550.469E-03     114.621E-03     114.621E-03
            1811         819.953         819.953     561.267E-03     561.267E-03     229.842E-03     229.842E-03
            1812         819.964         819.964     579.228E-03     579.228E-03     348.198E-03     348.198E-03
            1813         819.981         819.981     604.343E-03     604.343E-03     470.673E-03     470.673E-03
            1814         820.002         820.002     636.570E-03     636.570E-03     598.624E-03     598.624E-03
            1815         820.029         820.029     675.842E-03     675.842E-03     733.398E-03     733.398E-03
            1816         820.060         820.060     722.054E-03     722.054E-03     876.323E-03     876.323E-03
            1817         820.096         820.096     775.046E-03     775.046E-03         1.02870         1.02870
            1818         820.138         820.138     834.584E-03     834.584E-03         1.19180         1.19180
            1819         820.185         820.185     900.334E-03     900.334E-03         1.36683         1.36683
            1820         820.238         820.238     971.835E-03     971.835E-03         1.55494         1.55494
            1821         820.297         820.297         1.04846         1.04846         1.75721         1.75721
            1822         820.362         820.362         1.12937         1.12937         1.97457         1.97457
            1823         820.434         820.434         1.21347         1.21347         2.20785         2.20785
            1824         820.512         820.512         1.29932         1.29932         2.45769         2.45769
            1825         820.599         820.599         1.38510         1.38510         2.72452         2.72452
            1826         820.694         820.694         1.46848         1.46848         3.00848         3.00848
            1827         820.798         820.798         1.54654         1.54654         3.30942         3.30942
            1828         820.914         820.914         1.61563         1.61563         3.62678         3.62678
            1829         821.043         821.043         1.67127         1.67127         3.95954         3.95954
            1830         821.187         821.187         1.70797         1.70797         4.30611         4.30611
            1831         821.351         821.351         1.71908         1.71908         4.66424         4.66424
            1832         821.537         821.537         1.69662         1.69662         5.03085         5.03085
            1833         821.753         821.753         1.63112         1.63112         5.40192         5.40192
            1834         822.005         822.005         1.51150         1.51150         5.77227         5.77227
            1835         822.304         822.304         1.32498         1.32498         6.13530         6.13530
            1836         822.660         822.660         1.05710         1.05710         6.48271         6.48271
            1837         823.088         823.088     691.862E-03     691.862E-03         6.80404         6.80404
            1838         823.605         823.605     212.163E-03     212.163E-03         7.08619         7.08619
            1839         824.234         824.234    -399.478E-03    -399.478E-03         7.31276         7.31276
            1840         824.997         824.997        -1.15959        -1.15959         7.46308         7.46308
            1841         825.922         825.922        -2.08186        -2.08186         7.51137         7.51137
            1842         827.037         827.037        -3.17401        -3.17401         7.42534         7.42534
            1843         828.369         828.369        -4.43367        -4.43367         7.16535         7.16535
            1844         829.942         829.942        -5.84250        -5.84250         6.68333         6.68333
            1845         831.766         831.766        -7.35849        -7.35849         5.92357         5.92357
            1846         833.838         833.838        -8.90748        -8.90748         4.82473         4.82473
            1847         836.120         836.120        -10.3724        -10.3724         3.32636         3.32636
            1848         838.539         838.539        -11.5880        -11.5880         1.38026         1.38026
            1849         840.970         840.970        -12.3327        -12.3327        -1.03487        -1.03487
            1850         843.231         843.231        -12.3356        -12.3356        -3.88256        -3.88256
            1851         845.085         845.085        -11.2970        -11.2970        -7.03828        -7.03828
            1852         819.999         819.999     439.390E-03     439.390E-03     108.531E-03     108.531E-03
            1853         820.011         820.011     448.171E-03     448.171E-03     217.608E-03     217.608E-03
            1854         820.030         820.030     462.785E-03     462.785E-03     329.756E-03     329.756E-03
            1855         820.057         820.057     483.222E-03     483.222E-03     445.918E-03     445.918E-03
            1856         820.091         820.091     509.451E-03     509.451E-03     567.413E-03     567.413E-03
            1857         820.134         820.134     541.421E-03     541.421E-03     695.556E-03     695.556E-03
            1858         820.186         820.186     579.049E-03     579.049E-03     831.640E-03     831.640E-03
            1859         820.246         820.246     622.208E-03     622.208E-03     976.933E-03     976.933E-03
            1860         820.316         820.316     670.709E-03     670.709E-03         1.13266         1.13266
            1861         820.395         820.395     724.278E-03     724.278E-03         1.30001         1.30001
            1862         820.484         820.484     782.533E-03     782.533E-03         1.48007         1.48007
            1863         820.584         820.584     844.950E-03     844.950E-03         1.67387         1.67387
            1864         820.696         820.696     910.823E-03     910.823E-03         1.88228         1.88228
            1865         820.819         820.819     979.219E-03     979.219E-03         2.10605         2.10605
            1866         820.955         820.955         1.04892         1.04892         2.34569         2.34569
            1867         821.104         821.104         1.11835         1.11835         2.60150         2.60150
            1868         821.268         821.268         1.18552         1.18552         2.87341         2.87341
            1869         821.448         821.448         1.24789         1.24789         3.16102         3.16102
            1870         821.646         821.646         1.30229         1.30229         3.46339         3.46339
            1871         821.863         821.863         1.34482         1.34482         3.77905         3.77905
            1872         822.101         822.101         1.37067         1.37067         4.10578         4.10578
            1873         822.364         822.364         1.37403         1.37403         4.44055         4.44055
            1874         822.655         822.655         1.34789         1.34789         4.77927         4.77927
            1875         822.979         822.979         1.28397         1.28397         5.11667         5.11667
            1876         823.341         823.341         1.17261         1.17261         5.44600         5.44600
            1877         823.750         823.750         1.00272         1.00272         5.75881         5.75881
            1878         824.214         824.214     761.857E-03     761.857E-03         6.04461         6.04461
            1879         824.744         824.744     436.501E-03     436.501E-03         6.29050         6.29050
            1880         825.352         825.352     12.5115E-03     12.5115E-03         6.48075         6.48075
            1881         826.054         826.054    -523.971E-03    -523.971E-03         6.59633         6.59633
            1882         826.867         826.867        -1.18520        -1.18520         6.61440         6.61440
            1883         827.807         827.807        -1.97972        -1.97972         6.50782         6.50782
            1884         828.891         828.891        -2.90951        -2.90951         6.24489         6.24489
            1885         830.132         830.132        -3.96608        -3.96608         5.78929         5.78929
            1886         831.538         831.538        -5.12527        -5.12527         5.10101         5.10101
            1887         833.103         833.103        -6.34166        -6.34166         4.13831         4.13831
            1888         834.804         834.804        -7.54152        -7.54152         2.86200         2.86200
            1889         836.594         836.594        -8.61825        -8.61825         1.24265         1.24265
            1890         838.394         838.394        -9.42752        -9.42752    -729.734E-03    -729.734E-03
            1891         840.090         840.090        -9.79033        -9.79033        -3.02874        -3.02874
            1892         841.533         841.533        -9.50376        -9.50376        -5.57449        -5.57449
            1893         842.552         842.552        -8.36592        -8.36592        -8.21029        -8.21029
            1894         820.032         820.032     335.714E-03     335.714E-03     99.6256E-03     99.6256E-03
            1895         820.048         820.048     342.559E-03     342.559E-03     199.717E-03     199.717E-03
            1896         820.074         820.074     353.957E-03     353.957E-03     302.743E-03     302.743E-03
            1897         820.111         820.111     369.899E-03     369.899E-03     409.570E-03     409.570E-03
            1898         820.159         820.159     390.362E-03     390.362E-03     521.453E-03     521.453E-03
            1899         820.218         820.218     415.312E-03     415.312E-03     639.638E-03     639.638E-03
            1900         820.289         820.289     444.688E-03     444.688E-03     765.353E-03     765.353E-03
            1901         820.373         820.373     478.396E-03     478.396E-03     899.803E-03     899.803E-03
            1902         820.469         820.469     516.290E-03     516.290E-03         1.04415         1.04415
            1903         820.580         820.580     558.159E-03     558.159E-03         1.19952         1.19952
            1904         820.705         820.705     603.704E-03     603.704E-03         1.36694         1.36694
            1905         820.846         820.846     652.510E-03     652.510E-03         1.54737         1.54737
            1906         821.003         821.003     704.015E-03     704.015E-03         1.74162         1.74162
            1907         821.177         821.177     757.470E-03     757.470E-03         1.95036         1.95036
            1908         821.370         821.370     811.890E-03     811.890E-03         2.17401         2.17401
            1909         821.583         821.583     865.999E-03     865.999E-03         2.41275         2.41275
            1910         821.816         821.816     918.162E-03     918.162E-03         2.66640         2.66640
            1911         822.072         822.072     966.303E-03     966.303E-03         2.93435         2.93435
            1912         822.351         822.351         1.00782         1.00782         3.21545         3.21545
            1913         822.656         822.656         1.03948         1.03948         3.50790         3.50790
            1914         822.989         822.989         1.05730         1.05730         3.80910         3.80910
            1915         823.351         823.351         1.05644         1.05644         4.11547         4.11547
            1916         823.745         823.745         1.03111         1.03111         4.42230         4.42230
            1917         824.175         824.175     974.403E-03     974.403E-03         4.72345         4.72345
            1918         824.645         824.645     878.323E-03     878.323E-03         5.01120         5.01120
            1919         825.160         825.160     733.714E-03     733.714E-03         5.27588         5.27588
            1920         825.724         825.724     530.411E-03     530.411E-03         5.50564         5.50564
            1921         826.344         826.344     257.484E-03     257.484E-03         5.68612         5.68612
            1922         827.028         827.028    -96.2188E-03    -96.2188E-03         5.80015         5.80015
            1923         827.784         827.784    -541.246E-03    -541.246E-03         5.82751         5.82751
            1924         828.621         828.621        -1.08622        -1.08622         5.74472         5.74472
            1925         829.545         829.545        -1.73594        -1.73594         5.52518         5.52518
            1926         830.563         830.563        -2.48887        -2.48887         5.13943         5.13943
            1927         831.675         831.675        -3.33369        -3.33369         4.55622         4.55622
            1928         832.876         832.876        -4.24550        -4.24550         3.74425         3.74425
            1929         834.149         834.149        -5.18106        -5.18106         2.67534         2.67534
            1930         835.463         835.463        -6.07516        -6.07516         1.32935         1.32935
            1931         836.766         836.766        -6.83692        -6.83692    -299.326E-03    -299.326E-03
            1932         837.988         837.988        -7.35034        -7.35034        -2.19167        -2.19167
            1933         839.034         839.034        -7.47893        -7.47893        -4.29384        -4.29384
            1934         839.795         839.795        -7.07862        -7.07862        -6.50385        -6.50385
            1935         840.160         840.160        -6.02212        -6.02212        -8.66253        -8.66253
            1936         820.040         820.040     242.166E-03     242.166E-03     88.0435E-03     88.0435E-03
            1937         820.060         820.060     247.210E-03     247.210E-03     176.444E-03     176.444E-03
            1938         820.092         820.092     255.613E-03     255.613E-03     267.560E-03     267.560E-03
            1939         820.139         820.139     267.365E-03     267.365E-03     362.156E-03     362.156E-03
            1940         820.199         820.199     282.454E-03     282.454E-03     461.382E-03     461.382E-03
            1941         820.273         820.273     300.857E-03     300.857E-03     566.380E-03     566.380E-03
            1942         820.363         820.363     322.535E-03     322.535E-03     678.282E-03     678.282E-03
            1943         820.469         820.469     347.423E-03     347.423E-03     798.194E-03     798.194E-03
            1944         820.592         820.592     375.419E-03     375.419E-03     927.188E-03     927.188E-03
            1945         820.733         820.733     406.369E-03     406.369E-03         1.06629         1.06629
            1946         820.892         820.892     440.056E-03     440.056E-03         1.21647         1.21647
            1947         821.073         821.073     476.173E-03     476.173E-03         1.37859         1.37859
            1948         821.274         821.274     514.302E-03     514.302E-03         1.55340         1.55340
            1949         821.499         821.499     553.882E-03     553.882E-03         1.74148         1.74148
            1950         821.747         821.747     594.170E-03     594.170E-03         1.94321         1.94321
            1951         822.022         822.022     634.196E-03     634.196E-03         2.15870         2.15870
            1952         822.324         822.324     672.714E-03     672.714E-03         2.38768         2.38768
            1953         822.655         822.655     708.133E-03     708.133E-03         2.62949         2.62949
            1954         823.016         823.016     738.447E-03     738.447E-03         2.88287         2.88287
            1955         823.409         823.409     761.157E-03     761.157E-03         3.14591         3.14591
            1956         823.836         823.836     773.180E-03     773.180E-03         3.41587         3.41587
            1957         824.297         824.297     770.758E-03     770.758E-03         3.68898         3.68898
            1958         824.796         824.796     749.369E-03     749.369E-03         3.96025         3.96025
            1959         825.333         825.333     703.657E-03     703.657E-03         4.22327         4.22327
            1960         825.910         825.910     627.387E-03     627.387E-03         4.46990         4.46990
            1961         826.529         826.529     513.471E-03     513.471E-03         4.69006         4.69006
            1962         827.192         827.192     354.065E-03     354.065E-03         4.87144         4.87144
            1963         827.900         827.900     140.843E-03     140.843E-03         4.99926         4.99926
            1964         828.654         828.654    -134.555E-03    -134.555E-03         5.05610         5.05610
            1965         829.457         829.457    -479.767E-03    -479.767E-03         5.02181         5.02181
            1966         830.307         830.307    -900.591E-03    -900.591E-03         4.87368         4.87368
            1967         831.204         831.204        -1.39943        -1.39943         4.58682         4.58682
            1968         832.141         832.141        -1.97314        -1.97314         4.13507         4.13507
            1969         833.109         833.109        -2.61057        -2.61057         3.49254         3.49254
            1970         834.094         834.094        -3.28936        -3.28936         2.63603         2.63603
            1971         835.070         835.070        -3.97321        -3.97321         1.54859         1.54859
            1972         836.002         836.002        -4.60892        -4.60892     224.186E-03     224.186E-03
            1973         836.843         836.843        -5.12559        -5.12559        -1.32573        -1.32573
            1974         837.533         837.533        -5.43587        -5.43587        -3.06550        -3.06550
            1975         838.002         838.002        -5.44172        -5.44172        -4.92699        -4.92699
            1976         838.177         838.177        -5.04649        -5.04649        -6.80396        -6.80396
            1977         837.996         837.996        -4.17221        -4.17221        -8.54927        -8.54927
            1978         820.019         820.019     161.299E-03     161.299E-03     74.0018E-03     74.0018E-03
            1979         820.042         820.042     164.733E-03     164.733E-03     148.212E-03     148.212E-03
            1980         820.081         820.081     170.457E-03     170.457E-03     224.841E-03     224.841E-03
            1981         820.136         820.136     178.460E-03     178.460E-03     304.506E-03     304.506E-03
            1982         820.207         820.207     188.733E-03     188.733E-03     388.217E-03     388.217E-03
            1983         820.296         820.296     201.268E-03     201.268E-03     476.979E-03     476.979E-03
            1984         820.403         820.403     216.044E-03     216.044E-03     571.779E-03     571.779E-03
            1985         820.529         820.529     233.019E-03     233.019E-03     673.594E-03     673.594E-03
            1986         820.676         820.676     252.126E-03     252.126E-03     783.370E-03     783.370E-03
            1987         820.845         820.845     273.267E-03     273.267E-03     902.017E-03     902.017E-03
            1988         821.037         821.037     296.296E-03     296.296E-03         1.03039         1.03039
            1989         821.254         821.254     321.006E-03     321.006E-03         1.16926         1.16926
            1990         821.498         821.498     347.115E-03     347.115E-03         1.31929         1.31929
            1991         821.771         821.771     374.236E-03     374.236E-03         1.48101         1.48101
            1992         822.073         822.073     401.858E-03     401.858E-03         1.65474         1.65474
            1993         822.408         822.408     429.309E-03     429.309E-03         1.84056         1.84056
            1994         822.777         822.777     455.719E-03     455.719E-03         2.03822         2.03822
            1995         823.182         823.182     479.973E-03     479.973E-03         2.24706         2.24706
            1996         823.624         823.624     500.661E-03     500.661E-03         2.46590         2.46590
            1997         824.106         824.106     516.014E-03     516.014E-03         2.69292         2.69292
            1998         824.627         824.627     523.847E-03     523.847E-03         2.92549         2.92549
            1999         825.190         825.190     521.485E-03     521.485E-03         3.16001         3.16001
            2000         825.794         825.794     505.707E-03     505.707E-03         3.39170         3.39170
            2001         826.441         826.441     472.686E-03     472.686E-03         3.61437         3.61437
            2002         827.129         827.129     417.972E-03     417.972E-03         3.82022         3.82022
            2003         827.857         827.857     336.503E-03     336.503E-03         3.99955         3.99955
            2004         828.623         828.623     222.707E-03     222.707E-03         4.14053         4.14053
            2005         829.424         829.424     70.7011E-03     70.7011E-03         4.22907         4.22907
            2006         830.255         830.255    -125.345E-03    -125.345E-03         4.24867         4.24867
            2007         831.111         831.111    -370.626E-03    -370.626E-03         4.18051         4.18051
            2008         831.981         831.981    -668.858E-03    -668.858E-03         4.00374         4.00374
            2009         832.856         832.856        -1.02107        -1.02107         3.69614         3.69614
            2010         833.719         833.719        -1.42414        -1.42414         3.23528         3.23528
            2011         834.553         834.553        -1.86880        -1.86880         2.60032         2.60032
            2012         835.333         835.333        -2.33779        -2.33779         1.77461         1.77461
            2013         836.028         836.028        -2.80364        -2.80364     749.135E-03     749.135E-03
            2014         836.601         836.601        -3.22747        -3.22747    -472.874E-03    -472.874E-03
            2015         837.010         837.010        -3.55859        -3.55859        -1.87109        -1.87109
            2016         837.208         837.208        -3.73640        -3.73640        -3.40232        -3.40232
            2017         837.148         837.148        -3.69553        -3.69553        -4.99614        -4.99614
            2018         836.788         836.788        -3.37410        -3.37410        -6.55251        -6.55251
            2019         836.104         836.104        -2.72693        -2.72693        -7.94301        -7.94301
            2020         819.966         819.966     95.4101E-03     95.4101E-03     57.7882E-03     57.7882E-03
            2021         819.992         819.992     97.4914E-03     97.4914E-03     115.613E-03     115.613E-03
            2022         820.036         820.036     100.960E-03     100.960E-03     175.453E-03     175.453E-03
            2023         820.098         820.098     105.787E-03     105.787E-03     237.766E-03     237.766E-03
            2024         820.179         820.179     111.983E-03     111.983E-03     303.383E-03     303.383E-03
            2025         820.280         820.280     119.553E-03     119.553E-03     373.111E-03     373.111E-03
            2026         820.402         820.402     128.481E-03     128.481E-03     447.763E-03     447.763E-03
            2027         820.546         820.546     138.746E-03     138.746E-03     528.139E-03     528.139E-03
            2028         820.715         820.715     150.309E-03     150.309E-03     615.024E-03     615.024E-03
            2029         820.909         820.909     163.114E-03     163.114E-03     709.171E-03     709.171E-03
            2030         821.130         821.130     177.075E-03     177.075E-03     811.292E-03     811.292E-03
            2031         821.382         821.382     192.070E-03     192.070E-03     922.038E-03     922.038E-03
            2032         821.665         821.665     207.930E-03     207.930E-03         1.04197         1.04197
            2033         821.982         821.982     224.423E-03     224.423E-03         1.17154         1.17154
            2034         822.336         822.336     241.239E-03     241.239E-03         1.31103         1.31103
            2035         822.728         822.728     257.968E-03     257.968E-03         1.46052         1.46052
            2036         823.162         823.162     274.076E-03     274.076E-03         1.61983         1.61983
            2037         823.638         823.638     288.878E-03     288.878E-03         1.78841         1.78841
            2038         824.160         824.160     301.498E-03     301.498E-03         1.96527         1.96527
            2039         824.729         824.729     310.841E-03     310.841E-03         2.14887         2.14887
            2040         825.346         825.346     315.541E-03     315.541E-03         2.33698         2.33698
            2041         826.011         826.011     313.927E-03     313.927E-03         2.52651         2.52651
            2042         826.725         826.725     303.974E-03     303.974E-03         2.71333         2.71333
            2043         827.487         827.487     283.276E-03     283.276E-03         2.89209         2.89209
            2044         828.293         828.293     249.027E-03     249.027E-03         3.05599         3.05599
            2045         829.140         829.140     198.037E-03     198.037E-03         3.19657         3.19657
            2046         830.022         830.022     126.792E-03     126.792E-03         3.30353         3.30353
            2047         830.931         830.931     31.5938E-03     31.5938E-03         3.36455         3.36455
            2048         831.856         831.856    -91.1972E-03    -91.1972E-03         3.36529         3.36529
            2049         832.785         832.785    -244.783E-03    -244.783E-03         3.28947         3.28947
            2050         833.699         833.699    -431.355E-03    -431.355E-03         3.11925         3.11925
            2051         834.579         834.579    -651.345E-03    -651.345E-03         2.83592         2.83592
            2052         835.398         835.398    -902.394E-03    -902.394E-03         2.42111         2.42111
            2053         836.129         836.129        -1.17825        -1.17825         1.85849         1.85849
            2054         836.737         836.737        -1.46738        -1.46738         1.13623         1.13623
            2055         837.186         837.186        -1.75197        -1.75197     250.182E-03     250.182E-03
            2056         837.436         837.436        -2.00704        -2.00704    -792.511E-03    -792.511E-03
            2057         837.447         837.447        -2.20061        -2.20061        -1.96915        -1.96915
            2058         837.183         837.183        -2.29533        -2.29533        -3.23784        -3.23784
            2059         836.615         836.615        -2.25171        -2.25171        -4.53461        -4.53461
            2060         835.727         835.727        -2.03376        -2.03376        -5.77308        -5.77308
            2061         834.525         834.525        -1.61617        -1.61617        -6.84758        -6.84758
            2062         819.877         819.877     46.4744E-03     46.4744E-03     39.8068E-03     39.8068E-03
            2063         819.905         819.905     47.5400E-03     47.5400E-03     79.3776E-03     79.3776E-03
            2064         819.953         819.953     49.2532E-03     49.2532E-03     120.507E-03     120.507E-03
            2065         820.021         820.021     51.6227E-03     51.6227E-03     163.438E-03     163.438E-03
            2066         820.110         820.110     54.6834E-03     54.6834E-03     208.733E-03     208.733E-03
            2067         820.221         820.221     58.4247E-03     58.4247E-03     256.978E-03     256.978E-03
            2068         820.355         820.355     62.8399E-03     62.8399E-03     308.763E-03     308.763E-03
            2069         820.515         820.515     67.9191E-03     67.9191E-03     364.670E-03     364.670E-03
            2070         820.701         820.701     73.6442E-03     73.6442E-03     425.272E-03     425.272E-03
            2071         820.917         820.917     79.9883E-03     79.9883E-03     491.123E-03     491.123E-03
            2072         821.164         821.164     86.9100E-03     86.9100E-03     562.750E-03     562.750E-03
            2073         821.446         821.446     94.3506E-03     94.3506E-03     640.638E-03     640.638E-03
            2074         821.764         821.764     102.227E-03     102.227E-03     725.217E-03     725.217E-03
            2075         822.121         822.121     110.425E-03     110.425E-03     816.832E-03     816.832E-03
            2076         822.522         822.522     118.790E-03     118.790E-03     915.720E-03     915.720E-03
            2077         822.967         822.967     127.120E-03     127.120E-03         1.02197         1.02197
            2078         823.462         823.462     135.147E-03     135.147E-03         1.13547         1.13547
            2079         824.007         824.007     142.526E-03     142.526E-03         1.25585         1.25585
            2080         824.606         824.606     148.818E-03     148.818E-03         1.38244         1.38244
            2081         825.261         825.261     153.467E-03     153.467E-03         1.51413         1.51413
            2082         825.974         825.974     155.782E-03     155.782E-03         1.64930         1.64930
            2083         826.744         826.744     154.909E-03     154.909E-03         1.78569         1.78569
            2084         827.572         827.572     149.815E-03     149.815E-03         1.92025         1.92025
            2085         828.455         828.455     139.268E-03     139.268E-03         2.04901         2.04901
            2086         829.390         829.390     121.828E-03     121.828E-03         2.16687         2.16687
            2087         830.370         830.370     95.8513E-03     95.8513E-03         2.26747         2.26747
            2088         831.387         831.387     59.5296E-03     59.5296E-03         2.34303         2.34303
            2089         832.429         832.429     10.9561E-03     10.9561E-03         2.38421         2.38421
            2090         833.479         833.479    -51.7425E-03    -51.7425E-03         2.38012         2.38012
            2091         834.516         834.516    -130.203E-03    -130.203E-03         2.31839         2.31839
            2092         835.516         835.516    -225.537E-03    -225.537E-03         2.18550         2.18550
            2093         836.448         836.448    -337.902E-03    -337.902E-03         1.96735         1.96735
            2094         837.276         837.276    -466.023E-03    -466.023E-03         1.65023         1.65023
            2095         837.960         837.960    -606.525E-03    -606.525E-03         1.22221         1.22221
            2096         838.454         838.454    -753.350E-03    -753.350E-03     675.148E-03     675.148E-03
            2097         838.713         838.713    -897.114E-03    -897.114E-03     7.00341E-03     7.00341E-03
            2098         838.690         838.690        -1.02483        -1.02483    -775.184E-03    -775.184E-03
            2099         838.343         838.343        -1.12001        -1.12001        -1.65246        -1.65246
            2100         837.638         837.638        -1.16358        -1.16358        -2.59128        -2.59128
            2101         836.560         836.560        -1.13583        -1.13583        -3.54204        -3.54204
            2102         835.109         835.109        -1.01903        -1.01903        -4.43930        -4.43930
            2103         833.319         833.319    -800.667E-03    -800.667E-03        -5.20392        -5.20392
            2104          819.75          819.75     16.0218E-03     16.0218E-03     20.5099E-03     20.5099E-03
            2105         819.780         819.780     16.4310E-03     16.4310E-03     40.5902E-03     40.5902E-03
            2106         819.831         819.831     16.9957E-03     16.9957E-03     61.6890E-03     61.6890E-03
            2107         819.903         819.903     17.8086E-03     17.8086E-03     83.7340E-03     83.7340E-03
            2108         819.997         819.997     18.8674E-03     18.8674E-03     107.026E-03     107.026E-03
            2109         820.115         820.115     20.1587E-03     20.1587E-03     131.889E-03     131.889E-03
            2110         820.259         820.259     21.6853E-03     21.6853E-03     158.636E-03     158.636E-03
            2111         820.430         820.430     23.4405E-03     23.4405E-03     187.582E-03     187.582E-03
            2112         820.630         820.630     25.4199E-03     25.4199E-03     219.037E-03     219.037E-03
            2113         820.863         820.863     27.6131E-03     27.6131E-03     253.301E-03     253.301E-03
            2114         821.131         821.131     30.0067E-03     30.0067E-03     290.663E-03     290.663E-03
            2115         821.437         821.437     32.5796E-03     32.5796E-03     331.392E-03     331.392E-03
            2116         821.784         821.784     35.3033E-03     35.3033E-03     375.729E-03     375.729E-03
            2117         822.176         822.176     38.1380E-03     38.1380E-03     423.871E-03     423.871E-03
            2118         822.617         822.617     41.0300E-03     41.0300E-03     475.961E-03     475.961E-03
            2119         823.111         823.111     43.9080E-03     43.9080E-03     532.065E-03     532.065E-03
            2120         823.660         823.660     46.6784E-03     46.6784E-03     592.145E-03     592.145E-03
            2121         824.270         824.270     49.2200E-03     49.2200E-03     656.030E-03     656.030E-03
            2122         824.943         824.943     51.3776E-03     51.3776E-03     723.373E-03     723.373E-03
            2123         825.681         825.681     52.9553E-03     52.9553E-03     793.606E-03     793.606E-03
            2124         826.489         826.489     53.7078E-03     53.7078E-03     865.879E-03     865.879E-03
            2125         827.365         827.365     53.3329E-03     53.3329E-03     938.993E-03     938.993E-03
            2126         828.311         828.311     51.4627E-03     51.4627E-03         1.01132         1.01132
            2127         829.325         829.325     47.6585E-03     47.6585E-03         1.08071         1.08071
            2128         830.402         830.402     41.4045E-03     41.4045E-03         1.14439         1.14439
            2129         831.534         831.534     32.1146E-03     32.1146E-03         1.19890         1.19890
            2130         832.712         832.712     19.1378E-03     19.1378E-03         1.23994         1.23994
            2131         833.919         833.919     1.79216E-03     1.79216E-03         1.26237         1.26237
            2132         835.134         835.134    -20.5980E-03    -20.5980E-03         1.26014         1.26014
            2133         836.332         836.332    -48.6190E-03    -48.6190E-03         1.22636         1.22636
            2134         837.478         837.478    -82.6676E-03    -82.6676E-03         1.15349         1.15349
            2135         838.533         838.533    -122.800E-03    -122.800E-03         1.03363         1.03363
            2136         839.447         839.447    -168.536E-03    -168.536E-03     859.097E-03     859.097E-03
            2137         840.168         840.168    -218.659E-03    -218.659E-03     623.244E-03     623.244E-03
            2138         840.635         840.635    -270.946E-03    -270.946E-03     321.509E-03     321.509E-03
            2139         840.786         840.786    -322.010E-03    -322.010E-03    -47.1172E-03    -47.1172E-03
            2140         840.562         840.562    -367.133E-03    -367.133E-03    -478.575E-03    -478.575E-03
            2141         839.909         839.909    -400.387E-03    -400.387E-03    -962.040E-03    -962.040E-03
            2142         838.787         838.787    -414.947E-03    -414.947E-03        -1.47854        -1.47854
            2143         837.179         837.179    -403.756E-03    -403.756E-03        -2.00027        -2.00027
            2144         835.097         835.097    -360.841E-03    -360.841E-03        -2.49082        -2.49082
            2145         832.591         832.591    -281.479E-03    -281.479E-03        -2.90600        -2.90600
            2146         776.506         776.506         224.312         224.312        -60.1734        -60.1734
            2147         784.896         784.896         204.072         204.072        -59.7808        -59.7808
            2148         793.046         793.046         183.772         183.772        -57.7636        -57.7636
            2149         800.664         800.664         163.916         163.916        -54.7185        -54.7185
            2150         807.571         807.571         144.879         144.879        -50.7959        -50.7959
            2151         813.633         813.633         126.968         126.968        -46.1564        -46.1564
            2152         818.758         818.758         110.419         110.419        -41.0386        -41.0386
            2153         822.958         822.958         95.3555         95.3555        -35.6633        -35.6633
            2154         826.249         826.249         81.8336         81.8336        -30.2428        -30.2428
            2155         828.734         828.734         69.8250         69.8250        -24.9588        -24.9588
            2156         830.494         830.494         59.2593         59.2593        -19.9376        -19.9376
            2157         831.652         831.652         50.0340         50.0340        -15.2807        -15.2807
            2158         832.300         832.300         42.0262         42.0262        -11.0338        -11.0338
            2159         832.544         832.544         35.1169         35.1169        -7.22829        -7.22829
            2160         832.461         832.461         29.1796         29.1796        -3.85869        -3.85869
            2161         832.126         832.126         24.1051         24.1051    -913.354E-03    -913.354E-03
            2162         831.596         831.596         19.7833         19.7833         1.63802         1.63802
            2163         830.921         830.921         16.1217         16.1217         3.82711         3.82711
            2164         830.139         830.139         13.0301         13.0301         5.69282         5.69282
            2165         829.281         829.281         10.4321         10.4321         7.27279         7.27279
            2166         828.374         828.374         8.25443         8.25443         8.60597         8.60597
            2167         827.438         827.438         6.43345         6.43345         9.72895         9.72895
            2168         826.491         826.491         4.90846         4.90846         10.6771         10.6771
            2169         825.549         825.549         3.62500         3.62500         11.4833         11.4833
            2170         824.628         824.628         2.53066         2.53066         12.1784         12.1784
            2171         823.740         823.740         1.57663         1.57663         12.7911         12.7911
            2172         822.904         822.904     714.991E-03     714.991E-03         13.3482         13.3482
            2173         822.137         822.137    -100.776E-03    -100.776E-03         13.8749         13.8749
            2174         821.462         821.462    -917.629E-03    -917.629E-03         14.3946         14.3946
            2175         820.908         820.908        -1.78312        -1.78312         14.9286         14.9286
            2176         820.510         820.510        -2.74664        -2.74664         15.4960         15.4960
            2177         820.315         820.315        -3.86003        -3.86003         16.1119         16.1119
            2178         820.382         820.382        -5.17794        -5.17794         16.7855         16.7855
            2179         820.789         820.789        -6.75826        -6.75826         17.5158         17.5158
            2180         821.634         821.634        -8.65982        -8.65982         18.2846         18.2846
            2181         823.041         823.041        -10.9399        -10.9399         19.0478         19.0478
            2182         825.161         825.161        -13.6422        -13.6422         19.7183         19.7183
            2183         828.163         828.163        -16.7813        -16.7813         20.1486         20.1486
            2184         832.222         832.222        -20.2998        -20.2998         20.1029         20.1029
            2185         837.464         837.464        -24.0143        -24.0143         19.2504         19.2504
            2186         843.887         843.887        -27.5219        -27.5219         17.1684         17.1684
            2187         851.263         851.263        -30.1674        -30.1674         13.4678         13.4678
            2188         778.783         778.783         223.824         223.824        -68.7896        -68.7896
            2189         787.601         787.601         202.413         202.413        -68.2836        -68.2836
            2190         796.055         796.055         180.944         180.944        -65.7815        -65.7815
            2191         803.874         803.874         160.012         160.012        -62.0498        -62.0498
            2192         810.813         810.813         140.084         140.084        -57.2266        -57.2266
            2193         816.711         816.711         121.546         121.546        -51.6061        -51.6061
            2194         821.539         821.539         104.626         104.626        -45.4668        -45.4668
            2195         825.282         825.282         89.4586         89.4586        -39.1138        -39.1138
            2196         828.068         828.068         76.0395         76.0395        -32.8104        -32.8104
            2197         829.989         829.989         64.3018         64.3018        -26.7489        -26.7489
            2198         831.212         831.212         54.1213         54.1213        -21.0875        -21.0875
            2199         831.857         831.857         45.3438         45.3438        -15.8993        -15.8993
            2200         832.062         832.062         37.8205         37.8205        -11.2397        -11.2397
            2201         831.926         831.926         31.3915         31.3915        -7.10742        -7.10742
            2202         831.542         831.542         25.9242         25.9242        -3.49459        -3.49459
            2203         830.979         830.979         21.2847         21.2847    -365.349E-03    -365.349E-03
            2204         830.293         830.293         17.3657         17.3657         2.31660         2.31660
            2205         829.526         829.526         14.0624         14.0624         4.59806         4.59806
            2206         828.712         828.712         11.2902         11.2902         6.52344         6.52344
            2207         827.876         827.876         8.96791         8.96791         8.13898         8.13898
            2208         827.037         827.037         7.02798         7.02798         9.48737         9.48737
            2209         826.211         826.211         5.40614         5.40614         10.6095         10.6095
            2210         825.410         825.410         4.04656         4.04656         11.5425         11.5425
            2211         824.648         824.648         2.89585         2.89585         12.3206         12.3206
            2212         823.934         823.934         1.90550         1.90550         12.9746         12.9746
            2213         823.282         823.282         1.02832         1.02832         13.5320         13.5320
            2214         822.707         822.707     219.451E-03     219.451E-03         14.0176         14.0176
            2215         822.226         822.226    -565.754E-03    -565.754E-03         14.4528         14.4528
            2216         821.861         821.861        -1.37142        -1.37142         14.8562         14.8562
            2217         821.642         821.642        -2.24235        -2.24235         15.2425         15.2425
            2218         821.603         821.603        -3.22384        -3.22384         15.6222         15.6222
            2219         821.792         821.792        -4.36183        -4.36183         15.9995         15.9995
            2220         822.263         822.263        -5.70217        -5.70217         16.3699         16.3699
            2221         823.086         823.086        -7.28843        -7.28843         16.7158         16.7158
            2222         824.345         824.345        -9.15860        -9.15860         17.0011         17.0011
            2223         826.135         826.135        -11.3368        -11.3368         17.1620         17.1620
            2224         828.558         828.558        -13.8215        -13.8215         17.0982         17.0982
            2225         831.710         831.710        -16.5625        -16.5625         16.6594         16.6594
            2226         835.654         835.654        -19.4291        -19.4291         15.6442         15.6442
            2227         840.384         840.384        -22.1668        -22.1668         13.8014         13.8014
            2228         845.764         845.764        -24.3573        -24.3573         10.8835         10.8835
            2229         851.537         851.537        -25.4437        -25.4437         6.66904         6.66904
            2230         781.769         781.769         223.229         223.229        -77.8807        -77.8807
            2231         791.018         791.018         200.383         200.383        -77.1740        -77.1740
            2232         799.869         799.869         177.440         177.440        -74.1039        -74.1039
            2233         807.861         807.861         155.189         155.189        -69.4520        -69.4520
            2234         814.734         814.734         134.238         134.238        -63.5535        -63.5535
            2235         820.364         820.364         115.000         115.000        -56.7290        -56.7290
            2236         824.671         824.671         97.7647         97.7647        -49.4141        -49.4141
            2237         827.807         827.807         82.5803         82.5803        -41.9861        -41.9861
            2238         829.868         829.868         69.4050         69.4050        -34.7406        -34.7406
            2239         831.093         831.093         58.0858         58.0858        -27.9241        -27.9241
            2240         831.636         831.636         48.4244         48.4244        -21.6503        -21.6503
            2241         831.690         831.690         40.2277         40.2277        -16.0118        -16.0118
            2242         831.385         831.385         33.2850         33.2850        -11.0107        -11.0107
            2243         830.842         830.842         27.4304         27.4304        -6.64434        -6.64434
            2244         830.144         830.144         22.4943         22.4943        -2.86763        -2.86763
            2245         829.358         829.358         18.3491         18.3491     362.632E-03     362.632E-03
            2246         828.531         828.531         14.8693         14.8693         3.10450         3.10450
            2247         827.697         827.697         11.9594         11.9594         5.41167         5.41167
            2248         826.881         826.881         9.52779         9.52779         7.34000         7.34000
            2249         826.097         826.097         7.50187         7.50187         8.94027         8.94027
            2250         825.359         825.359         5.81293         5.81293         10.2606         10.2606
            2251         824.674         824.674         4.40369         4.40369         11.3439         11.3439
            2252         824.050         824.050         3.21980         3.21980         12.2291         12.2291
            2253         823.493         823.493         2.21346         2.21346         12.9505         12.9505
            2254         823.010         823.010         1.33857         1.33857         13.5381         13.5381
            2255         822.610         822.610     552.473E-03     552.473E-03         14.0175         14.0175
            2256         822.305         822.305    -186.858E-03    -186.858E-03         14.4106         14.4106
            2257         822.110         822.110    -920.028E-03    -920.028E-03         14.7349         14.7349
            2258         822.046         822.046        -1.68763        -1.68763         15.0036         15.0036
            2259         822.138         822.138        -2.52973        -2.52973         15.2253         15.2253
            2260         822.418         822.418        -3.48599        -3.48599         15.4024         15.4024
            2261         822.927         822.927        -4.59464        -4.59464         15.5303         15.5303
            2262         823.712         823.712        -5.89064        -5.89064         15.5942         15.5942
            2263         824.830         824.830        -7.40264        -7.40264         15.5664         15.5664
            2264         826.342         826.342        -9.14715        -9.14715         15.4013         15.4013
            2265         828.311         828.311        -11.1202        -11.1202         15.0311         15.0311
            2266         830.794         830.794        -13.2837        -13.2837         14.3591         14.3591
            2267         833.823         833.823        -15.5464        -15.5464         13.2605         13.2605
            2268         837.387         837.387        -17.7411        -17.7411         11.5837         11.5837
            2269         841.401         841.401        -19.5974        -19.5974         9.17381         9.17381
            2270         845.689         845.689        -20.7423        -20.7423         5.89987         5.89987
            2271         849.947         849.947        -20.6533        -20.6533         1.67420         1.67420
            2272         785.578         785.578         222.552         222.552        -87.5126        -87.5126
            2273         795.475         795.475         197.838         197.838        -86.5845        -86.5845
            2274         804.693         804.693         173.056         173.056        -82.6724        -82.6724
            2275         812.812         812.812         149.216         149.216        -76.9035        -76.9035
            2276         819.506         819.506         127.059         127.059        -69.5833        -69.5833
            2277         824.571         824.571         107.154         107.154        -61.3234        -61.3234
            2278         828.162         828.162         89.6787         89.6787        -52.6521        -52.6521
            2279         830.359         830.359         74.6682         74.6682        -44.0358        -44.0358
            2280         831.512         831.512         61.9341         61.9341        -35.8632        -35.8632
            2281         831.824         831.824         51.2182         51.2182        -28.3125        -28.3125
            2282         831.578         831.578         42.2590         42.2590        -21.5363        -21.5363
            2283         830.949         830.949         34.7673         34.7673        -15.5374        -15.5374
            2284         830.099         830.099         28.5287         28.5287        -10.3195        -10.3195
            2285         829.134         829.134         23.3203         23.3203        -5.82134        -5.82134
            2286         828.134         828.134         18.9868         18.9868        -1.98844        -1.98844
            2287         827.151         827.151         15.3734         15.3734         1.25385         1.25385
            2288         826.219         826.219         12.3703         12.3703         3.97244         3.97244
            2289         825.359         825.359         9.87199         9.87199         6.23622         6.23622
            2290         824.583         824.583         7.79952         7.79952         8.10674         8.10674
            2291         823.896         823.896         6.07850         6.07850         9.64131         9.64131
            2292         823.301         823.301         4.65003         4.65003         10.8906         10.8906
            2293         822.798         822.798         3.45857         3.45857         11.8997         11.8997
            2294         822.385         822.385         2.45728         2.45728         12.7076         12.7076
            2295         822.065         822.065         1.60146         1.60146         13.3481         13.3481
            2296         821.838         821.838     850.973E-03     850.973E-03         13.8493         13.8493
            2297         821.709         821.709     166.725E-03     166.725E-03         14.2346         14.2346
            2298         821.685         821.685    -488.201E-03    -488.201E-03         14.5224         14.5224
            2299         821.779         821.779        -1.15035        -1.15035         14.7261         14.7261
            2300         822.005         822.005        -1.85513        -1.85513         14.8540         14.8540
            2301         822.384         822.384        -2.63728        -2.63728         14.9088         14.9088
            2302         822.943         822.943        -3.52971        -3.52971         14.8868         14.8868
            2303         823.715         823.715        -4.56231        -4.56231         14.7764         14.7764
            2304         824.734         824.734        -5.75934        -5.75934         14.5570         14.5570
            2305         826.042         826.042        -7.13545        -7.13545         14.1959         14.1959
            2306         827.678         827.678        -8.68972        -8.68972         13.6467         13.6467
            2307         829.676         829.676        -10.3971        -10.3971         12.8466         12.8466
            2308         832.053         832.053        -12.1966        -12.1966         11.7168         11.7168
            2309         834.799         834.799        -13.9779        -13.9779         10.1650         10.1650
            2310         837.859         837.859        -15.5646        -15.5646         8.09663         8.09663
            2311         841.116         841.116        -16.7091        -16.7091         5.43343         5.43343
            2312         844.374         844.374        -17.0761        -17.0761         2.13477         2.13477
            2313         847.337         847.337        -16.2509        -16.2509        -1.74672        -1.74672
            2314         790.741         790.741         221.681         221.681        -97.8822        -97.8822
            2315         801.214         801.214         194.625         194.625        -96.4902        -96.4902
            2316         810.902         810.902         167.495         167.495        -91.5664        -91.5664
            2317         819.026         819.026         141.688         141.688        -84.1598        -84.1598
            2318         825.174         825.174         118.272         118.272        -75.0902        -75.0902
            2319         829.425         829.425         97.7182         97.7182        -65.0576        -65.0576
            2320         831.785         831.785         80.2678         80.2678        -54.8232        -54.8232
            2321         832.781         832.781         65.6980         65.6980        -45.0137        -45.0137
            2322         832.684         832.684         53.6734         53.6734        -35.9181        -35.9181
            2323         831.926         831.926         43.8237         43.8237        -27.7926        -27.7926
            2324         830.757         830.757         35.7320         35.7320        -20.6323        -20.6323
            2325         829.399         829.399         29.1133         29.1133        -14.4482        -14.4482
            2326         827.991         827.991         23.6634         23.6634        -9.14933        -9.14933
            2327         826.627         826.627         19.1896         19.1896        -4.66246        -4.66246
            2328         825.366         825.366         15.4957         15.4957    -887.623E-03    -887.623E-03
            2329         824.239         824.239         12.4542         12.4542         2.26162         2.26162
            2330         823.261         823.261         9.94053         9.94053         4.87188         4.87188
            2331         822.436         822.436         7.86865         7.86865         7.01922         7.01922
            2332         821.761         821.761         6.15685         6.15685         8.77265         8.77265
            2333         821.229         821.229         4.74449         4.74449         10.1926         10.1926
            2334         820.830         820.830         3.57460         3.57460         11.3317         11.3317
            2335         820.556         820.556         2.60154         2.60154         12.2352         12.2352
            2336         820.399         820.399         1.78214         1.78214         12.9413         12.9413
            2337         820.352         820.352         1.07915         1.07915         13.4823         13.4823
            2338         820.411         820.411     456.662E-03     456.662E-03         13.8838         13.8838
            2339         820.575         820.575    -118.328E-03    -118.328E-03         14.1664         14.1664
            2340         820.848         820.848    -678.244E-03    -678.244E-03         14.3448         14.3448
            2341         821.234         821.234        -1.25400        -1.25400         14.4284         14.4284
            2342         821.744         821.744        -1.87588        -1.87588         14.4210         14.4210
            2343         822.393         822.393        -2.57243        -2.57243         14.3206         14.3206
            2344         823.200         823.200        -3.36992        -3.36992         14.1187         14.1187
            2345         824.186         824.186        -4.29021        -4.29021         13.7995         13.7995
            2346         825.376         825.376        -5.34818        -5.34818         13.3395         13.3395
            2347         826.794         826.794        -6.54745        -6.54745         12.7060         12.7060
            2348         828.460         828.460        -7.87486        -7.87486         11.8568         11.8568
            2349         830.384         830.384        -9.29267        -9.29267         10.7409         10.7409
            2350         832.558         832.558        -10.7304        -10.7304         9.30096         9.30096
            2351         834.944         834.944        -12.0740        -12.0740         7.47969         7.47969
            2352         837.469         837.469        -13.1607        -13.1607         5.23151         5.23151
            2353         840.006         840.006        -13.7714        -13.7714         2.53737         2.53737
            2354         842.372         842.372        -13.6375        -13.6375    -564.764E-03    -564.764E-03
            2355         844.332         844.332        -12.4604        -12.4604        -3.95033        -3.95033
            2356         797.482         797.482         220.662         220.662        -109.043        -109.043
            2357         808.964         808.964         190.397         190.397        -107.149        -107.149
            2358         818.958         818.958         160.235         160.235        -100.490        -100.490
            2359         826.720         826.720         132.176         132.176        -91.0295        -91.0295
            2360         832.011         832.011         107.350         107.350        -79.5718        -79.5718
            2361         834.631         834.631         86.5109         86.5109        -67.3990        -67.3990
            2362         835.378         835.378         69.4408         69.4408        -55.5412        -55.5412
            2363         834.604         834.604         55.7250         55.7250        -44.5022        -44.5022
            2364         833.018         833.018         44.8061         44.8061        -34.7324        -34.7324
            2365         830.994         830.994         36.0483         36.0483        -26.1961        -26.1961
            2366         828.842         828.842         29.0611         29.0611        -18.9094        -18.9094
            2367         826.751         826.751         23.4138         23.4138        -12.7274        -12.7274
            2368         824.826         824.826         18.8641         18.8641        -7.54304        -7.54304
            2369         823.133         823.133         15.1577         15.1577        -3.21760        -3.21760
            2370         821.691         821.691         12.1454         12.1454     364.961E-03     364.961E-03
            2371         820.507         820.507         9.67864         9.67864         3.31530         3.31530
            2372         819.569         819.569         7.66325         7.66325         5.72922         5.72922
            2373         818.863         818.863         6.00901         6.00901         7.69020         7.69020
            2374         818.367         818.367         4.65362         4.65362         9.27088         9.27088
            2375         818.060         818.060         3.53860         3.53860         10.5325         10.5325
            2376         817.923         817.923         2.61985         2.61985         11.5279         11.5279
            2377         817.936         817.936         1.85596         1.85596         12.3006         12.3006
            2378         818.084         818.084         1.21293         1.21293         12.8871         12.8871
            2379         818.353         818.353     658.253E-03     658.253E-03         13.3168         13.3168
            2380         818.734         818.734     163.095E-03     163.095E-03         13.6128         13.6128
            2381         819.219         819.219    -300.683E-03    -300.683E-03         13.7919         13.7919
            2382         819.806         819.806    -759.416E-03    -759.416E-03         13.8656         13.8656
            2383         820.495         820.495        -1.23893        -1.23893         13.8392         13.8392
            2384         821.290         821.290        -1.76359        -1.76359         13.7129         13.7129
            2385         822.199         822.199        -2.35625        -2.35625         13.4808         13.4808
            2386         823.231         823.231        -3.03669        -3.03669         13.1313         13.1313
            2387         824.399         824.399        -3.82005        -3.82005         12.6465         12.6465
            2388         825.715         825.715        -4.71385        -4.71385         12.0024         12.0024
            2389         827.189         827.189        -5.71438        -5.71438         11.1692         11.1692
            2390         828.826         828.826        -6.80148        -6.80148         10.1121         10.1121
            2391         830.617         830.617        -7.93318        -7.93318         8.79354         8.79354
            2392         832.539         832.539        -9.03853        -9.03853         7.17785         7.17785
            2393         834.543         834.543        -10.0134        -10.0134         5.23838         5.23838
            2394         836.551         836.551        -10.7155        -10.7155         2.96737         2.96737
            2395         838.446         838.446        -10.9678        -10.9678     392.954E-03     392.954E-03
            2396         840.083         840.083        -10.5686        -10.5686        -2.40397        -2.40397
            2397         841.288         841.288        -9.31688        -9.31688        -5.26633        -5.26633
            2398         807.184         807.184         219.160         219.160        -121.452        -121.452
            2399         819.319         819.319         184.660         184.660        -118.249        -118.249
            2400         829.516         829.516         150.621         150.621        -109.455        -109.455
            2401         836.523         836.523         119.731         119.731        -96.7265        -96.7265
            2402         839.654         839.654         93.9561         93.9561        -82.2470        -82.2470
            2403         840.079         840.079         73.2712         73.2712        -67.7095        -67.7095
            2404         838.196         838.196         57.2699         57.2699        -54.0926        -54.0926
            2405         835.275         835.275         45.0426         45.0426        -42.2494        -42.2494
            2406         831.910         831.910         35.5432         35.5432        -32.0497        -32.0497
            2407         828.545         828.545         28.2236         28.2236        -23.5010        -23.5010
            2408         825.433         825.433         22.4493         22.4493        -16.3584        -16.3584
            2409         822.683         822.683         17.9148         17.9148        -10.4521        -10.4521
            2410         820.360         820.360         14.2851         14.2851        -5.58411        -5.58411
            2411         818.459         818.459         11.3867         11.3867        -1.59273        -1.59273
            2412         816.967         816.967         9.04186         9.04186         1.66475         1.66475
            2413         815.849         815.849         7.14842         7.14842         4.31091         4.31091
            2414         815.069         815.069         5.60715         5.60715         6.44641         6.44641
            2415         814.586         814.586         4.35483         4.35483         8.15877         8.15877
            2416         814.365         814.365         3.33191         3.33191         9.51867         9.51867
            2417         814.370         814.370         2.49643         2.49643         10.5872         10.5872
            2418         814.569         814.569         1.80924         1.80924         11.4133         11.4133
            2419         814.936         814.936         1.23990         1.23990         12.0385         12.0385
            2420         815.446         815.446     759.662E-03     759.662E-03         12.4954         12.4954
            2421         816.081         816.081     344.054E-03     344.054E-03         12.8102         12.8102
            2422         816.823         816.823    -30.6048E-03    -30.6048E-03         13.0023         13.0023
            2423         817.662         817.662    -385.939E-03    -385.939E-03         13.0854         13.0854
            2424         818.589         818.589    -743.185E-03    -743.185E-03         13.0670         13.0670
            2425         819.597         819.597        -1.12232        -1.12232         12.9496         12.9496
            2426         820.685         820.685        -1.54248        -1.54248         12.7299         12.7299
            2427         821.853         821.853        -2.02084        -2.02084         12.3994         12.3994
            2428         823.102         823.102        -2.57187        -2.57187         11.9447         11.9447
            2429         824.434         824.434        -3.20521        -3.20521         11.3472         11.3472
            2430         825.852         825.852        -3.92357        -3.92357         10.5843         10.5843
            2431         827.353         827.353        -4.71917        -4.71917         9.63021         9.63021
            2432         828.929         828.929        -5.57016        -5.57016         8.45821         8.45821
            2433         830.562         830.562        -6.43582        -6.43582         7.04375         7.04375
            2434         832.219         832.219        -7.25316        -7.25316         5.36959         5.36959
            2435         833.850         833.850        -7.93303        -7.93303         3.43241         3.43241
            2436         835.383         835.383        -8.36114        -8.36114         1.25303         1.25303
            2437         836.724         836.724        -8.40215        -8.40215        -1.11347        -1.11347
            2438         837.766         837.766        -7.91309        -7.91309        -3.56412        -3.56412
            2439         838.398         838.398        -6.76652        -6.76652        -5.93937        -5.93937
            2440         820.356         820.356         217.195         217.195        -134.947        -134.947
            2441         834.029         834.029         176.458         176.458        -130.360        -130.360
            2442         843.820         843.820         137.045         137.045        -117.204        -117.204
            2443         848.101         848.101         103.708         103.708        -100.202        -100.202
            2444         848.251         848.251         77.3717         77.3717        -81.9658        -81.9658
            2445         844.486         844.486         58.1099         58.1099        -64.6715        -64.6715
            2446         839.337         839.337         44.2796         44.2796        -50.1063        -50.1063
            2447         833.844         833.844         33.9755         33.9755        -37.8610        -37.8610
            2448         828.618         828.618         26.4181         26.4181        -27.8786        -27.8786
            2449         824.006         824.006         20.6367         20.6367        -19.7281        -19.7281
            2450         820.077         820.077         16.2510         16.2510        -13.1192        -13.1192
            2451         816.877         816.877         12.8176         12.8176        -7.76614        -7.76614
            2452         814.346         814.346         10.1389         10.1389        -3.43595        -3.43595
            2453         812.437         812.437         8.00519         8.00519     54.4914E-03     54.4914E-03
            2454         811.072         811.072         6.30809         6.30809         2.86358         2.86358
            2455         810.184         810.184         4.94109         4.94109         5.11087         5.11087
            2456         809.705         809.705         3.84143         3.84143         6.90116         6.90116
            2457         809.576         809.576         2.95020         2.95020         8.31422         8.31422
            2458         809.742         809.742         2.22849         2.22849         9.41957         9.41957
            2459         810.156         810.156         1.64034         1.64034         10.2709         10.2709
            2460         810.776         810.776         1.15938         1.15938         10.9140         10.9140
            2461         811.570         811.570     761.009E-03     761.009E-03         11.3845         11.3845
            2462         812.505         812.505     425.279E-03     425.279E-03         11.7112         11.7112
            2463         813.558         813.558     133.099E-03     133.099E-03         11.9156         11.9156
            2464         814.708         814.708    -132.415E-03    -132.415E-03         12.0138         12.0138
            2465         815.939         815.939    -387.819E-03    -387.819E-03         12.0155         12.0155
            2466         817.235         817.235    -648.539E-03    -648.539E-03         11.9255         11.9255
            2467         818.587         818.587    -929.629E-03    -929.629E-03         11.7431         11.7431
            2468         819.985         819.985        -1.24496        -1.24496         11.4630         11.4630
            2469         821.423         821.423        -1.60702        -1.60702         11.0749         11.0749
            2470         822.893         822.893        -2.02566        -2.02566         10.5645         10.5645
            2471         824.390         824.390        -2.50679        -2.50679         9.91372         9.91372
            2472         825.904         825.904        -3.05023        -3.05023         9.10209         9.10209
            2473         827.425         827.425        -3.64736        -3.64736         8.10827         8.10827
            2474         828.934         828.934        -4.27794        -4.27794         6.91277         6.91277
            2475         830.407         830.407        -4.90751        -4.90751         5.50157         5.50157
            2476         831.808         831.808        -5.48436        -5.48436         3.87096         3.87096
            2477         833.090         833.090        -5.93895        -5.93895         2.03415         2.03415
            2478         834.195         834.195        -6.18496        -6.18496     28.0887E-03     28.0887E-03
            2479         835.054         835.054        -6.12539        -6.12539        -2.07810        -2.07810
            2480         835.596         835.596        -5.66407        -5.66407        -4.17756        -4.17756
            2481         835.761         835.761        -4.72316        -4.72316        -6.12222        -6.12222
            2482         841.454         841.454         213.498         213.498        -150.976        -150.976
            2483         855.097         855.097         163.576         163.576        -141.518        -141.518
            2484         862.153         862.153         118.189         118.189        -122.772        -122.772
            2485         862.525         862.525         82.0782         82.0782        -99.1175        -99.1175
            2486         855.302         855.302         57.8110         57.8110        -76.0460        -76.0460
            2487         846.190         846.190         42.1020         42.1020        -57.7490        -57.7490
            2488         837.220         837.220         31.0051         31.0051        -42.9910        -42.9910
            2489         829.114         829.114         23.4293         23.4293        -31.4407        -31.4407
            2490         822.312         822.312         17.8494         17.8494        -22.3312        -22.3312
            2491         816.735         816.735         13.8082         13.8082        -15.1358        -15.1358
            2492         812.361         812.361         10.7309         10.7309        -9.44815        -9.44815
            2493         809.019         809.019         8.39999         8.39999        -4.92583        -4.92583
            2494         806.591         806.591         6.57944         6.57944        -1.34072        -1.34072
            2495         804.931         804.931         5.15817         5.15817         1.51130         1.51130
            2496         803.926         803.926         4.02851         4.02851         3.76701         3.76701
            2497         803.465         803.465         3.13036         3.13036         5.54965         5.54965
            2498         803.459         803.459         2.40905         2.40905         6.94551         6.94551
            2499         803.828         803.828         1.82984         1.82984         8.03136         8.03136
            2500         804.506         804.506         1.36176         1.36176         8.86333         8.86333
            2501         805.436         805.436     982.946E-03     982.946E-03         9.49027         9.49027
            2502         806.570         806.570     673.612E-03     673.612E-03         9.94873         9.94873
            2503         807.867         807.867     418.367E-03     418.367E-03         10.2694         10.2694
            2504         809.295         809.295     202.794E-03     202.794E-03         10.4748         10.4748
            2505         810.823         810.823     14.5902E-03     14.5902E-03         10.5825         10.5825
            2506         812.430         812.430    -158.212E-03    -158.212E-03         10.6040         10.6040
            2507         814.093         814.093    -326.569E-03    -326.569E-03         10.5462         10.5462
            2508         815.796         815.796    -501.304E-03    -501.304E-03         10.4109         10.4109
            2509         817.521         817.521    -692.523E-03    -692.523E-03         10.1955         10.1955
            2510         819.256         819.256    -909.816E-03    -909.816E-03         9.89318         9.89318
            2511         820.986         820.986        -1.16145        -1.16145         9.49310         9.49310
            2512         822.698         822.698        -1.45386        -1.45386         8.98098         8.98098
            2513         824.375         824.375        -1.79032        -1.79032         8.34007         8.34007
            2514         826.000         826.000        -2.16967        -2.16967         7.55233         7.55233
            2515         827.554         827.554        -2.58427        -2.58427         6.60049         6.60049
            2516         829.011         829.011        -3.01828        -3.01828         5.47073         5.47073
            2517         830.341         830.341        -3.44538        -3.44538         4.15626         4.15626
            2518         831.508         831.508        -3.82772        -3.82772         2.66202         2.66202
            2519         832.472         832.472        -4.11540        -4.11540         1.00958         1.00958
            2520         833.186         833.186        -4.24862        -4.24862    -756.970E-03    -756.970E-03
            2521         833.607         833.607        -4.16254        -4.16254        -2.56670        -2.56670
            2522         833.697         833.697        -3.79597        -3.79597        -4.31903        -4.31903
            2523         833.434         833.434        -3.10381        -3.10381        -5.88472        -5.88472
            2524         872.295         872.295         207.097         207.097        -167.155        -167.155
            2525         886.311         886.311         143.105         143.105        -152.598        -152.598
            2526         888.557         888.557         88.2056         88.2056        -120.592        -120.592
            2527         874.111         874.111         55.3752         55.3752        -87.4032        -87.4032
            2528         857.286         857.286         37.8334         37.8334        -63.8127        -63.8127
            2529         842.427         842.427         26.1942         26.1942        -46.1688        -46.1688
            2530         829.829         829.829         19.0511         19.0511        -33.1199        -33.1199
            2531         819.879         819.879         14.0266         14.0266        -23.3574        -23.3574
            2532         812.083         812.083         10.6004         10.6004        -15.8952        -15.8952
            2533         806.221         806.221         8.08238         8.08238        -10.1938        -10.1938
            2534         801.910         801.910         6.24050         6.24050        -5.75270        -5.75270
            2535         798.908         798.908         4.83915         4.83915        -2.30851        -2.30851
            2536         796.959         796.959         3.76731         3.76731     394.615E-03     394.615E-03
            2537         795.879         795.879         2.93070         2.93070         2.50164         2.50164
            2538         795.501         795.501         2.27348         2.27348         4.15132         4.15132
            2539         795.696         795.696         1.75190         1.75190         5.43012         5.43012
            2540         796.350         796.350         1.33622         1.33622         6.41824         6.41824
            2541         797.376         797.376         1.00319         1.00319         7.16998         7.16998
            2542         798.698         798.698     735.676E-03     735.676E-03         7.73404         7.73404
            2543         800.254         800.254     519.611E-03     519.611E-03         8.14524         8.14524
            2544         801.994         801.994     343.989E-03     343.989E-03         8.43366         8.43366
            2545         803.875         803.875     199.086E-03     199.086E-03         8.62106         8.62106
            2546         805.862         805.862     76.7740E-03     76.7740E-03         8.72511         8.72511
            2547         807.925         807.925    -30.6585E-03    -30.6585E-03         8.75774         8.75774
            2548         810.038         810.038    -130.115E-03    -130.115E-03         8.72717         8.72717
            2549         812.179         812.179    -228.439E-03    -228.439E-03         8.63706         8.63706
            2550         814.328         814.328    -332.017E-03    -332.017E-03         8.48751         8.48751
            2551         816.466         816.466    -447.139E-03    -447.139E-03         8.27467         8.27467
            2552         818.572         818.572    -579.514E-03    -579.514E-03         7.99136         7.99136
            2553         820.629         820.629    -734.215E-03    -734.215E-03         7.62716         7.62716
            2554         822.614         822.614    -914.938E-03    -914.938E-03         7.16907         7.16907
            2555         824.504         824.504        -1.12347        -1.12347         6.60230         6.60230
            2556         826.274         826.274        -1.35855        -1.35855         5.91167         5.91167
            2557         827.895         827.895        -1.61490        -1.61490         5.08337         5.08337
            2558         829.333         829.333        -1.88177        -1.88177         4.10757         4.10757
            2559         830.554         830.554        -2.14206        -2.14206         2.98163         2.98163
            2560         831.521         831.521        -2.37131        -2.37131         1.71383         1.71383
            2561         832.196         832.196        -2.53810        -2.53810     327.685E-03     327.685E-03
            2562         832.547         832.547        -2.60541        -2.60541        -1.13443        -1.13443
            2563         832.547         832.547        -2.53417        -2.53417        -2.60823        -2.60823
            2564         832.185         832.185        -2.28887        -2.28887        -4.00734        -4.00734
            2565         831.472         831.472        -1.84490        -1.84490        -5.22541        -5.22541
            2566         934.242         934.242         190.938         190.938        -190.794        -190.794
            2567         940.014         940.014         98.8215         98.8215        -147.688        -147.688
            2568         907.502         907.502         48.7385         48.7385        -95.7704        -95.7704
            2569         874.246         874.246         30.5066         30.5066        -64.8072        -64.8072
            2570         849.188         849.188         19.2140         19.2140        -44.8364        -44.8364
            2571         829.734         829.734         13.2655         13.2655        -31.0452        -31.0452
            2572         815.472         815.472         9.34494         9.34494        -21.5478        -21.5478
            2573         804.913         804.913         6.84040         6.84040        -14.5434        -14.5434
            2574         797.355         797.355         5.10287         5.10287        -9.44243        -9.44243
            2575         792.058         792.058         3.86637         3.86637        -5.55359        -5.55359
            2576         788.556         788.556         2.96755         2.96755        -2.62365        -2.62365
            2577         786.446         786.446         2.28782         2.28782    -356.005E-03    -356.005E-03
            2578         785.440         785.440         1.77417         1.77417         1.37973         1.37973
            2579         785.301         785.301         1.37249         1.37249         2.72570         2.72570
            2580         785.849         785.849         1.06027         1.06027         3.75647         3.75647
            2581         786.936         786.936     811.885E-03     811.885E-03         4.54728         4.54728
            2582         788.448         788.448     615.395E-03     615.395E-03         5.14365         5.14365
            2583         790.291         790.291     457.866E-03     457.866E-03         5.58872         5.58872
            2584         792.389         792.389     331.891E-03     331.891E-03         5.91127         5.91127
            2585         794.681         794.681     230.250E-03     230.250E-03         6.13723         6.13723
            2586         797.118         797.118     147.769E-03     147.769E-03         6.28475         6.28475
            2587         799.659         799.659     79.7680E-03     79.7680E-03         6.36926         6.36926
            2588         802.270         802.270     22.1948E-03     22.1948E-03         6.40131         6.40131
            2589         804.923         804.923    -28.5737E-03    -28.5737E-03         6.38887         6.38887
            2590         807.593         807.593    -76.0749E-03    -76.0749E-03         6.33632         6.33632
            2591         810.257         810.257    -123.555E-03    -123.555E-03         6.24548         6.24548
            2592         812.896         812.896    -174.314E-03    -174.314E-03         6.11518         6.11518
            2593         815.487         815.487    -231.390E-03    -231.390E-03         5.94171         5.94171
            2594         818.009         818.009    -297.732E-03    -297.732E-03         5.71871         5.71871
            2595         820.437         820.437    -375.795E-03    -375.795E-03         5.43764         5.43764
            2596         822.743         822.743    -467.470E-03    -467.470E-03         5.08802         5.08802
            2597         824.898         824.898    -573.513E-03    -573.513E-03         4.65826         4.65826
            2598         826.866         826.866    -693.214E-03    -693.214E-03         4.13663         4.13663
            2599         828.607         828.607    -823.624E-03    -823.624E-03         3.51277         3.51277
            2600         830.082         830.082    -959.102E-03    -959.102E-03         2.77972         2.77972
            2601         831.246         831.246        -1.09055        -1.09055         1.93634         1.93634
            2602         832.057         832.057        -1.20530        -1.20530     990.337E-03     990.337E-03
            2603         832.477         832.477        -1.28705        -1.28705    -38.9367E-03    -38.9367E-03
            2604         832.479         832.479        -1.31695        -1.31695        -1.11768        -1.11768
            2605         832.048         832.048        -1.27543        -1.27543        -2.19619        -2.19619
            2606         831.193         831.193        -1.14502        -1.14502        -3.20914        -3.20914
            2607         829.951         829.951    -914.135E-03    -914.135E-03        -4.07739        -4.07739
            2608     1.05338E+03     1.05338E+03         129.586         129.586        -167.613        -167.613
            2609         965.237         965.237         36.5678         36.5678        -90.9586        -90.9586
            2610         895.946         895.946         19.4506         19.4506        -52.1823        -52.1823
            2611         854.141         854.141         10.8690         10.8690        -34.1672        -34.1672
            2612         825.393         825.393         6.78400         6.78400        -22.2795        -22.2795
            2613         806.091         806.091         4.62692         4.62692        -15.1940        -15.1940
            2614         792.761         792.761         3.17390         3.17390        -10.0765        -10.0765
            2615         783.767         783.767         2.35234         2.35234        -6.61482        -6.61482
            2616         777.851         777.851         1.71265         1.71265        -4.01123        -4.01123
            2617         774.233         774.233         1.31721         1.31721        -2.12680        -2.12680
            2618         772.334         772.334     993.299E-03     993.299E-03    -682.191E-03    -682.191E-03
            2619         771.743         771.743     774.785E-03     774.785E-03     398.821E-03     398.821E-03
            2620         772.154         772.154     593.900E-03     593.900E-03         1.23157         1.23157
            2621         773.333         773.333     463.000E-03     463.000E-03         1.86099         1.86099
            2622         775.100         775.100     355.058E-03     355.058E-03         2.34182         2.34182
            2623         777.318         777.318     273.060E-03     273.060E-03         2.70165         2.70165
            2624         779.876         779.876     205.966E-03     205.966E-03         2.96964         2.96964
            2625         782.688         782.688     153.441E-03     153.441E-03         3.16324         3.16324
            2626         785.686         785.686     110.734E-03     110.734E-03         3.29928         3.29928
            2627         788.815         788.815     76.5847E-03     76.5847E-03         3.38886         3.38886
            2628         792.031         792.031     48.6913E-03     48.6913E-03         3.44199         3.44199
            2629         795.300         795.300     25.6647E-03     25.6647E-03         3.46544         3.46544
            2630         798.593         798.593     6.11640E-03     6.11640E-03         3.46475         3.46475
            2631         801.886         801.886    -11.2808E-03    -11.2808E-03         3.44327         3.44327
            2632         805.158         805.158    -27.6234E-03    -27.6234E-03         3.40314         3.40314
            2633         808.390         808.390    -44.1698E-03    -44.1698E-03         3.34469         3.34469
            2634         811.561         811.561    -61.9481E-03    -61.9481E-03         3.26698         3.26698
            2635         814.652         814.652    -82.1334E-03    -82.1334E-03         3.16749         3.16749
            2636         817.639         817.639    -105.670E-03    -105.670E-03         3.04245         3.04245
            2637         820.493         820.493    -133.500E-03    -133.500E-03         2.88676         2.88676
            2638         823.183         823.183    -166.221E-03    -166.221E-03         2.69433         2.69433
            2639         825.670         825.670    -204.144E-03    -204.144E-03         2.45848         2.45848
            2640         827.910         827.910    -246.937E-03    -246.937E-03         2.17242         2.17242
            2641         829.852         829.852    -293.569E-03    -293.569E-03         1.83025         1.83025
            2642         831.442         831.442    -341.918E-03    -341.918E-03         1.42792         1.42792
            2643         832.624         832.624    -388.739E-03    -388.739E-03     964.853E-03     964.853E-03
            2644         833.343         833.343    -429.370E-03    -429.370E-03     445.342E-03     445.342E-03
            2645         833.552         833.552    -458.007E-03    -458.007E-03    -119.591E-03    -119.591E-03
            2646         833.217         833.217    -467.820E-03    -467.820E-03    -710.920E-03    -710.920E-03
            2647         832.327         832.327    -451.914E-03    -451.914E-03        -1.30082        -1.30082
            2648         830.901         830.901    -404.239E-03    -404.239E-03        -1.85295        -1.85295
            2649         828.994         828.994    -320.693E-03    -320.693E-03        -2.32305        -2.32305
            2650         867.913         867.913        -27.1487        -27.1487         1.91309         1.91309
            2651         862.342         862.342        -18.8435        -18.8435         7.16521         7.16521
            2652         856.356         856.356        -12.5292        -12.5292         9.70744         9.70744
            2653         850.808         850.808        -8.02480        -8.02480         10.6519         10.6519
            2654         845.921         845.921        -4.94467        -4.94467         10.7152         10.7152
            2655         841.675         841.675        -2.91025        -2.91025         10.3165         10.3165
            2656         837.963         837.963        -1.61537        -1.61537         9.67046         9.67046
            2657         834.661         834.661    -828.905E-03    -828.905E-03         8.86081         8.86081
            2658         831.651         831.651    -381.368E-03    -381.368E-03         7.88171         7.88171
            2659         828.834         828.834    -149.273E-03    -149.273E-03         6.65705         6.65705
            2660         826.128         826.128    -43.9609E-03    -43.9609E-03         5.04252         5.04252
            2661         823.477         823.477    -6.58935E-03    -6.58935E-03         2.83007         2.83007
            2662         873.927         873.927        -16.0986        -16.0986         13.1929         13.1929
            2663         864.638         864.638        -7.81616        -7.81616         15.1957         15.1957
            2664         856.706         856.706        -2.68072        -2.68072         15.0522         15.0522
            2665         850.211         850.211     254.229E-03     254.229E-03         14.0204         14.0204
            2666         844.920         844.920         1.74821         1.74821         12.7108         12.7108
            2667         840.525         840.525         2.33142         2.33142         11.3870         11.3870
            2668         836.756         836.756         2.35525         2.35525         10.1340         10.1340
            2669         833.385         833.385         2.05122         2.05122         8.94215         8.94215
            2670         830.221         830.221         1.57753         1.57753         7.74413         7.74413
            2671         827.089         827.089         1.05062         1.05062         6.42457         6.42457
            2672         823.823         823.823     565.926E-03     565.926E-03         4.81443         4.81443
            2673         820.252         820.252     211.855E-03     211.855E-03         2.68799         2.68799
            2674         874.691         874.691         4.05596         4.05596         22.7079         22.7079
            2675         863.064         863.064         8.76660         8.76660         20.3080         20.3080
            2676         854.422         854.422         10.3626         10.3626         17.3911         17.3911
            2677         847.915         847.915         10.2880         10.2880         14.6903         14.6903
            2678         842.848         842.848         9.35663         9.35663         12.4120         12.4120
            2679         838.722         838.722         8.01727         8.01727         10.5458         10.5458
            2680         835.176         835.176         6.51526         6.51526         9.01365         9.01365
            2681         831.934         831.934         4.99262         4.99262         7.71393         7.71393
            2682         828.764         828.764         3.54183         3.54183         6.53192         6.53192
            2683         825.447         825.447         2.23851         2.23851         5.33511         5.33511
            2684         821.749         821.749         1.16466         1.16466         3.95949         3.95949
            2685         817.398         817.398     425.602E-03     425.602E-03         2.19947         2.19947
            2686         869.831         869.831         30.4016         30.4016         24.8790         24.8790
            2687         858.390         858.390         27.6749         27.6749         19.2946         19.2946
            2688         850.530         850.530         23.9005         23.9005         14.9871         14.9871
            2689         844.836         844.836         20.0207         20.0207         11.7802         11.7802
            2690         840.450         840.450         16.3803         16.3803         9.40375         9.40375
            2691         836.847         836.847         13.0724         13.0724         7.62959         7.62959
            2692         833.674         833.674         10.1086         10.1086         6.27989         6.27989
            2693         830.663         830.663         7.47761         7.47761         5.21434         5.21434
            2694         827.580         827.580         5.17376         5.17376         4.31304         4.31304
            2695         824.188         824.188         3.21385         3.21385         3.46228         3.46228
            2696         820.211         820.211         1.65215         1.65215         2.53945         2.53945
            2697         815.305         815.305     597.952E-03     597.952E-03         1.40112         1.40112
            2698         862.921         862.921         53.8974         53.8974         15.7664         15.7664
            2699         853.461         853.461         42.7901         42.7901         10.8407         10.8407
            2700         847.059         847.059         33.9347         33.9347         7.63822         7.63822
            2701         842.371         842.371         26.8592         26.8592         5.49601         5.49601
            2702         838.684         838.684         21.1114         21.1114         4.02561         4.02561
            2703         835.567         835.567         16.3629         16.3629         2.99983         2.99983
            2704         832.725         832.725         12.3809         12.3809         2.27394         2.27394
            2705         829.923         829.923         9.01032         9.01032         1.74881         1.74881
            2706         826.944         826.944         6.15900         6.15900         1.35233         1.35233
            2707         823.551         823.551         3.79314         3.79314         1.02621         1.02621
            2708         819.457         819.457         1.94018         1.94018     719.138E-03     719.138E-03
            2709         814.286         814.286     701.262E-03     701.262E-03     383.118E-03     383.118E-03
            2710         860.174         860.174         61.9505         61.9505        -2.71727        -2.71727
            2711         851.870         851.870         47.2453         47.2453        -2.92911        -2.92911
            2712         846.110         846.110         36.5719         36.5719        -2.92713        -2.92713
            2713         841.810         841.810         28.4700         28.4700        -2.84815        -2.84815
            2714         838.371         838.371         22.1071         22.1071        -2.72684        -2.72684
            2715         835.421         835.421         16.9741         16.9741        -2.57827        -2.57827
            2716         832.694         832.694         12.7454         12.7454        -2.40523        -2.40523
            2717         829.974         829.974         9.21467         9.21467        -2.20341        -2.20341
            2718         827.052         827.052         6.26106         6.26106        -1.96192        -1.96192
            2719         823.702         823.702         3.83373         3.83373        -1.66046        -1.66046
            2720         819.644         819.644         1.94992         1.94992        -1.26449        -1.26449
            2721         814.523         814.523     701.259E-03     701.259E-03    -717.656E-03    -717.656E-03
            2722         864.719         864.719         47.7430         47.7430        -20.6842        -20.6842
            2723         855.059         855.059         37.9211         37.9211        -16.2264        -16.2264
            2724         848.440         848.440         30.1750         30.1750        -13.1551        -13.1551
            2725         843.573         843.573         23.9511         23.9511        -10.9403        -10.9403
            2726         839.757         839.757         18.8595         18.8595        -9.28496        -9.28496
            2727         836.555         836.555         14.6239         14.6239        -7.99826        -7.99826
            2728         833.672         833.672         11.0531         11.0531        -6.94746        -6.94746
            2729         830.873         830.873         8.02197         8.02197        -6.03015        -6.03015
            2730         827.947         827.947         5.45858         5.45858        -5.15621        -5.15621
            2731         824.674         824.674         3.34016         3.34016        -4.23224        -4.23224
            2732         820.802         820.802         1.69501         1.69501        -3.14438        -3.14438
            2733         816.025         816.025     607.849E-03     607.849E-03        -1.74860        -1.74860
            2734         871.868         871.868         19.0290         19.0290        -26.6121        -26.6121
            2735         860.549         860.549         18.7878         18.7878        -22.4188        -22.4188
            2736         852.613         852.613         16.9829         16.9829        -18.8794        -18.8794
            2737         846.782         846.782         14.6600         14.6600        -16.0415        -16.0415
            2738         842.272         842.272         12.2346         12.2346        -13.7757        -13.7757
            2739         838.592         838.592         9.88645         9.88645        -11.9377        -11.9377
            2740         835.400         835.400         7.69573         7.69573        -10.3933        -10.3933
            2741         832.437         832.437         5.70213         5.70213        -9.02087        -9.02087
            2742         829.489         829.489         3.93519         3.93519        -7.70040        -7.70040
            2743         826.350         826.350         2.43076         2.43076        -6.30024        -6.30024
            2744         822.809         822.809         1.24239         1.24239        -4.65883        -4.65883
            2745         818.627         818.627     448.832E-03     448.832E-03        -2.57753        -2.57753
            2746         873.884         873.884        -8.09883        -8.09883        -19.2637        -19.2637
            2747         863.824         863.824        -1.45201        -1.45201        -19.5642        -19.5642
            2748         855.890         855.890         2.06783         2.06783        -18.3932        -18.3932
            2749         849.702         849.702         3.67567         3.67567        -16.7833        -16.7833
            2750         844.797         844.797         4.15932         4.15932        -15.1354        -15.1354
            2751         840.785         840.785         3.99125         3.99125        -13.5726        -13.5726
            2752         837.366         837.366         3.46137         3.46137        -12.1043        -12.1043
            2753         834.303         834.303         2.75330         2.75330        -10.6807        -10.6807
            2754         831.402         831.402         1.99116         1.99116        -9.21500        -9.21500
            2755         828.494         828.494         1.26746         1.26746        -7.58417        -7.58417
            2756         825.422         825.422     659.785E-03     659.785E-03        -5.62044        -5.62044
            2757         822.032         822.032     240.941E-03     240.941E-03        -3.10923        -3.10923
            2758         868.253         868.253        -23.8662        -23.8662        -6.53728        -6.53728
            2759         862.213         862.213        -15.7256        -15.7256        -11.2442        -11.2442
            2760         856.172         856.172        -9.84219        -9.84219        -13.2888        -13.2888
            2761         850.816         850.816        -5.85124        -5.85124        -13.8406        -13.8406
            2762         846.246         846.246        -3.26313        -3.26313        -13.5955        -13.5955
            2763         842.361         842.361        -1.65568        -1.65568        -12.9271        -12.9271
            2764         839.011         839.011    -715.438E-03    -715.438E-03        -12.0104        -12.0104
            2765         836.052         836.052    -215.369E-03    -215.369E-03        -10.9048        -10.9048
            2766         833.354         833.354     7.43909E-03     7.43909E-03        -9.59107        -9.59107
            2767         830.808         830.808     70.4326E-03     70.4326E-03        -7.98902        -7.98902
            2768         828.330         828.330     57.9300E-03     57.9300E-03        -5.95735        -5.95735
            2769         825.860         825.860     26.3924E-03     26.3924E-03        -3.30196        -3.30196
            2770         773.038         773.038         225.168         225.168         41.8821         41.8821
            2771         780.776         780.776         206.752         206.752         41.6502         41.6502
            2772         788.351         788.351         188.317         188.317         40.3792         40.3792
            2773         795.569         795.569         170.212         170.212         38.4844         38.4844
            2774         802.301         802.301         152.681         152.681         36.0338         36.0338
            2775         808.436         808.436         135.939         135.939         33.1090         33.1090
            2776         813.891         813.891         120.170         120.170         29.8305         29.8305
            2777         818.626         818.626         105.501         105.501         26.3187         26.3187
            2778         822.625         822.625         92.0152         92.0152         22.7003         22.7003
            2779         825.911         825.911         79.7464         79.7464         19.0881         19.0881
            2780         828.516         828.516         68.6914         68.6914         15.5764         15.5764
            2781         830.502         830.502         58.8148         58.8148         12.2421         12.2421
            2782         831.926         831.926         50.0591         50.0591         9.13562         9.13562
            2783         832.856         832.856         42.3531         42.3531         6.29289         6.29289
            2784         833.357         833.357         35.6153         35.6153         3.72750         3.72750
            2785         833.490         833.490         29.7630         29.7630         1.44397         1.44397
            2786         833.310         833.310         24.7106         24.7106    -567.900E-03    -567.900E-03
            2787         832.870         832.870         20.3768         20.3768        -2.32260        -2.32260
            2788         832.211         832.211         16.6819         16.6819        -3.84261        -3.84261
            2789         831.373         831.373         13.5517         13.5517        -5.15151        -5.15151
            2790         830.389         830.389         10.9153         10.9153        -6.27645        -6.27645
            2791         829.287         829.287         8.70768         8.70768        -7.24410        -7.24410
            2792         828.091         828.091         6.86684         6.86684        -8.08237        -8.08237
            2793         826.820         826.820         5.33580         5.33580        -8.81830        -8.81830
            2794         825.493         825.493         4.06048         4.06048        -9.47937        -9.47937
            2795         824.124         824.124         2.99036         2.99036        -10.0927        -10.0927
            2796         822.726         822.726         2.07697         2.07697        -10.6861        -10.6861
            2797         821.312         821.312         1.27388         1.27388        -11.2882        -11.2882
            2798         819.896         819.896     535.320E-03     535.320E-03        -11.9293        -11.9293
            2799         818.491         818.491    -184.531E-03    -184.531E-03        -12.6422        -12.6422
            2800         817.116         817.116    -933.208E-03    -933.208E-03        -13.4627        -13.4627
            2801         815.795         815.795        -1.76172        -1.76172        -14.4311        -14.4311
            2802         814.563         814.563        -2.72715        -2.72715        -15.5920        -15.5920
            2803         813.469         813.469        -3.89645        -3.89645        -16.9949        -16.9949
            2804         812.588         812.588        -5.35105        -5.35105        -18.6934        -18.6934
            2805         812.034         812.034        -7.19430        -7.19430        -20.7406        -20.7406
            2806         811.978         811.978        -9.55879        -9.55879        -23.1816        -23.1816
            2807         812.683         812.683        -12.6181        -12.6181        -26.0331        -26.0331
            2808         814.541         814.541        -16.5875        -16.5875        -29.2442        -29.2442
            2809         818.135         818.135        -21.7180        -21.7180        -32.6146        -32.6146
            2810         824.248         824.248        -28.1769        -28.1769        -35.6398        -35.6398
            2811         833.774         833.774        -35.8248        -35.8248        -37.3356        -37.3356
            2812         771.785         771.785         225.507         225.507         32.1778         32.1778
            2813         779.272         779.272         207.778         207.778         31.9895         31.9895
            2814         786.613         786.613         190.049         190.049         31.0277         31.0277
            2815         793.657         793.657         172.611         172.611         29.6196         29.6196
            2816         800.285         800.285         155.670         155.670         27.7998         27.7998
            2817         806.399         806.399         139.413         139.413         25.6340         25.6340
            2818         811.924         811.924         123.994         123.994         23.1939         23.1939
            2819         816.808         816.808         109.540         109.540         20.5694         20.5694
            2820         821.029         821.029         96.1339         96.1339         17.8457         17.8457
            2821         824.581         824.581         83.8272         83.8272         15.1058         15.1058
            2822         827.488         827.488         72.6348         72.6348         12.4219         12.4219
            2823         829.781         829.781         62.5450         62.5450         9.85109         9.85109
            2824         831.507         831.507         53.5234         53.5234         7.43882         7.43882
            2825         832.716         832.716         45.5185         45.5185         5.21264         5.21264
            2826         833.464         833.464         38.4685         38.4685         3.19103         3.19103
            2827         833.803         833.803         32.3031         32.3031         1.37792         1.37792
            2828         833.787         833.787         26.9496         26.9496    -228.275E-03    -228.275E-03
            2829         833.463         833.463         22.3332         22.3332        -1.63859        -1.63859
            2830         832.875         832.875         18.3810         18.3810        -2.86660        -2.86660
            2831         832.063         832.063         15.0214         15.0214        -3.93105        -3.93105
            2832         831.061         831.061         12.1865         12.1865        -4.85134        -4.85134
            2833         829.899         829.899         9.81163         9.81163        -5.64928        -5.64928
            2834         828.601         828.601         7.83613         7.83613        -6.34656        -6.34656
            2835         827.189         827.189         6.20283         6.20283        -6.96602        -6.96602
            2836         825.678         825.678         4.85865         4.85865        -7.53045        -7.53045
            2837         824.082         824.082         3.75364         3.75364        -8.06375        -8.06375
            2838         822.410         822.410         2.84124         2.84124        -8.59065        -8.59065
            2839         820.668         820.668         2.07735         2.07735        -9.13787        -9.13787
            2840         818.860         818.860         1.42009         1.42009        -9.73469        -9.73469
            2841         816.987         816.987     828.742E-03     828.742E-03        -10.4144        -10.4144
            2842         815.050         815.050     262.781E-03     262.781E-03        -11.2153        -11.2153
            2843         813.048         813.048    -319.832E-03    -319.832E-03        -12.1835        -12.1835
            2844         810.983         810.983    -965.102E-03    -965.102E-03        -13.3744        -13.3744
            2845         808.862         808.862        -1.72648        -1.72648        -14.8562        -14.8562
            2846         806.702         806.702        -2.67090        -2.67090        -16.7135        -16.7135
            2847         804.545         804.545        -3.88683        -3.88683        -19.0520        -19.0520
            2848         802.471         802.471        -5.49945        -5.49945        -22.0019        -22.0019
            2849         800.633         800.633        -7.68998        -7.68998        -25.7210        -25.7210
            2850         799.318         799.318        -10.7338        -10.7338        -30.3866        -30.3866
            2851         799.054         799.054        -15.0430        -15.0430        -36.1657        -36.1657
            2852         800.813         800.813        -21.2444        -21.2444        -43.0879        -43.0879
            2853         806.260         806.260        -30.0933        -30.0933        -50.7553        -50.7553
            2854         770.924         770.924         225.758         225.758         22.7602         22.7602
            2855         778.224         778.224         208.515         208.515         22.5987         22.5987
            2856         785.403         785.403         191.279         191.279         21.9083         21.9083
            2857         792.313         792.313         174.313         174.313         20.9140         20.9140
            2858         798.857         798.857         157.794         157.794         19.6464         19.6464
            2859         804.943         804.943         141.886         141.886         18.1400         18.1400
            2860         810.497         810.497         126.732         126.732         16.4484         16.4484
            2861         815.470         815.470         112.448         112.448         14.6246         14.6246
            2862         819.825         819.825         99.1204         99.1204         12.7287         12.7287
            2863         823.553         823.553         86.8066         86.8066         10.8150         10.8150
            2864         826.659         826.659         75.5350         75.5350         8.93257         8.93257
            2865         829.164         829.164         65.3081         65.3081         7.12317         7.12317
            2866         831.100         831.100         56.1068         56.1068         5.41716         5.41716
            2867         832.509         832.509         47.8951         47.8951         3.83800         3.83800
            2868         833.436         833.436         40.6232         40.6232         2.39750         2.39750
            2869         833.930         833.930         34.2331         34.2331         1.10255         1.10255
            2870         834.037         834.037         28.6597         28.6597    -48.9231E-03    -48.9231E-03
            2871         833.804         833.804         23.8360         23.8360        -1.06172        -1.06172
            2872         833.274         833.274         19.6929         19.6929        -1.94632        -1.94632
            2873         832.486         832.486         16.1631         16.1631        -2.71426        -2.71426
            2874         831.475         831.475         13.1803         13.1803        -3.38019        -3.38019
            2875         830.271         830.271         10.6816         10.6816        -3.95891        -3.95891
            2876         828.899         828.899         8.60708         8.60708        -4.46681        -4.46681
            2877         827.380         827.380         6.90076         6.90076        -4.92023        -4.92023
            2878         825.728         825.728         5.51027         5.51027        -5.33663        -5.33663
            2879         823.954         823.954         4.38732         4.38732        -5.73389        -5.73389
            2880         822.063         822.063         3.48731         3.48731        -6.13136        -6.13136
            2881         820.055         820.055         2.76943         2.76943        -6.55000        -6.55000
            2882         817.924         817.924         2.19625         2.19625        -7.01361        -7.01361
            2883         815.657         815.657         1.73348         1.73348        -7.54970        -7.54970
            2884         813.236         813.236         1.34939         1.34939        -8.19135        -8.19135
            2885         810.633         810.633         1.01398         1.01398        -8.97920        -8.97920
            2886         807.813         807.813     697.774E-03     697.774E-03        -9.96476        -9.96476
            2887         804.731         804.731     369.506E-03     369.506E-03        -11.2146        -11.2146
            2888         801.331         801.331    -6.99908E-03    -6.99908E-03        -12.8169        -12.8169
            2889         797.547         797.547    -479.507E-03    -479.507E-03        -14.8907        -14.8907
            2890         793.307         793.307        -1.11637        -1.11637        -17.6001        -17.6001
            2891         788.540         788.540        -2.02715        -2.02715        -21.1750        -21.1750
            2892         783.203         783.203        -3.39261        -3.39261        -25.9451        -25.9451
            2893         777.342         777.342        -5.53615        -5.53615        -32.3842        -32.3842
            2894         771.250         771.250        -9.05660        -9.05660        -41.1871        -41.1871
            2895         765.944         765.944        -15.1125        -15.1125        -53.2587        -53.2587
            2896         770.380         770.380         225.927         225.927         13.5366         13.5366
            2897         777.566         777.566         208.992         208.992         13.3966         13.3966
            2898         784.638         784.638         192.067         192.067         12.9470         12.9470
            2899         791.464         791.464         175.399         175.399         12.3292         12.3292
            2900         797.950         797.950         159.148         159.148         11.5554         11.5554
            2901         804.012         804.012         143.464         143.464         10.6518         10.6518
            2902         809.580         809.580         128.481         128.481         9.64364         9.64364
            2903         814.600         814.600         114.310         114.310         8.56579         8.56579
            2904         819.035         819.035         101.038         101.038         7.44924         7.44924
            2905         822.866         822.866         88.7261         88.7261         6.32646         6.32646
            2906         826.093         826.093         77.4097         77.4097         5.22525         5.22525
            2907         828.728         828.728         67.1000         67.1000         4.16863         4.16863
            2908         830.796         830.796         57.7878         57.7878         3.17551         3.17551
            2909         832.331         832.331         49.4458         49.4458         2.25747         2.25747
            2910         833.372         833.372         42.0333         42.0333         1.42324         1.42324
            2911         833.965         833.965         35.4989         35.4989     674.748E-03     674.748E-03
            2912         834.152         834.152         29.7842         29.7842     12.3869E-03     12.3869E-03
            2913         833.980         833.980         24.8260         24.8260    -568.376E-03    -568.376E-03
            2914         833.488         833.488         20.5595         20.5595        -1.07257        -1.07257
            2915         832.718         832.718         16.9189         16.9189        -1.50823        -1.50823
            2916         831.702         831.702         13.8403         13.8403        -1.88328        -1.88328
            2917         830.472         830.472         11.2615         11.2615        -2.20723        -2.20723
            2918         829.052         829.052         9.12362         9.12362        -2.48933        -2.48933
            2919         827.463         827.463         7.37129         7.37129        -2.73968        -2.73968
            2920         825.718         825.718         5.95315         5.95315        -2.96827        -2.96827
            2921         823.827         823.827         4.82197         4.82197        -3.18588        -3.18588
            2922         821.790         821.790         3.93499         3.93499        -3.40370        -3.40370
            2923         819.602         819.602         3.25386         3.25386        -3.63416        -3.63416
            2924         817.251         817.251         2.74485         2.74485        -3.89114        -3.89114
            2925         814.714         814.714         2.37887         2.37887        -4.19097        -4.19097
            2926         811.956         811.956         2.13153         2.13153        -4.55326        -4.55326
            2927         808.929         808.929         1.98323         1.98323        -5.00259        -5.00259
            2928         805.569         805.569         1.91907         1.91907        -5.57046        -5.57046
            2929         801.786         801.786         1.92889         1.92889        -6.29869        -6.29869
            2930         797.461         797.461         2.00651         2.00651        -7.24395        -7.24395
            2931         792.432         792.432         2.14940         2.14940        -8.48583        -8.48583
            2932         786.480         786.480         2.35528         2.35528        -10.1384        -10.1384
            2933         779.301         779.301         2.61937         2.61937        -12.3719        -12.3719
            2934         770.470         770.470         2.92062         2.92062        -15.4466        -15.4466
            2935         759.380         759.380         3.20242         3.20242        -19.7838        -19.7838
            2936         745.139         745.139         3.31301         3.31301        -26.0957        -26.0957
            2937         726.444         726.444         2.82997         2.82997        -35.7232        -35.7232
            2938         770.118         770.118         226.009         226.009         4.43652         4.43652
            2939         777.248         777.248         209.219         209.219         4.32036         4.32036
            2940         784.271         784.271         192.442         192.442         4.11004         4.11004
            2941         791.057         791.057         175.914         175.914         3.84980         3.84980
            2942         797.517         797.517         159.787         159.787         3.55049         3.55049
            2943         803.569         803.569         144.206         144.206         3.21757         3.21757
            2944         809.143         809.143         129.301         129.301         2.86456         2.86456
            2945         814.185         814.185         115.180         115.180         2.49983         2.49983
            2946         818.656         818.656         101.932         101.932         2.13572         2.13572
            2947         822.536         822.536         89.6183         89.6183         1.78072         1.78072
            2948         825.818         825.818         78.2785         78.2785         1.44317         1.44317
            2949         828.513         828.513         67.9281         67.9281         1.12949         1.12949
            2950         830.641         830.641         58.5620         58.5620     843.299E-03     843.299E-03
            2951         832.233         832.233         50.1578         50.1578     588.013E-03     588.013E-03
            2952         833.327         833.327         42.6784         42.6784     363.483E-03     363.483E-03
            2953         833.964         833.964         36.0760         36.0760     170.321E-03     170.321E-03
            2954         834.188         834.188         30.2948         30.2948     6.10917E-03     6.10917E-03
            2955         834.042         834.042         25.2741         25.2741    -130.469E-03    -130.469E-03
            2956         833.568         833.568         20.9501         20.9501    -242.795E-03    -242.795E-03
            2957         832.804         832.804         17.2585         17.2585    -333.168E-03    -333.168E-03
            2958         831.786         831.786         14.1359         14.1359    -405.071E-03    -405.071E-03
            2959         830.544         830.544         11.5206         11.5206    -461.084E-03    -461.084E-03
            2960         829.103         829.103         9.35400         9.35400    -504.361E-03    -504.361E-03
            2961         827.483         827.483         7.58097         7.58097    -537.363E-03    -537.363E-03
            2962         825.698         825.698         6.15046         6.15046    -562.789E-03    -562.789E-03
            2963         823.755         823.755         5.01563         5.01563    -582.842E-03    -582.842E-03
            2964         821.656         821.656         4.13442         4.13442    -599.811E-03    -599.811E-03
            2965         819.391         819.391         3.46947         3.46947    -615.668E-03    -615.668E-03
            2966         816.947         816.947         2.98861         2.98861    -632.449E-03    -632.449E-03
            2967         814.294         814.294         2.66487         2.66487    -652.025E-03    -652.025E-03
            2968         811.393         811.393         2.47714         2.47714    -676.399E-03    -676.399E-03
            2969         808.188         808.188         2.41020         2.41020    -707.559E-03    -707.559E-03
            2970         804.599         804.599         2.45589         2.45589    -747.799E-03    -747.799E-03
            2971         800.518         800.518         2.61322         2.61322    -799.547E-03    -799.547E-03
            2972         795.800         795.800         2.89061         2.89061    -865.922E-03    -865.922E-03
            2973         790.238         790.238         3.30592         3.30592    -950.307E-03    -950.307E-03
            2974         783.546         783.546         3.89136         3.89136        -1.05763        -1.05763
            2975         775.311         775.311         4.69262         4.69262        -1.19291        -1.19291
            2976         764.922         764.922         5.78026         5.78026        -1.36419        -1.36419
            2977         751.439         751.439         7.24680         7.24680        -1.57713        -1.57713
            2978         733.336         733.336         9.23595         9.23595        -1.83672        -1.83672
            2979         707.880         707.880         11.9526         11.9526        -2.08828        -2.08828
            2980         770.118         770.118         226.009         226.009        -4.60993        -4.60993
            2981         777.252         777.252         209.213         209.213        -4.68059        -4.68059
            2982         784.279         784.279         192.428         192.428        -4.64209        -4.64209
            2983         791.070         791.070         175.890         175.890        -4.53252        -4.53252
            2984         797.535         797.535         159.753         159.753        -4.35705        -4.35705
            2985         803.592         803.592         144.160         144.160        -4.11635        -4.11635
            2986         809.169         809.169         129.242         129.242        -3.82085        -3.82085
            2987         814.214         814.214         115.109         115.109        -3.47750        -3.47750
            2988         818.686         818.686         101.850         101.850        -3.09923        -3.09923
            2989         822.564         822.564         89.5279         89.5279        -2.69665        -2.69665
            2990         825.844         825.844         78.1817         78.1817        -2.28164        -2.28164
            2991         828.534         828.534         67.8272         67.8272        -1.86504        -1.86504
            2992         830.656         830.656         58.4595         58.4595        -1.45540        -1.45540
            2993         832.242         832.242         50.0560         50.0560        -1.06117        -1.06117
            2994         833.328         833.328         42.5792         42.5792    -686.938E-03    -686.938E-03
            2995         833.958         833.958         35.9810         35.9810    -337.665E-03    -337.665E-03
            2996         834.176         834.176         30.2052         30.2052    -14.5220E-03    -14.5220E-03
            2997         834.024         834.024         25.1906         25.1906     280.869E-03     280.869E-03
            2998         833.546         833.546         20.8730         20.8730     549.821E-03     549.821E-03
            2999         832.779         832.779         17.1878         17.1878     793.285E-03     793.285E-03
            3000         831.761         831.761         14.0712         14.0712         1.01423         1.01423
            3001         830.520         830.520         11.4611         11.4611         1.21541         1.21541
            3002         829.083         829.083         9.29868         9.29868         1.40096         1.40096
            3003         827.470         827.470         7.52843         7.52843         1.57504         1.57504
            3004         825.696         825.696         6.09884         6.09884         1.74289         1.74289
            3005         823.768         823.768         4.96276         4.96276         1.91016         1.91016
            3006         821.687         821.687         4.07748         4.07748         2.08370         2.08370
            3007         819.449         819.449         3.40500         3.40500         2.27141         2.27141
            3008         817.037         817.037         2.91212         2.91212         2.48304         2.48304
            3009         814.428         814.428         2.57069         2.57069         2.73054         2.73054
            3010         811.583         811.583         2.35765         2.35765         3.02922         3.02922
            3011         808.452         808.452         2.25540         2.25540         3.39884         3.39884
            3012         804.963         804.963         2.25190         2.25190         3.86588         3.86588
            3013         801.017         801.017         2.34103         2.34103         4.46605         4.46605
            3014         796.484         796.484         2.52264         2.52264         5.24963         5.24963
            3015         791.183         791.183         2.80265         2.80265         6.28761         6.28761
            3016         784.867         784.867         3.19204         3.19204         7.68583         7.68583
            3017         777.190         777.190         3.70487         3.70487         9.60247         9.60247
            3018         767.658         767.658         4.35084         4.35084         12.2908         12.2908
            3019         755.555         755.555         5.11869         5.11869         16.1633         16.1633
            3020         739.809         739.809         5.92656         5.92656         21.9559         21.9559
            3021         718.886         718.886         6.43570         6.43570         31.0744         31.0744
            3022         770.380         770.380         225.930         225.930        -13.6845        -13.6845
            3023         777.577         777.577         208.979         208.979        -13.7013        -13.7013
            3024         784.661         784.661         192.034         192.034        -13.3968        -13.3968
            3025           791.5           791.5         175.341         175.341        -12.9059        -12.9059
            3026         797.999         797.999         159.061         159.061        -12.2355        -12.2355
            3027         804.073         804.073         143.345         143.345        -11.4080        -11.4080
            3028         809.651         809.651         128.329         128.329        -10.4459        -10.4459
            3029         814.677         814.677         114.127         114.127        -9.38334        -9.38334
            3030         819.114         819.114         100.827         100.827        -8.25182        -8.25182
            3031         822.942         822.942         88.4923         88.4923        -7.08607        -7.08607
            3032         826.161         826.161         77.1590         77.1590        -5.91712        -5.91712
            3033         828.784         828.784         66.8390         66.8390        -4.77196        -4.77196
            3034         830.837         830.837         57.5227         57.5227        -3.67382        -3.67382
            3035         832.354         832.354         49.1825         49.1825        -2.63854        -2.63854
            3036         833.377         833.377         41.7770         41.7770        -1.67893        -1.67893
            3037         833.951         833.951         35.2535         35.2535    -800.413E-03    -800.413E-03
            3038         834.121         834.121         29.5528         29.5528    -6.41866E-03    -6.41866E-03
            3039         833.934         833.934         24.6104         24.6104     705.302E-03     705.302E-03
            3040         833.431         833.431         20.3606         20.3606         1.33807         1.33807
            3041         832.653         832.653         16.7366         16.7366         1.89890         1.89890
            3042         831.635         831.635         13.6734         13.6734         2.39530         2.39530
            3043         830.409         830.409         11.1082         11.1082         2.83696         2.83696
            3044         829.000         829.000         8.98123         8.98123         3.23385         3.23385
            3045         827.428         827.428         7.23616         7.23616         3.59743         3.59743
            3046         825.711         825.711         5.82076         5.82076         3.93959         3.93959
            3047         823.856         823.856         4.68668         4.68668         4.27372         4.27372
            3048         821.869         821.869         3.78981         3.78981         4.61438         4.61438
            3049         819.747         819.747         3.09004         3.09004         4.97834         4.97834
            3050         817.480         817.480         2.55132         2.55132         5.38503         5.38503
            3051         815.052         815.052         2.14138         2.14138         5.85793         5.85793
            3052         812.436         812.436         1.83150         1.83150         6.42583         6.42583
            3053         809.597         809.597         1.59593         1.59593         7.12539         7.12539
            3054         806.485         806.485         1.41112         1.41112         8.00387         8.00387
            3055         803.036         803.036         1.25419         1.25419         9.12430         9.12430
            3056         799.167         799.167         1.10033         1.10033         10.5716         10.5716
            3057         794.776         794.776     918.457E-03     918.457E-03         12.4643         12.4643
            3058         789.732         789.732     662.188E-03     662.188E-03         14.9691         14.9691
            3059         783.882         783.882     255.429E-03     255.429E-03         18.3301         18.3301
            3060         777.057         777.057    -440.999E-03    -440.999E-03         22.9059         22.9059
            3061         769.108         769.108        -1.68918        -1.68918         29.2472         29.2472
            3062         760.043         760.043        -4.02623        -4.02623         38.1981         38.1981
            3063         750.422         750.422        -8.55450        -8.55450         50.9829         50.9829
            3064         770.924         770.924         225.765         225.765        -22.8743        -22.8743
            3065         778.239         778.239         208.503         208.503        -22.8307        -22.8307
            3066         785.434         785.434         191.240         191.240        -22.2493        -22.2493
            3067         792.362         792.362         174.241         174.241        -21.3496        -21.3496
            3068         798.923         798.923         157.684         157.684        -20.1582        -20.1582
            3069         805.024         805.024         141.734         141.734        -18.7062        -18.7062
            3070         810.591         810.591         126.538         126.538        -17.0454        -17.0454
            3071         815.571         815.571         112.213         112.213        -15.2286        -15.2286
            3072         819.927         819.927         98.8500         98.8500        -13.3168        -13.3168
            3073         823.651         823.651         86.5074         86.5074        -11.3663        -11.3663
            3074         826.745         826.745         75.2149         75.2149        -9.42934        -9.42934
            3075         829.233         829.233         64.9755         64.9755        -7.55083        -7.55083
            3076         831.149         831.149         55.7699         55.7699        -5.76462        -5.76462
            3077         832.535         832.535         47.5614         47.5614        -4.09753        -4.09753
            3078         833.437         833.437         40.2991         40.2991        -2.56429        -2.56429
            3079         833.907         833.907         33.9236         33.9236        -1.17441        -1.17441
            3080         833.992         833.992         28.3685         28.3685     72.1584E-03     72.1584E-03
            3081         833.740         833.740         23.5653         23.5653         1.17859         1.17859
            3082         833.195         833.195         19.4437         19.4437         2.15431         2.15431
            3083         832.398         832.398         15.9352         15.9352         3.01017         3.01017
            3084         831.384         831.384         12.9723         12.9723         3.76059         3.76059
            3085         830.185         830.185         10.4911         10.4911         4.42049         4.42049
            3086         828.826         828.826         8.43074         8.43074         5.00674         5.00674
            3087         827.329         827.329         6.73419         6.73419         5.53651         5.53651
            3088         825.710         825.710         5.34799         5.34799         6.02837         6.02837
            3089         823.982         823.982         4.22259         4.22259         6.50170         6.50170
            3090         822.152         822.152         3.31183         3.31183         6.97773         6.97773
            3091         820.223         820.223         2.57293         2.57293         7.47970         7.47970
            3092         818.194         818.194         1.96584         1.96584         8.03424         8.03424
            3093         816.058         816.058         1.45281         1.45281         8.67226         8.67226
            3094         813.807         813.807     997.395E-03     997.395E-03         9.43096         9.43096
            3095         811.424         811.424     563.132E-03     563.132E-03         10.3559         10.3559
            3096         808.893         808.893     111.561E-03     111.561E-03         11.5043         11.5043
            3097         806.194         806.194    -401.230E-03    -401.230E-03         12.9492         12.9492
            3098         803.311         803.311        -1.02938        -1.02938         14.7855         14.7855
            3099         800.234         800.234        -1.84668        -1.84668         17.1374         17.1374
            3100         796.978         796.978        -2.95918        -2.95918         20.1701         20.1701
            3101         793.609         793.609        -4.53231        -4.53231         24.1013         24.1013
            3102         790.294         790.294        -6.82670        -6.82670         29.2178         29.2178
            3103         787.421         787.421        -10.2794        -10.2794         35.8715         35.8715
            3104         785.822         785.822        -15.6069        -15.6069         44.4278         44.4278
            3105         787.133         787.133        -23.9005        -23.9005         55.0398         55.0398
            3106         771.784         771.784         225.514         225.514        -32.2572        -32.2572
            3107         779.285         779.285         207.767         207.767        -32.1483        -32.1483
            3108         786.643         786.643         190.012         190.012        -31.2584        -31.2584
            3109         793.704         793.704         172.543         172.543        -29.9126        -29.9126
            3110         800.348         800.348         155.565         155.565        -28.1418        -28.1418
            3111         806.476         806.476         139.267         139.267        -26.0095        -26.0095
            3112         812.013         812.013         123.808         123.808        -23.5862        -23.5862
            3113         816.902         816.902         109.317         109.317        -20.9619        -20.9619
            3114         821.122         821.122         95.8782         95.8782        -18.2229        -18.2229
            3115         824.668         824.668         83.5457         83.5457        -15.4543        -15.4543
            3116         827.563         827.563         72.3353         72.3353        -12.7306        -12.7306
            3117         829.838         829.838         62.2355         62.2355        -10.1115        -10.1115
            3118         831.544         831.544         53.2117         53.2117        -7.64480        -7.64480
            3119         832.730         832.730         45.2113         45.2113        -5.36037        -5.36037
            3120         833.454         833.454         38.1717         38.1717        -3.27865        -3.27865
            3121         833.770         833.770         32.0209         32.0209        -1.40505        -1.40505
            3122         833.733         833.733         26.6853         26.6853     260.719E-03     260.719E-03
            3123         833.391         833.391         22.0886         22.0886         1.72888         1.72888
            3124         832.790         832.790         18.1569         18.1569         3.01241         3.01241
            3125         831.970         831.970         14.8173         14.8173         4.12974         4.12974
            3126         830.966         830.966         12.0012         12.0012         5.10016         5.10016
            3127         829.808         829.808         9.64289         9.64289         5.94560         5.94560
            3128         828.521         828.521         7.68099         7.68099         6.68798         6.68798
            3129         827.129         827.129         6.05744         6.05744         7.35052         7.35052
            3130         825.648         825.648         4.71833         4.71833         7.95654         7.95654
            3131         824.091         824.091         3.61268         3.61268         8.53051         8.53051
            3132         822.472         822.472         2.69272         2.69272         9.09784         9.09784
            3133         820.798         820.798         1.91285         1.91285         9.68603         9.68603
            3134         819.077         819.077         1.22924         1.22924         10.3251         10.3251
            3135         817.315         817.315     598.632E-03     598.632E-03         11.0490         11.0490
            3136         815.519         815.519    -22.8574E-03    -22.8574E-03         11.8968         11.8968
            3137         813.698         813.698    -681.678E-03    -681.678E-03         12.9145         12.9145
            3138         811.865         811.865        -1.42972        -1.42972         14.1566         14.1566
            3139         810.047         810.047        -2.32810        -2.32810         15.6891         15.6891
            3140         808.286         808.286        -3.45400        -3.45400         17.5907         17.5907
            3141         806.658         806.658        -4.90859        -4.90859         19.9552         19.9552
            3142         805.292         805.292        -6.83310        -6.83310         22.8897         22.8897
            3143         804.409         804.409        -9.42453        -9.42453         26.5075         26.5075
            3144         804.383         804.383        -12.9695        -12.9695         30.9028         30.9028
            3145         805.836         805.836        -17.8567        -17.8567         36.0864         36.0864
            3146         809.767         809.767        -24.5846        -24.5846         41.8240         41.8240
            3147         817.656         817.656        -33.5841        -33.5841         47.3879         47.3879
            3148         773.036         773.036         225.173         225.173        -41.9248        -41.9248
            3149         780.783         780.783         206.743         206.743        -41.7312        -41.7312
            3150         788.368         788.368         188.292         188.292        -40.4950        -40.4950
            3151         795.596         795.596         170.167         170.167        -38.6304        -38.6304
            3152         802.338         802.338         152.611         152.611        -36.2031        -36.2031
            3153         808.482         808.482         135.845         135.845        -33.2933        -33.2933
            3154         813.942         813.942         120.051         120.051        -30.0210        -30.0210
            3155         818.681         818.681         105.358         105.358        -26.5069        -26.5069
            3156         822.678         822.678         91.8536         91.8536        -22.8786        -22.8786
            3157         825.959         825.959         79.5698         79.5698        -19.2499        -19.2499
            3158         828.556         828.556         68.5049         68.5049        -15.7169        -15.7169
            3159         830.530         830.530         58.6235         58.6235        -12.3575        -12.3575
            3160         831.940         831.940         49.8676         49.8676        -9.22366        -9.22366
            3161         832.856         832.856         42.1656         42.1656        -6.35239        -6.35239
            3162         833.341         833.341         35.4351         35.4351        -3.75809        -3.75809
            3163         833.460         833.460         29.5927         29.5927        -1.44608        -1.44608
            3164         833.267         833.267         24.5518         24.5518     593.438E-03     593.438E-03
            3165         832.816         832.816         20.2307         20.2307         2.37453         2.37453
            3166         832.149         832.149         16.5486         16.5486         3.91953         3.91953
            3167         831.306         831.306         13.4310         13.4310         5.25190         5.25190
            3168         830.321         830.321         10.8064         10.8064         6.39878         6.39878
            3169         829.221         829.221         8.60913         8.60913         7.38690         7.38690
            3170         828.032         828.032         6.77686         6.77686         8.24425         8.24425
            3171         826.774         826.774         5.25214         5.25214         8.99800         8.99800
            3172         825.464         825.464         3.98042         3.98042         9.67576         9.67576
            3173         824.118         824.118         2.91064         2.91064         10.3047         10.3047
            3174         822.751         822.751         1.99371         1.99371         10.9129         10.9129
            3175         821.376         821.376         1.18243         1.18243         11.5288         11.5288
            3176         820.009         820.009     430.049E-03     430.049E-03         12.1827         12.1827
            3177         818.667         818.667    -310.484E-03    -310.484E-03         12.9069         12.9069
            3178         817.370         817.370        -1.08824        -1.08824         13.7368         13.7368
            3179         816.148         816.148        -1.95617        -1.95617         14.7110         14.7110
            3180         815.040         815.040        -2.97366        -2.97366         15.8720         15.8720
            3181         814.105         814.105        -4.21045        -4.21045         17.2652         17.2652
            3182         813.428         813.428        -5.75065        -5.75065         18.9374         18.9374
            3183         813.133         813.133        -7.70018        -7.70018         20.9304         20.9304
            3184         813.406         813.406        -10.1912        -10.1912         23.2706         23.2706
            3185         814.523         814.523        -13.3917        -13.3917         25.9451         25.9451
            3186         816.880         816.880        -17.4946        -17.4946         28.8564         28.8564
            3187         821.028         821.028        -22.6978        -22.6978         31.7437         31.7437
            3188         827.656         827.656        -29.0649        -29.0649         34.0541         34.0541
            3189         837.483         837.483        -36.3178        -36.3178         34.7921         34.7921
            3190         851.400         851.400        -30.1050        -30.1050        -13.3896        -13.3896
            3191         844.037         844.037        -27.5340        -27.5340        -17.1525        -17.1525
            3192         837.576         837.576        -24.0399        -24.0399        -19.2826        -19.2826
            3193         832.289         832.289        -20.3150        -20.3150        -20.1536        -20.1536
            3194         828.196         828.196        -16.7821        -16.7821        -20.1987        -20.1987
            3195         825.172         825.172        -13.6329        -13.6329        -19.7590        -19.7590
            3196         823.042         823.042        -10.9259        -10.9259        -19.0777        -19.0777
            3197         821.630         821.630        -8.64485        -8.64485        -18.3052        -18.3052
            3198         820.783         820.783        -6.74422        -6.74422        -17.5292        -17.5292
            3199         820.377         820.377        -5.16580        -5.16580        -16.7939        -16.7939
            3200         820.311         820.311        -3.84999        -3.84999        -16.1168        -16.1168
            3201         820.507         820.507        -2.73863        -2.73863        -15.4985        -15.4985
            3202         820.906         820.906        -1.77687        -1.77687        -14.9296        -14.9296
            3203         821.462         821.462    -912.853E-03    -912.853E-03        -14.3947        -14.3947
            3204         822.137         822.137    -97.1655E-03    -97.1655E-03        -13.8744        -13.8744
            3205         822.904         822.904     717.688E-03     717.688E-03        -13.3474        -13.3474
            3206         823.741         823.741         1.57865         1.57865        -12.7900        -12.7900
            3207         824.628         824.628         2.53217         2.53217        -12.1772        -12.1772
            3208         825.550         825.550         3.62617         3.62617        -11.4820        -11.4820
            3209         826.492         826.492         4.90939         4.90939        -10.6758        -10.6758
            3210         827.438         827.438         6.43424         6.43424        -9.72759        -9.72759
            3211         828.374         828.374         8.25512         8.25512        -8.60455        -8.60455
            3212         829.281         829.281         10.4328         10.4328        -7.27132        -7.27132
            3213         830.139         830.139         13.0307         13.0307        -5.69127        -5.69127
            3214         830.921         830.921         16.1223         16.1223        -3.82548        -3.82548
            3215         831.596         831.596         19.7838         19.7838        -1.63629        -1.63629
            3216         832.126         832.126         24.1055         24.1055     915.172E-03     915.172E-03
            3217         832.460         832.460         29.1800         29.1800         3.86062         3.86062
            3218         832.543         832.543         35.1171         35.1171         7.23031         7.23031
            3219         832.299         832.299         42.0263         42.0263         11.0360         11.0360
            3220         831.651         831.651         50.0338         50.0338         15.2829         15.2829
            3221         830.493         830.493         59.2588         59.2588         19.9399         19.9399
            3222         828.734         828.734         69.8241         69.8241         24.9611         24.9611
            3223         826.248         826.248         81.8323         81.8323         30.2451         30.2451
            3224         822.957         822.957         95.3535         95.3535         35.6656         35.6656
            3225         818.757         818.757         110.417         110.417         41.0408         41.0408
            3226         813.633         813.633         126.964         126.964         46.1584         46.1584
            3227         807.572         807.572         144.875         144.875         50.7975         50.7975
            3228         800.665         800.665         163.910         163.910         54.7195         54.7195
            3229         793.047         793.047         183.766         183.766         57.7635         57.7635
            3230         784.898         784.898         204.065         204.065         59.7789         59.7789
            3231         776.508         776.508         224.306         224.306         60.1684         60.1684
            3232         851.574         851.574        -25.3491        -25.3491        -6.63763        -6.63763
            3233         845.838         845.838        -24.3238        -24.3238        -10.8571        -10.8571
            3234         840.461         840.461        -22.1647        -22.1647        -13.8006        -13.8006
            3235         835.714         835.714        -19.4346        -19.4346        -15.6625        -15.6625
            3236         831.749         831.749        -16.5653        -16.5653        -16.6858        -16.6858
            3237         828.580         828.580        -13.8192        -13.8192        -17.1249        -17.1249
            3238         826.146         826.146        -11.3304        -11.3304        -17.1850        -17.1850
            3239         824.350         824.350        -9.15017        -9.15017        -17.0191        -17.0191
            3240         823.088         823.088        -7.27954        -7.27954        -16.7292        -16.7292
            3241         822.263         822.263        -5.69377        -5.69377        -16.3794        -16.3794
            3242         821.791         821.791        -4.35446        -4.35446        -16.0061        -16.0061
            3243         821.603         821.603        -3.21764        -3.21764        -15.6266        -15.6266
            3244         821.641         821.641        -2.23733        -2.23733        -15.2453        -15.2453
            3245         821.861         821.861        -1.36745        -1.36745        -14.8579        -14.8579
            3246         822.226         822.226    -562.670E-03    -562.670E-03        -14.4538        -14.4538
            3247         822.707         822.707     221.820E-03     221.820E-03        -14.0180        -14.0180
            3248         823.283         823.283         1.03012         1.03012        -13.5321        -13.5321
            3249         823.935         823.935         1.90689         1.90689        -12.9744        -12.9744
            3250         824.648         824.648         2.89692         2.89692        -12.3203        -12.3203
            3251         825.411         825.411         4.04742         4.04742        -11.5421        -11.5421
            3252         826.211         826.211         5.40685         5.40685        -10.6090        -10.6090
            3253         827.037         827.037         7.02860         7.02860        -9.48679        -9.48679
            3254         827.876         827.876         8.96846         8.96846        -8.13831        -8.13831
            3255         828.712         828.712         11.2907         11.2907        -6.52269        -6.52269
            3256         829.526         829.526         14.0629         14.0629        -4.59720        -4.59720
            3257         830.292         830.292         17.3661         17.3661        -2.31564        -2.31564
            3258         830.978         830.978         21.2851         21.2851     366.425E-03     366.425E-03
            3259         831.542         831.542         25.9245         25.9245         3.49578         3.49578
            3260         831.925         831.925         31.3916         31.3916         7.10874         7.10874
            3261         832.061         832.061         37.8204         37.8204         11.2412         11.2412
            3262         831.856         831.856         45.3436         45.3436         15.9008         15.9008
            3263         831.211         831.211         54.1208         54.1208         21.0891         21.0891
            3264         829.988         829.988         64.3009         64.3009         26.7506         26.7506
            3265         828.068         828.068         76.0381         76.0381         32.8121         32.8121
            3266         825.281         825.281         89.4567         89.4567         39.1155         39.1155
            3267         821.539         821.539         104.623         104.623         45.4685         45.4685
            3268         816.711         816.711         121.543         121.543         51.6075         51.6075
            3269         810.814         810.814         140.080         140.080         57.2276         57.2276
            3270         803.875         803.875         160.007         160.007         62.0501         62.0501
            3271         796.057         796.057         180.938         180.938         65.7808         65.7808
            3272         787.603         787.603         202.408         202.408         68.2812         68.2812
            3273         778.785         778.785         223.821         223.821         68.7854         68.7854
            3274         849.950         849.950        -20.5793        -20.5793        -1.68809        -1.68809
            3275         845.719         845.719        -20.6977        -20.6977        -5.89230        -5.89230
            3276         841.444         841.444        -19.5783        -19.5783        -9.16897        -9.16897
            3277         837.429         837.429        -17.7355        -17.7355        -11.5881        -11.5881
            3278         833.856         833.856        -15.5450        -15.5450        -13.2723        -13.2723
            3279         830.818         830.818        -13.2820        -13.2820        -14.3742        -14.3742
            3280         828.326         828.326        -11.1169        -11.1169        -15.0461        -15.0461
            3281         826.351         826.351        -9.14240        -9.14240        -15.4146        -15.4146
            3282         824.835         824.835        -7.39719        -7.39719        -15.5772        -15.5772
            3283         823.715         823.715        -5.88514        -5.88514        -15.6024        -15.6024
            3284         822.928         822.928        -4.58951        -4.58951        -15.5363        -15.5363
            3285         822.419         822.419        -3.48150        -3.48150        -15.4067        -15.4067
            3286         822.138         822.138        -2.52594        -2.52594        -15.2281        -15.2281
            3287         822.047         822.047        -1.68454        -1.68454        -15.0054        -15.0054
            3288         822.111         822.111    -917.557E-03    -917.557E-03        -14.7359        -14.7359
            3289         822.306         822.306    -184.921E-03    -184.921E-03        -14.4111        -14.4111
            3290         822.611         822.611     553.982E-03     553.982E-03        -14.0177        -14.0177
            3291         823.011         823.011         1.33974         1.33974        -13.5379        -13.5379
            3292         823.494         823.494         2.21438         2.21438        -12.9502        -12.9502
            3293         824.051         824.051         3.22054         3.22054        -12.2286        -12.2286
            3294         824.675         824.675         4.40431         4.40431        -11.3433        -11.3433
            3295         825.359         825.359         5.81345         5.81345        -10.2598        -10.2598
            3296         826.097         826.097         7.50234         7.50234        -8.93947        -8.93947
            3297         826.881         826.881         9.52821         9.52821        -7.33910        -7.33910
            3298         827.697         827.697         11.9598         11.9598        -5.41068        -5.41068
            3299         828.531         828.531         14.8696         14.8696        -3.10342        -3.10342
            3300         829.358         829.358         18.3493         18.3493    -361.454E-03    -361.454E-03
            3301         830.144         830.144         22.4945         22.4945         2.86891         2.86891
            3302         830.841         830.841         27.4304         27.4304         6.64570         6.64570
            3303         831.385         831.385         33.2848         33.2848         11.0121         11.0121
            3304         831.690         831.690         40.2273         40.2273         16.0133         16.0133
            3305         831.636         831.636         48.4238         48.4238         21.6518         21.6518
            3306         831.092         831.092         58.0848         58.0848         27.9257         27.9257
            3307         829.868         829.868         69.4036         69.4036         34.7422         34.7422
            3308         827.807         827.807         82.5785         82.5785         41.9876         41.9876
            3309         824.671         824.671         97.7624         97.7624         49.4154         49.4154
            3310         820.365         820.365         114.998         114.998         56.7300         56.7300
            3311         814.735         814.735         134.234         134.234         63.5540         63.5540
            3312         807.863         807.863         155.185         155.185         69.4519         69.4519
            3313         799.871         799.871         177.436         177.436         74.1027         74.1027
            3314         791.020         791.020         200.380         200.380         77.1717         77.1717
            3315         781.770         781.770         223.227         223.227         77.8774         77.8774
            3316         847.338         847.338        -16.2110        -16.2110         1.71157         1.71157
            3317         844.386         844.386        -17.0407        -17.0407        -2.14419        -2.14419
            3318         841.138         841.138        -16.6865        -16.6865        -5.43448        -5.43448
            3319         837.885         837.885        -15.5528        -15.5528        -8.09826        -8.09826
            3320         834.824         834.824        -13.9722        -13.9722        -10.1700        -10.1700
            3321         832.073         832.073        -12.1932        -12.1932        -11.7246        -11.7246
            3322         829.691         829.691        -10.3942        -10.3942        -12.8556        -12.8556
            3323         827.689         827.689        -8.68655        -8.68655        -13.6555        -13.6555
            3324         826.049         826.049        -7.13196        -7.13196        -14.2037        -14.2037
            3325         824.739         824.739        -5.75576        -5.75576        -14.5634        -14.5634
            3326         823.718         823.718        -4.55888        -4.55888        -14.7814        -14.7814
            3327         822.946         822.946        -3.52660        -3.52660        -14.8904        -14.8904
            3328         822.386         822.386        -2.63458        -2.63458        -14.9113        -14.9113
            3329         822.006         822.006        -1.85286        -1.85286        -14.8557        -14.8557
            3330         821.779         821.779        -1.14849        -1.14849        -14.7271        -14.7271
            3331         821.686         821.686    -486.710E-03    -486.710E-03        -14.5229        -14.5229
            3332         821.709         821.709     167.906E-03     167.906E-03        -14.2347        -14.2347
            3333         821.838         821.838     851.908E-03     851.908E-03        -13.8491        -13.8491
            3334         822.065         822.065         1.60220         1.60220        -13.3476        -13.3476
            3335         822.386         822.386         2.45788         2.45788        -12.7071        -12.7071
            3336         822.798         822.798         3.45907         3.45907        -11.8990        -11.8990
            3337         823.301         823.301         4.65046         4.65046        -10.8898        -10.8898
            3338         823.896         823.896         6.07888         6.07888        -9.64039        -9.64039
            3339         824.583         824.583         7.79986         7.79986        -8.10573        -8.10573
            3340         825.359         825.359         9.87228         9.87228        -6.23513        -6.23513
            3341         826.218         826.218         12.3706         12.3706        -3.97127        -3.97127
            3342         827.150         827.150         15.3735         15.3735        -1.25259        -1.25259
            3343         828.133         828.133         18.9868         18.9868         1.98977         1.98977
            3344         829.134         829.134         23.3203         23.3203         5.82273         5.82273
            3345         830.098         830.098         28.5285         28.5285         10.3210         10.3210
            3346         830.949         830.949         34.7669         34.7669         15.5389         15.5389
            3347         831.578         831.578         42.2584         42.2584         21.5378         21.5378
            3348         831.824         831.824         51.2172         51.2172         28.3139         28.3139
            3349         831.512         831.512         61.9328         61.9328         35.8645         35.8645
            3350         830.359         830.359         74.6665         74.6665         44.0370         44.0370
            3351         828.162         828.162         89.6766         89.6766         52.6531         52.6531
            3352         824.571         824.571         107.151         107.151         61.3241         61.3241
            3353         819.507         819.507         127.056         127.056         69.5835         69.5835
            3354         812.814         812.814         149.213         149.213         76.9030         76.9030
            3355         804.695         804.695         173.053         173.053         82.6711         82.6711
            3356         795.476         795.476         197.836         197.836         86.5824         86.5824
            3357         785.579         785.579         222.551         222.551         87.5099         87.5099
            3358         844.340         844.340        -12.4495        -12.4495         3.91270         3.91270
            3359         842.379         842.379        -13.6169        -13.6169     547.038E-03     547.038E-03
            3360         840.017         840.017        -13.7531        -13.7531        -2.54432        -2.54432
            3361         837.484         837.484        -13.1479        -13.1479        -5.23460        -5.23460
            3362         834.961         834.961        -12.0660        -12.0660        -7.48273        -7.48273
            3363         832.573         832.573        -10.7254        -10.7254        -9.30515        -9.30515
            3364         830.397         830.397        -9.28926        -9.28926        -10.7461        -10.7461
            3365         828.470         828.470        -7.87207        -7.87207        -11.8623        -11.8623
            3366         826.801         826.801        -6.54490        -6.54490        -12.7112        -12.7112
            3367         825.381         825.381        -5.34574        -5.34574        -13.3440        -13.3440
            3368         824.190         824.190        -4.28792        -4.28792        -13.8032        -13.8032
            3369         823.203         823.203        -3.36783        -3.36783        -14.1214        -14.1214
            3370         822.395         822.395        -2.57059        -2.57059        -14.3226        -14.3226
            3371         821.745         821.745        -1.87431        -1.87431        -14.4223        -14.4223
            3372         821.235         821.235        -1.25269        -1.25269        -14.4292        -14.4292
            3373         820.848         820.848    -677.172E-03    -677.172E-03        -14.3451        -14.3451
            3374         820.576         820.576    -117.462E-03    -117.462E-03        -14.1664        -14.1664
            3375         820.411         820.411     457.357E-03     457.357E-03        -13.8835        -13.8835
            3376         820.352         820.352         1.07971         1.07971        -13.4817        -13.4817
            3377         820.399         820.399         1.78260         1.78260        -12.9407        -12.9407
            3378         820.556         820.556         2.60193         2.60193        -12.2344        -12.2344
            3379         820.830         820.830         3.57493         3.57493        -11.3308        -11.3308
            3380         821.229         821.229         4.74478         4.74478        -10.1916        -10.1916
            3381         821.761         821.761         6.15710         6.15710        -8.77157        -8.77157
            3382         822.436         822.436         7.86886         7.86886        -7.01806        -7.01806
            3383         823.261         823.261         9.94070         9.94070        -4.87065        -4.87065
            3384         824.238         824.238         12.4543         12.4543        -2.26033        -2.26033
            3385         825.366         825.366         15.4957         15.4957     888.964E-03     888.964E-03
            3386         826.627         826.627         19.1895         19.1895         4.66384         4.66384
            3387         827.991         827.991         23.6632         23.6632         9.15073         9.15073
            3388         829.398         829.398         29.1129         29.1129         14.4496         14.4496
            3389         830.756         830.756         35.7314         35.7314         20.6337         20.6337
            3390         831.926         831.926         43.8228         43.8228         27.7939         27.7939
            3391         832.684         832.684         53.6723         53.6723         35.9192         35.9192
            3392         832.781         832.781         65.6965         65.6965         45.0147         45.0147
            3393         831.786         831.786         80.2660         80.2660         54.8240         54.8240
            3394         829.426         829.426         97.7161         97.7161         65.0580         65.0580
            3395         825.175         825.175         118.270         118.270         75.0901         75.0901
            3396         819.027         819.027         141.685         141.685         84.1591         84.1591
            3397         810.903         810.903         167.493         167.493         91.5651         91.5651
            3398         801.215         801.215         194.623         194.623         96.4883         96.4883
            3399         790.742         790.742         221.680         221.680         97.8799         97.8799
            3400         841.302         841.302        -9.32359        -9.32359         5.23624         5.23624
            3401         840.091         840.091        -10.5610        -10.5610         2.38532         2.38532
            3402         838.454         838.454        -10.9561        -10.9561    -402.770E-03    -402.770E-03
            3403         836.560         836.560        -10.7048        -10.7048        -2.97237        -2.97237
            3404         834.554         834.554        -10.0053        -10.0053        -5.24151        -5.24151
            3405         832.549         832.549        -9.03286        -9.03286        -7.18073        -7.18073
            3406         830.626         830.626        -7.92927        -7.92927        -8.79668        -8.79668
            3407         828.833         828.833        -6.79869        -6.79869        -10.1154        -10.1154
            3408         827.195         827.195        -5.71221        -5.71221        -11.1725        -11.1725
            3409         825.720         825.720        -4.71205        -4.71205        -12.0054        -12.0054
            3410         824.403         824.403        -3.81849        -3.81849        -12.6489        -12.6489
            3411         823.234         823.234        -3.03531        -3.03531        -13.1332        -13.1332
            3412         822.201         822.201        -2.35505        -2.35505        -13.4821        -13.4821
            3413         821.292         821.292        -1.76256        -1.76256        -13.7137        -13.7137
            3414         820.496         820.496        -1.23807        -1.23807        -13.8396        -13.8396
            3415         819.807         819.807    -758.697E-03    -758.697E-03        -13.8656        -13.8656
            3416         819.219         819.219    -300.094E-03    -300.094E-03        -13.7917        -13.7917
            3417         818.734         818.734     163.577E-03     163.577E-03        -13.6123        -13.6123
            3418         818.353         818.353     658.647E-03     658.647E-03        -13.3162        -13.3162
            3419         818.084         818.084         1.21326         1.21326        -12.8864        -12.8864
            3420         817.936         817.936         1.85624         1.85624        -12.2997        -12.2997
            3421         817.922         817.922         2.62009         2.62009        -11.5269        -11.5269
            3422         818.060         818.060         3.53881         3.53881        -10.5315        -10.5315
            3423         818.366         818.366         4.65380         4.65380        -9.26975        -9.26975
            3424         818.863         818.863         6.00916         6.00916        -7.68901        -7.68901
            3425         819.569         819.569         7.66336         7.66336        -5.72798        -5.72798
            3426         820.507         820.507         9.67870         9.67870        -3.31402        -3.31402
            3427         821.690         821.690         12.1454         12.1454    -363.642E-03    -363.642E-03
            3428         823.133         823.133         15.1576         15.1576         3.21893         3.21893
            3429         824.826         824.826         18.8639         18.8639         7.54438         7.54438
            3430         826.751         826.751         23.4135         23.4135         12.7287         12.7287
            3431         828.842         828.842         29.0606         29.0606         18.9106         18.9106
            3432         830.994         830.994         36.0475         36.0475         26.1972         26.1972
            3433         833.018         833.018         44.8051         44.8051         34.7334         34.7334
            3434         834.604         834.604         55.7237         55.7237         44.5030         44.5030
            3435         835.378         835.378         69.4393         69.4393         55.5417         55.5417
            3436         834.632         834.632         86.5092         86.5092         67.3992         67.3992
            3437         832.013         832.013         107.348         107.348         79.5715         79.5715
            3438         826.722         826.722         132.174         132.174         91.0288         91.0288
            3439         818.959         818.959         160.233         160.233         100.489         100.489
            3440         808.965         808.965         190.396         190.396         107.147         107.147
            3441         797.483         797.483         220.662         220.662         109.041         109.041
            3442         838.414         838.414        -6.78130        -6.78130         5.91934         5.91934
            3443         837.775         837.775        -7.91388        -7.91388         3.54883         3.54883
            3444         836.730         836.730        -8.39627        -8.39627         1.10350         1.10350
            3445         835.388         835.388        -8.35340        -8.35340        -1.25902        -1.25902
            3446         833.856         833.856        -7.92601        -7.92601        -3.43614        -3.43614
            3447         832.225         832.225        -7.24766        -7.24766        -5.37225        -5.37225
            3448         830.568         830.568        -6.43188        -6.43188        -7.04604        -7.04604
            3449         828.934         828.934        -5.56739        -5.56739        -8.46035        -8.46035
            3450         827.358         827.358        -4.71722        -4.71722        -9.63219        -9.63219
            3451         825.856         825.856        -3.92214        -3.92214        -10.5860        -10.5860
            3452         824.437         824.437        -3.20410        -3.20410        -11.3486        -11.3486
            3453         823.104         823.104        -2.57097        -2.57097        -11.9458        -11.9458
            3454         821.854         821.854        -2.02010        -2.02010        -12.4001        -12.4001
            3455         820.686         820.686        -1.54185        -1.54185        -12.7302        -12.7302
            3456         819.598         819.598        -1.12179        -1.12179        -12.9496        -12.9496
            3457         818.589         818.589    -742.744E-03    -742.744E-03        -13.0668        -13.0668
            3458         817.662         817.662    -385.572E-03    -385.572E-03        -13.0850        -13.0850
            3459         816.823         816.823    -30.2999E-03    -30.2999E-03        -13.0017        -13.0017
            3460         816.080         816.080     344.309E-03     344.309E-03        -12.8095        -12.8095
            3461         815.446         815.446     759.877E-03     759.877E-03        -12.4946        -12.4946
            3462         814.935         814.935         1.24009         1.24009        -12.0376        -12.0376
            3463         814.569         814.569         1.80940         1.80940        -11.4123        -11.4123
            3464         814.369         814.369         2.49657         2.49657        -10.5861        -10.5861
            3465         814.365         814.365         3.33203         3.33203        -9.51754        -9.51754
            3466         814.586         814.586         4.35493         4.35493        -8.15760        -8.15760
            3467         815.068         815.068         5.60722         5.60722        -6.44520        -6.44520
            3468         815.848         815.848         7.14844         7.14844        -4.30966        -4.30966
            3469         816.967         816.967         9.04183         9.04183        -1.66349        -1.66349
            3470         818.459         818.459         11.3866         11.3866         1.59399         1.59399
            3471         820.360         820.360         14.2849         14.2849         5.58535         5.58535
            3472         822.684         822.684         17.9145         17.9145         10.4533         10.4533
            3473         825.433         825.433         22.4488         22.4488         16.3596         16.3596
            3474         828.545         828.545         28.2230         28.2230         23.5020         23.5020
            3475         831.911         831.911         35.5423         35.5423         32.0505         32.0505
            3476         835.276         835.276         45.0416         45.0416         42.2500         42.2500
            3477         838.197         838.197         57.2687         57.2687         54.0929         54.0929
            3478         840.080         840.080         73.2698         73.2698         67.7095         67.7095
            3479         839.656         839.656         93.9547         93.9547         82.2466         82.2466
            3480         836.524         836.524         119.730         119.730         96.7257         96.7257
            3481         829.517         829.517         150.620         150.620         109.454         109.454
            3482         819.320         819.320         184.659         184.659         118.248         118.248
            3483         807.185         807.185         219.159         219.159         121.450         121.450
            3484         835.775         835.775        -4.73965        -4.73965         6.11126         6.11126
            3485         835.604         835.604        -5.66874        -5.66874         4.16675         4.16675
            3486         835.058         835.058        -6.12323        -6.12323         2.06955         2.06955
            3487         834.198         834.198        -6.17993        -6.17993    -34.2064E-03    -34.2064E-03
            3488         833.094         833.094        -5.93349        -5.93349        -2.03828        -2.03828
            3489         831.811         831.811        -5.47969        -5.47969        -3.87378        -3.87378
            3490         830.410         830.410        -4.90396        -4.90396        -5.50358        -5.50358
            3491         828.938         828.938        -4.27544        -4.27544        -6.91430        -6.91430
            3492         827.428         827.428        -3.64564        -3.64564        -8.10948        -8.10948
            3493         825.907         825.907        -3.04907        -3.04907        -9.10302        -9.10302
            3494         824.392         824.392        -2.50599        -2.50599        -9.91440        -9.91440
            3495         822.894         822.894        -2.02508        -2.02508        -10.5649        -10.5649
            3496         821.423         821.423        -1.60658        -1.60658        -11.0751        -11.0751
            3497         819.985         819.985        -1.24460        -1.24460        -11.4629        -11.4629
            3498         818.587         818.587    -929.339E-03    -929.339E-03        -11.7428        -11.7428
            3499         817.235         817.235    -648.297E-03    -648.297E-03        -11.9250        -11.9250
            3500         815.938         815.938    -387.616E-03    -387.616E-03        -12.0149        -12.0149
            3501         814.708         814.708    -132.242E-03    -132.242E-03        -12.0131        -12.0131
            3502         813.558         813.558     133.247E-03     133.247E-03        -11.9149        -11.9149
            3503         812.504         812.504     425.408E-03     425.408E-03        -11.7103        -11.7103
            3504         811.569         811.569     761.122E-03     761.122E-03        -11.3835        -11.3835
            3505         810.776         810.776         1.15948         1.15948        -10.9131        -10.9131
            3506         810.155         810.155         1.64043         1.64043        -10.2698        -10.2698
            3507         809.741         809.741         2.22856         2.22856        -9.41849        -9.41849
            3508         809.576         809.576         2.95026         2.95026        -8.31311        -8.31311
            3509         809.705         809.705         3.84146         3.84146        -6.90002        -6.90002
            3510         810.184         810.184         4.94109         4.94109        -5.10972        -5.10972
            3511         811.071         811.071         6.30805         6.30805        -2.86242        -2.86242
            3512         812.437         812.437         8.00510         8.00510    -53.3379E-03    -53.3379E-03
            3513         814.346         814.346         10.1388         10.1388         3.43707         3.43707
            3514         816.877         816.877         12.8173         12.8173         7.76721         7.76721
            3515         820.077         820.077         16.2507         16.2507         13.1202         13.1202
            3516         824.006         824.006         20.6362         20.6362         19.7289         19.7289
            3517         828.619         828.619         26.4175         26.4175         27.8793         27.8793
            3518         833.845         833.845         33.9748         33.9748         37.8615         37.8615
            3519         839.338         839.338         44.2786         44.2786         50.1065         50.1065
            3520         844.487         844.487         58.1089         58.1089         64.6714         64.6714
            3521         848.252         848.252         77.3707         77.3707         81.9653         81.9653
            3522         848.102         848.102         103.707         103.707         100.201         100.201
            3523         843.821         843.821         137.044         137.044         117.203         117.203
            3524         834.030         834.030         176.457         176.457         130.358         130.358
            3525         820.357         820.357         217.195         217.195         134.946         134.946
            3526         833.443         833.443        -3.11824        -3.11824         5.88043         5.88043
            3527         833.703         833.703        -3.80120        -3.80120         4.31214         4.31214
            3528         833.610         833.610        -4.16213        -4.16213         2.55982         2.55982
            3529         833.188         833.188        -4.24548        -4.24548     751.252E-03     751.252E-03
            3530         832.473         832.473        -4.11152        -4.11152        -1.01383        -1.01383
            3531         831.510         831.510        -3.82414        -3.82414        -2.66494        -2.66494
            3532         830.342         830.342        -3.44256        -3.44256        -4.15819        -4.15819
            3533         829.012         829.012        -3.01625        -3.01625        -5.47194        -5.47194
            3534         827.555         827.555        -2.58291        -2.58291        -6.60122        -6.60122
            3535         826.001         826.001        -2.16879        -2.16879        -7.55273        -7.55273
            3536         824.375         824.375        -1.78976        -1.78976        -8.34022        -8.34022
            3537         822.697         822.697        -1.45350        -1.45350        -8.98094        -8.98094
            3538         820.986         820.986        -1.16121        -1.16121        -9.49289        -9.49289
            3539         819.255         819.255    -909.640E-03    -909.640E-03        -9.89283        -9.89283
            3540         817.520         817.520    -692.387E-03    -692.387E-03        -10.1950        -10.1950
            3541         815.794         815.794    -501.191E-03    -501.191E-03        -10.4103        -10.4103
            3542         814.092         814.092    -326.473E-03    -326.473E-03        -10.5455        -10.5455
            3543         812.429         812.429    -158.128E-03    -158.128E-03        -10.6033        -10.6033
            3544         810.822         810.822     14.6647E-03     14.6647E-03        -10.5817        -10.5817
            3545         809.293         809.293     202.861E-03     202.861E-03        -10.4740        -10.4740
            3546         807.866         807.866     418.429E-03     418.429E-03        -10.2685        -10.2685
            3547         806.569         806.569     673.669E-03     673.669E-03        -9.94780        -9.94780
            3548         805.435         805.435     982.998E-03     982.998E-03        -9.48932        -9.48932
            3549         804.505         804.505         1.36181         1.36181        -8.86234        -8.86234
            3550         803.828         803.828         1.82987         1.82987        -8.03035        -8.03035
            3551         803.459         803.459         2.40907         2.40907        -6.94449        -6.94449
            3552         803.465         803.465         3.13035         3.13035        -5.54862        -5.54862
            3553         803.926         803.926         4.02848         4.02848        -3.76598        -3.76598
            3554         804.931         804.931         5.15810         5.15810        -1.51028        -1.51028
            3555         806.591         806.591         6.57931         6.57931         1.34169         1.34169
            3556         809.019         809.019         8.39980         8.39980         4.92675         4.92675
            3557         812.362         812.362         10.7306         10.7306         9.44897         9.44897
            3558         816.736         816.736         13.8078         13.8078         15.1365         15.1365
            3559         822.312         822.312         17.8489         17.8489         22.3317         22.3317
            3560         829.115         829.115         23.4287         23.4287         31.4410         31.4410
            3561         837.221         837.221         31.0045         31.0045         42.9911         42.9911
            3562         846.191         846.191         42.1013         42.1013         57.7488         57.7488
            3563         855.303         855.303         57.8103         57.8103         76.0455         76.0455
            3564         862.526         862.526         82.0775         82.0775         99.1168         99.1168
            3565         862.154         862.154         118.188         118.188         122.771         122.771
            3566         855.098         855.098         163.575         163.575         141.517         141.517
            3567         841.455         841.455         213.498         213.498         150.975         150.975
            3568         831.477         831.477        -1.85521        -1.85521         5.22494         5.22494
            3569         832.188         832.188        -2.29267        -2.29267         4.00285         4.00285
            3570         832.548         832.548        -2.53414        -2.53414         2.60264         2.60264
            3571         832.548         832.548        -2.60352        -2.60352         1.12931         1.12931
            3572         832.197         832.197        -2.53558        -2.53558    -331.677E-03    -331.677E-03
            3573         831.521         831.521        -2.36892        -2.36892        -1.71663        -1.71663
            3574         830.554         830.554        -2.14011        -2.14011        -2.98338        -2.98338
            3575         829.333         829.333        -1.88036        -1.88036        -4.10854        -4.10854
            3576         827.894         827.894        -1.61395        -1.61395        -5.08380        -5.08380
            3577         826.273         826.273        -1.35796        -1.35796        -5.91173        -5.91173
            3578         824.503         824.503        -1.12312        -1.12312        -6.60213        -6.60213
            3579         822.612         822.612    -914.738E-03    -914.738E-03        -7.16874        -7.16874
            3580         820.627         820.627    -734.097E-03    -734.097E-03        -7.62672        -7.62672
            3581         818.570         818.570    -579.442E-03    -579.442E-03        -7.99085        -7.99085
            3582         816.464         816.464    -447.089E-03    -447.089E-03        -8.27410        -8.27410
            3583         814.326         814.326    -331.978E-03    -331.978E-03        -8.48689        -8.48689
            3584         812.177         812.177    -228.404E-03    -228.404E-03        -8.63641        -8.63641
            3585         810.036         810.036    -130.083E-03    -130.083E-03        -8.72648        -8.72648
            3586         807.923         807.923    -30.6277E-03    -30.6277E-03        -8.75702        -8.75702
            3587         805.860         805.860     76.8040E-03     76.8040E-03        -8.72436        -8.72436
            3588         803.874         803.874     199.116E-03     199.116E-03        -8.62029        -8.62029
            3589         801.993         801.993     344.017E-03     344.017E-03        -8.43287        -8.43287
            3590         800.253         800.253     519.638E-03     519.638E-03        -8.14443        -8.14443
            3591         798.697         798.697     735.700E-03     735.700E-03        -7.73321        -7.73321
            3592         797.375         797.375         1.00321         1.00321        -7.16914        -7.16914
            3593         796.350         796.350         1.33623         1.33623        -6.41739        -6.41739
            3594         795.695         795.695         1.75190         1.75190        -5.42926        -5.42926
            3595         795.501         795.501         2.27346         2.27346        -4.15047        -4.15047
            3596         795.879         795.879         2.93065         2.93065        -2.50081        -2.50081
            3597         796.959         796.959         3.76723         3.76723    -393.819E-03    -393.819E-03
            3598         798.908         798.908         4.83903         4.83903         2.30925         2.30925
            3599         801.911         801.911         6.24033         6.24033         5.75336         5.75336
            3600         806.221         806.221         8.08215         8.08215         10.1944         10.1944
            3601         812.083         812.083         10.6001         10.6001         15.8957         15.8957
            3602         819.880         819.880         14.0263         14.0263         23.3577         23.3577
            3603         829.830         829.830         19.0507         19.0507         33.1200         33.1200
            3604         842.428         842.428         26.1937         26.1937         46.1686         46.1686
            3605         857.287         857.287         37.8330         37.8330         63.8122         63.8122
            3606         874.112         874.112         55.3748         55.3748         87.4025         87.4025
            3607         888.558         888.558         88.2052         88.2052         120.591         120.591
            3608         886.312         886.312         143.105         143.105         152.597         152.597
            3609         872.296         872.296         207.096         207.096         167.154         167.154
            3610         829.953         829.953    -919.628E-03    -919.628E-03         4.07778         4.07778
            3611         831.195         831.195        -1.14679        -1.14679         3.20562         3.20562
            3612         832.049         832.049        -1.27535        -1.27535         2.19167         2.19167
            3613         832.479         832.479        -1.31593        -1.31593         1.11349         1.11349
            3614         832.476         832.476        -1.28569        -1.28569     35.6338E-03     35.6338E-03
            3615         832.055         832.055        -1.20398        -1.20398    -992.618E-03    -992.618E-03
            3616         831.244         831.244        -1.08948        -1.08948        -1.93773        -1.93773
            3617         830.079         830.079    -958.316E-03    -958.316E-03        -2.78040        -2.78040
            3618         828.605         828.605    -823.107E-03    -823.107E-03        -3.51296        -3.51296
            3619         826.862         826.862    -692.895E-03    -692.895E-03        -4.13651        -4.13651
            3620         824.895         824.895    -573.335E-03    -573.335E-03        -4.65795        -4.65795
            3621         822.740         822.740    -467.375E-03    -467.375E-03        -5.08760        -5.08760
            3622         820.434         820.434    -375.749E-03    -375.749E-03        -5.43716        -5.43716
            3623         818.006         818.006    -297.709E-03    -297.709E-03        -5.71820        -5.71820
            3624         815.484         815.484    -231.378E-03    -231.378E-03        -5.94118        -5.94118
            3625         812.893         812.893    -174.306E-03    -174.306E-03        -6.11464        -6.11464
            3626         810.255         810.255    -123.547E-03    -123.547E-03        -6.24494        -6.24494
            3627         807.590         807.590    -76.0660E-03    -76.0660E-03        -6.33576        -6.33576
            3628         804.920         804.920    -28.5638E-03    -28.5638E-03        -6.38831        -6.38831
            3629         802.268         802.268     22.2055E-03     22.2055E-03        -6.40074        -6.40074
            3630         799.657         799.657     79.7795E-03     79.7795E-03        -6.36868        -6.36868
            3631         797.117         797.117     147.781E-03     147.781E-03        -6.28416        -6.28416
            3632         794.680         794.680     230.262E-03     230.262E-03        -6.13663        -6.13663
            3633         792.388         792.388     331.902E-03     331.902E-03        -5.91066        -5.91066
            3634         790.290         790.290     457.874E-03     457.874E-03        -5.58810        -5.58810
            3635         788.448         788.448     615.399E-03     615.399E-03        -5.14303        -5.14303
            3636         786.936         786.936     811.882E-03     811.882E-03        -4.54666        -4.54666
            3637         785.849         785.849         1.06026         1.06026        -3.75585        -3.75585
            3638         785.301         785.301         1.37246         1.37246        -2.72510        -2.72510
            3639         785.440         785.440         1.77413         1.77413        -1.37915        -1.37915
            3640         786.447         786.447         2.28776         2.28776     356.540E-03     356.540E-03
            3641         788.557         788.557         2.96746         2.96746         2.62413         2.62413
            3642         792.059         792.059         3.86626         3.86626         5.55398         5.55398
            3643         797.356         797.356         5.10273         5.10273         9.44271         9.44271
            3644         804.914         804.914         6.84023         6.84023         14.5436         14.5436
            3645         815.473         815.473         9.34474         9.34474         21.5478         21.5478
            3646         829.735         829.735         13.2653         13.2653         31.0450         31.0450
            3647         849.189         849.189         19.2138         19.2138         44.8360         44.8360
            3648         874.247         874.247         30.5064         30.5064         64.8066         64.8066
            3649         907.503         907.503         48.7383         48.7383         95.7696         95.7696
            3650         940.014         940.014         98.8213         98.8213         147.687         147.687
            3651         934.243         934.243         190.937         190.937         190.793         190.793
            3652         828.999         828.999    -322.455E-03    -322.455E-03         2.32275         2.32275
            3653         830.905         830.905    -404.687E-03    -404.687E-03         1.85049         1.85049
            3654         832.329         832.329    -451.836E-03    -451.836E-03         1.29802         1.29802
            3655         833.217         833.217    -467.418E-03    -467.418E-03     708.394E-03     708.394E-03
            3656         833.550         833.550    -457.484E-03    -457.484E-03     117.634E-03     117.634E-03
            3657         833.340         833.340    -428.874E-03    -428.874E-03    -446.677E-03    -446.677E-03
            3658         832.620         832.620    -388.329E-03    -388.329E-03    -965.623E-03    -965.623E-03
            3659         831.437         831.437    -341.623E-03    -341.623E-03        -1.42827        -1.42827
            3660         829.847         829.847    -293.372E-03    -293.372E-03        -1.83029        -1.83029
            3661         827.904         827.904    -246.820E-03    -246.820E-03        -2.17228        -2.17228
            3662         825.665         825.665    -204.079E-03    -204.079E-03        -2.45823        -2.45823
            3663         823.178         823.178    -166.189E-03    -166.189E-03        -2.69404        -2.69404
            3664         820.489         820.489    -133.487E-03    -133.487E-03        -2.88643        -2.88643
            3665         817.634         817.634    -105.664E-03    -105.664E-03        -3.04212        -3.04212
            3666         814.648         814.648    -82.1319E-03    -82.1319E-03        -3.16717        -3.16717
            3667         811.558         811.558    -61.9470E-03    -61.9470E-03        -3.26665        -3.26665
            3668         808.386         808.386    -44.1689E-03    -44.1689E-03        -3.34437        -3.34437
            3669         805.155         805.155    -27.6215E-03    -27.6215E-03        -3.40282        -3.40282
            3670         801.883         801.883    -11.2785E-03    -11.2785E-03        -3.44295        -3.44295
            3671         798.591         798.591     6.11954E-03     6.11954E-03        -3.46442        -3.46442
            3672         795.298         795.298     25.6681E-03     25.6681E-03        -3.46512        -3.46512
            3673         792.029         792.029     48.6951E-03     48.6951E-03        -3.44167        -3.44167
            3674         788.813         788.813     76.5886E-03     76.5886E-03        -3.38853        -3.38853
            3675         785.685         785.685     110.738E-03     110.738E-03        -3.29894        -3.29894
            3676         782.687         782.687     153.444E-03     153.444E-03        -3.16290        -3.16290
            3677         779.875         779.875     205.967E-03     205.967E-03        -2.96931        -2.96931
            3678         777.318         777.318     273.059E-03     273.059E-03        -2.70131        -2.70131
            3679         775.100         775.100     355.053E-03     355.053E-03        -2.34148        -2.34148
            3680         773.333         773.333     462.992E-03     462.992E-03        -1.86066        -1.86066
            3681         772.154         772.154     593.885E-03     593.885E-03        -1.23126        -1.23126
            3682         771.744         771.744     774.763E-03     774.763E-03    -398.532E-03    -398.532E-03
            3683         772.335         772.335     993.268E-03     993.268E-03     682.446E-03     682.446E-03
            3684         774.234         774.234         1.31717         1.31717         2.12701         2.12701
            3685         777.853         777.853         1.71260         1.71260         4.01138         4.01138
            3686         783.768         783.768         2.35227         2.35227         6.61489         6.61489
            3687         792.763         792.763         3.17383         3.17383         10.0765         10.0765
            3688         806.093         806.093         4.62683         4.62683         15.1939         15.1939
            3689         825.395         825.395         6.78391         6.78391         22.2793         22.2793
            3690         854.142         854.142         10.8689         10.8689         34.1668         34.1668
            3691         895.947         895.947         19.4505         19.4505         52.1819         52.1819
            3692         965.238         965.238         36.5677         36.5677         90.9580         90.9580
            3693     1.05338E+03     1.05338E+03         129.586         129.586         167.613         167.613
            3694         48.2536         48.2536        -367.872        -367.872        -45.5703        -45.5703
            3695         174.635         174.635        -150.227        -150.227        -119.314        -119.314
            3696         339.284         339.284        -46.9719        -46.9719        -129.696        -129.696
            3697         493.826         493.826        -7.88898        -7.88898        -107.126        -107.126
            3698         614.500         614.500         2.73812         2.73812        -75.8305        -75.8305
            3699         153.601         153.601        -272.311        -272.311        -104.474        -104.474
            3700         338.401         338.401        -150.721        -150.721        -208.562        -208.562
            3701         502.763         502.763        -88.7762        -88.7762        -207.133        -207.133
            3702         625.092         625.092        -55.1384        -55.1384        -161.004        -161.004
            3703         706.671         706.671        -34.8548        -34.8548        -109.387        -109.387
            3704         328.848         328.848        -156.519        -156.519        -173.128        -173.128
            3705         558.192         558.192        -152.105        -152.105        -244.640        -244.640
            3706         692.780         692.780        -127.298        -127.298        -212.407        -212.407
            3707         762.493         762.493        -93.4365        -93.4365        -152.129        -152.129
            3708         796.290         796.290        -62.8138        -62.8138        -97.6854        -97.6854
            3709         559.402         559.402        -53.7365        -53.7365        -231.259        -231.259
            3710         774.400         774.400        -146.487        -146.487        -221.939        -221.939
            3711         847.014         847.014        -140.425        -140.425        -164.140        -164.140
            3712         860.051         860.051        -104.808        -104.808        -107.322        -107.322
            3713         853.783         853.783        -69.5186        -69.5186        -64.6233        -64.6233
            3714         921.805         921.805         103.714         103.714         37.1791         37.1791
            3715         997.639         997.639         159.677         159.677         43.5572         43.5572
            3716     1.13367E+03     1.13367E+03         217.328         217.328         31.1247         31.1247
            3717     1.37030E+03     1.37030E+03         247.482         247.482        -23.8907        -23.8907
            3718     1.75580E+03     1.75580E+03         203.493         203.493        -148.210        -148.210
            3719         932.302         932.302         38.4695         38.4695         44.5483         44.5483
            3720     1.00282E+03     1.00282E+03         70.3538         70.3538         52.9401         52.9401
            3721     1.11399E+03     1.11399E+03         115.977         115.977         35.8065         35.8065
            3722     1.28876E+03     1.28876E+03         167.761         167.761        -47.7172        -47.7172
            3723     1.56179E+03     1.56179E+03         200.046         200.046        -253.657        -253.657
            3724         929.225         929.225        -20.2981        -20.2981         23.8334         23.8334
            3725         991.532         991.532        -17.7099        -17.7099         25.8927         25.8927
            3726     1.07656E+03     1.07656E+03         2.18215         2.18215         6.45397         6.45397
            3727     1.18137E+03     1.18137E+03         59.2510         59.2510        -76.5711        -76.5711
            3728     1.30472E+03     1.30472E+03         170.999         170.999        -299.432        -299.432
            3729         909.916         909.916        -51.8788        -51.8788        -5.44874        -5.44874
            3730         959.511         959.511        -72.1452        -72.1452        -16.3207        -16.3207
            3731     1.01963E+03     1.01963E+03        -82.2341        -82.2341        -44.2285        -44.2285
            3732     1.06593E+03     1.06593E+03        -46.0466        -46.0466        -116.316        -116.316
            3733     1.04198E+03     1.04198E+03         107.622         107.622        -296.887        -296.887
            3734         597.957         597.957        -38.0654        -38.0654         239.956         239.956
            3735         807.403         807.403        -145.095        -145.095         216.008         216.008
            3736         869.078         869.078        -141.228        -141.228         154.761         154.761
            3737         873.237         873.237        -105.340        -105.340         99.1730         99.1730
            3738         861.178         861.178        -69.6025        -69.6025         58.8010         58.8010
            3739         397.582         397.582        -119.497        -119.497         195.042         195.042
            3740         632.655         632.655        -152.250        -152.250         245.833         245.833
            3741         751.186         751.186        -136.418        -136.418         203.205         203.205
            3742         801.941         801.941        -101.715        -101.715         141.103         141.103
            3743         820.730         820.730        -68.3903        -68.3903         88.5597         88.5597
            3744         229.892         229.892        -216.196        -216.196         137.910         137.910
            3745         442.646         442.646        -152.313        -152.313         236.220         236.220
            3746         598.168         598.168        -110.791        -110.791         221.460         221.460
            3747         697.054         697.054        -78.0163        -78.0163         165.908         165.908
            3748         755.043         755.043        -52.1447        -52.1447         109.794         109.794
            3749         108.035         108.035        -312.394        -312.394         82.2365         82.2365
            3750         271.679         271.679        -151.456        -151.456         185.357         185.357
            3751         438.565         438.565        -73.7395        -73.7395         192.002         192.002
            3752         575.153         575.153        -38.5580        -38.5580         153.658         153.658
            3753         672.426         672.426        -22.0299        -22.0299         106.454         106.454
            3754         36.2197         36.2197        -385.029        -385.029         36.6187         36.6187
            3755         153.296         153.296        -152.011        -152.011         101.694         101.694
            3756         315.631         315.631        -41.2996        -41.2996         112.350         112.350
            3757         473.180         473.180    -175.818E-03    -175.818E-03         93.9728         93.9728
            3758         599.150         599.150         9.40250         9.40250         67.2108         67.2108
            3759         910.912         910.912        -53.2830        -53.2830         7.35090         7.35090
            3760         960.424         960.424        -73.3494        -73.3494         17.7600         17.7600
            3761     1.02045E+03     1.02045E+03        -83.2163        -83.2163         45.3030         45.3030
            3762     1.06688E+03     1.06688E+03        -46.8122        -46.8122         117.148         117.148
            3763     1.04319E+03     1.04319E+03         107.115         107.115         297.599         297.599
            3764         929.968         929.968        -21.3638        -21.3638        -22.0321        -22.0321
            3765         992.220         992.220        -18.5667        -18.5667        -24.5145        -24.5145
            3766     1.07721E+03     1.07721E+03         1.58580         1.58580        -5.41995        -5.41995
            3767     1.18212E+03     1.18212E+03         58.9426         58.9426         77.3190         77.3190
            3768     1.30587E+03     1.30587E+03         171.092         171.092         300.103         300.103
            3769         932.776         932.776         37.7878         37.7878        -42.8111        -42.8111
            3770     1.00325E+03     1.00325E+03         69.8714         69.8714        -51.5546        -51.5546
            3771     1.11438E+03     1.11438E+03         115.748         115.748        -34.7215        -34.7215
            3772     1.28924E+03     1.28924E+03         167.842         167.842         48.5732         48.5732
            3773     1.56273E+03     1.56273E+03         200.329         200.329         254.378         254.378
            3774         922.028         922.028         103.397         103.397        -35.4502        -35.4502
            3775         997.829         997.829         159.488         159.488        -42.1115        -42.1115
            3776     1.13383E+03     1.13383E+03         217.314         217.314        -29.9029        -29.9029
            3777     1.37053E+03     1.37053E+03         247.636         247.636         24.9195         24.9195
            3778     1.75634E+03     1.75634E+03         203.691         203.691         148.944         148.944
            3779     1.00030E+03     1.00030E+03         96.6797         96.6797        -294.994        -294.994
            3780     1.04759E+03     1.04759E+03        -62.2116        -62.2116        -123.721        -123.721
            3781     1.01028E+03     1.01028E+03        -94.5804        -94.5804        -53.8493        -53.8493
            3782         954.351         954.351        -80.0883        -80.0883        -24.7284        -24.7284
            3783         907.164         907.164        -56.9274        -56.9274        -12.0982        -12.0982
            3784     1.21674E+03     1.21674E+03         156.053         156.053        -305.740        -305.740
            3785     1.14441E+03     1.14441E+03         22.5386         22.5386        -88.7617        -88.7617
            3786     1.06125E+03     1.06125E+03        -32.0818        -32.0818        -9.04254        -9.04254
            3787         984.696         984.696        -42.4918        -42.4918         11.5260         11.5260
            3788         925.918         925.918        -36.3511        -36.3511         12.4844         12.4844
            3789     1.44058E+03     1.44058E+03         191.577         191.577        -287.373        -287.373
            3790     1.23855E+03     1.23855E+03         116.542         116.542        -61.9459        -61.9459
            3791     1.09905E+03     1.09905E+03         57.6016         57.6016         25.1944         25.1944
            3792     1.00143E+03     1.00143E+03         22.2498         22.2498         42.9572         42.9572
            3793         934.548         934.548         4.65298         4.65298         35.8540         35.8540
            3794     1.64220E+03     1.64220E+03         203.732         203.732        -228.549        -228.549
            3795     1.32264E+03     1.32264E+03         200.524         200.524        -41.0576        -41.0576
            3796     1.12360E+03     1.12360E+03         155.124         155.124         37.9133         37.9133
            3797     1.00313E+03     1.00313E+03         103.240         103.240         54.7035         54.7035
            3798         930.520         930.520         61.4191         61.4191         45.7805         45.7805
            3799     1.78505E+03     1.78505E+03         202.165         202.165        -127.954        -127.954
            3800     1.38326E+03     1.38326E+03         257.254         257.254        -21.3471        -21.3471
            3801     1.13703E+03     1.13703E+03         231.647         231.647         26.6552         26.6552
            3802         996.630         996.630         173.379         173.379         37.8409         37.8409
            3803         919.739         919.739         114.263         114.263         32.1978         32.1978
            3804         909.762         909.762        -52.0423        -52.0423         5.61325         5.61325
            3805         959.289         959.289        -72.3808        -72.3808         16.5682         16.5682
            3806     1.01931E+03     1.01931E+03        -82.5158        -82.5158         44.5538         44.5538
            3807     1.06558E+03     1.06558E+03        -46.4190        -46.4190         116.655         116.655
            3808     1.04164E+03     1.04164E+03         107.006         107.006         296.977         296.977
            3809         929.142         929.142        -20.5442        -20.5442        -23.6719        -23.6719
            3810         991.390         991.390        -18.0117        -18.0117        -25.6445        -25.6445
            3811     1.07632E+03     1.07632E+03         1.86440         1.86440        -6.12594        -6.12594
            3812     1.18095E+03     1.18095E+03         58.9138         58.9138         76.8414         76.8414
            3813     1.30413E+03     1.30413E+03         170.776         170.776         299.453         299.453
            3814         932.303         932.303         38.1528         38.1528        -44.3986        -44.3986
            3815     1.00275E+03     1.00275E+03         70.0279         70.0279        -52.6769        -52.6769
            3816     1.11378E+03     1.11378E+03         115.673         115.673        -35.4883        -35.4883
            3817     1.28828E+03     1.28828E+03         167.536         167.536         48.0289         48.0289
            3818     1.56088E+03     1.56088E+03         199.892         199.892         253.804         253.804
            3819         921.908         921.908         103.358         103.358        -37.0926        -37.0926
            3820         997.687         997.687         159.297         159.297        -43.3445        -43.3445
            3821     1.13350E+03     1.13350E+03         217.071         217.071        -30.7858        -30.7858
            3822     1.36981E+03     1.36981E+03         247.479         247.479         24.2262         24.2262
            3823     1.75461E+03     1.75461E+03         203.641         203.641         148.335         148.335
            3824         599.034         599.034        -38.5775        -38.5775         240.441         240.441
            3825         808.740         808.740        -146.117        -146.117         216.619         216.619
            3826         870.477         870.477        -142.467        -142.467         155.575         155.575
            3827         874.735         874.735        -106.794        -106.794         100.318         100.318
            3828         862.825         862.825        -71.3464        -71.3464         60.4319         60.4319
            3829         398.355         398.355        -120.369        -120.369         195.439         195.439
            3830         633.840         633.840        -153.449        -153.449         246.481         246.481
            3831         752.560         752.560        -137.789        -137.789         204.003         204.003
            3832         803.499         803.499        -103.281        -103.281         142.120         142.120
            3833         822.542         822.542        -70.2521        -70.2521         89.9489         89.9489
            3834         230.361         230.361        -217.466        -217.466         138.192         138.192
            3835         443.551         443.551        -153.651        -153.651         236.852         236.852
            3836         599.391         599.391        -112.232        -112.232         222.217         222.217
            3837         698.579         698.579        -79.6459        -79.6459         166.790         166.790
            3838         756.945         756.945        -54.0886        -54.0886         110.924         110.924
            3839         108.241         108.241        -314.057        -314.057         82.4158         82.4158
            3840         272.256         272.256        -152.894        -152.894         185.886         185.886
            3841         439.542         439.542        -75.1893        -75.1893         192.640         192.640
            3842         576.556         576.556        -40.1927        -40.1927         154.354         154.354
            3843         674.333         674.333        -24.0067        -24.0067         107.284         107.284
            3844         36.2460         36.2460        -386.996        -386.996         36.7224         36.7224
            3845         153.597         153.597        -153.513        -153.513         102.029         102.029
            3846         316.366         316.366        -42.7234        -42.7234         112.753         112.753
            3847         474.430         474.430        -1.77682        -1.77682         94.3921         94.3921
            3848         601.010         601.010         7.43243         7.43243         67.6769         67.6769
            3849         855.396         855.396        -71.2539        -71.2539        -66.2046        -66.2046
            3850         861.441         861.441        -106.223        -106.223        -108.443        -108.443
            3851         848.184         848.184        -141.593        -141.593        -164.930        -164.930
            3852         775.402         775.402        -147.487        -147.487        -222.415        -222.415
            3853         560.172         560.172        -54.4738        -54.4738        -231.454        -231.454
            3854         798.071         798.071        -64.6769        -64.6769        -98.9536        -98.9536
            3855         763.911         763.911        -94.9736        -94.9736        -153.065        -153.065
            3856         693.901         693.901        -128.644        -128.644        -213.115        -213.115
            3857         559.048         559.048        -153.378        -153.378        -245.146        -245.146
            3858         329.297         329.297        -157.735        -157.735        -173.288        -173.288
            3859         708.504         708.504        -36.7806        -36.7806        -110.295        -110.295
            3860         626.424         626.424        -56.7214        -56.7214        -161.703        -161.703
            3861         503.682         503.682        -90.1869        -90.1869        -207.709        -207.709
            3862         338.935         338.935        -152.142        -152.142        -208.988        -208.988
            3863         153.766         153.766        -273.966        -273.966        -104.538        -104.538
            3864         616.315         616.315     795.730E-03     795.730E-03        -76.2958        -76.2958
            3865         495.030         495.030        -9.46368        -9.46368        -107.492        -107.492
            3866         339.972         339.972        -48.3778        -48.3778        -130.001        -130.001
            3867         174.893         174.893        -151.728        -151.728        -119.528        -119.528
            3868         48.2457         48.2457        -369.856        -369.856        -45.5607        -45.5607


  Minimum               -13.5704        -13.5704        -580.856        -580.856        -461.006        -461.006
         At Node              28              28              28              28             590             590

  Maximum            2.09437E+03     2.09437E+03         276.820         276.820         458.280         458.280
         At Node              27              27             585             585             574             574

           Total     3.18232E+06     3.18232E+06     51.2422E+03     51.2422E+03     1.53199E+03     1.53199E+03


