********************************************************************************
Field Output Report, written Thu Feb 22 21:47:40 2024

Source 1
---------

   ODB: C:/Users/Isabel Haycock/OneDrive - Imperial College London/Fourth Year/FYP/Isabel Haycock/06 - FE models/Specimen_2/Plate_hole_1.odb
   Step: load
   Frame: Increment      4: Step Time =   0.4000

Loc 1 : Nodal values at shell < composite > < elset = ASSEMBLY_PLATE_1-1_COMPOSITELAYUP-1-1 > from source 1 : SNEG, (fraction = -1.0), Layer = 1
Loc 2 : Nodal values at shell < composite > < elset = ASSEMBLY_PLATE_1-1_COMPOSITELAYUP-1-1 > from source 1 : SPOS, (fraction = 1.0), Layer = 8

Output sorted by column "Node Label".

Field Output reported at nodes for part: PLATE_1-1
   Computation algorithm: EXTRAPOLATE_COMPUTE_AVERAGE
   Averaged at nodes
   Averaging regions: ODB_REGIONS

      Node Label           S.S11           S.S11           S.S22           S.S22           S.S12           S.S12
                          @Loc 1          @Loc 2          @Loc 1          @Loc 2          @Loc 1          @Loc 2
-----------------------------------------------------------------------------------------------------------------
               1         689.625         689.625        -32.1423        -32.1423        -14.0339        -14.0339
               2         655.936         655.936     899.566E-03     899.566E-03    -41.2268E-03    -41.2268E-03
               3         656.059         656.059     4.32857E-03     4.32857E-03    -4.64451E-03    -4.64451E-03
               4         663.225         663.225    -41.7834E-03    -41.7834E-03         1.39396         1.39396
               5         689.904         689.904        -32.0275        -32.0275         13.5200         13.5200
               6         655.936         655.936     899.696E-03     899.696E-03     41.2231E-03     41.2231E-03
               7         528.215         528.215         14.7225         14.7225        -2.03826        -2.03826
               8         660.799         660.799    -51.0892E-03    -51.0892E-03        -1.17276        -1.17276
               9         691.036         691.036        -33.4860        -33.4860         15.4200         15.4200
              10         701.608         701.608         69.0608         69.0608     793.581E-03     793.581E-03
              11         663.355         663.355    -43.4699E-03    -43.4699E-03        -1.39388        -1.39388
              12         656.058         656.058     4.32949E-03     4.32949E-03     4.64549E-03     4.64549E-03
              13         616.784         616.784         187.576         187.576        -40.8850        -40.8850
              14     1.00307E+03     1.00307E+03         139.012         139.012        -162.216        -162.216
              15         690.292         690.292        -33.7005        -33.7005        -16.3409        -16.3409
              16         660.882         660.882    -53.2063E-03    -53.2063E-03         1.17393         1.17393
              17         701.346         701.346         69.9307         69.9307        -2.01063        -2.01063
              18         616.787         616.787         187.571         187.571         40.8755         40.8755
              19         530.192         530.192         12.8041         12.8041        -2.03573        -2.03573
              20     1.00307E+03     1.00307E+03         139.012         139.012         162.215         162.215
              21        -10.7660        -10.7660        -463.645        -463.645     410.489E-03     410.489E-03
              22         543.675         543.675         123.041         123.041        -265.591        -265.591
              23     1.67361E+03     1.67361E+03         107.592         107.592     191.078E-03     191.078E-03
              24         552.075         552.075         126.681         126.681         269.297         269.297
              25         553.079         553.079         126.828         126.828         269.831         269.831
              26         533.812         533.812         121.298         121.298        -262.771        -262.771
              27     1.67690E+03     1.67690E+03         106.445         106.445         7.77462         7.77462
              28        -10.8413        -10.8413        -465.666        -465.666     444.595E-03     444.595E-03
              29         676.786         676.786        -25.8172        -25.8172        -16.5027        -16.5027
              30         669.324         669.324        -21.7353        -21.7353        -18.1311        -18.1311
              31         663.402         663.402        -17.4422        -17.4422        -18.2197        -18.2197
              32         658.993         658.993        -13.5003        -13.5003        -17.3886        -17.3886
              33         655.852         655.852        -10.1031        -10.1031        -16.1012        -16.1012
              34         653.699         653.699        -7.27412        -7.27412        -14.6552        -14.6552
              35         652.281         652.281        -4.95734        -4.95734        -13.2176        -13.2176
              36         651.399         651.399        -3.08030        -3.08030        -11.8712        -11.8712
              37         650.902         650.902        -1.57087        -1.57087        -10.6513        -10.6513
              38         650.681         650.681    -366.520E-03    -366.520E-03        -9.56569        -9.56569
              39         650.653         650.653     585.575E-03     585.575E-03        -8.60877        -8.60877
              40         650.760         650.760         1.32887         1.32887        -7.76819        -7.76819
              41         650.958         650.958         1.89920         1.89920        -7.02956        -7.02956
              42         651.217         651.217         2.32617         2.32617        -6.37845        -6.37845
              43         651.513         651.513         2.63440         2.63440        -5.80164        -5.80164
              44         651.829         651.829         2.84451         2.84451        -5.28752        -5.28752
              45         652.154         652.154         2.97391         2.97391        -4.82626        -4.82626
              46         652.477         652.477         3.03732         3.03732        -4.40969        -4.40969
              47         652.794         652.794         3.04731         3.04731        -4.03113        -4.03113
              48         653.099         653.099         3.01455         3.01455        -3.68520        -3.68520
              49         653.389         653.389         2.94816         2.94816        -3.36758        -3.36758
              50         653.663         653.663         2.85590         2.85590        -3.07483        -3.07483
              51         653.918         653.918         2.74435         2.74435        -2.80419        -2.80419
              52         654.156         654.156         2.61908         2.61908        -2.55343        -2.55343
              53         654.375         654.375         2.48480         2.48480        -2.32075        -2.32075
              54         654.575         654.575         2.34542         2.34542        -2.10464        -2.10464
              55         654.759         654.759         2.20422         2.20422        -1.90381        -1.90381
              56         654.925         654.925         2.06392         2.06392        -1.71715        -1.71715
              57         655.075         655.075         1.92673         1.92673        -1.54363        -1.54363
              58         655.210         655.210         1.79446         1.79446        -1.38231        -1.38231
              59         655.330         655.330         1.66856         1.66856        -1.23230        -1.23230
              60         655.437         655.437         1.55020         1.55020        -1.09272        -1.09272
              61         655.531         655.531         1.44027         1.44027    -962.712E-03    -962.712E-03
              62         655.614         655.614         1.33949         1.33949    -841.428E-03    -841.428E-03
              63         655.686         655.686         1.24840         1.24840    -728.012E-03    -728.012E-03
              64         655.747         655.747         1.16740         1.16740    -621.607E-03    -621.607E-03
              65         655.799         655.799         1.09679         1.09679    -521.350E-03    -521.350E-03
              66         655.842         655.842         1.03678         1.03678    -426.373E-03    -426.373E-03
              67         655.877         655.877     987.529E-03     987.529E-03    -335.803E-03    -335.803E-03
              68         655.903         655.903     949.128E-03     949.128E-03    -248.764E-03    -248.764E-03
              69         655.922         655.922     921.647E-03     921.647E-03    -164.376E-03    -164.376E-03
              70         655.933         655.933     905.105E-03     905.105E-03    -81.9809E-03    -81.9809E-03
              71         656.015         656.015     809.756E-03     809.756E-03    -44.6873E-03    -44.6873E-03
              72         656.089         656.089     719.715E-03     719.715E-03    -46.7992E-03    -46.7992E-03
              73         656.160         656.160     626.604E-03     626.604E-03    -47.8273E-03    -47.8273E-03
              74         656.225         656.225     532.615E-03     532.615E-03    -47.7165E-03    -47.7165E-03
              75         656.280         656.280     440.017E-03     440.017E-03    -46.4452E-03    -46.4452E-03
              76         656.323         656.323     351.102E-03     351.102E-03    -44.0109E-03    -44.0109E-03
              77         656.348         656.348     268.135E-03     268.135E-03    -40.4446E-03    -40.4446E-03
              78         656.354         656.354     193.300E-03     193.300E-03    -35.7964E-03    -35.7964E-03
              79         656.336         656.336     128.637E-03     128.637E-03    -30.1633E-03    -30.1633E-03
              80         656.292         656.292     75.9904E-03     75.9904E-03    -23.6454E-03    -23.6454E-03
              81         656.220         656.220     36.9129E-03     36.9129E-03    -16.4391E-03    -16.4391E-03
              82         656.118         656.118     12.6326E-03     12.6326E-03    -8.67568E-03    -8.67568E-03
              83         656.067         656.067     4.42233E-03     4.42233E-03    -8.52181E-03    -8.52181E-03
              84         656.092         656.092     4.55582E-03     4.55582E-03    -16.6959E-03    -16.6959E-03
              85         656.133         656.133     4.68944E-03     4.68944E-03    -25.4254E-03    -25.4254E-03
              86         656.193         656.193     4.91626E-03     4.91626E-03    -34.5230E-03    -34.5230E-03
              87         656.270         656.270     5.20855E-03     5.20855E-03    -44.1489E-03    -44.1489E-03
              88         656.368         656.368     5.56510E-03     5.56510E-03    -54.4348E-03    -54.4348E-03
              89         656.486         656.486     5.98768E-03     5.98768E-03    -65.5157E-03    -65.5157E-03
              90         656.627         656.627     6.47260E-03     6.47260E-03    -77.5243E-03    -77.5243E-03
              91         656.793         656.793     7.02033E-03     7.02033E-03    -90.5921E-03    -90.5921E-03
              92         656.986         656.986     7.62672E-03     7.62672E-03    -104.848E-03    -104.848E-03
              93         657.208         657.208     8.28896E-03     8.28896E-03    -120.415E-03    -120.415E-03
              94         657.463         657.463     9.00066E-03     9.00066E-03    -137.409E-03    -137.409E-03
              95         657.752         657.752     9.75428E-03     9.75428E-03    -155.934E-03    -155.934E-03
              96         658.080         658.080     10.5386E-03     10.5386E-03    -176.079E-03    -176.079E-03
              97         658.449         658.449     11.3386E-03     11.3386E-03    -197.906E-03    -197.906E-03
              98         658.863         658.863     12.1348E-03     12.1348E-03    -221.449E-03    -221.449E-03
              99         659.325         659.325     12.9005E-03     12.9005E-03    -246.696E-03    -246.696E-03
             100         659.839         659.839     13.6027E-03     13.6027E-03    -273.582E-03    -273.582E-03
             101         660.407         660.407     14.1965E-03     14.1965E-03    -301.964E-03    -301.964E-03
             102         661.033         661.033     14.6293E-03     14.6293E-03    -331.610E-03    -331.610E-03
             103         661.718         661.718     14.8287E-03     14.8287E-03    -362.164E-03    -362.164E-03
             104         662.464         662.464     14.7147E-03     14.7147E-03    -393.122E-03    -393.122E-03
             105         663.271         663.271     14.1762E-03     14.1762E-03    -423.795E-03    -423.795E-03
             106         664.137         664.137     13.0994E-03     13.0994E-03    -453.271E-03    -453.271E-03
             107         665.059         665.059     11.3248E-03     11.3248E-03    -480.369E-03    -480.369E-03
             108         666.031         666.031     8.70402E-03     8.70402E-03    -503.600E-03    -503.600E-03
             109         667.043         667.043     5.02931E-03     5.02931E-03    -521.122E-03    -521.122E-03
             110         668.082         668.082     135.384E-06     135.384E-06    -530.710E-03    -530.710E-03
             111         669.129         669.129    -6.20416E-03    -6.20416E-03    -529.749E-03    -529.749E-03
             112         670.161         670.161    -14.1173E-03    -14.1173E-03    -515.247E-03    -515.247E-03
             113         671.148         671.148    -23.7578E-03    -23.7578E-03    -483.924E-03    -483.924E-03
             114         672.054         672.054    -35.1018E-03    -35.1018E-03    -432.327E-03    -432.327E-03
             115         672.833         672.833    -48.0415E-03    -48.0415E-03    -357.115E-03    -357.115E-03
             116         673.438         673.438    -62.2151E-03    -62.2151E-03    -255.348E-03    -255.348E-03
             117         673.814         673.814    -76.9723E-03    -76.9723E-03    -125.061E-03    -125.061E-03
             118         673.903         673.903    -91.3954E-03    -91.3954E-03     34.2359E-03     34.2359E-03
             119         673.651         673.651    -104.051E-03    -104.051E-03     220.742E-03     220.742E-03
             120         673.007         673.007    -113.378E-03    -113.378E-03     429.750E-03     429.750E-03
             121         671.936         671.936    -117.294E-03    -117.294E-03     652.991E-03     652.991E-03
             122         670.422         670.422    -113.958E-03    -113.958E-03     878.316E-03     878.316E-03
             123         668.475         668.475    -101.660E-03    -101.660E-03         1.09007         1.09007
             124         666.143         666.143    -79.2328E-03    -79.2328E-03         1.26860         1.26860
             125         663.802         663.802    -120.797E-03    -120.797E-03         2.57107         2.57107
             126         665.077         665.077    -350.570E-03    -350.570E-03         4.62484         4.62484
             127         666.570         666.570    -727.739E-03    -727.739E-03         6.14823         6.14823
             128         668.258         668.258        -1.27704        -1.27704         7.26583         7.26583
             129         670.149         670.149        -2.05503        -2.05503         8.05827         8.05827
             130         672.272         672.272        -3.14760        -3.14760         8.55168         8.55168
             131         674.659         674.659        -4.67005        -4.67005         8.71163         8.71163
             132         677.330         677.330        -6.76501        -6.76501         8.42997         8.42997
             133         680.253         680.253        -9.59295        -9.59295         7.49634         7.49634
             134         683.273         683.273        -13.2906        -13.2906         5.57333         5.57333
             135         685.988         685.988        -17.8885        -17.8885         2.17942         2.17942
             136         687.577         687.577        -23.1180        -23.1180        -3.19713        -3.19713
             137         677.132         677.132        -25.7467        -25.7467         15.9870         15.9870
             138         669.726         669.726        -21.7568        -21.7568         17.7080         17.7080
             139         663.818         663.818        -17.5313        -17.5313         17.9033         17.9033
             140         659.386         659.386        -13.6237        -13.6237         17.1738         17.1738
             141         656.199         656.199        -10.2335        -10.2335         15.9679         15.9679
             142         653.991         653.991        -7.39539        -7.39539         14.5809         14.5809
             143         652.522         652.522        -5.06268        -5.06268         13.1825         13.1825
             144         651.595         651.595        -3.16855        -3.16855         11.8615         11.8615
             145         651.061         651.061        -1.64316        -1.64316         10.6572         10.6572
             146         650.810         650.810    -425.075E-03    -425.075E-03         9.58081         9.58081
             147         650.758         650.758     538.434E-03     538.434E-03         8.62890         8.62890
             148         650.845         650.845         1.29095         1.29095         7.79066         7.79066
             149         651.028         651.028         1.86865         1.86865         7.05268         7.05268
             150         651.275         651.275         2.30143         2.30143         6.40116         6.40116
             151         651.561         651.561         2.61425         2.61425         5.82331         5.82331
             152         651.869         651.869         2.82796         2.82796         5.30780         5.30780
             153         652.187         652.187         2.96020         2.96020         4.84496         4.84496
             154         652.505         652.505         3.02587         3.02587         4.42674         4.42674
             155         652.817         652.817         3.03765         3.03765         4.04654         4.04654
             156         653.118         653.118         3.00635         3.00635         3.69901         3.69901
             157         653.406         653.406         2.94115         2.94115         3.37988         3.37988
             158         653.677         653.677         2.84987         2.84987         3.08570         3.08570
             159         653.930         653.930         2.73914         2.73914         2.81374         2.81374
             160         654.166         654.166         2.61458         2.61458         2.56178         2.56178
             161         654.383         654.383         2.48090         2.48090         2.32800         2.32800
             162         654.582         654.582         2.34204         2.34204         2.11089         2.11089
             163         654.764         654.764         2.20131         2.20131         1.90917         1.90917
             164         654.929         654.929         2.06141         2.06141         1.72171         1.72171
             165         655.079         655.079         1.92458         1.92458         1.54748         1.54748
             166         655.213         655.213         1.79263         1.79263         1.38554         1.38554
             167         655.332         655.332         1.66701         1.66701         1.23498         1.23498
             168         655.439         655.439         1.54889         1.54889         1.09492         1.09492
             169         655.533         655.533         1.43919         1.43919     964.501E-03     964.501E-03
             170         655.615         655.615         1.33860         1.33860     842.862E-03     842.862E-03
             171         655.687         655.687         1.24769         1.24769     729.143E-03     729.143E-03
             172         655.748         655.748         1.16684         1.16684     622.481E-03     622.481E-03
             173         655.800         655.800         1.09637         1.09637     522.009E-03     522.009E-03
             174         655.842         655.842         1.03649         1.03649     426.855E-03     426.855E-03
             175         655.877         655.877     987.349E-03     987.349E-03     336.139E-03     336.139E-03
             176         655.903         655.903     949.055E-03     949.055E-03     248.981E-03     248.981E-03
             177         655.922         655.922     921.672E-03     921.672E-03     164.495E-03     164.495E-03
             178         655.933         655.933     905.206E-03     905.206E-03     82.0166E-03     82.0166E-03
             179         655.854         655.854     990.732E-03     990.732E-03     36.0842E-03     36.0842E-03
             180         655.776         655.776         1.07287         1.07287     29.4820E-03     29.4820E-03
             181         655.714         655.714         1.13715         1.13715     21.8454E-03     21.8454E-03
             182         655.671         655.671         1.18131         1.18131     13.4417E-03     13.4417E-03
             183         655.649         655.649         1.20377         1.20377     4.56371E-03     4.56371E-03
             184         655.649         655.649         1.20375         1.20375    -4.47889E-03    -4.47889E-03
             185         655.671         655.671         1.18126         1.18126    -13.3692E-03    -13.3692E-03
             186         655.715         655.715         1.13709         1.13709    -21.7995E-03    -21.7995E-03
             187         655.777         655.777         1.07278         1.07278    -29.4654E-03    -29.4654E-03
             188         655.854         655.854     990.611E-03     990.611E-03    -36.0771E-03    -36.0771E-03
             189         542.814         542.814         7.63096         7.63096         36.0330         36.0330
             190         582.010         582.010        -10.2666        -10.2666         56.6085         56.6085
             191         625.285         625.285        -27.1199        -27.1199         57.5780         57.5780
             192         658.733         658.733        -36.0297        -36.0297         45.7347         45.7347
             193         678.559         678.559        -36.7434        -36.7434         29.9647         29.9647
             194         674.940         674.940        -36.6904        -36.6904        -33.0957        -33.0957
             195         646.342         646.342        -32.9679        -32.9679        -50.7984        -50.7984
             196         600.101         600.101        -17.4799        -17.4799        -57.8199        -57.8199
             197         551.442         551.442         3.64298         3.64298        -40.6073        -40.6073
             198         661.430         661.430    -147.893E-03    -147.893E-03        -2.14124        -2.14124
             199         662.843         662.843    -428.910E-03    -428.910E-03        -3.79173        -3.79173
             200         664.532         664.532    -886.208E-03    -886.208E-03        -4.94573        -4.94573
             201         666.464         666.464        -1.53943        -1.53943        -5.73710        -5.73710
             202         668.636         668.636        -2.44018        -2.44018        -6.25218        -6.25218
             203         671.067         671.067        -3.66950        -3.66950        -6.52125        -6.52125
             204         673.781         673.781        -5.33821        -5.33821        -6.51249        -6.51249
             205         676.788         676.788        -7.58463        -7.58463        -6.11887        -6.11887
             206         680.046         680.046        -10.5653        -10.5653        -5.12982        -5.12982
             207         683.393         683.393        -14.4132        -14.4132        -3.20564        -3.20564
             208         686.418         686.418        -19.1554        -19.1554     138.806E-03     138.806E-03
             209         688.289         688.289        -24.5236        -24.5236         5.42696         5.42696
             210         705.240         705.240        -29.2593        -29.2593         1.28562         1.28562
             211         714.218         714.218        -13.4576        -13.4576        -14.1190        -14.1190
             212         714.083         714.083         17.4673         17.4673        -25.0928        -25.0928
             213         706.460         706.460         52.7520         52.7520        -20.4005        -20.4005
             214         706.285         706.285         53.0592         53.0592         22.0018         22.0018
             215         713.722         713.722         18.0895         18.0895         26.7429         26.7429
             216         713.663         713.663        -12.5251        -12.5251         15.8614         15.8614
             217         704.481         704.481        -28.0372        -28.0372     585.875E-03     585.875E-03
             218         659.586         659.586     14.5093E-03     14.5093E-03         1.42697         1.42697
             219         655.799         655.799     80.7860E-03     80.7860E-03         1.30936         1.30936
             220         652.575         652.575     142.196E-03     142.196E-03         1.01958         1.01958
             221         650.350         650.350     185.577E-03     185.577E-03     588.363E-03     588.363E-03
             222         649.428         649.428     200.702E-03     200.702E-03     78.1123E-03     78.1123E-03
             223         649.915         649.915     183.660E-03     183.660E-03    -429.446E-03    -429.446E-03
             224         651.689         651.689     138.367E-03     138.367E-03    -852.589E-03    -852.589E-03
             225         654.433         654.433     75.0776E-03     75.0776E-03        -1.12893        -1.12893
             226         657.695         657.695     6.92000E-03     6.92000E-03        -1.22772        -1.22772
             227         687.467         687.467        -23.1665        -23.1665         3.27205         3.27205
             228         685.908         685.908        -17.9389        -17.9389        -2.12538        -2.12538
             229         683.213         683.213        -13.3444        -13.3444        -5.52716        -5.52716
             230         680.211         680.211        -9.65047        -9.65047        -7.45556        -7.45556
             231         677.305         677.305        -6.82395        -6.82395        -8.39547        -8.39547
             232         674.648         674.648        -4.72650        -4.72650        -8.68452        -8.68452
             233         672.275         672.275        -3.19753        -3.19753        -8.53184        -8.53184
             234         670.166         670.166        -2.09541        -2.09541        -8.04430        -8.04430
             235         668.291         668.291        -1.30649        -1.30649        -7.25588        -7.25588
             236         666.623         666.623    -746.377E-03    -746.377E-03        -6.14073        -6.14073
             237         665.156         665.156    -360.322E-03    -360.322E-03        -4.61920        -4.61920
             238         663.914         663.914    -124.646E-03    -124.646E-03        -2.56871        -2.56871
             239         666.181         666.181    -79.1262E-03    -79.1262E-03        -1.26722        -1.26722
             240         668.510         668.510    -101.747E-03    -101.747E-03        -1.08833        -1.08833
             241         670.453         670.453    -113.965E-03    -113.965E-03    -876.520E-03    -876.520E-03
             242         671.964         671.964    -117.323E-03    -117.323E-03    -651.183E-03    -651.183E-03
             243         673.031         673.031    -113.337E-03    -113.337E-03    -427.980E-03    -427.980E-03
             244         673.672         673.672    -104.005E-03    -104.005E-03    -219.079E-03    -219.079E-03
             245         673.921         673.921    -91.3181E-03    -91.3181E-03    -32.7127E-03    -32.7127E-03
             246         673.829         673.829    -76.8895E-03    -76.8895E-03     126.409E-03     126.409E-03
             247         673.451         673.451    -62.1285E-03    -62.1285E-03     256.518E-03     256.518E-03
             248         672.844         672.844    -47.9568E-03    -47.9568E-03     358.104E-03     358.104E-03
             249         672.062         672.062    -35.0277E-03    -35.0277E-03     433.152E-03     433.152E-03
             250         671.156         671.156    -23.6905E-03    -23.6905E-03     484.603E-03     484.603E-03
             251         670.167         670.167    -14.0640E-03    -14.0640E-03     515.802E-03     515.802E-03
             252         669.134         669.134    -6.15782E-03    -6.15782E-03     530.201E-03     530.201E-03
             253         668.086         668.086     170.012E-06     170.012E-06     531.079E-03     531.079E-03
             254         667.046         667.046     5.05903E-03     5.05903E-03     521.425E-03     521.425E-03
             255         666.033         666.033     8.72560E-03     8.72560E-03     503.851E-03     503.851E-03
             256         665.061         665.061     11.3436E-03     11.3436E-03     480.579E-03     480.579E-03
             257         664.139         664.139     13.1131E-03     13.1131E-03     453.448E-03     453.448E-03
             258         663.272         663.272     14.1885E-03     14.1885E-03     423.945E-03     423.945E-03
             259         662.465         662.465     14.7237E-03     14.7237E-03     393.250E-03     393.250E-03
             260         661.719         661.719     14.8371E-03     14.8371E-03     362.274E-03     362.274E-03
             261         661.034         661.034     14.6357E-03     14.6357E-03     331.706E-03     331.706E-03
             262         660.408         660.408     14.2026E-03     14.2026E-03     302.047E-03     302.047E-03
             263         659.840         659.840     13.6074E-03     13.6074E-03     273.654E-03     273.654E-03
             264         659.326         659.326     12.9050E-03     12.9050E-03     246.759E-03     246.759E-03
             265         658.864         658.864     12.1384E-03     12.1384E-03     221.504E-03     221.504E-03
             266         658.449         658.449     11.3421E-03     11.3421E-03     197.954E-03     197.954E-03
             267         658.080         658.080     10.5414E-03     10.5414E-03     176.120E-03     176.120E-03
             268         657.752         657.752     9.75693E-03     9.75693E-03     155.970E-03     155.970E-03
             269         657.463         657.463     9.00286E-03     9.00286E-03     137.440E-03     137.440E-03
             270         657.208         657.208     8.29103E-03     8.29103E-03     120.442E-03     120.442E-03
             271         656.986         656.986     7.62847E-03     7.62847E-03     104.871E-03     104.871E-03
             272         656.793         656.793     7.02197E-03     7.02197E-03     90.6119E-03     90.6119E-03
             273         656.627         656.627     6.47402E-03     6.47402E-03     77.5411E-03     77.5411E-03
             274         656.486         656.486     5.98901E-03     5.98901E-03     65.5298E-03     65.5298E-03
             275         656.367         656.367     5.56629E-03     5.56629E-03     54.4465E-03     54.4465E-03
             276         656.270         656.270     5.20968E-03     5.20968E-03     44.1584E-03     44.1584E-03
             277         656.192         656.192     4.91730E-03     4.91730E-03     34.5304E-03     34.5304E-03
             278         656.133         656.133     4.69045E-03     4.69045E-03     25.4308E-03     25.4308E-03
             279         656.092         656.092     4.55678E-03     4.55678E-03     16.6995E-03     16.6995E-03
             280         656.067         656.067     4.42327E-03     4.42327E-03     8.52362E-03     8.52362E-03
             281         656.117         656.117     12.6353E-03     12.6353E-03     8.67751E-03     8.67751E-03
             282         656.220         656.220     36.9207E-03     36.9207E-03     16.4426E-03     16.4426E-03
             283         656.292         656.292     76.0065E-03     76.0065E-03     23.6504E-03     23.6504E-03
             284         656.336         656.336     128.664E-03     128.664E-03     30.1696E-03     30.1696E-03
             285         656.354         656.354     193.340E-03     193.340E-03     35.8038E-03     35.8038E-03
             286         656.348         656.348     268.190E-03     268.190E-03     40.4528E-03     40.4528E-03
             287         656.322         656.322     351.174E-03     351.174E-03     44.0198E-03     44.0198E-03
             288         656.280         656.280     440.107E-03     440.107E-03     46.4541E-03     46.4541E-03
             289         656.225         656.225     532.722E-03     532.722E-03     47.7254E-03     47.7254E-03
             290         656.160         656.160     626.728E-03     626.728E-03     47.8348E-03     47.8348E-03
             291         656.089         656.089     719.853E-03     719.853E-03     46.8059E-03     46.8059E-03
             292         656.014         656.014     809.893E-03     809.893E-03     44.6805E-03     44.6805E-03
             293         620.007         620.007         179.916         179.916        -41.1520        -41.1520
             294         626.463         626.463         164.491         164.491        -40.9308        -40.9308
             295         632.736         632.736         149.043         149.043        -39.6330        -39.6330
             296         638.680         638.680         133.891         133.891        -37.6965        -37.6965
             297         644.151         644.151         119.280         119.280        -35.1691        -35.1691
             298         649.051         649.051         105.422         105.422        -32.1727        -32.1727
             299         653.323         653.323         92.4745         92.4745        -28.8224        -28.8224
             300         656.927         656.927         80.5550         80.5550        -25.2662        -25.2662
             301         659.888         659.888         69.7125         69.7125        -21.6332        -21.6332
             302         662.222         662.222         59.9622         59.9622        -18.0405        -18.0405
             303         664.001         664.001         51.2745         51.2745        -14.5863        -14.5863
             304         665.273         665.273         43.5974         43.5974        -11.3353        -11.3353
             305         666.118         666.118         36.8631         36.8631        -8.33994        -8.33994
             306         666.591         666.591         30.9911         30.9911        -5.62005        -5.62005
             307         666.760         666.760         25.9040         25.9040        -3.19000        -3.19000
             308         666.674         666.674         21.5181         21.5181        -1.04148        -1.04148
             309         666.385         666.385         17.7602         17.7602     834.946E-03     834.946E-03
             310         665.930         665.930         14.5547         14.5547         2.46145         2.46145
             311         665.346         665.346         11.8371         11.8371         3.85904         3.85904
             312         664.659         664.659         9.54265         9.54265         5.05468         5.05468
             313         663.896         663.896         7.61601         7.61601         6.07325         6.07325
             314         663.075         663.075         6.00260         6.00260         6.94177         6.94177
             315         662.216         662.216         4.65466         4.65466         7.68508         7.68508
             316         661.331         661.331         3.52552         3.52552         8.32839         8.32839
             317         660.435         660.435         2.57313         2.57313         8.89517         8.89517
             318         659.541         659.541         1.75618         1.75618         9.40876         9.40876
             319         658.662         658.662         1.03603         1.03603         9.89142         9.89142
             320         657.812         657.812     374.016E-03     374.016E-03         10.3655         10.3655
             321         657.006         657.006    -267.752E-03    -267.752E-03         10.8529         10.8529
             322         656.264         656.264    -928.448E-03    -928.448E-03         11.3758         11.3758
             323         655.613         655.613        -1.64865        -1.64865         11.9565         11.9565
             324         655.084         655.084        -2.47218        -2.47218         12.6167         12.6167
             325         654.723         654.723        -3.44712        -3.44712         13.3769         13.3769
             326         654.589         654.589        -4.62746        -4.62746         14.2536         14.2536
             327         654.763         654.763        -6.07483        -6.07483         15.2552         15.2552
             328         655.358         655.358        -7.85827        -7.85827         16.3745         16.3745
             329         656.520         656.520        -10.0541        -10.0541         17.5756         17.5756
             330         658.444         658.444        -12.7345        -12.7345         18.7724         18.7724
             331         661.371         661.371        -15.9506        -15.9506         19.7971         19.7971
             332         665.563         665.563        -19.6707        -19.6707         20.3561         20.3561
             333         671.250         671.250        -23.6975        -23.6975         20.0016         20.0016
             334         678.451         678.451        -27.4762        -27.4762         18.1330         18.1330
             335         663.217         663.217    -89.9898E-03    -89.9898E-03        -1.02528        -1.02528
             336         665.046         665.046    -113.685E-03    -113.685E-03    -823.511E-03    -823.511E-03
             337         666.441         666.441    -127.325E-03    -127.325E-03    -585.725E-03    -585.725E-03
             338         667.349         667.349    -131.885E-03    -131.885E-03    -331.600E-03    -331.600E-03
             339         667.754         667.754    -129.323E-03    -129.323E-03    -76.7644E-03    -76.7644E-03
             340         667.666         667.666    -121.163E-03    -121.163E-03     166.647E-03     166.647E-03
             341         667.117         667.117    -109.846E-03    -109.846E-03     390.347E-03     390.347E-03
             342         666.150         666.150    -96.4569E-03    -96.4569E-03     589.601E-03     589.601E-03
             343         664.815         664.815    -82.9714E-03    -82.9714E-03     762.520E-03     762.520E-03
             344         663.164         663.164    -69.5552E-03    -69.5552E-03     909.471E-03     909.471E-03
             345         661.246         661.246    -57.7476E-03    -57.7476E-03         1.03222         1.03222
             346         659.107         659.107    -46.6645E-03    -46.6645E-03         1.13344         1.13344
             347         656.786         656.786    -37.9265E-03    -37.9265E-03         1.21611         1.21611
             348         654.318         654.318    -29.4599E-03    -29.4599E-03         1.28324         1.28324
             349         651.729         651.729    -23.6998E-03    -23.6998E-03         1.33753         1.33753
             350         649.043         649.043    -16.9741E-03    -16.9741E-03         1.38124         1.38124
             351         646.280         646.280    -13.4788E-03    -13.4788E-03         1.41612         1.41612
             352         643.456         643.456    -7.05530E-03    -7.05530E-03         1.44333         1.44333
             353         640.584         640.584    -5.03534E-03    -5.03534E-03         1.46342         1.46342
             354         637.680         637.680     2.87476E-03     2.87476E-03         1.47630         1.47630
             355         634.758         634.758     3.99039E-03     3.99039E-03         1.48131         1.48131
             356         631.835         631.835     15.6333E-03     15.6333E-03         1.47703         1.47703
             357         628.931         628.931     16.0206E-03     16.0206E-03         1.46151         1.46151
             358         626.071         626.071     34.5117E-03     34.5117E-03         1.43177         1.43177
             359         623.287         623.287     33.7707E-03     33.7707E-03         1.38435         1.38435
             360         620.618         620.618     63.9366E-03     63.9366E-03         1.31403         1.31403
             361         618.116         618.116     60.7860E-03     60.7860E-03         1.21543         1.21543
             362         615.844         615.844     110.861E-03     110.861E-03         1.07943         1.07943
             363         613.885         613.885     102.501E-03     102.501E-03     898.024E-03     898.024E-03
             364         612.343         612.343     187.875E-03     187.875E-03     653.990E-03     653.990E-03
             365         611.356         611.356     168.438E-03     168.438E-03     335.960E-03     335.960E-03
             366         611.102         611.102     321.048E-03     321.048E-03    -92.7491E-03    -92.7491E-03
             367         611.820         611.820     277.147E-03     277.147E-03    -646.148E-03    -646.148E-03
             368         613.832         613.832     572.674E-03     572.674E-03        -1.41456        -1.41456
             369         617.592         617.592     468.653E-03     468.653E-03        -2.40566        -2.40566
             370         623.757         623.757         1.11948         1.11948        -3.88009        -3.88009
             371         633.306         633.306     842.377E-03     842.377E-03        -5.79305        -5.79305
             372         647.889         647.889         2.59393         2.59393        -9.05656        -9.05656
             373         670.073         670.073         1.71753         1.71753        -13.3590        -13.3590
             374         705.895         705.895         8.31696         8.31696        -23.0802        -23.0802
             375         765.242         765.242         4.86298         4.86298        -36.6668        -36.6668
             376         902.605         902.605         64.7138         64.7138        -102.374        -102.374
             377         877.833         877.833         169.058         169.058        -172.579        -172.579
             378         732.751         732.751         194.947         194.947        -161.283        -161.283
             379         693.060         693.060         191.408         191.408        -135.594        -135.594
             380         665.799         665.799         191.149         191.149        -121.924        -121.924
             381         651.259         651.259         189.777         189.777        -107.780        -107.780
             382         640.602         640.602         189.081         189.081        -97.1229        -97.1229
             383         633.741         633.741         188.517         188.517        -86.8409        -86.8409
             384         628.504         628.504         188.129         188.129        -78.0416        -78.0416
             385         624.822         624.822         187.903         187.903        -69.6438        -69.6438
             386         621.938         621.938         187.726         187.726        -62.0253        -62.0253
             387         619.810         619.810         187.649         187.649        -54.7312        -54.7312
             388         618.118         618.118         187.580         187.580        -47.8989        -47.8989
             389         688.016         688.016        -24.6356        -24.6356        -5.77927        -5.77927
             390         686.255         686.255        -19.3466        -19.3466    -470.662E-03    -470.662E-03
             391         683.329         683.329        -14.6472        -14.6472         2.93435         2.93435
             392         680.048         680.048        -10.8024        -10.8024         4.93219         4.93219
             393         676.824         676.824        -7.79738        -7.79738         5.98806         5.98806
             394         673.831         673.831        -5.51352        -5.51352         6.43339         6.43339
             395         671.119         671.119        -3.80505        -3.80505         6.47843         6.47843
             396         668.686         668.686        -2.53887        -2.53887         6.23333         6.23333
             397         666.511         666.511        -1.60635        -1.60635         5.73292         5.73292
             398         664.580         664.580    -926.918E-03    -926.918E-03         4.94936         4.94936
             399         662.897         662.897    -449.185E-03    -449.185E-03         3.79761         3.79761
             400         661.500         661.500    -154.702E-03    -154.702E-03         2.14471         2.14471
             401         657.995         657.995    -243.320E-06    -243.320E-06         1.23866         1.23866
             402         654.959         654.959     61.5085E-03     61.5085E-03         1.17345         1.17345
             403         652.281         652.281     122.192E-03     122.192E-03     957.446E-03     957.446E-03
             404         650.319         650.319     170.324E-03     170.324E-03     607.456E-03     607.456E-03
             405         649.364         649.364     200.289E-03     200.289E-03     161.567E-03     161.567E-03
             406         649.579         649.579     199.519E-03     199.519E-03    -319.106E-03    -319.106E-03
             407         650.959         650.959     172.396E-03     172.396E-03    -764.656E-03    -764.656E-03
             408         653.343         653.343     128.286E-03     128.286E-03        -1.12232        -1.12232
             409         656.462         656.462     68.9881E-03     68.9881E-03        -1.35298        -1.35298
             410         659.974         659.974     8.25652E-03     8.25652E-03        -1.43705        -1.43705
             411         704.792         704.792         58.9938         58.9938         18.4696         18.4696
             412         712.237         712.237         30.1822         30.1822         26.6643         26.6643
             413         715.978         715.978    -46.5307E-03    -46.5307E-03         21.5101         21.5101
             414         712.537         712.537        -21.1157        -21.1157         9.04888         9.04888
             415         703.423         703.423        -31.0038        -31.0038        -3.78227        -3.78227
             416         704.389         704.389        -28.1518        -28.1518    -479.144E-03    -479.144E-03
             417         713.621         713.621        -12.7426        -12.7426        -15.7507        -15.7507
             418         713.764         713.764         17.7538         17.7538        -26.6896        -26.6896
             419         706.414         706.414         52.6557         52.6557        -22.0960        -22.0960
             420         620.010         620.010         179.912         179.912         41.1404         41.1404
             421         626.463         626.463         164.491         164.491         40.9139         40.9139
             422         632.734         632.734         149.047         149.047         39.6104         39.6104
             423         638.675         638.675         133.900         133.900         37.6687         37.6687
             424         644.144         644.144         119.295         119.295         35.1370         35.1370
             425         649.042         649.042         105.443         105.443         32.1383         32.1383
             426         653.312         653.312         92.5017         92.5017         28.7870         28.7870
             427         656.916         656.916         80.5876         80.5876         25.2317         25.2317
             428         659.877         659.877         69.7495         69.7495         21.6010         21.6010
             429         662.213         662.213         60.0026         60.0026         18.0120         18.0120
             430         663.994         663.994         51.3169         51.3169         14.5622         14.5622
             431         665.269         665.269         43.6409         43.6409         11.3162         11.3162
             432         666.117         666.117         36.9064         36.9064         8.32626         8.32626
             433         666.593         666.593         31.0334         31.0334         5.61187         5.61187
             434         666.766         666.766         25.9445         25.9445         3.18738         3.18738
             435         666.684         666.684         21.5562         21.5562         1.04415         1.04415
             436         666.397         666.397         17.7956         17.7956    -827.086E-03    -827.086E-03
             437         665.945         665.945         14.5872         14.5872        -2.44880        -2.44880
             438         665.362         665.362         11.8666         11.8666        -3.84180        -3.84180
             439         664.677         664.677         9.56925         9.56925        -5.03325        -5.03325
             440         663.914         663.914         7.63999         7.63999        -6.04787        -6.04787
             441         663.093         663.093         6.02421         6.02421        -6.91280        -6.91280
             442         662.231         662.231         4.67441         4.67441        -7.65275        -7.65275
             443         661.344         661.344         3.54389         3.54389        -8.29302        -8.29302
             444         660.445         660.445         2.59082         2.59082        -8.85700        -8.85700
             445         659.545         659.545         1.77394         1.77394        -9.36810        -9.36810
             446         658.659         658.659         1.05483         1.05483        -9.84857        -9.84857
             447         657.800         657.800     394.925E-03     394.925E-03        -10.3209        -10.3209
             448         656.983         656.983    -243.364E-03    -243.364E-03        -10.8070        -10.8070
             449         656.228         656.228    -899.028E-03    -899.028E-03        -11.3295        -11.3295
             450         655.559         655.559        -1.61227        -1.61227        -11.9109        -11.9109
             451         655.009         655.009        -2.42667        -2.42667        -12.5736        -12.5736
             452         654.621         654.621        -3.38991        -3.38991        -13.3389        -13.3389
             453         654.454         654.454        -4.55595        -4.55595        -14.2250        -14.2250
             454         654.589         654.589        -5.98638        -5.98638        -15.2424        -15.2424
             455         655.135         655.135        -7.75147        -7.75147        -16.3873        -16.3873
             456         656.243         656.243        -9.92965        -9.92965        -17.6279        -17.6279
             457         658.109         658.109        -12.5988        -12.5988        -18.8836        -18.8836
             458         660.986         660.986        -15.8192        -15.8192        -19.9897        -19.9897
             459         665.151         665.151        -19.5706        -19.5706        -20.6494        -20.6494
             460         670.851         670.851        -23.6613        -23.6613        -20.3985        -20.3985
             461         678.111         678.111        -27.5284        -27.5284        -18.6155        -18.6155
             462         676.422         676.422        -38.3490        -38.3490        -34.7257        -34.7257
             463         648.067         648.067        -34.7501        -34.7501        -52.0939        -52.0939
             464         601.980         601.980        -19.3437        -19.3437        -58.7278        -58.7278
             465         553.391         553.391         1.74039         1.74039        -41.0712        -41.0712
             466         544.796         544.796         5.70863         5.70863         36.4611         36.4611
             467         583.960         583.960        -12.1708        -12.1708         57.4078         57.4078
             468         627.141         627.141        -28.9727        -28.9727         58.7076         58.7076
             469         660.424         660.424        -37.7946        -37.7946         47.1604         47.1604
             470         680.020         680.020        -38.3918        -38.3918         31.6550         31.6550
             471         615.622         615.622         187.564         187.564        -33.3563        -33.3563
             472         614.732         614.732         187.572         187.572        -25.6481        -25.6481
             473         614.114         614.114         187.581         187.581        -18.1817        -18.1817
             474         613.730         613.730         187.593         187.593        -10.8570        -10.8570
             475         613.544         613.544         187.597         187.597        -3.63429        -3.63429
             476         613.546         613.546         187.594         187.594         3.57260         3.57260
             477         613.735         613.735         187.585         187.585         10.8028         10.8028
             478         614.119         614.119         187.571         187.571         18.1386         18.1386
             479         614.738         614.738         187.561         187.561         25.6178         25.6178
             480         615.628         615.628         187.556         187.556         33.3382         33.3382
             481         618.119         618.119         187.577         187.577         47.8933         47.8933
             482         619.811         619.811         187.648         187.648         54.7273         54.7273
             483         621.939         621.939         187.725         187.725         62.0223         62.0223
             484         624.823         624.823         187.903         187.903         69.6415         69.6415
             485         628.504         628.504         188.129         188.129         78.0397         78.0397
             486         633.742         633.742         188.516         188.516         86.8393         86.8393
             487         640.602         640.602         189.081         189.081         97.1215         97.1215
             488         651.260         651.260         189.777         189.777         107.779         107.779
             489         665.800         665.800         191.149         191.149         121.923         121.923
             490         693.060         693.060         191.408         191.408         135.593         135.593
             491         732.751         732.751         194.947         194.947         161.282         161.282
             492         877.832         877.832         169.058         169.058         172.579         172.579
             493         902.604         902.604         64.7137         64.7137         102.374         102.374
             494         765.242         765.242         4.86296         4.86296         36.6665         36.6665
             495         705.896         705.896         8.31693         8.31693         23.0800         23.0800
             496         670.074         670.074         1.71750         1.71750         13.3588         13.3588
             497         647.890         647.890         2.59391         2.59391         9.05646         9.05646
             498         633.307         633.307     842.354E-03     842.354E-03         5.79300         5.79300
             499         623.758         623.758         1.11946         1.11946         3.88008         3.88008
             500         617.593         617.593     468.635E-03     468.635E-03         2.40569         2.40569
             501         613.833         613.833     572.659E-03     572.659E-03         1.41462         1.41462
             502         611.821         611.821     277.135E-03     277.135E-03     646.237E-03     646.237E-03
             503         611.103         611.103     321.039E-03     321.039E-03     92.8581E-03     92.8581E-03
             504         611.357         611.357     168.432E-03     168.432E-03    -335.837E-03    -335.837E-03
             505         612.344         612.344     187.870E-03     187.870E-03    -653.857E-03    -653.857E-03
             506         613.885         613.885     102.499E-03     102.499E-03    -897.885E-03    -897.885E-03
             507         615.844         615.844     110.860E-03     110.860E-03        -1.07929        -1.07929
             508         618.115         618.115     60.7858E-03     60.7858E-03        -1.21529        -1.21529
             509         620.618         620.618     63.9370E-03     63.9370E-03        -1.31388        -1.31388
             510         623.286         623.286     33.7713E-03     33.7713E-03        -1.38420        -1.38420
             511         626.070         626.070     34.5130E-03     34.5130E-03        -1.43162        -1.43162
             512         628.929         628.929     16.0211E-03     16.0211E-03        -1.46137        -1.46137
             513         631.833         631.833     15.6351E-03     15.6351E-03        -1.47689        -1.47689
             514         634.756         634.756     3.99010E-03     3.99010E-03        -1.48117        -1.48117
             515         637.677         637.677     2.87685E-03     2.87685E-03        -1.47616        -1.47616
             516         640.581         640.581    -5.03677E-03    -5.03677E-03        -1.46328        -1.46328
             517         643.453         643.453    -7.05293E-03    -7.05293E-03        -1.44319        -1.44319
             518         646.277         646.277    -13.4817E-03    -13.4817E-03        -1.41598        -1.41598
             519         649.040         649.040    -16.9713E-03    -16.9713E-03        -1.38109        -1.38109
             520         651.725         651.725    -23.7037E-03    -23.7037E-03        -1.33737        -1.33737
             521         654.313         654.313    -29.4552E-03    -29.4552E-03        -1.28309        -1.28309
             522         656.782         656.782    -37.9277E-03    -37.9277E-03        -1.21596        -1.21596
             523         659.102         659.102    -46.6521E-03    -46.6521E-03        -1.13329        -1.13329
             524         661.241         661.241    -57.7332E-03    -57.7332E-03        -1.03209        -1.03209
             525         663.158         663.158    -69.5194E-03    -69.5194E-03    -909.383E-03    -909.383E-03
             526         664.810         664.810    -82.9145E-03    -82.9145E-03    -762.519E-03    -762.519E-03
             527         666.145         666.145    -96.3736E-03    -96.3736E-03    -589.729E-03    -589.729E-03
             528         667.112         667.112    -109.718E-03    -109.718E-03    -390.677E-03    -390.677E-03
             529         667.663         667.663    -121.029E-03    -121.029E-03    -167.228E-03    -167.228E-03
             530         667.751         667.751    -129.151E-03    -129.151E-03     75.8851E-03     75.8851E-03
             531         667.348         667.348    -131.780E-03    -131.780E-03     330.450E-03     330.450E-03
             532         666.443         666.443    -127.267E-03    -127.267E-03     584.415E-03     584.415E-03
             533         665.051         665.051    -113.772E-03    -113.772E-03     822.231E-03     822.231E-03
             534         663.223         663.223    -90.3205E-03    -90.3205E-03         1.02480         1.02480
             535         10.5322         10.5322        -327.924        -327.924        -1.51294        -1.51294
             536         89.9163         89.9163        -121.816        -121.816        -4.09870        -4.09870
             537         217.187         217.187        -23.1727        -23.1727        -4.67894        -4.67894
             538         348.407         348.407         11.9274         11.9274        -4.08257        -4.08257
             539         457.309         457.309         17.6488         17.6488        -2.94373        -2.94373
             540         708.543         708.543        -51.2946        -51.2946        -26.2428        -26.2428
             541         734.483         734.483        -77.1961        -77.1961        -47.1652        -47.1652
             542         758.983         758.983        -101.195        -101.195        -81.0661        -81.0661
             543         753.253         753.253        -94.1815        -94.1815        -134.161        -134.161
             544         640.508         640.508         22.8221         22.8221        -215.983        -215.983
             545         321.998         321.998         22.2911         22.2911        -170.864        -170.864
             546         149.700         149.700        -123.331        -123.331        -78.6580        -78.6580
             547         48.4000         48.4000        -283.496        -283.496        -13.6373        -13.6373
             548         1.63915         1.63915        -410.723        -410.723         9.05551         9.05551
             549         731.936         731.936         106.798         106.798     697.380E-03     697.380E-03
             550         794.237         794.237         159.011         159.011     597.395E-03     597.395E-03
             551         911.692         911.692         207.342         207.342     522.323E-03     522.323E-03
             552     1.12130E+03     1.12130E+03         222.174         222.174     443.795E-03     443.795E-03
             553     1.46402E+03     1.46402E+03         162.025         162.025     294.238E-03     294.238E-03
             554     1.59482E+03     1.59482E+03         125.554         125.554        -184.545        -184.545
             555     1.38335E+03     1.38335E+03         165.686         165.686        -315.461        -315.461
             556     1.09777E+03     1.09777E+03         193.430         193.430        -365.622        -365.622
             557         802.778         802.778         179.512         179.512        -339.994        -339.994
             558         647.906         647.906         24.9727         24.9727         217.278         217.278
             559         758.316         758.316        -93.6955        -93.6955         132.547         132.547
             560         761.827         761.827        -100.911        -100.911         79.1307         79.1307
             561         735.926         735.926        -76.9319        -76.9319         45.6715         45.6715
             562         709.227         709.227        -51.0585        -51.0585         25.2403         25.2403
             563        -2.74817        -2.74817        -432.498        -432.498        -10.3803        -10.3803
             564         26.2404         26.2404        -336.808        -336.808    -726.202E-03    -726.202E-03
             565         88.3929         88.3929        -206.237        -206.237         39.2526         39.2526
             566         195.389         195.389        -70.7621        -70.7621         106.302         106.302
             567         352.757         352.757         44.5195         44.5195         186.690         186.690
             568         710.373         710.373        -52.3127        -52.3127         26.6655         26.6655
             569         737.019         737.019        -77.9574        -77.9574         46.6527         46.6527
             570         762.887         762.887        -101.744        -101.744         79.7817         79.7817
             571         759.410         759.410        -94.3118        -94.3118         132.986         132.986
             572         648.972         648.972         24.8049         24.8049         217.728         217.728
             573         803.847         803.847         179.242         179.242         340.536         340.536
             574     1.09895E+03     1.09895E+03         193.705         193.705         366.211         366.211
             575     1.38440E+03     1.38440E+03         165.939         165.939         316.003         316.003
             576     1.59544E+03     1.59544E+03         125.696         125.696         184.979         184.979
             577         633.515         633.515         20.2859         20.2859        -215.175        -215.175
             578         750.217         750.217        -97.0717        -97.0717        -135.939        -135.939
             579         757.585         757.585        -103.301        -103.301        -83.3910        -83.3910
             580         734.037         734.037        -78.8234        -78.8234        -49.4004        -49.4004
             581         708.743         708.743        -52.7946        -52.7946        -28.4672        -28.4672
             582         731.714         731.714         107.875         107.875        -2.17636        -2.17636
             583         794.261         794.261         160.147         160.147        -2.31469        -2.31469
             584         912.261         912.261         208.210         208.210        -1.64290        -1.64290
             585     1.12270E+03     1.12270E+03         222.496         222.496     495.093E-03     495.093E-03
             586     1.46660E+03     1.46660E+03         161.461         161.461         4.89193         4.89193
             587     1.62626E+03     1.62626E+03         118.766         118.766        -158.634        -158.634
             588     1.47145E+03     1.47145E+03         151.635         151.635        -284.066        -284.066
             589     1.24933E+03     1.24933E+03         184.829         184.829        -355.234        -355.234
             590         998.922         998.922         197.124         197.124        -368.371        -368.371
             591         755.761         755.761         175.862         175.862        -333.014        -333.014
             592         802.487         802.487         178.893         178.893         339.885         339.885
             593     1.09725E+03     1.09725E+03         193.357         193.357         365.512         365.512
             594     1.38242E+03     1.38242E+03         165.555         165.555         315.456         315.456
             595     1.59343E+03     1.59343E+03         125.702         125.702         184.520         184.520
             596         458.766         458.766         16.0806         16.0806        -2.92641        -2.92641
             597         349.338         349.338         10.6649         10.6649        -4.04773        -4.04773
             598         217.678         217.678        -24.2990        -24.2990        -4.62865        -4.62865
             599         90.0545         90.0545        -123.043        -123.043        -4.04326        -4.04326
             600         10.4893         10.4893        -329.609        -329.609        -1.46866        -1.46866
             601        -2.79164        -2.79164        -434.361        -434.361        -10.4362        -10.4362
             602         26.2658         26.2658        -338.294        -338.294    -794.416E-03    -794.416E-03
             603         88.5627         88.5627        -207.234        -207.234         39.2618         39.2618
             604         195.767         195.767        -71.2807        -71.2807         106.474         106.474
             605         353.440         353.440         44.4108         44.4108         187.032         187.032
             606         322.481         322.481         21.8597         21.8597        -170.929        -170.929
             607         149.841         149.841        -124.277        -124.277        -78.5890        -78.5890
             608         48.3931         48.3931        -284.971        -284.971        -13.4777        -13.4777
             609         1.57122         1.57122        -412.605        -412.605         9.19172         9.19172
             610         680.555         680.555        -22.6117        -22.6117        -8.35665        -8.35665
             611         674.501         674.501        -20.3415        -20.3415        -11.2129        -11.2129
             612         669.157         669.157        -17.3538        -17.3538        -12.7501        -12.7501
             613         664.737         664.737        -14.1921        -14.1921        -13.2664        -13.2664
             614         661.253         661.253        -11.1954        -11.1954        -13.1078        -13.1078
             615         658.605         658.605        -8.52034        -8.52034        -12.5486        -12.5486
             616         656.653         656.653        -6.21750        -6.21750        -11.7859        -11.7859
             617         655.254         655.254        -4.27890        -4.27890        -10.9432        -10.9432
             618         654.285         654.285        -2.67396        -2.67396        -10.0944        -10.0944
             619         653.643         653.643        -1.36285        -1.36285        -9.27956        -9.27956
             620         653.250         653.250    -305.889E-03    -305.889E-03        -8.51795        -8.51795
             621         653.040         653.040     534.266E-03     534.266E-03        -7.81638        -7.81638
             622         652.966         652.966         1.19075         1.19075        -7.17470        -7.17470
             623         652.989         652.989         1.69277         1.69277        -6.58919        -6.58919
             624         653.082         653.082         2.06553         2.06553        -6.05459        -6.05459
             625         653.223         653.223         2.33087         2.33087        -5.56528        -5.56528
             626         653.394         653.394         2.50750         2.50750        -5.11592        -5.11592
             627         653.583         653.583         2.61150         2.61150        -4.70176        -4.70176
             628         653.781         653.781         2.65662         2.65662        -4.31871        -4.31871
             629         653.982         653.982         2.65459         2.65459        -3.96339        -3.96339
             630         654.179         654.179         2.61538         2.61538        -3.63298        -3.63298
             631         654.369         654.369         2.54744         2.54744        -3.32521        -3.32521
             632         654.549         654.549         2.45792         2.45792        -3.03820        -3.03820
             633         654.719         654.719         2.35280         2.35280        -2.77041        -2.77041
             634         654.878         654.878         2.23708         2.23708        -2.52052        -2.52052
             635         655.024         655.024         2.11494         2.11494        -2.28741        -2.28741
             636         655.157         655.157         1.98979         1.98979        -2.07005        -2.07005
             637         655.279         655.279         1.86447         1.86447        -1.86751        -1.86751
             638         655.389         655.389         1.74125         1.74125        -1.67889        -1.67889
             639         655.487         655.487         1.62199         1.62199        -1.50332        -1.50332
             640         655.575         655.575         1.50816         1.50816        -1.33993        -1.33993
             641         655.653         655.653         1.40092         1.40092        -1.18786        -1.18786
             642         655.722         655.722         1.30119         1.30119        -1.04621        -1.04621
             643         655.782         655.782         1.20968         1.20968    -914.089E-03    -914.089E-03
             644         655.834         655.834         1.12690         1.12690    -790.595E-03    -790.595E-03
             645         655.879         655.879         1.05326         1.05326    -674.800E-03    -674.800E-03
             646         655.916         655.916     989.053E-03     989.053E-03    -565.767E-03    -565.767E-03
             647         655.947         655.947     934.479E-03     934.479E-03    -462.550E-03    -462.550E-03
             648         655.972         655.972     889.684E-03     889.684E-03    -364.193E-03    -364.193E-03
             649         655.991         655.991     854.767E-03     854.767E-03    -269.731E-03    -269.731E-03
             650         656.004         656.004     829.791E-03     829.791E-03    -178.200E-03    -178.200E-03
             651         656.012         656.012     814.775E-03     814.775E-03    -88.8666E-03    -88.8666E-03
             652         681.071         681.071        -18.9530        -18.9530        -2.80645        -2.80645
             653         676.361         676.361        -17.9372        -17.9372        -6.03028        -6.03028
             654         671.939         671.939        -16.0329        -16.0329        -8.20638        -8.20638
             655         668.011         668.011        -13.6830        -13.6830        -9.50110        -9.50110
             656         664.695         664.695        -11.2318        -11.2318        -10.1093        -10.1093
             657         662.000         662.000        -8.89111        -8.89111        -10.2361        -10.2361
             658         659.877         659.877        -6.77197        -6.77197        -10.0481        -10.0481
             659         658.245         658.245        -4.91957        -4.91957        -9.67091        -9.67091
             660         657.021         657.021        -3.33991        -3.33991        -9.18968        -9.18968
             661         656.125         656.125        -2.01928        -2.01928        -8.66047        -8.66047
             662         655.490         655.490    -933.971E-03    -933.971E-03        -8.11772        -8.11772
             663         655.057         655.057    -57.0705E-03    -57.0705E-03        -7.58179        -7.58179
             664         654.780         654.780     638.777E-03     638.777E-03        -7.06375        -7.06375
             665         654.622         654.622         1.17937         1.17937        -6.56903        -6.56903
             666         654.551         654.551         1.58840         1.58840        -6.09968        -6.09968
             667         654.544         654.544         1.88702         1.88702        -5.65588        -5.65588
             668         654.583         654.583         2.09394         2.09394        -5.23687        -5.23687
             669         654.654         654.654         2.22545         2.22545        -4.84151        -4.84151
             670         654.745         654.745         2.29564         2.29564        -4.46855        -4.46855
             671         654.848         654.848         2.31662         2.31662        -4.11683        -4.11683
             672         654.958         654.958         2.29871         2.29871        -3.78528        -3.78528
             673         655.068         655.068         2.25065         2.25065        -3.47298        -3.47298
             674         655.177         655.177         2.17980         2.17980        -3.17911        -3.17911
             675         655.281         655.281         2.09231         2.09231        -2.90293        -2.90293
             676         655.379         655.379         1.99332         1.99332        -2.64374        -2.64374
             677         655.471         655.471         1.88706         1.88706        -2.40088        -2.40088
             678         655.555         655.555         1.77700         1.77700        -2.17368        -2.17368
             679         655.632         655.632         1.66596         1.66596        -1.96143        -1.96143
             680         655.701         655.701         1.55624         1.55624        -1.76343        -1.76343
             681         655.763         655.763         1.44967         1.44967        -1.57890        -1.57890
             682         655.819         655.819         1.34771         1.34771        -1.40705        -1.40705
             683         655.867         655.867         1.25149         1.25149        -1.24705        -1.24705
             684         655.910         655.910         1.16190         1.16190        -1.09802        -1.09802
             685         655.947         655.947         1.07962         1.07962    -959.045E-03    -959.045E-03
             686         655.979         655.979         1.00516         1.00516    -829.198E-03    -829.198E-03
             687         656.007         656.007     938.901E-03     938.901E-03    -707.512E-03    -707.512E-03
             688         656.029         656.029     881.113E-03     881.113E-03    -593.007E-03    -593.007E-03
             689         656.048         656.048     831.992E-03     831.992E-03    -484.681E-03    -484.681E-03
             690         656.063         656.063     791.671E-03     791.671E-03    -381.522E-03    -381.522E-03
             691         656.074         656.074     760.241E-03     760.241E-03    -282.507E-03    -282.507E-03
             692         656.082         656.082     737.761E-03     737.761E-03    -186.609E-03    -186.609E-03
             693         656.087         656.087     724.240E-03     724.240E-03    -93.0544E-03    -93.0544E-03
             694         680.149         680.149        -15.2680        -15.2680         1.24664         1.24664
             695         676.708         676.708        -15.2040        -15.2040        -1.96740        -1.96740
             696         673.228         673.228        -14.1524        -14.1524        -4.40528        -4.40528
             697         669.952         669.952        -12.5304        -12.5304        -6.13561        -6.13561
             698         667.020         667.020        -10.6382        -10.6382        -7.26045        -7.26045
             699         664.505         664.505        -8.69771        -8.69771        -7.90403        -7.90403
             700         662.414         662.414        -6.84815        -6.84815        -8.19077        -8.19077
             701         660.722         660.722        -5.16751        -5.16751        -8.22471        -8.22471
             702         659.382         659.382        -3.69118        -3.69118        -8.08764        -8.08764
             703         658.341         658.341        -2.42752        -2.42752        -7.83888        -7.83888
             704         657.548         657.548        -1.36931        -1.36931        -7.52051        -7.52051
             705         656.956         656.956    -500.562E-03    -500.562E-03        -7.16116        -7.16116
             706         656.523         656.523     198.523E-03     198.523E-03        -6.78015        -6.78015
             707         656.216         656.216     749.097E-03     749.097E-03        -6.39020        -6.39020
             708         656.006         656.006         1.17184         1.17184        -5.99970        -5.99970
             709         655.869         655.869         1.48617         1.48617        -5.61414        -5.61414
             710         655.788         655.788         1.70975         1.70975        -5.23718        -5.23718
             711         655.747         655.747         1.85832         1.85832        -4.87124        -4.87124
             712         655.735         655.735         1.94566         1.94566        -4.51799        -4.51799
             713         655.743         655.743         1.98374         1.98374        -4.17857        -4.17857
             714         655.765         655.765         1.98278         1.98278        -3.85380        -3.85380
             715         655.794         655.794         1.95148         1.95148        -3.54419        -3.54419
             716         655.829         655.829         1.89714         1.89714        -3.25007        -3.25007
             717         655.865         655.865         1.82587         1.82587        -2.97158        -2.97158
             718         655.901         655.901         1.74274         1.74274        -2.70873        -2.70873
             719         655.936         655.936         1.65191         1.65191        -2.46134        -2.46134
             720         655.968         655.968         1.55678         1.55678        -2.22914        -2.22914
             721         655.998         655.998         1.46012         1.46012        -2.01172        -2.01172
             722         656.024         656.024         1.36413         1.36413        -1.80855        -1.80855
             723         656.048         656.048         1.27059         1.27059        -1.61901        -1.61901
             724         656.069         656.069         1.18089         1.18089        -1.44241        -1.44241
             725         656.087         656.087         1.09611         1.09611        -1.27795        -1.27795
             726         656.102         656.102         1.01709         1.01709        -1.12478        -1.12478
             727         656.115         656.115     944.469E-03     944.469E-03    -982.020E-03    -982.020E-03
             728         656.126         656.126     878.725E-03     878.725E-03    -848.708E-03    -848.708E-03
             729         656.135         656.135     820.206E-03     820.206E-03    -723.865E-03    -723.865E-03
             730         656.142         656.142     769.163E-03     769.163E-03    -606.481E-03    -606.481E-03
             731         656.148         656.148     725.774E-03     725.774E-03    -495.523E-03    -495.523E-03
             732         656.152         656.152     690.159E-03     690.159E-03    -389.940E-03    -389.940E-03
             733         656.156         656.156     662.399E-03     662.399E-03    -288.670E-03    -288.670E-03
             734         656.158         656.158     642.541E-03     642.541E-03    -190.644E-03    -190.644E-03
             735         656.159         656.159     630.599E-03     630.599E-03    -95.0677E-03    -95.0677E-03
             736         678.436         678.436        -11.9055        -11.9055         3.98403         3.98403
             737         676.093         676.093        -12.4463        -12.4463         1.05656         1.05656
             738         673.505         673.505        -12.0334        -12.0334        -1.38890        -1.38890
             739         670.910         670.910        -10.9988        -10.9988        -3.30911        -3.30911
             740         668.463         668.463        -9.61206        -9.61206        -4.73618        -4.73618
             741         666.258         666.258        -8.07378        -8.07378        -5.73288        -5.73288
             742         664.341         664.341        -6.52928        -6.52928        -6.37639        -6.37639
             743         662.718         662.718        -5.07090        -5.07090        -6.74369        -6.74369
             744         661.375         661.375        -3.75184        -3.75184        -6.90161        -6.90161
             745         660.283         660.283        -2.59683        -2.59683        -6.90504        -6.90504
             746         659.408         659.408        -1.61180        -1.61180        -6.79642        -6.79642
             747         658.715         658.715    -791.018E-03    -791.018E-03        -6.60811        -6.60811
             748         658.173         658.173    -121.980E-03    -121.980E-03        -6.36413        -6.36413
             749         657.751         657.751     411.139E-03     411.139E-03        -6.08236        -6.08236
             750         657.427         657.427     825.405E-03     825.405E-03        -5.77604        -5.77604
             751         657.178         657.178         1.13768         1.13768        -5.45510        -5.45510
             752         656.989         656.989         1.36390         1.36390        -5.12700        -5.12700
             753         656.844         656.844         1.51856         1.51856        -4.79744        -4.79744
             754         656.735         656.735         1.61461         1.61461        -4.47079        -4.47079
             755         656.651         656.651         1.66333         1.66333        -4.15042        -4.15042
             756         656.586         656.586         1.67449         1.67449        -3.83891        -3.83891
             757         656.535         656.535         1.65637         1.65637        -3.53822        -3.53822
             758         656.495         656.495         1.61597         1.61597        -3.24982        -3.24982
             759         656.461         656.461         1.55911         1.55911        -2.97472        -2.97472
             760         656.434         656.434         1.49062         1.49062        -2.71360        -2.71360
             761         656.410         656.410         1.41444         1.41444        -2.46683        -2.46683
             762         656.388         656.388         1.33381         1.33381        -2.23450        -2.23450
             763         656.369         656.369         1.25131         1.25131        -2.01649        -2.01649
             764         656.351         656.351         1.16903         1.16903        -1.81250        -1.81250
             765         656.335         656.335         1.08860         1.08860        -1.62204        -1.62204
             766         656.320         656.320         1.01132         1.01132        -1.44453        -1.44453
             767         656.305         656.305     938.185E-03     938.185E-03        -1.27924        -1.27924
             768         656.292         656.292     869.967E-03     869.967E-03        -1.12536        -1.12536
             769         656.280         656.280     807.243E-03     807.243E-03    -982.017E-03    -982.017E-03
             770         656.269         656.269     750.442E-03     750.442E-03    -848.271E-03    -848.271E-03
             771         656.259         656.259     699.879E-03     699.879E-03    -723.135E-03    -723.135E-03
             772          656.25          656.25     655.775E-03     655.775E-03    -605.592E-03    -605.592E-03
             773         656.242         656.242     618.286E-03     618.286E-03    -494.592E-03    -494.592E-03
             774         656.236         656.236     587.516E-03     587.516E-03    -389.070E-03    -389.070E-03
             775         656.231         656.231     563.533E-03     563.533E-03    -287.944E-03    -287.944E-03
             776         656.228         656.228     546.379E-03     546.379E-03    -190.124E-03    -190.124E-03
             777         656.226         656.226     536.064E-03     536.064E-03    -94.8110E-03    -94.8110E-03
             778         676.422         676.422        -9.03998        -9.03998         5.68763         5.68763
             779         674.943         674.943        -9.87862        -9.87862         3.16182         3.16182
             780         673.139         673.139        -9.88371        -9.88371     879.433E-03     879.433E-03
             781         671.196         671.196        -9.29374        -9.29374        -1.05960        -1.05960
             782         669.260         669.260        -8.32441        -8.32441        -2.62471        -2.62471
             783         667.431         667.431        -7.15298        -7.15298        -3.83163        -3.83163
             784         665.770         665.770        -5.91217        -5.91217        -4.71806        -4.71806
             785         664.305         664.305        -4.69650        -4.69650        -5.33200        -5.33200
             786         663.042         663.042        -3.56595        -3.56595        -5.72261        -5.72261
             787         661.973         661.973        -2.55464        -2.55464        -5.93463        -5.93463
             788         661.078         661.078        -1.67748        -1.67748        -6.00672        -6.00672
             789         660.335         660.335    -936.544E-03    -936.544E-03        -5.97078        -5.97078
             790         659.722         659.722    -325.687E-03    -325.687E-03        -5.85275        -5.85275
             791         659.218         659.218     166.006E-03     166.006E-03        -5.67334        -5.67334
             792         658.802         658.802     551.779E-03     551.779E-03        -5.44913        -5.44913
             793         658.459         658.459     845.641E-03     845.641E-03        -5.19329        -5.19329
             794         658.173         658.173         1.06130         1.06130        -4.91634        -4.91634
             795         657.934         657.934         1.21160         1.21160        -4.62666        -4.62666
             796         657.732         657.732         1.30813         1.30813        -4.33091        -4.33091
             797         657.559         657.559         1.36117         1.36117        -4.03440        -4.03440
             798         657.409         657.409         1.37959         1.37959        -3.74130        -3.74130
             799         657.278         657.278         1.37101         1.37101        -3.45484        -3.45484
             800         657.162         657.162         1.34183         1.34183        -3.17751        -3.17751
             801         657.059         657.059         1.29740         1.29740        -2.91111        -2.91111
             802         656.966         656.966         1.24212         1.24212        -2.65694        -2.65694
             803         656.882         656.882         1.17961         1.17961        -2.41583        -2.41583
             804         656.806         656.806         1.11280         1.11280        -2.18825        -2.18825
             805         656.737         656.737         1.04403         1.04403        -1.97433        -1.97433
             806         656.674         656.674     975.171E-03     975.171E-03        -1.77397        -1.77397
             807         656.616         656.616     907.704E-03     907.704E-03        -1.58682        -1.58682
             808         656.564         656.564     842.777E-03     842.777E-03        -1.41238        -1.41238
             809         656.517         656.517     781.277E-03     781.277E-03        -1.25002        -1.25002
             810         656.475         656.475     723.880E-03     723.880E-03        -1.09897        -1.09897
             811         656.437         656.437     671.092E-03     671.092E-03    -958.380E-03    -958.380E-03
             812         656.403         656.403     623.286E-03     623.286E-03    -827.339E-03    -827.339E-03
             813         656.374         656.374     580.732E-03     580.732E-03    -704.875E-03    -704.875E-03
             814         656.349         656.349     543.618E-03     543.618E-03    -589.978E-03    -589.978E-03
             815         656.328         656.328     512.076E-03     512.076E-03    -481.606E-03    -481.606E-03
             816         656.311         656.311     486.190E-03     486.190E-03    -378.698E-03    -378.698E-03
             817         656.297         656.297     466.017E-03     466.017E-03    -280.174E-03    -280.174E-03
             818         656.288         656.288     451.589E-03     451.589E-03    -184.949E-03    -184.949E-03
             819         656.282         656.282     442.916E-03     442.916E-03    -92.2352E-03    -92.2352E-03
             820         674.379         674.379        -6.69348        -6.69348         6.62020         6.62020
             821         673.569         673.569        -7.60920        -7.60920         4.51178         4.51178
             822         672.418         672.418        -7.84379        -7.84379         2.47291         2.47291
             823         671.065         671.065        -7.55796        -7.55796     629.175E-03     629.175E-03
             824         669.626         669.626        -6.91350        -6.91350    -954.833E-03    -954.833E-03
             825         668.194         668.194        -6.05325        -6.05325        -2.25706        -2.25706
             826         666.831         666.831        -5.09293        -5.09293        -3.28477        -3.28477
             827         665.577         665.577        -4.11816        -4.11816        -4.06104        -4.06104
             828         664.450         664.450        -3.18845        -3.18845        -4.61703        -4.61703
             829         663.455         663.455        -2.34052        -2.34052        -4.98612        -4.98612
             830         662.585         662.585        -1.59398        -1.59398        -5.20036        -5.20036
             831         661.831         661.831    -955.791E-03    -955.791E-03        -5.28892        -5.28892
             832         661.180         661.180    -424.491E-03    -424.491E-03        -5.27721        -5.27721
             833         660.617         660.617     6.72944E-03     6.72944E-03        -5.18705        -5.18705
             834         660.129         660.129     347.650E-03     347.650E-03        -5.03673        -5.03673
             835         659.704         659.704     609.374E-03     609.374E-03        -4.84155        -4.84155
             836         659.333         659.333     803.231E-03     803.231E-03        -4.61412        -4.61412
             837         659.005         659.005     940.070E-03     940.070E-03        -4.36479        -4.36479
             838         658.715         658.715         1.02987         1.02987        -4.10201        -4.10201
             839         658.455         658.455         1.08153         1.08153        -3.83255        -3.83255
             840         658.222         658.222         1.10281         1.10281        -3.56183        -3.56183
             841         658.011         658.011         1.10037         1.10037        -3.29412        -3.29412
             842         657.820         657.820         1.07983         1.07983        -3.03270        -3.03270
             843         657.647         657.647         1.04586         1.04586        -2.78002        -2.78002
             844         657.488         657.488         1.00231         1.00231        -2.53787        -2.53787
             845         657.344         657.344     952.353E-03     952.353E-03        -2.30745        -2.30745
             846         657.212         657.212     898.512E-03     898.512E-03        -2.08953        -2.08953
             847         657.092         657.092     842.827E-03     842.827E-03        -1.88444        -1.88444
             848         656.983         656.983     786.910E-03     786.910E-03        -1.69225        -1.69225
             849         656.885         656.885     732.025E-03     732.025E-03        -1.51273        -1.51273
             850         656.795         656.795     679.154E-03     679.154E-03        -1.34547        -1.34547
             851         656.715         656.715     629.048E-03     629.048E-03        -1.18990        -1.18990
             852         656.643         656.643     582.276E-03     582.276E-03        -1.04530        -1.04530
             853         656.580         656.580     539.260E-03     539.260E-03    -910.882E-03    -910.882E-03
             854         656.524         656.524     500.310E-03     500.310E-03    -785.753E-03    -785.753E-03
             855         656.475         656.475     465.646E-03     465.646E-03    -668.977E-03    -668.977E-03
             856         656.434         656.434     435.422E-03     435.422E-03    -559.573E-03    -559.573E-03
             857         656.400         656.400     409.741E-03     409.741E-03    -456.527E-03    -456.527E-03
             858         656.372         656.372     388.671E-03     388.671E-03    -358.804E-03    -358.804E-03
             859         656.350         656.350     372.254E-03     372.254E-03    -265.353E-03    -265.353E-03
             860         656.335         656.335     360.513E-03     360.513E-03    -175.117E-03    -175.117E-03
             861         656.326         656.326     353.458E-03     353.458E-03    -87.3402E-03    -87.3402E-03
             862         672.452         672.452        -4.81773        -4.81773         6.97710         6.97710
             863         672.164         672.164        -5.66667        -5.66667         5.25129         5.25129
             864         671.560         671.560        -5.99039        -5.99039         3.48223         3.48223
             865         670.727         670.727        -5.89067        -5.89067         1.79740         1.79740
             866         669.752         669.752        -5.48222        -5.48222     278.956E-03     278.956E-03
             867         668.711         668.711        -4.87404        -4.87404        -1.02947        -1.02947
             868         667.660         667.660        -4.15884        -4.15884        -2.11207        -2.11207
             869         666.642         666.642        -3.40956        -3.40956        -2.97289        -2.97289
             870         665.681         665.681        -2.67861        -2.67861        -3.62775        -3.62775
             871         664.790         664.790        -2.00089        -2.00089        -4.09907        -4.09907
             872         663.975         663.975        -1.39655        -1.39655        -4.41184        -4.41184
             873         663.235         663.235    -874.820E-03    -874.820E-03        -4.59107        -4.59107
             874         662.565         662.565    -437.032E-03    -437.032E-03        -4.66036        -4.66036
             875         661.959         661.959    -79.4081E-03    -79.4081E-03        -4.64103        -4.64103
             876         661.411         661.411     204.928E-03     204.928E-03        -4.55192        -4.55192
             877         660.914         660.914     424.409E-03     424.409E-03        -4.40924        -4.40924
             878         660.463         660.463     587.974E-03     587.974E-03        -4.22679        -4.22679
             879         660.051         660.051     704.382E-03     704.382E-03        -4.01608        -4.01608
             880         659.674         659.674     781.794E-03     781.794E-03        -3.78665        -3.78665
             881         659.330         659.330     827.554E-03     827.554E-03        -3.54625        -3.54625
             882         659.014         659.014     848.095E-03     848.095E-03        -3.30111        -3.30111
             883         658.724         658.724     848.945E-03     848.945E-03        -3.05614        -3.05614
             884         658.457         658.457     834.771E-03     834.771E-03        -2.81518        -2.81518
             885         658.213         658.213     809.461E-03     809.461E-03        -2.58109        -2.58109
             886         657.989         657.989     776.210E-03     776.210E-03        -2.35598        -2.35598
             887         657.784         657.784     737.619E-03     737.619E-03        -2.14132        -2.14132
             888         657.597         657.597     695.783E-03     695.783E-03        -1.93803        -1.93803
             889         657.427         657.427     652.370E-03     652.370E-03        -1.74662        -1.74662
             890         657.272         657.272     608.694E-03     608.694E-03        -1.56724        -1.56724
             891         657.132         657.132     565.785E-03     565.785E-03        -1.39977        -1.39977
             892         657.006         657.006     524.433E-03     524.433E-03        -1.24387        -1.24387
             893         656.893         656.893     485.243E-03     485.243E-03        -1.09902        -1.09902
             894         656.792         656.792     448.666E-03     448.666E-03    -964.565E-03    -964.565E-03
             895         656.703         656.703     415.038E-03     415.038E-03    -839.759E-03    -839.759E-03
             896         656.626         656.626     384.600E-03     384.600E-03    -723.768E-03    -723.768E-03
             897         656.559         656.559     357.522E-03     357.522E-03    -615.700E-03    -615.700E-03
             898         656.501         656.501     333.923E-03     333.923E-03    -514.625E-03    -514.625E-03
             899         656.454         656.454     313.878E-03     313.878E-03    -419.580E-03    -419.580E-03
             900         656.415         656.415     297.437E-03     297.437E-03    -329.582E-03    -329.582E-03
             901         656.386         656.386     284.629E-03     284.629E-03    -243.634E-03    -243.634E-03
             902         656.365         656.365     275.471E-03     275.471E-03    -160.731E-03    -160.731E-03
             903         656.352         656.352     269.970E-03     269.970E-03    -80.1801E-03    -80.1801E-03
             904         670.707         670.707        -3.33810        -3.33810         6.88149         6.88149
             905         670.856         670.856        -4.03937        -4.03937         5.48696         5.48696
             906         670.721         670.721        -4.35754        -4.35754         3.98489         3.98489
             907         670.350         670.350        -4.35479        -4.35479         2.49352         2.49352
             908         669.802         669.802        -4.10820        -4.10820         1.09817         1.09817
             909         669.133         669.133        -3.69584        -3.69584    -146.202E-03    -146.202E-03
             910         668.390         668.390        -3.18756        -3.18756        -1.21068        -1.21068
             911         667.610         667.610        -2.64009        -2.64009        -2.08572        -2.08572
             912         666.824         666.824        -2.09618        -2.09618        -2.77586        -2.77586
             913         666.050         666.050        -1.58503        -1.58503        -3.29445        -3.29445
             914         665.300         665.300        -1.12471        -1.12471        -3.65997        -3.65997
             915         664.584         664.584    -724.277E-03    -724.277E-03        -3.89309        -3.89309
             916         663.904         663.904    -386.335E-03    -386.335E-03        -4.01470        -4.01470
             917         663.262         663.262    -109.017E-03    -109.017E-03        -4.04476        -4.04476
             918         662.658         662.658     112.283E-03     112.283E-03        -4.00146        -4.00146
             919         662.091         662.091     283.674E-03     283.674E-03        -3.90096        -3.90096
             920         661.561         661.561     411.846E-03     411.846E-03        -3.75725        -3.75725
             921         661.065         661.065     503.479E-03     503.479E-03        -3.58218        -3.58218
             922         660.603         660.603     564.862E-03     564.862E-03        -3.38565        -3.38565
             923         660.173         660.173     601.687E-03     601.687E-03        -3.17578        -3.17578
             924         659.774         659.774     618.961E-03     618.961E-03        -2.95908        -2.95908
             925         659.404         659.404     620.985E-03     620.985E-03        -2.74075        -2.74075
             926         659.062         659.062     611.392E-03     611.392E-03        -2.52479        -2.52479
             927         658.747         658.747     593.202E-03     593.202E-03        -2.31424        -2.31424
             928         658.457         658.457     568.893E-03     568.893E-03        -2.11133        -2.11133
             929         658.192         658.192     540.475E-03     540.475E-03        -1.91760        -1.91760
             930         657.950         657.950     509.559E-03     509.559E-03        -1.73407        -1.73407
             931         657.730         657.730     477.424E-03     477.424E-03        -1.56129        -1.56129
             932         657.530         657.530     445.073E-03     445.073E-03        -1.39949        -1.39949
             933         657.350         657.350     413.286E-03     413.286E-03        -1.24858        -1.24858
             934         657.188         657.188     382.661E-03     382.661E-03        -1.10827        -1.10827
             935         657.043         657.043     353.649E-03     353.649E-03    -978.112E-03    -978.112E-03
             936         656.915         656.915     326.587E-03     326.587E-03    -857.502E-03    -857.502E-03
             937         656.802         656.802     301.721E-03     301.721E-03    -745.749E-03    -745.749E-03
             938         656.703         656.703     279.229E-03     279.229E-03    -642.088E-03    -642.088E-03
             939         656.618         656.618     259.232E-03     259.232E-03    -545.699E-03    -545.699E-03
             940         656.546         656.546     241.813E-03     241.813E-03    -455.723E-03    -455.723E-03
             941         656.486         656.486     227.025E-03     227.025E-03    -371.276E-03    -371.276E-03
             942         656.438         656.438     214.900E-03     214.900E-03    -291.453E-03    -291.453E-03
             943         656.401         656.401     205.456E-03     205.456E-03    -215.339E-03    -215.339E-03
             944         656.375         656.375     198.703E-03     198.703E-03    -142.014E-03    -142.014E-03
             945         656.359         656.359     194.650E-03     194.650E-03    -70.8646E-03    -70.8646E-03
             946         669.181         669.181        -2.18252        -2.18252         6.39134         6.39134
             947         669.732         669.732        -2.70039        -2.70039         5.28055         5.28055
             948         670.026         670.026        -2.95823        -2.95823         4.03515         4.03515
             949         670.079         670.079        -2.99198        -2.99198         2.75843         2.75843
             950         669.927         669.927        -2.85069        -2.85069         1.53072         1.53072
             951         669.604         669.604        -2.58648        -2.58648     408.559E-03     408.559E-03
             952         669.149         669.149        -2.24768        -2.24768    -573.181E-03    -573.181E-03
             953         668.597         668.597        -1.87487        -1.87487        -1.39794        -1.39794
             954         667.976         667.976        -1.49920        -1.49920        -2.06287        -2.06287
             955         667.311         667.311        -1.14278        -1.14278        -2.57499        -2.57499
             956         666.621         666.621    -819.517E-03    -819.517E-03        -2.94748        -2.94748
             957         665.923         665.923    -536.910E-03    -536.910E-03        -3.19694        -3.19694
             958         665.227         665.227    -297.527E-03    -297.527E-03        -3.34129        -3.34129
             959         664.544         664.544    -100.593E-03    -100.593E-03        -3.39830        -3.39830
             960         663.879         663.879     56.8485E-03     56.8485E-03        -3.38468        -3.38468
             961         663.238         663.238     178.944E-03     178.944E-03        -3.31550        -3.31550
             962         662.625         662.625     270.361E-03     270.361E-03        -3.20402        -3.20402
             963         662.043         662.043     335.817E-03     335.817E-03        -3.06156        -3.06156
             964         661.492         661.492     379.783E-03     379.783E-03        -2.89760        -2.89760
             965         660.974         660.974     406.321E-03     406.321E-03        -2.71996        -2.71996
             966         660.490         660.490     419.004E-03     419.004E-03        -2.53491        -2.53491
             967         660.039         660.039     420.906E-03     420.906E-03        -2.34743        -2.34743
             968         659.621         659.621     414.616E-03     414.616E-03        -2.16138        -2.16138
             969         659.236         659.236     402.281E-03     402.281E-03        -1.97965        -1.97965
             970         658.881         658.881     385.660E-03     385.660E-03        -1.80439        -1.80439
             971         658.556         658.556     366.171E-03     366.171E-03        -1.63706        -1.63706
             972         658.260         658.260     344.949E-03     344.949E-03        -1.47862        -1.47862
             973         657.992         657.992     322.889E-03     322.889E-03        -1.32962        -1.32962
             974         657.749         657.749     300.691E-03     300.691E-03        -1.19026        -1.19026
             975         657.530         657.530     278.896E-03     278.896E-03        -1.06049        -1.06049
             976         657.334         657.334     257.914E-03     257.914E-03    -940.065E-03    -940.065E-03
             977         657.160         657.160     238.055E-03     238.055E-03    -828.560E-03    -828.560E-03
             978         657.005         657.005     219.547E-03     219.547E-03    -725.454E-03    -725.454E-03
             979         656.870         656.870     202.556E-03     202.556E-03    -630.128E-03    -630.128E-03
             980         656.752         656.752     187.199E-03     187.199E-03    -541.904E-03    -541.904E-03
             981         656.650         656.650     173.557E-03     173.557E-03    -460.055E-03    -460.055E-03
             982         656.564         656.564     161.681E-03     161.681E-03    -383.823E-03    -383.823E-03
             983         656.493         656.493     151.606E-03     151.606E-03    -312.428E-03    -312.428E-03
             984         656.436         656.436     143.349E-03     143.349E-03    -245.081E-03    -245.081E-03
             985         656.392         656.392     136.917E-03     136.917E-03    -180.975E-03    -180.975E-03
             986         656.361         656.361     132.316E-03     132.316E-03    -119.302E-03    -119.302E-03
             987         656.342         656.342     129.556E-03     129.556E-03    -59.5683E-03    -59.5683E-03
             988         667.904         667.904        -1.29423        -1.29423         5.50901         5.50901
             989         668.871         668.871        -1.62719        -1.62719         4.65042         4.65042
             990         669.588         669.588        -1.80151        -1.80151         3.65929         3.65929
             991         670.050         670.050        -1.83680        -1.83680         2.62067         2.62067
             992         670.268         670.268        -1.76149        -1.76149         1.60362         1.60362
             993         670.265         670.265        -1.60698        -1.60698     659.503E-03     659.503E-03
             994         670.070         670.070        -1.40312        -1.40312    -177.968E-03    -177.968E-03
             995         669.716         669.716        -1.17542        -1.17542    -890.388E-03    -890.388E-03
             996         669.234         669.234    -943.917E-03    -943.917E-03        -1.47182        -1.47182
             997         668.653         668.653    -722.912E-03    -722.912E-03        -1.92541        -1.92541
             998         668.000         668.000    -521.685E-03    -521.685E-03        -2.26050        -2.26050
             999         667.298         667.298    -345.284E-03    -345.284E-03        -2.49005        -2.49005
            1000         666.568         666.568    -195.643E-03    -195.643E-03        -2.62875        -2.62875
            1001         665.827         665.827    -72.4353E-03    -72.4353E-03        -2.69153        -2.69153
            1002         665.087         665.087     26.0749E-03     26.0749E-03        -2.69271        -2.69271
            1003         664.360         664.360     102.448E-03     102.448E-03        -2.64530        -2.64530
            1004         663.655         663.655     159.596E-03     159.596E-03        -2.56085        -2.56085
            1005         662.977         662.977     200.486E-03     200.486E-03        -2.44921        -2.44921
            1006         662.331         662.331     227.935E-03     227.935E-03        -2.31869        -2.31869
            1007         661.722         661.722     244.505E-03     244.505E-03        -2.17609        -2.17609
            1008         661.150         661.150     252.450E-03     252.450E-03        -2.02687        -2.02687
            1009         660.617         660.617     253.700E-03     253.700E-03        -1.87535        -1.87535
            1010         660.122         660.122     249.882E-03     249.882E-03        -1.72485        -1.72485
            1011         659.666         659.666     242.339E-03     242.339E-03        -1.57787        -1.57787
            1012         659.248         659.248     232.167E-03     232.167E-03        -1.43621        -1.43621
            1013         658.866         658.866     220.247E-03     220.247E-03        -1.30113        -1.30113
            1014         658.518         658.518     207.280E-03     207.280E-03        -1.17342        -1.17342
            1015         658.203         658.203     193.817E-03     193.817E-03        -1.05353        -1.05353
            1016         657.919         657.919     180.288E-03     180.288E-03    -941.628E-03    -941.628E-03
            1017         657.664         657.664     167.021E-03     167.021E-03    -837.648E-03    -837.648E-03
            1018         657.437         657.437     154.264E-03     154.264E-03    -741.370E-03    -741.370E-03
            1019         657.235         657.235     142.204E-03     142.204E-03    -652.439E-03    -652.439E-03
            1020         657.057         657.057     130.978E-03     130.978E-03    -570.408E-03    -570.408E-03
            1021         656.901         656.901     120.681E-03     120.681E-03    -494.760E-03    -494.760E-03
            1022         656.766         656.766     111.383E-03     111.383E-03    -424.927E-03    -424.927E-03
            1023         656.650         656.650     103.130E-03     103.130E-03    -360.306E-03    -360.306E-03
            1024         656.552         656.552     95.9520E-03     95.9520E-03    -300.271E-03    -300.271E-03
            1025         656.470         656.470     89.8659E-03     89.8659E-03    -244.180E-03    -244.180E-03
            1026         656.405         656.405     84.8849E-03     84.8849E-03    -191.385E-03    -191.385E-03
            1027         656.355         656.355     81.0043E-03     81.0043E-03    -141.237E-03    -141.237E-03
            1028         656.320         656.320     78.2161E-03     78.2161E-03    -93.0709E-03    -93.0709E-03
            1029         656.299         656.299     76.5430E-03     76.5430E-03    -46.5217E-03    -46.5217E-03
            1030         666.925         666.925    -641.423E-03    -641.423E-03         4.18603         4.18603
            1031         668.365         668.365    -814.750E-03    -814.750E-03         3.57478         3.57478
            1032         669.534         669.534    -907.893E-03    -907.893E-03         2.85679         2.85679
            1033         670.405         670.405    -930.101E-03    -930.101E-03         2.09537         2.09537
            1034         670.977         670.977    -895.341E-03    -895.341E-03         1.34283         1.34283
            1035         671.262         671.262    -819.315E-03    -819.315E-03     638.987E-03     638.987E-03
            1036         671.288         671.288    -717.220E-03    -717.220E-03     10.8211E-03     10.8211E-03
            1037         671.087         671.087    -602.236E-03    -602.236E-03    -526.332E-03    -526.332E-03
            1038         670.697         670.697    -484.737E-03    -484.737E-03    -966.671E-03    -966.671E-03
            1039         670.155         670.155    -372.260E-03    -372.260E-03        -1.31168        -1.31168
            1040         669.497         669.497    -269.661E-03    -269.661E-03        -1.56779        -1.56779
            1041         668.754         668.754    -179.663E-03    -179.663E-03        -1.74448        -1.74448
            1042         667.956         667.956    -103.302E-03    -103.302E-03        -1.85266        -1.85266
            1043         667.128         667.128    -40.4596E-03    -40.4596E-03        -1.90363        -1.90363
            1044         666.289         666.289     9.74752E-03     9.74752E-03        -1.90821        -1.90821
            1045         665.456         665.456     48.6278E-03     48.6278E-03        -1.87630        -1.87630
            1046         664.642         664.642     77.6829E-03     77.6829E-03        -1.81666        -1.81666
            1047         663.858         663.858     98.4412E-03     98.4412E-03        -1.73678        -1.73678
            1048         663.109         663.109     112.354E-03     112.354E-03        -1.64291        -1.64291
            1049         662.402         662.402     120.740E-03     120.740E-03        -1.54018        -1.54018
            1050         661.739         661.739     124.756E-03     124.756E-03        -1.43269        -1.43269
            1051         661.121         661.121     125.390E-03     125.390E-03        -1.32364        -1.32364
            1052         660.550         660.550     123.471E-03     123.471E-03        -1.21548        -1.21548
            1053         660.025         660.025     119.685E-03     119.685E-03        -1.11004        -1.11004
            1054         659.544         659.544     114.586E-03     114.586E-03        -1.00863        -1.00863
            1055         659.107         659.107     108.620E-03     108.620E-03    -912.149E-03    -912.149E-03
            1056         658.710         658.710     102.139E-03     102.139E-03    -821.150E-03    -821.150E-03
            1057         658.352         658.352     95.4200E-03     95.4200E-03    -735.934E-03    -735.934E-03
            1058         658.031         658.031     88.6762E-03     88.6762E-03    -656.593E-03    -656.593E-03
            1059         657.744         657.744     82.0711E-03     82.0711E-03    -583.062E-03    -583.062E-03
            1060         657.489         657.489     75.7276E-03     75.7276E-03    -515.158E-03    -515.158E-03
            1061         657.263         657.263     69.7369E-03     69.7369E-03    -452.605E-03    -452.605E-03
            1062         657.064         657.064     64.1653E-03     64.1653E-03    -395.063E-03    -395.063E-03
            1063         656.891         656.891     59.0598E-03     59.0598E-03    -342.146E-03    -342.146E-03
            1064         656.741         656.741     54.4534E-03     54.4534E-03    -293.433E-03    -293.433E-03
            1065         656.612         656.612     50.3672E-03     50.3672E-03    -248.480E-03    -248.480E-03
            1066         656.504         656.504     46.8158E-03     46.8158E-03    -206.831E-03    -206.831E-03
            1067         656.415         656.415     43.8067E-03     43.8067E-03    -168.018E-03    -168.018E-03
            1068         656.344         656.344     41.3452E-03     41.3452E-03    -131.570E-03    -131.570E-03
            1069         656.289         656.289     39.4397E-03     39.4397E-03    -97.0164E-03    -97.0164E-03
            1070         656.251         656.251     38.0621E-03     38.0621E-03    -63.9078E-03    -63.9078E-03
            1071         656.228         656.228     37.2052E-03     37.2052E-03    -32.0493E-03    -32.0493E-03
            1072         666.330         666.330    -225.459E-03    -225.459E-03         2.33694         2.33694
            1073         668.345         668.345    -288.144E-03    -288.144E-03         2.00524         2.00524
            1074         670.021         670.021    -322.246E-03    -322.246E-03         1.61278         1.61278
            1075         671.318         671.318    -331.052E-03    -331.052E-03         1.19498         1.19498
            1076         672.225         672.225    -319.376E-03    -319.376E-03     780.984E-03     780.984E-03
            1077         672.758         672.758    -292.764E-03    -292.764E-03     393.111E-03     393.111E-03
            1078         672.946         672.946    -256.690E-03    -256.690E-03     46.6136E-03     46.6136E-03
            1079         672.833         672.833    -215.861E-03    -215.861E-03    -249.734E-03    -249.734E-03
            1080         672.466         672.466    -174.058E-03    -174.058E-03    -492.601E-03    -492.601E-03
            1081         671.895         671.895    -133.981E-03    -133.981E-03    -682.712E-03    -682.712E-03
            1082         671.168         671.168    -97.4149E-03    -97.4149E-03    -823.664E-03    -823.664E-03
            1083         670.328         670.328    -65.3333E-03    -65.3333E-03    -920.732E-03    -920.732E-03
            1084         669.413         669.413    -38.1236E-03    -38.1236E-03    -980.056E-03    -980.056E-03
            1085         668.457         668.457    -15.7414E-03    -15.7414E-03        -1.00793        -1.00793
            1086         667.485         667.485     2.12991E-03     2.12991E-03        -1.01042        -1.01042
            1087         666.520         666.520     15.9605E-03     15.9605E-03    -993.032E-03    -993.032E-03
            1088         665.578         665.578     26.2921E-03     26.2921E-03    -960.622E-03    -960.622E-03
            1089         664.671         664.671     33.6719E-03     33.6719E-03    -917.329E-03    -917.329E-03
            1090         663.809         663.809     38.6220E-03     38.6220E-03    -866.597E-03    -866.597E-03
            1091         662.997         662.997     41.6128E-03     41.6128E-03    -811.224E-03    -811.224E-03
            1092         662.238         662.238     43.0579E-03     43.0579E-03    -753.436E-03    -753.436E-03
            1093         661.536         661.536     43.3091E-03     43.3091E-03    -694.965E-03    -694.965E-03
            1094         660.888         660.888     42.6615E-03     42.6615E-03    -637.124E-03    -637.124E-03
            1095         660.296         660.296     41.3571E-03     41.3571E-03    -580.884E-03    -580.884E-03
            1096         659.756         659.756     39.5921E-03     39.5921E-03    -526.930E-03    -526.930E-03
            1097         659.267         659.267     37.5236E-03     37.5236E-03    -475.724E-03    -475.724E-03
            1098         658.826         658.826     35.2756E-03     35.2756E-03    -427.548E-03    -427.548E-03
            1099         658.430         658.430     32.9448E-03     32.9448E-03    -382.545E-03    -382.545E-03
            1100         658.076         658.076     30.6059E-03     30.6059E-03    -340.746E-03    -340.746E-03
            1101         657.761         657.761     28.3159E-03     28.3159E-03    -302.103E-03    -302.103E-03
            1102         657.482         657.482     26.1174E-03     26.1174E-03    -266.504E-03    -266.504E-03
            1103         657.236         657.236     24.0420E-03     24.0420E-03    -233.792E-03    -233.792E-03
            1104         657.021         657.021     22.1124E-03     22.1124E-03    -203.774E-03    -203.774E-03
            1105         656.834         656.834     20.3452E-03     20.3452E-03    -176.237E-03    -176.237E-03
            1106         656.672         656.672     18.7508E-03     18.7508E-03    -150.951E-03    -150.951E-03
            1107         656.535         656.535     17.3376E-03     17.3376E-03    -127.675E-03    -127.675E-03
            1108         656.420         656.420     16.1087E-03     16.1087E-03    -106.161E-03    -106.161E-03
            1109         656.325         656.325     15.0695E-03     15.0695E-03    -86.1573E-03    -86.1573E-03
            1110         656.249         656.249     14.2176E-03     14.2176E-03    -67.4130E-03    -67.4130E-03
            1111         656.191         656.191     13.5636E-03     13.5636E-03    -49.6684E-03    -49.6684E-03
            1112         656.150         656.150     13.1094E-03     13.1094E-03    -32.6827E-03    -32.6827E-03
            1113         656.126         656.126     12.7802E-03     12.7802E-03    -16.5143E-03    -16.5143E-03
            1114         668.726         668.726        -27.2694        -27.2694         25.9207         25.9207
            1115         660.602         660.602        -21.2367        -21.2367         25.2206         25.2206
            1116         655.015         655.015        -15.9214        -15.9214         23.2480         23.2480
            1117         651.391         651.391        -11.5494        -11.5494         20.7995         20.7995
            1118         649.180         649.180        -8.07307        -8.07307         18.3198         18.3198
            1119         647.936         647.936        -5.33847        -5.33847         16.0199         16.0199
            1120         647.342         647.342        -3.19612        -3.19612         13.9807         13.9807
            1121         647.177         647.177        -1.51750        -1.51750         12.2152         12.2152
            1122         647.291         647.291    -203.896E-03    -203.896E-03         10.7060         10.7060
            1123         647.583         647.583     821.122E-03     821.122E-03         9.42339         9.42339
            1124         647.985         647.985         1.61514         1.61514         8.33453         8.33453
            1125         648.452         648.452         2.22264         2.22264         7.40835         7.40835
            1126         648.951         648.951         2.67803         2.67803         6.61706         6.61706
            1127         649.463         649.463         3.00865         3.00865         5.93688         5.93688
            1128         649.973         649.973         3.23649         3.23649         5.34785         5.34785
            1129         650.471         650.471         3.37961         3.37961         4.83359         4.83359
            1130         650.952         650.952         3.45305         3.45305         4.38077         4.38077
            1131         651.410         651.410         3.46950         3.46950         3.97869         3.97869
            1132         651.844         651.844         3.43974         3.43974         3.61878         3.61878
            1133         652.251         652.251         3.37302         3.37302         3.29425         3.29425
            1134         652.632         652.632         3.27727         3.27727         2.99974         2.99974
            1135         652.985         652.985         3.15928         3.15928         2.73098         2.73098
            1136         653.312         653.312         3.02493         3.02493         2.48464         2.48464
            1137         653.614         653.614         2.87919         2.87919         2.25802         2.25802
            1138         653.890         653.890         2.72633         2.72633         2.04899         2.04899
            1139         654.143         654.143         2.56997         2.56997         1.85580         1.85580
            1140         654.372         654.372         2.41314         2.41314         1.67698         1.67698
            1141         654.581         654.581         2.25838         2.25838         1.51131         1.51131
            1142         654.768         654.768         2.10779         2.10779         1.35770         1.35770
            1143         654.937         654.937         1.96311         1.96311         1.21517         1.21517
            1144         655.088         655.088         1.82575         1.82575         1.08285         1.08285
            1145         655.223         655.223         1.69683         1.69683     959.876E-03     959.876E-03
            1146         655.341         655.341         1.57725         1.57725     845.444E-03     845.444E-03
            1147         655.445         655.445         1.46773         1.46773     738.763E-03     738.763E-03
            1148         655.536         655.536         1.36879         1.36879     639.055E-03     639.055E-03
            1149         655.614         655.614         1.28086         1.28086     545.547E-03     545.547E-03
            1150         655.679         655.679         1.20424         1.20424     457.471E-03     457.471E-03
            1151         655.734         655.734         1.13915         1.13915     374.058E-03     374.058E-03
            1152         655.778         655.778         1.08576         1.08576     294.539E-03     294.539E-03
            1153         655.811         655.811         1.04418         1.04418     218.144E-03     218.144E-03
            1154         655.835         655.835         1.01447         1.01447     144.104E-03     144.104E-03
            1155         655.849         655.849     996.667E-03     996.667E-03     71.8307E-03     71.8307E-03
            1156         652.566         652.566        -24.9601        -24.9601         36.3330         36.3330
            1157         645.942         645.942        -17.5123        -17.5123         31.7916         31.7916
            1158         642.466         642.466        -11.8936        -11.8936         27.0980         27.0980
            1159         640.951         640.951        -7.76220        -7.76220         22.8360         22.8360
            1160         640.596         640.596        -4.72287        -4.72287         19.1955         19.1955
            1161         640.902         640.902        -2.46859        -2.46859         16.1699         16.1699
            1162         641.568         641.568    -775.329E-03    -775.329E-03         13.6864         13.6864
            1163         642.415         642.415     508.314E-03     508.314E-03         11.6568         11.6568
            1164         643.340         643.340         1.48770         1.48770         9.99810         9.99810
            1165         644.282         644.282         2.23484         2.23484         8.63865         8.63865
            1166         645.206         645.206         2.80090         2.80090         7.51917         7.51917
            1167         646.094         646.094         3.22252         3.22252         6.59140         6.59140
            1168         646.937         646.937         3.52706         3.52706         5.81676         5.81676
            1169         647.729         647.729         3.73539         3.73539         5.16444         5.16444
            1170         648.471         648.471         3.86408         3.86408         4.61003         4.61003
            1171         649.162         649.162         3.92662         3.92662         4.13423         4.13423
            1172         649.804         649.804         3.93430         3.93430         3.72182         3.72182
            1173         650.400         650.400         3.89673         3.89673         3.36084         3.36084
            1174         650.951         650.951         3.82225         3.82225         3.04191         3.04191
            1175         651.460         651.460         3.71811         3.71811         2.75767         2.75767
            1176         651.928         651.928         3.59068         3.59068         2.50237         2.50237
            1177         652.359         652.359         3.44554         3.44554         2.27150         2.27150
            1178         652.754         652.754         3.28759         3.28759         2.06153         2.06153
            1179         653.116         653.116         3.12108         3.12108         1.86966         1.86966
            1180         653.446         653.446         2.94972         2.94972         1.69367         1.69367
            1181         653.746         653.746         2.77670         2.77670         1.53179         1.53179
            1182         654.019         654.019         2.60475         2.60475         1.38254         1.38254
            1183         654.266         654.266         2.43618         2.43618         1.24470         1.24470
            1184         654.489         654.489         2.27293         2.27293         1.11724         1.11724
            1185         654.689         654.689         2.11663         2.11663     999.243E-03     999.243E-03
            1186         654.867         654.867         1.96859         1.96859     889.877E-03     889.877E-03
            1187         655.026         655.026         1.82991         1.82991     788.387E-03     788.387E-03
            1188         655.167         655.167         1.70144         1.70144     694.057E-03     694.057E-03
            1189         655.291         655.291         1.58388         1.58388     606.202E-03     606.202E-03
            1190         655.398         655.398         1.47776         1.47776     524.157E-03     524.157E-03
            1191         655.491         655.491         1.38349         1.38349     447.271E-03     447.271E-03
            1192         655.569         655.569         1.30137         1.30137     374.901E-03     374.901E-03
            1193         655.634         655.634         1.23164         1.23164     306.409E-03     306.409E-03
            1194         655.686         655.686         1.17446         1.17446     241.161E-03     241.161E-03
            1195         655.726         655.726         1.12995         1.12995     178.524E-03     178.524E-03
            1196         655.754         655.754         1.09818         1.09818     117.871E-03     117.871E-03
            1197         655.771         655.771         1.07918         1.07918     58.7218E-03     58.7218E-03
            1198         627.889         627.889        -17.0984        -17.0984         42.8360         42.8360
            1199         626.494         626.494        -10.2050        -10.2050         34.2728         34.2728
            1200         627.408         627.408        -5.69834        -5.69834         27.3452         27.3452
            1201         629.319         629.319        -2.70809        -2.70809         21.9324         21.9324
            1202         631.560         631.560    -664.094E-03    -664.094E-03         17.7437         17.7437
            1203         633.818         633.818     778.969E-03     778.969E-03         14.4991         14.4991
            1204         635.957         635.957         1.82429         1.82429         11.9708         11.9708
            1205         637.922         637.922         2.59744         2.59744         9.98648         9.98648
            1206         639.703         639.703         3.17519         3.17519         8.41602         8.41602
            1207         641.307         641.307         3.60694         3.60694         7.16250         7.16250
            1208         642.747         642.747         3.92478         3.92478         6.15283         6.15283
            1209         644.042         644.042         4.15079         4.15079         5.33202         5.33202
            1210         645.207         645.207         4.30068         4.30068         4.65814         4.65814
            1211         646.259         646.259         4.38642         4.38642         4.09927         4.09927
            1212         647.211         647.211         4.41754         4.41754         3.63085         3.63085
            1213         648.075         648.075         4.40208         4.40208         3.23398         3.23398
            1214         648.860         648.860         4.34704         4.34704         2.89406         2.89406
            1215         649.574         649.574         4.25869         4.25869         2.59979         2.59979
            1216         650.226         650.226         4.14272         4.14272         2.34241         2.34241
            1217         650.820         650.820         4.00436         4.00436         2.11515         2.11515
            1218         651.362         651.362         3.84837         3.84837         1.91273         1.91273
            1219         651.857         651.857         3.67909         3.67909         1.73104         1.73104
            1220         652.308         652.308         3.50046         3.50046         1.56689         1.56689
            1221         652.719         652.719         3.31601         3.31601         1.41777         1.41777
            1222         653.093         653.093         3.12887         3.12887         1.28169         1.28169
            1223         653.432         653.432         2.94183         2.94183         1.15707         1.15707
            1224         653.739         653.739         2.75729         2.75729         1.04262         1.04262
            1225         654.017         654.017         2.57733         2.57733     937.283E-03     937.283E-03
            1226         654.267         654.267         2.40373         2.40373     840.156E-03     840.156E-03
            1227         654.492         654.492         2.23798         2.23798     750.469E-03     750.469E-03
            1228         654.693         654.693         2.08134         2.08134     667.536E-03     667.536E-03
            1229         654.871         654.871         1.93481         1.93481     590.733E-03     590.733E-03
            1230         655.029         655.029         1.79924         1.79924     519.484E-03     519.484E-03
            1231         655.168         655.168         1.67527         1.67527     453.244E-03     453.244E-03
            1232         655.289         655.289         1.56344         1.56344     391.489E-03     391.489E-03
            1233         655.393         655.393         1.46413         1.46413     333.714E-03     333.714E-03
            1234         655.481         655.481         1.37766         1.37766     279.425E-03     279.425E-03
            1235         655.554         655.554         1.30424         1.30424     228.133E-03     228.133E-03
            1236         655.613         655.613         1.24405         1.24405     179.361E-03     179.361E-03
            1237         655.658         655.658         1.19720         1.19720     132.632E-03     132.632E-03
            1238         655.689         655.689         1.16377         1.16377     87.4770E-03     87.4770E-03
            1239         655.708         655.708         1.14379         1.14379     43.5401E-03     43.5401E-03
            1240         598.307         598.307        -4.71613        -4.71613         39.9913         39.9913
            1241         605.642         605.642    -835.033E-03    -835.033E-03         29.7088         29.7088
            1242         612.511         612.511         1.27980         1.27980         22.4900         22.4900
            1243         618.463         618.463         2.50759         2.50759         17.3560         17.3560
            1244         623.489         623.489         3.27437         3.27437         13.6320         13.6320
            1245         627.707         627.707         3.78521         3.78521         10.8782         10.8782
            1246         631.249         631.249         4.14545         4.14545         8.80852         8.80852
            1247         634.240         634.240         4.40880         4.40880         7.22875         7.22875
            1248         636.780         636.780         4.60375         4.60375         6.00685         6.00685
            1249         638.955         638.955         4.74506         4.74506         5.04960         5.04960
            1250         640.832         640.832         4.84081         4.84081         4.29091         4.29091
            1251         642.464         642.464         4.89566         4.89566         3.68258         3.68258
            1252         643.893         643.893         4.91279         4.91279         3.18930         3.18930
            1253         645.153         645.153         4.89491         4.89491         2.78472         2.78472
            1254         646.272         646.272         4.84466         4.84466         2.44909         2.44909
            1255         647.271         647.271         4.76491         4.76491         2.16742         2.16742
            1256         648.166         648.166         4.65872         4.65872         1.92832         1.92832
            1257         648.972         648.972         4.52936         4.52936         1.72307         1.72307
            1258         649.700         649.700         4.38023         4.38023         1.54498         1.54498
            1259         650.359         650.359         4.21477         4.21477         1.38888         1.38888
            1260         650.956         650.956         4.03637         4.03637         1.25082         1.25082
            1261         651.498         651.498         3.84835         3.84835         1.12771         1.12771
            1262         651.991         651.991         3.65382         3.65382         1.01715         1.01715
            1263         652.437         652.437         3.45570         3.45570     917.274E-03     917.274E-03
            1264         652.843         652.843         3.25666         3.25666     826.611E-03     826.611E-03
            1265         653.210         653.210         3.05913         3.05913     743.984E-03     743.984E-03
            1266         653.542         653.542         2.86526         2.86526     668.448E-03     668.448E-03
            1267         653.841         653.841         2.67693         2.67693     599.222E-03     599.222E-03
            1268         654.111         654.111         2.49576         2.49576     535.655E-03     535.655E-03
            1269         654.353         654.353         2.32316         2.32316     477.188E-03     477.188E-03
            1270         654.570         654.570         2.16030         2.16030     423.329E-03     423.329E-03
            1271         654.762         654.762         2.00813         2.00813     373.639E-03     373.639E-03
            1272         654.932         654.932         1.86746         1.86746     327.715E-03     327.715E-03
            1273         655.082         655.082         1.73892         1.73892     285.180E-03     285.180E-03
            1274         655.212         655.212         1.62301         1.62301     245.679E-03     245.679E-03
            1275         655.324         655.324         1.52011         1.52011     208.870E-03     208.870E-03
            1276         655.419         655.419         1.43053         1.43053     174.426E-03     174.426E-03
            1277         655.498         655.498         1.35449         1.35449     142.026E-03     142.026E-03
            1278         655.561         655.561         1.29214         1.29214     111.360E-03     111.360E-03
            1279         655.610         655.610         1.24359         1.24359     82.1248E-03     82.1248E-03
            1280         655.644         655.644         1.20895         1.20895     54.0236E-03     54.0236E-03
            1281         655.664         655.664         1.18821         1.18821     26.8309E-03     26.8309E-03
            1282         572.933         572.933         7.35443         7.35443         24.4602         24.4602
            1283         589.308         589.308         7.19904         7.19904         17.1390         17.1390
            1284         601.515         601.515         6.79445         6.79445         12.4781         12.4781
            1285         610.781         610.781         6.40769         6.40769         9.35285         9.35285
            1286         617.961         617.961         6.09992         6.09992         7.17466         7.17466
            1287         623.627         623.627         5.87459         5.87459         5.61363         5.61363
            1288         628.173         628.173         5.71759         5.71759         4.46751         4.46751
            1289         631.876         631.876         5.60998         5.60998         3.61020         3.61020
            1290         634.933         634.933         5.53411         5.53411         2.95768         2.95768
            1291         637.490         637.490         5.47475         5.47475         2.45386         2.45386
            1292         639.653         639.653         5.41995         5.41995         2.05938         2.05938
            1293         641.503         641.503         5.36064         5.36064         1.74664         1.74664
            1294         643.101         643.101         5.29043         5.29043         1.49558         1.49558
            1295         644.493         644.493         5.20517         5.20517         1.29162         1.29162
            1296         645.717         645.717         5.10257         5.10257         1.12391         1.12391
            1297         646.799         646.799         4.98181         4.98181     984.365E-03     984.365E-03
            1298         647.762         647.762         4.84327         4.84327     866.900E-03     866.900E-03
            1299         648.624         648.624         4.68817         4.68817     766.904E-03     766.904E-03
            1300         649.398         649.398         4.51837         4.51837     680.863E-03     680.863E-03
            1301         650.096         650.096         4.33613         4.33613     606.095E-03     606.095E-03
            1302         650.726         650.726         4.14397         4.14397     540.536E-03     540.536E-03
            1303         651.296         651.296         3.94450         3.94450     482.598E-03     482.598E-03
            1304         651.812         651.812         3.74033         3.74033     431.046E-03     431.046E-03
            1305         652.280         652.280         3.53398         3.53398     384.918E-03     384.918E-03
            1306         652.704         652.704         3.32784         3.32784     343.452E-03     343.452E-03
            1307         653.087         653.087         3.12408         3.12408     306.043E-03     306.043E-03
            1308         653.433         653.433         2.92471         2.92471     272.199E-03     272.199E-03
            1309         653.745         653.745         2.73147         2.73147     241.516E-03     241.516E-03
            1310         654.026         654.026         2.54590         2.54590     213.655E-03     213.655E-03
            1311         654.278         654.278         2.36933         2.36933     188.326E-03     188.326E-03
            1312         654.503         654.503         2.20288         2.20288     165.276E-03     165.276E-03
            1313         654.703         654.703         2.04748         2.04748     144.279E-03     144.279E-03
            1314         654.881         654.881         1.90390         1.90390     125.132E-03     125.132E-03
            1315         655.036         655.036         1.77275         1.77275     107.649E-03     107.649E-03
            1316         655.171         655.171         1.65452         1.65452     91.6573E-03     91.6573E-03
            1317         655.288         655.288         1.54959         1.54959     76.9958E-03     76.9958E-03
            1318         655.387         655.387         1.45824         1.45824     63.5139E-03     63.5139E-03
            1319         655.469         655.469         1.38068         1.38068     51.0702E-03     51.0702E-03
            1320         655.534         655.534         1.31708         1.31708     39.5319E-03     39.5319E-03
            1321         655.585         655.585         1.26754         1.26754     28.7750E-03     28.7750E-03
            1322         655.621         655.621         1.23213         1.23213     18.6847E-03     18.6847E-03
            1323         655.642         655.642         1.21087         1.21087     9.17802E-03     9.17802E-03
            1324         564.088         564.088         11.7906         11.7906        -1.66500        -1.66500
            1325         584.089         584.089         9.86641         9.86641        -1.45302        -1.45302
            1326         598.180         598.180         8.51514         8.51514        -1.23459        -1.23459
            1327         608.548         608.548         7.56870         7.56870        -1.05325        -1.05325
            1328         616.412         616.412         6.90715         6.90715    -904.801E-03    -904.801E-03
            1329         622.521         622.521         6.45077         6.45077    -784.575E-03    -784.575E-03
            1330         627.365         627.365         6.13653         6.13653    -686.110E-03    -686.110E-03
            1331         631.274         631.274         5.92011         5.92011    -605.358E-03    -605.358E-03
            1332         634.477         634.477         5.76675         5.76675    -538.458E-03    -538.458E-03
            1333         637.138         637.138         5.65166         5.65166    -482.807E-03    -482.807E-03
            1334         639.378         639.378         5.55597         5.55597    -436.129E-03    -436.129E-03
            1335         641.286         641.286         5.46645         5.46645    -396.754E-03    -396.754E-03
            1336         642.927         642.927         5.37360         5.37360    -363.263E-03    -363.263E-03
            1337         644.353         644.353         5.27127         5.27127    -334.550E-03    -334.550E-03
            1338         645.603         645.603         5.15565         5.15565    -309.686E-03    -309.686E-03
            1339         646.705         646.705         5.02492         5.02492    -287.927E-03    -287.927E-03
            1340         647.685         647.685         4.87864         4.87864    -268.657E-03    -268.657E-03
            1341         648.560         648.560         4.71749         4.71749    -251.376E-03    -251.376E-03
            1342         649.344         649.344         4.54291         4.54291    -235.680E-03    -235.680E-03
            1343         650.051         650.051         4.35685         4.35685    -221.244E-03    -221.244E-03
            1344         650.688         650.688         4.16159         4.16159    -207.811E-03    -207.811E-03
            1345         651.264         651.264         3.95958         3.95958    -195.179E-03    -195.179E-03
            1346         651.786         651.786         3.75329         3.75329    -183.193E-03    -183.193E-03
            1347         652.258         652.258         3.54517         3.54517    -171.737E-03    -171.737E-03
            1348         652.685         652.685         3.33751         3.33751    -160.723E-03    -160.723E-03
            1349         653.071         653.071         3.13245         3.13245    -150.089E-03    -150.089E-03
            1350         653.420         653.420         2.93195         2.93195    -139.790E-03    -139.790E-03
            1351         653.734         653.734         2.73772         2.73772    -129.793E-03    -129.793E-03
            1352         654.017         654.017         2.55128         2.55128    -120.076E-03    -120.076E-03
            1353         654.271         654.271         2.37395         2.37395    -110.620E-03    -110.620E-03
            1354         654.497         654.497         2.20683         2.20683    -101.410E-03    -101.410E-03
            1355         654.698         654.698         2.05084         2.05084    -92.4293E-03    -92.4293E-03
            1356         654.877         654.877         1.90674         1.90674    -83.6605E-03    -83.6605E-03
            1357         655.033         655.033         1.77513         1.77513    -75.0823E-03    -75.0823E-03
            1358         655.169         655.169         1.65650         1.65650    -66.6683E-03    -66.6683E-03
            1359         655.286         655.286         1.55121         1.55121    -58.3867E-03    -58.3867E-03
            1360         655.385         655.385         1.45954         1.45954    -50.1990E-03    -50.1990E-03
            1361         655.467         655.467         1.38171         1.38171    -42.0597E-03    -42.0597E-03
            1362         655.534         655.534         1.31785         1.31785    -33.9153E-03    -33.9153E-03
            1363         655.584         655.584         1.26808         1.26808    -25.7041E-03    -25.7041E-03
            1364         655.620         655.620         1.23245         1.23245    -17.3553E-03    -17.3553E-03
            1365         655.642         655.642         1.21097         1.21097    -8.80797E-03    -8.80797E-03
            1366         579.029         579.029         4.44102         4.44102        -28.1245        -28.1245
            1367         593.620         593.620         5.08234         5.08234        -20.3751        -20.3751
            1368         604.623         604.623         5.23719         5.23719        -15.2771        -15.2771
            1369         613.082         613.082         5.24007         5.24007        -11.7576        -11.7576
            1370         619.705         619.705         5.20833         5.20833        -9.24637        -9.24637
            1371         624.978         624.978         5.18205         5.18205        -7.40675        -7.40675
            1372         629.239         629.239         5.17182         5.17182        -6.03074        -6.03074
            1373         632.732         632.732         5.17402         5.17402        -4.98271        -4.98271
            1374         635.630         635.630         5.18172         5.18172        -4.17222        -4.17222
            1375         638.066         638.066         5.18669         5.18669        -3.53665        -3.53665
            1376         640.135         640.135         5.18200         5.18200        -3.03195        -3.03195
            1377         641.911         641.911         5.16202         5.16202        -2.62631        -2.62631
            1378         643.449         643.449         5.12294         5.12294        -2.29645        -2.29645
            1379         644.794         644.794         5.06243         5.06243        -2.02506        -2.02506
            1380         645.979         645.979         4.97964         4.97964        -1.79912        -1.79912
            1381         647.030         647.030         4.87481         4.87481        -1.60875        -1.60875
            1382         647.966         647.966         4.74914         4.74914        -1.44642        -1.44642
            1383         648.806         648.806         4.60450         4.60450        -1.30633        -1.30633
            1384         649.561         649.561         4.44325         4.44325        -1.18403        -1.18403
            1385         650.242         650.242         4.26807         4.26807        -1.07608        -1.07608
            1386         650.858         650.858         4.08179         4.08179    -979.837E-03    -979.837E-03
            1387         651.416         651.416         3.88728         3.88728    -893.233E-03    -893.233E-03
            1388         651.921         651.921         3.68734         3.68734    -814.681E-03    -814.681E-03
            1389         652.379         652.379         3.48466         3.48466    -742.945E-03    -742.945E-03
            1390         652.793         652.793         3.28173         3.28173    -677.058E-03    -677.058E-03
            1391         653.168         653.168         3.08084         3.08084    -616.263E-03    -616.263E-03
            1392         653.507         653.507         2.88405         2.88405    -559.955E-03    -559.955E-03
            1393         653.813         653.813         2.69316         2.69316    -507.645E-03    -507.645E-03
            1394         654.087         654.087         2.50975         2.50975    -458.928E-03    -458.928E-03
            1395         654.334         654.334         2.33518         2.33518    -413.461E-03    -413.461E-03
            1396         654.554         654.554         2.17057         2.17057    -370.943E-03    -370.943E-03
            1397         654.749         654.749         2.01686         2.01686    -331.102E-03    -331.102E-03
            1398         654.922         654.922         1.87484         1.87484    -293.684E-03    -293.684E-03
            1399         655.074         655.074         1.74510         1.74510    -258.449E-03    -258.449E-03
            1400         655.206         655.206         1.62814         1.62814    -225.159E-03    -225.159E-03
            1401         655.319         655.319         1.52431         1.52431    -193.579E-03    -193.579E-03
            1402         655.415         655.415         1.43392         1.43392    -163.472E-03    -163.472E-03
            1403         655.495         655.495         1.35714         1.35714    -134.599E-03    -134.599E-03
            1404         655.559         655.559         1.29413         1.29413    -106.715E-03    -106.715E-03
            1405         655.608         655.608         1.24499         1.24499    -79.5670E-03    -79.5670E-03
            1406         655.643         655.643         1.20976         1.20976    -52.8983E-03    -52.8983E-03
            1407         655.664         655.664         1.18845         1.18845    -26.5102E-03    -26.5102E-03
            1408         610.837         610.837        -10.0227        -10.0227        -41.6683        -41.6683
            1409         614.722         614.722        -4.91740        -4.91740        -31.9394        -31.9394
            1410         619.219         619.219        -1.85505        -1.85505        -24.8187        -24.8187
            1411         623.510         623.510     89.0622E-03     89.0622E-03        -19.5836        -19.5836
            1412         627.357         627.357         1.39080         1.39080        -15.6791        -15.6791
            1413         630.721         630.721         2.30446         2.30446        -12.7275        -12.7275
            1414         633.637         633.637         2.96897         2.96897        -10.4659        -10.4659
            1415         636.158         636.158         3.46509         3.46509        -8.71183        -8.71183
            1416         638.343         638.343         3.83927         3.83927        -7.33557        -7.33557
            1417         640.244         640.244         4.12000         4.12000        -6.24398        -6.24398
            1418         641.908         641.908         4.32485         4.32485        -5.36897        -5.36897
            1419         643.371         643.371         4.46568         4.46568        -4.66018        -4.66018
            1420         644.667         644.667         4.55090         4.55090        -4.07991        -4.07991
            1421         645.819         645.819         4.58722         4.58722        -3.59967        -3.59967
            1422         646.850         646.850         4.58031         4.58031        -3.19778        -3.19778
            1423         647.776         647.776         4.53537         4.53537        -2.85759        -2.85759
            1424         648.612         648.612         4.45728         4.45728        -2.56634        -2.56634
            1425         649.367         649.367         4.35075         4.35075        -2.31415        -2.31415
            1426         650.052         650.052         4.22029         4.22029        -2.09340        -2.09340
            1427         650.674         650.674         4.07024         4.07024        -1.89819        -1.89819
            1428         651.239         651.239         3.90471         3.90471        -1.72393        -1.72393
            1429         651.753         651.753         3.72753         3.72753        -1.56710        -1.56710
            1430         652.221         652.221         3.54229         3.54229        -1.42492        -1.42492
            1431         652.645         652.645         3.35222         3.35222        -1.29525        -1.29525
            1432         653.031         653.031         3.16028         3.16028        -1.17639        -1.17639
            1433         653.380         653.380         2.96907         2.96907        -1.06702        -1.06702
            1434         653.696         653.696         2.78089         2.78089    -966.041E-03    -966.041E-03
            1435         653.981         653.981         2.59774         2.59774    -872.588E-03    -872.588E-03
            1436         654.237         654.237         2.42133         2.42133    -785.919E-03    -785.919E-03
            1437         654.467         654.467         2.25310         2.25310    -705.400E-03    -705.400E-03
            1438         654.672         654.672         2.09427         2.09427    -630.472E-03    -630.472E-03
            1439         654.855         654.855         1.94580         1.94580    -560.625E-03    -560.625E-03
            1440         655.016         655.016         1.80852         1.80852    -495.387E-03    -495.387E-03
            1441         655.157         655.157         1.68305         1.68305    -434.304E-03    -434.304E-03
            1442         655.281         655.281         1.56989         1.56989    -376.938E-03    -376.938E-03
            1443         655.386         655.386         1.46941         1.46941    -322.856E-03    -322.856E-03
            1444         655.476         655.476         1.38191         1.38191    -271.630E-03    -271.630E-03
            1445         655.550         655.550         1.30757         1.30757    -222.829E-03    -222.829E-03
            1446         655.610         655.610         1.24655         1.24655    -176.022E-03    -176.022E-03
            1447         655.656         655.656         1.19893         1.19893    -130.774E-03    -130.774E-03
            1448         655.688         655.688         1.16478         1.16478    -86.6451E-03    -86.6451E-03
            1449         655.708         655.708         1.14408         1.14408    -43.3027E-03    -43.3027E-03
            1450         643.372         643.372        -22.1393        -22.1393        -39.1888        -39.1888
            1451         638.686         638.686        -14.8079        -14.8079        -32.9677        -32.9677
            1452         636.933         636.933        -9.60670        -9.60670        -27.3289        -27.3289
            1453         636.780         636.780        -5.93453        -5.93453        -22.5934        -22.5934
            1454         637.444         637.444        -3.29356        -3.29356        -18.7404        -18.7404
            1455         638.502         638.502        -1.35845        -1.35845        -15.6384        -15.6384
            1456         639.724         639.724     85.9519E-03     85.9519E-03        -13.1472        -13.1472
            1457         640.984         640.984         1.17827         1.17827        -11.1431        -11.1431
            1458         642.218         642.218         2.01103         2.01103        -9.52419        -9.52419
            1459         643.394         643.394         2.64594         2.64594        -8.20917        -8.20917
            1460         644.496         644.496         3.12595         3.12595        -7.13378        -7.13378
            1461         645.522         645.522         3.48144         3.48144        -6.24755        -6.24755
            1462         646.471         646.471         3.73499         3.73499        -5.51096        -5.51096
            1463         647.347         647.347         3.90384         3.90384        -4.89303        -4.89303
            1464         648.155         648.155         4.00182         4.00182        -4.36947        -4.36947
            1465         648.900         648.900         4.04032         4.04032        -3.92128        -3.92128
            1466         649.585         649.585         4.02904         4.02904        -3.53357        -3.53357
            1467         650.216         650.216         3.97639         3.97639        -3.19470        -3.19470
            1468         650.796         650.796         3.88979         3.88979        -2.89557        -2.89557
            1469         651.329         651.329         3.77580         3.77580        -2.62909        -2.62909
            1470         651.818         651.818         3.64025         3.64025        -2.38972        -2.38972
            1471         652.266         652.266         3.48835         3.48835        -2.17314        -2.17314
            1472         652.675         652.675         3.32469         3.32469        -1.97597        -1.97597
            1473         653.049         653.049         3.15331         3.15331        -1.79556        -1.79556
            1474         653.390         653.390         2.97774         2.97774        -1.62981        -1.62981
            1475         653.700         653.700         2.80105         2.80105        -1.47705        -1.47705
            1476         653.980         653.980         2.62588         2.62588        -1.33592        -1.33592
            1477         654.234         654.234         2.45447         2.45447        -1.20527        -1.20527
            1478         654.462         654.462         2.28872         2.28872        -1.08415        -1.08415
            1479         654.666         654.666         2.13019         2.13019    -971.715E-03    -971.715E-03
            1480         654.849         654.849         1.98019         1.98019    -867.220E-03    -867.220E-03
            1481         655.012         655.012         1.83977         1.83977    -769.966E-03    -769.966E-03
            1482         655.155         655.155         1.70977         1.70977    -679.297E-03    -679.297E-03
            1483         655.281         655.281         1.59085         1.59085    -594.585E-03    -594.585E-03
            1484         655.391         655.391         1.48353         1.48353    -515.214E-03    -515.214E-03
            1485         655.485         655.485         1.38821         1.38821    -440.578E-03    -440.578E-03
            1486         655.565         655.565         1.30516         1.30516    -370.075E-03    -370.075E-03
            1487         655.631         655.631         1.23460         1.23460    -303.101E-03    -303.101E-03
            1488         655.684         655.684         1.17667         1.17667    -239.053E-03    -239.053E-03
            1489         655.725         655.725         1.13147         1.13147    -177.328E-03    -177.328E-03
            1490         655.753         655.753         1.09905         1.09905    -117.319E-03    -117.319E-03
            1491         655.771         655.771         1.07941         1.07941    -58.5670E-03    -58.5670E-03
            1492         665.718         665.718        -26.8659        -26.8659        -28.0337        -28.0337
            1493         657.826         657.826        -20.5175        -20.5175        -26.5695        -26.5695
            1494         652.644         652.644        -15.1257        -15.1257        -24.0253        -24.0253
            1495         649.455         649.455        -10.8081        -10.8081        -21.1914        -21.1914
            1496         647.633         647.633        -7.43560        -7.43560        -18.4731        -18.4731
            1497         646.711         646.711        -4.81178        -4.81178        -16.0333        -16.0333
            1498         646.374         646.374        -2.76925        -2.76925        -13.9153        -13.9153
            1499         646.409         646.409        -1.17504        -1.17504        -12.1084        -12.1084
            1500         646.679         646.679     69.9037E-03     69.9037E-03        -10.5800        -10.5800
            1501         647.092         647.092         1.03999         1.03999        -9.29133        -9.29133
            1502         647.588         647.588         1.79058         1.79058        -8.20400        -8.20400
            1503         648.128         648.128         2.36392         2.36392        -7.28355        -7.28355
            1504         648.686         648.686         2.79251         2.79251        -6.50022        -6.50022
            1505         649.244         649.244         3.10211         3.10211        -5.82899        -5.82899
            1506         649.791         649.791         3.31341         3.31341        -5.24923        -5.24923
            1507         650.320         650.320         3.44348         3.44348        -4.74414        -4.74414
            1508         650.825         650.825         3.50656         3.50656        -4.30015        -4.30015
            1509         651.303         651.303         3.51470         3.51470        -3.90642        -3.90642
            1510         651.753         651.753         3.47823         3.47823        -3.55433        -3.55433
            1511         652.175         652.175         3.40602         3.40602        -3.23706        -3.23706
            1512         652.567         652.567         3.30572         3.30572        -2.94922        -2.94922
            1513         652.931         652.931         3.18393         3.18393        -2.68659        -2.68659
            1514         653.266         653.266         3.04633         3.04633        -2.44582        -2.44582
            1515         653.575         653.575         2.89782         2.89782        -2.22427        -2.22427
            1516         653.857         653.857         2.74255         2.74255        -2.01980        -2.01980
            1517         654.115         654.115         2.58408         2.58408        -1.83071        -1.83071
            1518         654.349         654.349         2.42539         2.42539        -1.65556        -1.65556
            1519         654.561         654.561         2.26899         2.26899        -1.49315        -1.49315
            1520         654.753         654.753         2.11694         2.11694        -1.34243        -1.34243
            1521         654.924         654.924         1.97097         1.97097        -1.20245        -1.20245
            1522         655.078         655.078         1.83246         1.83246        -1.07235        -1.07235
            1523         655.214         655.214         1.70253         1.70253    -951.321E-03    -951.321E-03
            1524         655.334         655.334         1.58206         1.58206    -838.567E-03    -838.567E-03
            1525         655.440         655.440         1.47173         1.47173    -733.327E-03    -733.327E-03
            1526         655.532         655.532         1.37210         1.37210    -634.844E-03    -634.844E-03
            1527         655.610         655.610         1.28355         1.28355    -542.369E-03    -542.369E-03
            1528         655.677         655.677         1.20638         1.20638    -455.150E-03    -455.150E-03
            1529         655.732         655.732         1.14081         1.14081    -372.436E-03    -372.436E-03
            1530         655.776         655.776         1.08697         1.08697    -293.473E-03    -293.473E-03
            1531         655.810         655.810         1.04499         1.04499    -217.507E-03    -217.507E-03
            1532         655.834         655.834         1.01490         1.01490    -143.781E-03    -143.781E-03
            1533         655.849         655.849     996.728E-03     996.728E-03    -71.7308E-03    -71.7308E-03
            1534         658.789         658.789     14.5705E-03     14.5705E-03        -2.24638        -2.24638
            1535         660.976         660.976     24.8291E-03     24.8291E-03        -4.00262        -4.00262
            1536         663.178         663.178     6.76972E-03     6.76972E-03        -5.29116        -5.29116
            1537         665.448         665.448    -86.1813E-03    -86.1813E-03        -6.27983        -6.27983
            1538         667.856         667.856    -321.840E-03    -321.840E-03        -7.08875        -7.08875
            1539         670.489         670.489    -794.329E-03    -794.329E-03        -7.78694        -7.78694
            1540         673.448         673.448        -1.63442        -1.63442        -8.39209        -8.39209
            1541         676.848         676.848        -3.02537        -3.02537        -8.85710        -8.85710
            1542         680.804         680.804        -5.22166        -5.22166        -9.03776        -9.03776
            1543         685.392         685.392        -8.56278        -8.56278        -8.62724        -8.62724
            1544         690.518         690.518        -13.4397        -13.4397        -7.05726        -7.05726
            1545         695.619         695.619        -20.1343        -20.1343        -3.38228        -3.38228
            1546         656.005         656.005     206.043E-03     206.043E-03        -2.06766        -2.06766
            1547         658.967         658.967     561.851E-03     561.851E-03        -3.69831        -3.69831
            1548         661.638         661.638         1.07142         1.07142        -4.93483        -4.93483
            1549         664.161         664.161         1.66877         1.66877        -5.95645        -5.95645
            1550         666.674         666.674         2.28818         2.28818        -6.90126        -6.90126
            1551         669.319         669.319         2.85419         2.85419        -7.87070        -7.87070
            1552         672.255         672.255         3.26576         3.26576        -8.93713        -8.93713
            1553         675.674         675.674         3.37174         3.37174        -10.1422        -10.1422
            1554         679.820         679.820         2.93084         2.93084        -11.4784        -11.4784
            1555         685.006         685.006         1.54585         1.54585        -12.8384        -12.8384
            1556         691.599         691.599        -1.43467        -1.43467        -13.8793        -13.8793
            1557         699.874         699.874        -6.99672        -6.99672        -13.7400        -13.7400
            1558         653.662         653.662     384.247E-03     384.247E-03        -1.56083        -1.56083
            1559         657.257         657.257         1.06341         1.06341        -2.79438        -2.79438
            1560         660.273         660.273         2.07184         2.07184        -3.74632        -3.74632
            1561         662.930         662.930         3.33493         3.33493        -4.56990        -4.56990
            1562         665.419         665.419         4.80607         4.80607        -5.38945        -5.38945
            1563         667.910         667.910         6.45610         6.45610        -6.30917        -6.30917
            1564         670.582         670.582         8.26144         8.26144        -7.42678        -7.42678
            1565         673.644         673.644         10.1879         10.1879        -8.84373        -8.84373
            1566         677.375         677.375         12.1631         12.1631        -10.6726        -10.6726
            1567         682.178         682.178         14.0208         14.0208        -13.0357        -13.0357
            1568         688.694         688.694         15.3700         15.3700        -16.0302        -16.0302
            1569         697.944         697.944         15.2795         15.2795        -19.5737        -19.5737
            1570         652.153         652.153     511.890E-03     511.890E-03    -782.096E-03    -782.096E-03
            1571         656.159         656.159         1.42339         1.42339        -1.39117        -1.39117
            1572         659.378         659.378         2.79273         2.79273        -1.85722        -1.85722
            1573         662.085         662.085         4.54371         4.54371        -2.27064        -2.27064
            1574         664.496         664.496         6.65169         6.65169        -2.70676        -2.70676
            1575         666.794         666.794         9.13554         9.13554        -3.23319        -3.23319
            1576         669.151         669.151         12.0544         12.0544        -3.92026        -3.92026
            1577         671.758         671.758         15.5096         15.5096        -4.85286        -4.85286
            1578         674.853         674.853         19.6521         19.6521        -6.14561        -6.14561
            1579         678.788         678.788         24.6934         24.6934        -7.96690        -7.96690
            1580         684.140         684.140         30.9139         30.9139        -10.5893        -10.5893
            1581         691.973         691.973         38.6174         38.6174        -14.4837        -14.4837
            1582         651.757         651.757     559.956E-03     559.956E-03     153.044E-03     153.044E-03
            1583         655.900         655.900         1.55916         1.55916     300.064E-03     300.064E-03
            1584         659.177         659.177         3.06524         3.06524     438.625E-03     438.625E-03
            1585         661.881         661.881         5.00195         5.00195     564.189E-03     564.189E-03
            1586         664.239         664.239         7.35392         7.35392     673.566E-03     673.566E-03
            1587         666.436         666.436         10.1601         10.1601     764.285E-03     764.285E-03
            1588         668.639         668.639         13.5148         13.5148     834.505E-03     834.505E-03
            1589         671.023         671.023         17.5793         17.5793     883.080E-03     883.080E-03
            1590         673.801         673.801         22.6078         22.6078     909.368E-03     909.368E-03
            1591         677.275         677.275         28.9980         28.9980     913.388E-03     913.388E-03
            1592         681.926         681.926         37.3988         37.3988     895.950E-03     895.950E-03
            1593         688.622         688.622         48.9785         48.9785     857.364E-03     857.364E-03
            1594         652.581         652.581     517.459E-03     517.459E-03         1.09332         1.09332
            1595         656.567         656.567         1.43948         1.43948         2.00099         2.00099
            1596         659.754         659.754         2.82530         2.82530         2.74802         2.74802
            1597         662.419         662.419         4.59772         4.59772         3.41573         3.41573
            1598         664.780         664.780         6.73116         6.73116         4.07312         4.07312
            1599         667.022         667.022         9.24357         9.24357         4.78282         4.78282
            1600         669.320         669.320         12.1932         12.1932         5.61166         5.61166
            1601         671.863         671.863         15.6807         15.6807         6.64212         6.64212
            1602         674.895         674.895         19.8562         19.8562         7.98781         7.98781
            1603         678.768         678.768         24.9307         24.9307         9.81705         9.81705
            1604         684.060         684.060         31.1835         31.1835         12.4032         12.4032
            1605         691.836         691.836         38.9183         38.9183         16.2206         16.2206
            1606         654.533         654.533     395.361E-03     395.361E-03         1.88745         1.88745
            1607         658.086         658.086         1.09553         1.09553         3.43322         3.43322
            1608         661.035         661.035         2.13684         2.13684         4.67770         4.67770
            1609         663.607         663.607         3.44273         3.44273         5.76504         5.76504
            1610         665.994         665.994         4.96463         4.96463         6.81331         6.81331
            1611         668.371         668.371         6.67156         6.67156         7.92189         7.92189
            1612         670.921         670.921         8.53818         8.53818         9.18503         9.18503
            1613         673.856         673.856         10.5288         10.5288         10.7021         10.7021
            1614         677.460         677.460         12.5695         12.5695         12.5847         12.5847
            1615         682.137         682.137         14.4928         14.4928         14.9554         14.9554
            1616         688.531         688.531         15.9074         15.9074         17.9121         17.9121
            1617         697.668         697.668         15.8789         15.8789         21.3741         21.3741
            1618         657.346         657.346     222.653E-03     222.653E-03         2.41991         2.41991
            1619         660.240         660.240     609.878E-03     609.878E-03         4.38544         4.38544
            1620         662.806         662.806         1.16862         1.16862         5.93368         5.93368
            1621         665.195         665.195         1.82991         1.82991         7.23474         7.23474
            1622         667.551         667.551         2.52509         2.52509         8.42059         8.42059
            1623         670.021         670.021         3.17590         3.17590         9.58799         9.58799
            1624         672.771         672.771         3.67866         3.67866         10.8061         10.8061
            1625         675.997         675.997         3.87977         3.87977         12.1147         12.1147
            1626         679.947         679.947         3.53578         3.53578         13.5057         13.5057
            1627         684.942         684.942         2.24775         2.24775         14.8726         14.8726
            1628         691.349         691.349    -637.153E-03    -637.153E-03         15.8741         15.8741
            1629         699.448         699.448        -6.10438        -6.10438         15.6491         15.6491
            1630         660.642         660.642     36.6347E-03     36.6347E-03         2.63446         2.63446
            1631         662.727         662.727     88.6307E-03     88.6307E-03         4.75722         4.75722
            1632         664.781         664.781     135.864E-03     135.864E-03         6.38419         6.38419
            1633         666.864         666.864     127.728E-03     127.728E-03         7.67403         7.67403
            1634         669.053         669.053    -7.58420E-03    -7.58420E-03         8.74092         8.74092
            1635         671.445         671.445    -367.995E-03    -367.995E-03         9.64946         9.64946
            1636         674.147         674.147        -1.08789        -1.08789         10.4144         10.4144
            1637         677.283         677.283        -2.35385        -2.35385         10.9871         10.9871
            1638         680.974         680.974        -4.42340        -4.42340         11.2234         11.2234
            1639         685.302         685.302        -7.63877        -7.63877         10.8177         10.8177
            1640         690.179         690.179        -12.3924        -12.3924         9.20514         9.20514
            1641         695.041         695.041        -18.9660        -18.9660         5.44363         5.44363
            1642         656.012         656.012     814.926E-03     814.926E-03     88.8653E-03     88.8653E-03
            1643         656.004         656.004     829.962E-03     829.962E-03     178.218E-03     178.218E-03
            1644         655.990         655.990     854.946E-03     854.946E-03     269.775E-03     269.775E-03
            1645         655.972         655.972     889.867E-03     889.867E-03     364.259E-03     364.259E-03
            1646         655.947         655.947     934.667E-03     934.667E-03     462.636E-03     462.636E-03
            1647         655.916         655.916     989.250E-03     989.250E-03     565.871E-03     565.871E-03
            1648         655.878         655.878         1.05347         1.05347     674.920E-03     674.920E-03
            1649         655.834         655.834         1.12712         1.12712     790.734E-03     790.734E-03
            1650         655.782         655.782         1.20992         1.20992     914.247E-03     914.247E-03
            1651         655.722         655.722         1.30146         1.30146         1.04638         1.04638
            1652         655.653         655.653         1.40122         1.40122         1.18806         1.18806
            1653         655.575         655.575         1.50849         1.50849         1.34016         1.34016
            1654         655.487         655.487         1.62235         1.62235         1.50358         1.50358
            1655         655.388         655.388         1.74166         1.74166         1.67918         1.67918
            1656         655.278         655.278         1.86492         1.86492         1.86784         1.86784
            1657         655.157         655.157         1.99029         1.99029         2.07042         2.07042
            1658         655.023         655.023         2.11549         2.11549         2.28782         2.28782
            1659         654.877         654.877         2.23769         2.23769         2.52098         2.52098
            1660         654.719         654.719         2.35345         2.35345         2.77092         2.77092
            1661         654.549         654.549         2.45862         2.45862         3.03877         3.03877
            1662         654.368         654.368         2.54819         2.54819         3.32583         3.32583
            1663         654.177         654.177         2.61615         2.61615         3.63365         3.63365
            1664         653.980         653.980         2.65537         2.65537         3.96410         3.96410
            1665         653.780         653.780         2.65737         2.65737         4.31945         4.31945
            1666         653.582         653.582         2.61219         2.61219         4.70248         4.70248
            1667         653.392         653.392         2.50805         2.50805         5.11657         5.11657
            1668         653.221         653.221         2.33121         2.33121         5.56576         5.56576
            1669         653.081         653.081         2.06557         2.06557         6.05476         6.05476
            1670         652.988         652.988         1.69237         1.69237         6.58884         6.58884
            1671         652.964         652.964         1.18979         1.18979         7.17348         7.17348
            1672         653.039         653.039     532.613E-03     532.613E-03         7.81381         7.81381
            1673         653.249         653.249    -308.317E-03    -308.317E-03         8.51334         8.51334
            1674         653.643         653.643        -1.36598        -1.36598         9.27190         9.27190
            1675         654.283         654.283        -2.67746        -2.67746         10.0824         10.0824
            1676         655.250         655.250        -4.28184        -4.28184         10.9251         10.9251
            1677         656.644         656.644        -6.21811        -6.21811         11.7599         11.7599
            1678         658.586         658.586        -8.51542        -8.51542         12.5135         12.5135
            1679         661.215         661.215        -11.1802        -11.1802         13.0645         13.0645
            1680         664.669         664.669        -14.1626        -14.1626         13.2217         13.2217
            1681         669.051         669.051        -17.3117        -17.3117         12.7183         12.7183
            1682         674.363         674.363        -20.3030        -20.3030         11.2147         11.2147
            1683         680.421         680.421        -22.6114        -22.6114         8.39832         8.39832
            1684         656.087         656.087     724.379E-03     724.379E-03     93.0670E-03     93.0670E-03
            1685         656.082         656.082     737.908E-03     737.908E-03     186.636E-03     186.636E-03
            1686         656.074         656.074     760.397E-03     760.397E-03     282.555E-03     282.555E-03
            1687         656.063         656.063     791.834E-03     791.834E-03     381.590E-03     381.590E-03
            1688         656.048         656.048     832.161E-03     832.161E-03     484.769E-03     484.769E-03
            1689         656.029         656.029     881.291E-03     881.291E-03     593.114E-03     593.114E-03
            1690         656.006         656.006     939.091E-03     939.091E-03     707.639E-03     707.639E-03
            1691         655.979         655.979         1.00537         1.00537     829.344E-03     829.344E-03
            1692         655.947         655.947         1.07984         1.07984     959.212E-03     959.212E-03
            1693         655.910         655.910         1.16214         1.16214         1.09821         1.09821
            1694         655.867         655.867         1.25176         1.25176         1.24726         1.24726
            1695         655.818         655.818         1.34801         1.34801         1.40729         1.40729
            1696         655.763         655.763         1.45001         1.45001         1.57917         1.57917
            1697         655.701         655.701         1.55662         1.55662         1.76373         1.76373
            1698         655.631         655.631         1.66638         1.66638         1.96177         1.96177
            1699         655.554         655.554         1.77746         1.77746         2.17405         2.17405
            1700         655.470         655.470         1.88757         1.88757         2.40130         2.40130
            1701         655.378         655.378         1.99388         1.99388         2.64420         2.64420
            1702         655.280         655.280         2.09292         2.09292         2.90343         2.90343
            1703         655.176         655.176         2.18045         2.18045         3.17965         3.17965
            1704         655.067         655.067         2.25135         2.25135         3.47356         3.47356
            1705         654.957         654.957         2.29945         2.29945         3.78589         3.78589
            1706         654.847         654.847         2.31738         2.31738         4.11745         4.11745
            1707         654.744         654.744         2.29640         2.29640         4.46916         4.46916
            1708         654.653         654.653         2.22619         2.22619         4.84206         4.84206
            1709         654.582         654.582         2.09463         2.09463         5.23730         5.23730
            1710         654.543         654.543         1.88762         1.88762         5.65609         5.65609
            1711         654.549         654.549         1.58886         1.58886         6.09952         6.09952
            1712         654.620         654.620         1.17965         1.17965         6.56829         6.56829
            1713         654.778         654.778     638.865E-03     638.865E-03         7.06213         7.06213
            1714         655.055         655.055    -57.1613E-03    -57.1613E-03         7.57888         7.57888
            1715         655.487         655.487    -934.115E-03    -934.115E-03         8.11300         8.11300
            1716         656.121         656.121        -2.01921        -2.01921         8.65327         8.65327
            1717         657.014         657.014        -3.33905        -3.33905         9.17925         9.17925
            1718         658.234         658.234        -4.91697        -4.91697         9.65657         9.65657
            1719         659.859         659.859        -6.76614        -6.76614         10.0296         10.0296
            1720         661.972         661.972        -8.88018        -8.88018         10.2143         10.2143
            1721         664.651         664.651        -11.2143        -11.2143         10.0873         10.0873
            1722         667.948         667.948        -13.6602        -13.6602         9.48505         9.48505
            1723         671.859         671.859        -16.0110        -16.0110         8.20455         8.20455
            1724         676.275         676.275        -17.9297        -17.9297         6.04608         6.04608
            1725         680.996         680.996        -18.9683        -18.9683         2.83024         2.83024
            1726         656.159         656.159     630.724E-03     630.724E-03     95.0836E-03     95.0836E-03
            1727         656.158         656.158     642.671E-03     642.671E-03     190.677E-03     190.677E-03
            1728         656.156         656.156     662.534E-03     662.534E-03     288.722E-03     288.722E-03
            1729         656.152         656.152     690.302E-03     690.302E-03     390.012E-03     390.012E-03
            1730         656.148         656.148     725.924E-03     725.924E-03     495.616E-03     495.616E-03
            1731         656.142         656.142     769.322E-03     769.322E-03     606.595E-03     606.595E-03
            1732         656.135         656.135     820.375E-03     820.375E-03     724.000E-03     724.000E-03
            1733         656.126         656.126     878.908E-03     878.908E-03     848.866E-03     848.866E-03
            1734         656.115         656.115     944.669E-03     944.669E-03     982.201E-03     982.201E-03
            1735         656.102         656.102         1.01731         1.01731         1.12499         1.12499
            1736         656.086         656.086         1.09635         1.09635         1.27818         1.27818
            1737         656.068         656.068         1.18116         1.18116         1.44267         1.44267
            1738         656.048         656.048         1.27089         1.27089         1.61931         1.61931
            1739         656.024         656.024         1.36447         1.36447         1.80888         1.80888
            1740         655.997         655.997         1.46049         1.46049         2.01209         2.01209
            1741         655.968         655.968         1.55720         1.55720         2.22956         2.22956
            1742         655.935         655.935         1.65237         1.65237         2.46181         2.46181
            1743         655.901         655.901         1.74325         1.74325         2.70924         2.70924
            1744         655.864         655.864         1.82643         1.82643         2.97215         2.97215
            1745         655.828         655.828         1.89775         1.89775         3.25068         3.25068
            1746         655.794         655.794         1.95214         1.95214         3.54485         3.54485
            1747         655.764         655.764         1.98349         1.98349         3.85450         3.85450
            1748         655.742         655.742         1.98449         1.98449         4.17930         4.17930
            1749         655.734         655.734         1.94645         1.94645         4.51870         4.51870
            1750         655.746         655.746         1.85914         1.85914         4.87191         4.87191
            1751         655.786         655.786         1.71059         1.71059         5.23775         5.23775
            1752         655.868         655.868         1.48703         1.48703         5.61452         5.61452
            1753         656.004         656.004         1.17272         1.17272         5.99976         5.99976
            1754         656.214         656.214     750.027E-03     750.027E-03         6.38977         6.38977
            1755         656.521         656.521     199.550E-03     199.550E-03         6.77901         6.77901
            1756         656.953         656.953    -499.322E-03    -499.322E-03         7.15902         7.15902
            1757         657.544         657.544        -1.36765        -1.36765         7.51704         7.51704
            1758         658.335         658.335        -2.42512        -2.42512         7.83374         7.83374
            1759         659.372         659.372        -3.68752        -3.68752         8.08057         8.08057
            1760         660.708         660.708        -5.16189        -5.16189         8.21570         8.21570
            1761         662.393         662.393        -6.83979        -6.83979         8.18035         8.18035
            1762         664.474         664.474        -8.68613        -8.68613         7.89374         7.89374
            1763         666.980         666.980        -10.6240        -10.6240         7.25289         7.25289
            1764         669.902         669.902        -12.5164        -12.5164         6.13428         6.13428
            1765         673.172         673.172        -14.1440        -14.1440         4.41212         4.41212
            1766         676.652         676.652        -15.2061        -15.2061         1.97991         1.97991
            1767         680.097         680.097        -15.2806        -15.2806        -1.23427        -1.23427
            1768         656.225         656.225     536.173E-03     536.173E-03     94.8285E-03     94.8285E-03
            1769         656.228         656.228     546.490E-03     546.490E-03     190.160E-03     190.160E-03
            1770         656.231         656.231     563.649E-03     563.649E-03     287.998E-03     287.998E-03
            1771         656.236         656.236     587.638E-03     587.638E-03     389.145E-03     389.145E-03
            1772         656.242         656.242     618.414E-03     618.414E-03     494.688E-03     494.688E-03
            1773         656.250         656.250     655.912E-03     655.912E-03     605.709E-03     605.709E-03
            1774         656.259         656.259     700.026E-03     700.026E-03     723.275E-03     723.275E-03
            1775         656.269         656.269     750.602E-03     750.602E-03     848.434E-03     848.434E-03
            1776         656.280         656.280     807.418E-03     807.418E-03     982.206E-03     982.206E-03
            1777         656.292         656.292     870.160E-03     870.160E-03         1.12558         1.12558
            1778         656.305         656.305     938.400E-03     938.400E-03         1.27948         1.27948
            1779         656.319         656.319         1.01156         1.01156         1.44481         1.44481
            1780         656.335         656.335         1.08887         1.08887         1.62236         1.62236
            1781         656.351         656.351         1.16933         1.16933         1.81285         1.81285
            1782         656.369         656.369         1.25165         1.25165         2.01689         2.01689
            1783         656.388         656.388         1.33418         1.33418         2.23495         2.23495
            1784         656.409         656.409         1.41485         1.41485         2.46733         2.46733
            1785         656.433         656.433         1.49107         1.49107         2.71416         2.71416
            1786         656.461         656.461         1.55961         1.55961         2.97534         2.97534
            1787         656.494         656.494         1.61653         1.61653         3.25049         3.25049
            1788         656.535         656.535         1.65699         1.65699         3.53896         3.53896
            1789         656.585         656.585         1.67516         1.67516         3.83969         3.83969
            1790         656.650         656.650         1.66406         1.66406         4.15124         4.15124
            1791         656.734         656.734         1.61540         1.61540         4.47164         4.47164
            1792         656.844         656.844         1.51943         1.51943         4.79827         4.79827
            1793         656.988         656.988         1.36486         1.36486         5.12777         5.12777
            1794         657.177         657.177         1.13875         1.13875         5.45574         5.45574
            1795         657.425         657.425     826.618E-03     826.618E-03         5.77647         5.77647
            1796         657.749         657.749     412.557E-03     412.557E-03         6.08246         6.08246
            1797         658.170         658.170    -120.260E-03    -120.260E-03         6.36376         6.36376
            1798         658.711         658.711    -788.856E-03    -788.856E-03         6.60712         6.60712
            1799         659.403         659.403        -1.60898        -1.60898         6.79466         6.79466
            1800         660.275         660.275        -2.59308        -2.59308         6.90242         6.90242
            1801         661.364         661.364        -3.74680        -3.74680         6.89819         6.89819
            1802         662.703         662.703        -5.06423        -5.06423         6.73979         6.73979
            1803         664.320         664.320        -6.52083        -6.52083         6.37278         6.37278
            1804         666.232         666.232        -8.06390        -8.06390         5.73077         5.73077
            1805         668.430         668.430        -9.60198        -9.60198         4.73717         4.73717
            1806         670.872         670.872        -10.9911        -10.9911         3.31428         3.31428
            1807         673.465         673.465        -12.0305        -12.0305         1.39781         1.39781
            1808         676.053         676.053        -12.4498        -12.4498        -1.04615        -1.04615
            1809         678.397         678.397        -11.9139        -11.9139        -3.97510        -3.97510
            1810         656.282         656.282     443.006E-03     443.006E-03     92.2531E-03     92.2531E-03
            1811         656.288         656.288     451.682E-03     451.682E-03     184.985E-03     184.985E-03
            1812         656.297         656.297     466.113E-03     466.113E-03     280.229E-03     280.229E-03
            1813         656.310         656.310     486.292E-03     486.292E-03     378.772E-03     378.772E-03
            1814         656.328         656.328     512.183E-03     512.183E-03     481.702E-03     481.702E-03
            1815         656.349         656.349     543.733E-03     543.733E-03     590.095E-03     590.095E-03
            1816         656.374         656.374     580.856E-03     580.856E-03     705.015E-03     705.015E-03
            1817         656.403         656.403     623.422E-03     623.422E-03     827.504E-03     827.504E-03
            1818         656.437         656.437     671.241E-03     671.241E-03     958.571E-03     958.571E-03
            1819         656.474         656.474     724.044E-03     724.044E-03         1.09919         1.09919
            1820         656.517         656.517     781.459E-03     781.459E-03         1.25027         1.25027
            1821         656.564         656.564     842.980E-03     842.980E-03         1.41267         1.41267
            1822         656.616         656.616     907.931E-03     907.931E-03         1.58714         1.58714
            1823         656.674         656.674     975.425E-03     975.425E-03         1.77433         1.77433
            1824         656.737         656.737         1.04431         1.04431         1.97475         1.97475
            1825         656.806         656.806         1.11312         1.11312         2.18872         2.18872
            1826         656.882         656.882         1.17997         1.17997         2.41636         2.41636
            1827         656.966         656.966         1.24252         1.24252         2.65752         2.65752
            1828         657.059         657.059         1.29784         1.29784         2.91176         2.91176
            1829         657.162         657.162         1.34232         1.34232         3.17822         3.17822
            1830         657.278         657.278         1.37156         1.37156         3.45563         3.45563
            1831         657.409         657.409         1.38020         1.38020         3.74215         3.74215
            1832         657.558         657.558         1.36185         1.36185         4.03531         4.03531
            1833         657.731         657.731         1.30891         1.30891         4.33187         4.33187
            1834         657.933         657.933         1.21248         1.21248         4.62764         4.62764
            1835         658.172         658.172         1.06231         1.06231         4.91733         4.91733
            1836         658.458         658.458     846.820E-03     846.820E-03         5.19425         5.19425
            1837         658.801         658.801     553.180E-03     553.180E-03         5.45000         5.45000
            1838         659.216         659.216     167.709E-03     167.709E-03         5.67407         5.67407
            1839         659.719         659.719    -323.581E-03    -323.581E-03         5.85328         5.85328
            1840         660.331         660.331    -933.893E-03    -933.893E-03         5.97106         5.97106
            1841         661.072         661.072        -1.67412        -1.67412         6.00674         6.00674
            1842         661.965         661.965        -2.55037        -2.55037         5.93446         5.93446
            1843         663.032         663.032        -3.56063        -3.56063         5.72246         5.72246
            1844         664.292         664.292        -4.69005        -4.69005         5.33229         5.33229
            1845         665.752         665.752        -5.90481        -5.90481         4.71939         4.71939
            1846         667.410         667.410        -7.14531        -7.14531         3.83479         3.83479
            1847         669.235         669.235        -8.31763        -8.31763         2.63033         2.63033
            1848         671.168         671.168        -9.28927        -9.28927         1.06771         1.06771
            1849         673.110         673.110        -9.88287        -9.88287    -869.659E-03    -869.659E-03
            1850         674.914         674.914        -9.88155        -9.88155        -3.15202        -3.15202
            1851         676.392         676.392        -9.04575        -9.04575        -5.67910        -5.67910
            1852         656.325         656.325     353.531E-03     353.531E-03     87.3576E-03     87.3576E-03
            1853         656.335         656.335     360.588E-03     360.588E-03     175.152E-03     175.152E-03
            1854         656.350         656.350     372.331E-03     372.331E-03     265.406E-03     265.406E-03
            1855         656.371         656.371     388.753E-03     388.753E-03     358.876E-03     358.876E-03
            1856         656.399         656.399     409.828E-03     409.828E-03     456.619E-03     456.619E-03
            1857         656.434         656.434     435.515E-03     435.515E-03     559.686E-03     559.686E-03
            1858         656.475         656.475     465.747E-03     465.747E-03     669.113E-03     669.113E-03
            1859         656.524         656.524     500.420E-03     500.420E-03     785.913E-03     785.913E-03
            1860         656.580         656.580     539.381E-03     539.381E-03     911.069E-03     911.069E-03
            1861         656.643         656.643     582.409E-03     582.409E-03         1.04552         1.04552
            1862         656.715         656.715     629.197E-03     629.197E-03         1.19015         1.19015
            1863         656.795         656.795     679.321E-03     679.321E-03         1.34575         1.34575
            1864         656.884         656.884     732.212E-03     732.212E-03         1.51305         1.51305
            1865         656.983         656.983     787.120E-03     787.120E-03         1.69261         1.69261
            1866         657.092         657.092     843.062E-03     843.062E-03         1.88486         1.88486
            1867         657.212         657.212     898.776E-03     898.776E-03         2.08999         2.08999
            1868         657.344         657.344     952.649E-03     952.649E-03         2.30798         2.30798
            1869         657.488         657.488         1.00265         1.00265         2.53845         2.53845
            1870         657.646         657.646         1.04623         1.04623         2.78068         2.78068
            1871         657.820         657.820         1.08025         1.08025         3.03343         3.03343
            1872         658.011         658.011         1.10085         1.10085         3.29493         3.29493
            1873         658.222         658.222         1.10335         1.10335         3.56272         3.56272
            1874         658.455         658.455         1.08215         1.08215         3.83352         3.83352
            1875         658.714         658.714         1.03058         1.03058         4.10306         4.10306
            1876         659.005         659.005     940.902E-03     940.902E-03         4.36592         4.36592
            1877         659.332         659.332     804.216E-03     804.216E-03         4.61531         4.61531
            1878         659.704         659.704     610.556E-03     610.556E-03         4.84280         4.84280
            1879         660.128         660.128     349.090E-03     349.090E-03         5.03803         5.03803
            1880         660.615         660.615     8.50139E-03     8.50139E-03         5.18839         5.18839
            1881         661.178         661.178    -422.289E-03    -422.289E-03         5.27860         5.27860
            1882         661.828         661.828    -953.053E-03    -953.053E-03         5.29037         5.29037
            1883         662.581         662.581        -1.59059        -1.59059         5.20196         5.20196
            1884         663.449         663.449        -2.33639        -2.33639         4.98801         4.98801
            1885         664.442         664.442        -3.18354        -3.18354         4.61946         4.61946
            1886         665.567         665.567        -4.11259        -4.11259         4.06435         4.06435
            1887         666.819         666.819        -5.08700        -5.08700         3.28938         3.28938
            1888         668.179         668.179        -6.04759        -6.04759         2.26333         2.26333
            1889         669.609         669.609        -6.90889        -6.90889     962.911E-03     962.911E-03
            1890         671.046         671.046        -7.55527        -7.55527    -619.578E-03    -619.578E-03
            1891         672.399         672.399        -7.84346        -7.84346        -2.46260        -2.46260
            1892         673.549         673.549        -7.61124        -7.61124        -4.50179        -4.50179
            1893         674.359         674.359        -6.69738        -6.69738        -6.61135        -6.61135
            1894         656.352         656.352     270.027E-03     270.027E-03     80.1964E-03     80.1964E-03
            1895         656.365         656.365     275.528E-03     275.528E-03     160.764E-03     160.764E-03
            1896         656.386         656.386     284.689E-03     284.689E-03     243.684E-03     243.684E-03
            1897         656.415         656.415     297.500E-03     297.500E-03     329.650E-03     329.650E-03
            1898         656.454         656.454     313.945E-03     313.945E-03     419.666E-03     419.666E-03
            1899         656.501         656.501     333.995E-03     333.995E-03     514.731E-03     514.731E-03
            1900         656.558         656.558     357.600E-03     357.600E-03     615.827E-03     615.827E-03
            1901         656.626         656.626     384.685E-03     384.685E-03     723.918E-03     723.918E-03
            1902         656.703         656.703     415.132E-03     415.132E-03     839.935E-03     839.935E-03
            1903         656.792         656.792     448.771E-03     448.771E-03     964.769E-03     964.769E-03
            1904         656.893         656.893     485.359E-03     485.359E-03         1.09925         1.09925
            1905         657.006         657.006     524.564E-03     524.564E-03         1.24414         1.24414
            1906         657.132         657.132     565.932E-03     565.932E-03         1.40008         1.40008
            1907         657.272         657.272     608.859E-03     608.859E-03         1.56759         1.56759
            1908         657.427         657.427     652.555E-03     652.555E-03         1.74701         1.74701
            1909         657.597         657.597     695.992E-03     695.992E-03         1.93848         1.93848
            1910         657.784         657.784     737.855E-03     737.855E-03         2.14183         2.14183
            1911         657.989         657.989     776.476E-03     776.476E-03         2.35656         2.35656
            1912         658.213         658.213     809.763E-03     809.763E-03         2.58173         2.58173
            1913         658.458         658.458     835.115E-03     835.115E-03         2.81590         2.81590
            1914         658.724         658.724     849.338E-03     849.338E-03         3.05695         3.05695
            1915         659.014         659.014     848.547E-03     848.547E-03         3.30200         3.30200
            1916         659.330         659.330     828.080E-03     828.080E-03         3.54725         3.54725
            1917         659.675         659.675     782.413E-03     782.413E-03         3.78776         3.78776
            1918         660.051         660.051     705.119E-03     705.119E-03         4.01730         4.01730
            1919         660.463         660.463     588.862E-03     588.862E-03         4.22814         4.22814
            1920         660.914         660.914     425.494E-03     425.494E-03         4.41073         4.41073
            1921         661.411         661.411     206.264E-03     206.264E-03         4.55356         4.55356
            1922         661.959         661.959    -77.7531E-03    -77.7531E-03         4.64286         4.64286
            1923         662.564         662.564    -434.985E-03    -434.985E-03         4.66243         4.66243
            1924         663.233         663.233    -872.300E-03    -872.300E-03         4.59345         4.59345
            1925         663.972         663.972        -1.39350        -1.39350         4.41465         4.41465
            1926         664.786         664.786        -1.99728        -1.99728         4.10247         4.10247
            1927         665.675         665.675        -2.67449        -2.67449         3.63195         3.63195
            1928         666.635         666.635        -3.40509        -3.40509         2.97813         2.97813
            1929         667.653         667.653        -4.15436        -4.15436         2.11859         2.11859
            1930         668.702         668.702        -4.86998        -4.86998         1.03740         1.03740
            1931         669.742         669.742        -5.47912        -5.47912    -269.677E-03    -269.677E-03
            1932         670.716         670.716        -5.88890        -5.88890        -1.78713        -1.78713
            1933         671.549         671.549        -5.99017        -5.99017        -3.47156        -3.47156
            1934         672.153         672.153        -5.66779        -5.66779        -5.24103        -5.24103
            1935         672.441         672.441        -4.82022        -4.82022        -6.96793        -6.96793
            1936         656.359         656.359     194.691E-03     194.691E-03     70.8793E-03     70.8793E-03
            1937         656.374         656.374     198.745E-03     198.745E-03     142.043E-03     142.043E-03
            1938         656.401         656.401     205.500E-03     205.500E-03     215.384E-03     215.384E-03
            1939         656.438         656.438     214.945E-03     214.945E-03     291.514E-03     291.514E-03
            1940         656.486         656.486     227.074E-03     227.074E-03     371.353E-03     371.353E-03
            1941         656.546         656.546     241.865E-03     241.865E-03     455.818E-03     455.818E-03
            1942         656.618         656.618     259.288E-03     259.288E-03     545.813E-03     545.813E-03
            1943         656.703         656.703     279.291E-03     279.291E-03     642.224E-03     642.224E-03
            1944         656.802         656.802     301.790E-03     301.790E-03     745.908E-03     745.908E-03
            1945         656.915         656.915     326.664E-03     326.664E-03     857.686E-03     857.686E-03
            1946         657.043         657.043     353.734E-03     353.734E-03     978.324E-03     978.324E-03
            1947         657.188         657.188     382.757E-03     382.757E-03         1.10852         1.10852
            1948         657.350         657.350     413.394E-03     413.394E-03         1.24886         1.24886
            1949         657.530         657.530     445.195E-03     445.195E-03         1.39981         1.39981
            1950         657.730         657.730     477.561E-03     477.561E-03         1.56166         1.56166
            1951         657.950         657.950     509.715E-03     509.715E-03         1.73448         1.73448
            1952         658.192         658.192     540.652E-03     540.652E-03         1.91807         1.91807
            1953         658.458         658.458     569.094E-03     569.094E-03         2.11186         2.11186
            1954         658.747         658.747     593.431E-03     593.431E-03         2.31484         2.31484
            1955         659.062         659.062     611.655E-03     611.655E-03         2.52547         2.52547
            1956         659.404         659.404     621.288E-03     621.288E-03         2.74151         2.74151
            1957         659.774         659.774     619.315E-03     619.315E-03         2.95995         2.95995
            1958         660.174         660.174     602.104E-03     602.104E-03         3.17675         3.17675
            1959         660.604         660.604     565.360E-03     565.360E-03         3.38675         3.38675
            1960         661.066         661.066     504.081E-03     504.081E-03         3.58342         3.58342
            1961         661.561         661.561     412.582E-03     412.582E-03         3.75865         3.75865
            1962         662.092         662.092     284.581E-03     284.581E-03         3.90257         3.90257
            1963         662.658         662.658     113.408E-03     113.408E-03         4.00330         4.00330
            1964         663.262         663.262    -107.623E-03    -107.623E-03         4.04689         4.04689
            1965         663.904         663.904    -384.616E-03    -384.616E-03         4.01720         4.01720
            1966         664.584         664.584    -722.187E-03    -722.187E-03         3.89604         3.89604
            1967         665.300         665.300        -1.12222        -1.12222         3.66351         3.66351
            1968         666.048         666.048        -1.58215        -1.58215         3.29872         3.29872
            1969         666.822         666.822        -2.09299        -2.09299         2.78102         2.78102
            1970         667.608         667.608        -2.63677        -2.63677         2.09194         2.09194
            1971         668.387         668.387        -3.18434        -3.18434         1.21806         1.21806
            1972         669.130         669.130        -3.69305        -3.69305     154.744E-03     154.744E-03
            1973         669.799         669.799        -4.10613        -4.10613        -1.08861        -1.08861
            1974         670.347         670.347        -4.35367        -4.35367        -2.48321        -2.48321
            1975         670.718         670.718        -4.35729        -4.35729        -3.97428        -3.97428
            1976         670.854         670.854        -4.03982        -4.03982        -5.47659        -5.47659
            1977         670.705         670.705        -3.33908        -3.33908        -6.87230        -6.87230
            1978         656.342         656.342     129.584E-03     129.584E-03     59.5808E-03     59.5808E-03
            1979         656.361         656.361     132.344E-03     132.344E-03     119.327E-03     119.327E-03
            1980         656.392         656.392     136.946E-03     136.946E-03     181.013E-03     181.013E-03
            1981         656.436         656.436     143.380E-03     143.380E-03     245.133E-03     245.133E-03
            1982         656.493         656.493     151.639E-03     151.639E-03     312.494E-03     312.494E-03
            1983         656.564         656.564     161.716E-03     161.716E-03     383.904E-03     383.904E-03
            1984         656.650         656.650     173.595E-03     173.595E-03     460.153E-03     460.153E-03
            1985         656.752         656.752     187.241E-03     187.241E-03     542.020E-03     542.020E-03
            1986         656.870         656.870     202.603E-03     202.603E-03     630.264E-03     630.264E-03
            1987         657.005         657.005     219.599E-03     219.599E-03     725.612E-03     725.612E-03
            1988         657.160         657.160     238.113E-03     238.113E-03     828.743E-03     828.743E-03
            1989         657.334         657.334     257.979E-03     257.979E-03     940.275E-03     940.275E-03
            1990         657.530         657.530     278.969E-03     278.969E-03         1.06074         1.06074
            1991         657.749         657.749     300.774E-03     300.774E-03         1.19054         1.19054
            1992         657.992         657.992     322.983E-03     322.983E-03         1.32993         1.32993
            1993         658.261         658.261     345.055E-03     345.055E-03         1.47898         1.47898
            1994         658.557         658.557     366.292E-03     366.292E-03         1.63747         1.63747
            1995         658.881         658.881     385.798E-03     385.798E-03         1.80485         1.80485
            1996         659.236         659.236     402.440E-03     402.440E-03         1.98018         1.98018
            1997         659.622         659.622     414.800E-03     414.800E-03         2.16198         2.16198
            1998         660.040         660.040     421.120E-03     421.120E-03         2.34811         2.34811
            1999         660.491         660.491     419.256E-03     419.256E-03         2.53568         2.53568
            2000         660.975         660.975     406.621E-03     406.621E-03         2.72085         2.72085
            2001         661.493         661.493     380.146E-03     380.146E-03         2.89862         2.89862
            2002         662.044         662.044     336.261E-03     336.261E-03         3.06273         3.06273
            2003         662.627         662.627     270.908E-03     270.908E-03         3.20538         3.20538
            2004         663.240         663.240     179.624E-03     179.624E-03         3.31708         3.31708
            2005         663.881         663.881     57.6948E-03     57.6948E-03         3.38653         3.38653
            2006         664.545         664.545    -99.5426E-03    -99.5426E-03         3.40050         3.40050
            2007         665.229         665.229    -296.239E-03    -296.239E-03         3.34391         3.34391
            2008         665.924         665.924    -535.354E-03    -535.354E-03         3.20008         3.20008
            2009         666.623         666.623    -817.690E-03    -817.690E-03         2.95125         2.95125
            2010         667.312         667.312        -1.14071        -1.14071         2.57952         2.57952
            2011         667.977         667.977        -1.49696        -1.49696         2.06827         2.06827
            2012         668.599         668.599        -1.87257        -1.87257         1.40430         1.40430
            2013         669.151         669.151        -2.24553        -2.24553     580.533E-03     580.533E-03
            2014         669.607         669.607        -2.58468        -2.58468    -400.267E-03    -400.267E-03
            2015         669.930         669.930        -2.84942        -2.84942        -1.52163        -1.52163
            2016         670.084         670.084        -2.99132        -2.99132        -2.74878        -2.74878
            2017         670.031         670.031        -2.95810        -2.95810        -4.02517        -4.02517
            2018         669.739         669.739        -2.70039        -2.70039        -5.27060        -5.27060
            2019         669.188         669.188        -2.18220        -2.18220        -6.38226        -6.38226
            2020         656.299         656.299     76.5592E-03     76.5592E-03     46.5315E-03     46.5315E-03
            2021         656.320         656.320     78.2327E-03     78.2327E-03     93.0906E-03     93.0906E-03
            2022         656.355         656.355     81.0216E-03     81.0216E-03     141.266E-03     141.266E-03
            2023         656.405         656.405     84.9030E-03     84.9030E-03     191.425E-03     191.425E-03
            2024         656.470         656.470     89.8853E-03     89.8853E-03     244.232E-03     244.232E-03
            2025         656.551         656.551     95.9729E-03     95.9729E-03     300.335E-03     300.335E-03
            2026         656.650         656.650     103.153E-03     103.153E-03     360.383E-03     360.383E-03
            2027         656.766         656.766     111.408E-03     111.408E-03     425.018E-03     425.018E-03
            2028         656.901         656.901     120.709E-03     120.709E-03     494.868E-03     494.868E-03
            2029         657.057         657.057     131.009E-03     131.009E-03     570.533E-03     570.533E-03
            2030         657.235         657.235     142.239E-03     142.239E-03     652.584E-03     652.584E-03
            2031         657.437         657.437     154.303E-03     154.303E-03     741.537E-03     741.537E-03
            2032         657.664         657.664     167.065E-03     167.065E-03     837.840E-03     837.840E-03
            2033         657.919         657.919     180.338E-03     180.338E-03     941.848E-03     941.848E-03
            2034         658.203         658.203     193.874E-03     193.874E-03         1.05378         1.05378
            2035         658.518         658.518     207.344E-03     207.344E-03         1.17371         1.17371
            2036         658.866         658.866     220.320E-03     220.320E-03         1.30146         1.30146
            2037         659.248         659.248     232.252E-03     232.252E-03         1.43659         1.43659
            2038         659.667         659.667     242.437E-03     242.437E-03         1.57830         1.57830
            2039         660.123         660.123     249.996E-03     249.996E-03         1.72534         1.72534
            2040         660.617         660.617     253.833E-03     253.833E-03         1.87591         1.87591
            2041         661.151         661.151     252.607E-03     252.607E-03         2.02752         2.02752
            2042         661.723         661.723     244.694E-03     244.694E-03         2.17683         2.17683
            2043         662.333         662.333     228.165E-03     228.165E-03         2.31956         2.31956
            2044         662.978         662.978     200.769E-03     200.769E-03         2.45022         2.45022
            2045         663.656         663.656     159.949E-03     159.949E-03         2.56203         2.56203
            2046         664.362         664.362     102.888E-03     102.888E-03         2.64670         2.64670
            2047         665.089         665.089     26.6258E-03     26.6258E-03         2.69437         2.69437
            2048         665.829         665.829    -71.7521E-03    -71.7521E-03         2.69353         2.69353
            2049         666.571         666.571    -194.805E-03    -194.805E-03         2.63115         2.63115
            2050         667.302         667.302    -344.281E-03    -344.281E-03         2.49295         2.49295
            2051         668.004         668.004    -520.514E-03    -520.514E-03         2.26399         2.26399
            2052         668.657         668.657    -721.602E-03    -721.602E-03         1.92959         1.92959
            2053         669.239         669.239    -942.517E-03    -942.517E-03         1.47677         1.47677
            2054         669.722         669.722        -1.17402        -1.17402     896.144E-03     896.144E-03
            2055         670.077         670.077        -1.40183        -1.40183     184.525E-03     184.525E-03
            2056         670.273         670.273        -1.60594        -1.60594    -652.215E-03    -652.215E-03
            2057         670.277         670.277        -1.76079        -1.76079        -1.59575        -1.59575
            2058         670.061         670.061        -1.83649        -1.83649        -2.61237        -2.61237
            2059         669.601         669.601        -1.80152        -1.80152        -3.65076        -3.65076
            2060         668.886         668.886        -1.62715        -1.62715        -4.64170        -4.64170
            2061         667.920         667.920        -1.29322        -1.29322        -5.50059        -5.50059
            2062         656.228         656.228     37.2131E-03     37.2131E-03     32.0561E-03     32.0561E-03
            2063         656.251         656.251     38.0702E-03     38.0702E-03     63.9213E-03     63.9213E-03
            2064         656.289         656.289     39.4481E-03     39.4481E-03     97.0370E-03     97.0370E-03
            2065         656.344         656.344     41.3541E-03     41.3541E-03     131.598E-03     131.598E-03
            2066         656.415         656.415     43.8161E-03     43.8161E-03     168.054E-03     168.054E-03
            2067         656.504         656.504     46.8260E-03     46.8260E-03     206.875E-03     206.875E-03
            2068         656.612         656.612     50.3783E-03     50.3783E-03     248.534E-03     248.534E-03
            2069         656.741         656.741     54.4657E-03     54.4657E-03     293.496E-03     293.496E-03
            2070         656.891         656.891     59.0734E-03     59.0734E-03     342.221E-03     342.221E-03
            2071         657.064         657.064     64.1805E-03     64.1805E-03     395.150E-03     395.150E-03
            2072         657.263         657.263     69.7539E-03     69.7539E-03     452.706E-03     452.706E-03
            2073         657.489         657.489     75.7468E-03     75.7468E-03     515.274E-03     515.274E-03
            2074         657.744         657.744     82.0928E-03     82.0928E-03     583.197E-03     583.197E-03
            2075         658.031         658.031     88.7008E-03     88.7008E-03     656.747E-03     656.747E-03
            2076         658.353         658.353     95.4480E-03     95.4480E-03     736.111E-03     736.111E-03
            2077         658.711         658.711     102.171E-03     102.171E-03     821.353E-03     821.353E-03
            2078         659.107         659.107     108.657E-03     108.657E-03     912.381E-03     912.381E-03
            2079         659.545         659.545     114.628E-03     114.628E-03         1.00890         1.00890
            2080         660.026         660.026     119.734E-03     119.734E-03         1.11034         1.11034
            2081         660.551         660.551     123.528E-03     123.528E-03         1.21583         1.21583
            2082         661.122         661.122     125.456E-03     125.456E-03         1.32404         1.32404
            2083         661.740         661.740     124.835E-03     124.835E-03         1.43315         1.43315
            2084         662.403         662.403     120.836E-03     120.836E-03         1.54072         1.54072
            2085         663.111         663.111     112.472E-03     112.472E-03         1.64354         1.64354
            2086         663.860         663.860     98.5871E-03     98.5871E-03         1.73752         1.73752
            2087         664.645         664.645     77.8652E-03     77.8652E-03         1.81754         1.81754
            2088         665.459         665.459     48.8569E-03     48.8569E-03         1.87735         1.87735
            2089         666.292         666.292     10.0343E-03     10.0343E-03         1.90947         1.90947
            2090         667.131         667.131    -40.1028E-03    -40.1028E-03         1.90517         1.90517
            2091         667.961         667.961    -102.865E-03    -102.865E-03         1.85453         1.85453
            2092         668.759         668.759    -179.141E-03    -179.141E-03         1.74674         1.74674
            2093         669.503         669.503    -269.057E-03    -269.057E-03         1.57052         1.57052
            2094         670.162         670.162    -371.587E-03    -371.587E-03         1.31495         1.31495
            2095         670.706         670.706    -484.029E-03    -484.029E-03     970.524E-03     970.524E-03
            2096         671.097         671.097    -601.534E-03    -601.534E-03     530.789E-03     530.789E-03
            2097         671.300         671.300    -716.592E-03    -716.592E-03    -5.77888E-03    -5.77888E-03
            2098         671.276         671.276    -818.815E-03    -818.815E-03    -633.436E-03    -633.436E-03
            2099         670.993         670.993    -895.037E-03    -895.037E-03        -1.33689        -1.33689
            2100         670.424         670.424    -930.003E-03    -930.003E-03        -2.08917        -2.08917
            2101         669.555         669.555    -907.984E-03    -907.984E-03        -2.85048        -2.85048
            2102         668.389         668.389    -814.841E-03    -814.841E-03        -3.56839        -3.56839
            2103         666.951         666.951    -640.597E-03    -640.597E-03        -4.17957        -4.17957
            2104         656.126         656.126     12.7829E-03     12.7829E-03     16.5178E-03     16.5178E-03
            2105         656.150         656.150     13.1122E-03     13.1122E-03     32.6896E-03     32.6896E-03
            2106         656.191         656.191     13.5665E-03     13.5665E-03     49.6790E-03     49.6790E-03
            2107         656.249         656.249     14.2206E-03     14.2206E-03     67.4274E-03     67.4274E-03
            2108         656.324         656.324     15.0727E-03     15.0727E-03     86.1758E-03     86.1758E-03
            2109         656.419         656.419     16.1122E-03     16.1122E-03     106.183E-03     106.183E-03
            2110         656.535         656.535     17.3414E-03     17.3414E-03     127.702E-03     127.702E-03
            2111         656.672         656.672     18.7550E-03     18.7550E-03     150.984E-03     150.984E-03
            2112         656.834         656.834     20.3498E-03     20.3498E-03     176.276E-03     176.276E-03
            2113         657.021         657.021     22.1176E-03     22.1176E-03     203.819E-03     203.819E-03
            2114         657.236         657.236     24.0478E-03     24.0478E-03     233.844E-03     233.844E-03
            2115         657.482         657.482     26.1240E-03     26.1240E-03     266.565E-03     266.565E-03
            2116         657.761         657.761     28.3234E-03     28.3234E-03     302.173E-03     302.173E-03
            2117         658.076         658.076     30.6144E-03     30.6144E-03     340.826E-03     340.826E-03
            2118         658.430         658.430     32.9544E-03     32.9544E-03     382.637E-03     382.637E-03
            2119         658.826         658.826     35.2865E-03     35.2865E-03     427.654E-03     427.654E-03
            2120         659.268         659.268     37.5362E-03     37.5362E-03     475.845E-03     475.845E-03
            2121         659.757         659.757     39.6066E-03     39.6066E-03     527.069E-03     527.069E-03
            2122         660.297         660.297     41.3738E-03     41.3738E-03     581.043E-03     581.043E-03
            2123         660.889         660.889     42.6811E-03     42.6811E-03     637.308E-03     637.308E-03
            2124         661.537         661.537     43.3323E-03     43.3323E-03     695.177E-03     695.177E-03
            2125         662.240         662.240     43.0856E-03     43.0856E-03     753.682E-03     753.682E-03
            2126         662.998         662.998     41.6464E-03     41.6464E-03     811.511E-03     811.511E-03
            2127         663.811         663.811     38.6634E-03     38.6634E-03     866.934E-03     866.934E-03
            2128         664.673         664.673     33.7235E-03     33.7235E-03     917.728E-03     917.728E-03
            2129         665.580         665.580     26.3569E-03     26.3569E-03     961.098E-03     961.098E-03
            2130         666.523         666.523     16.0421E-03     16.0421E-03     993.605E-03     993.605E-03
            2131         667.489         667.489     2.23256E-03     2.23256E-03         1.01111         1.01111
            2132         668.461         668.461    -15.6137E-03    -15.6137E-03         1.00878         1.00878
            2133         669.419         669.419    -37.9671E-03    -37.9671E-03     981.090E-03     981.090E-03
            2134         670.334         670.334    -65.1466E-03    -65.1466E-03     921.994E-03     921.994E-03
            2135         671.176         671.176    -97.1988E-03    -97.1988E-03     825.192E-03     825.192E-03
            2136         671.904         671.904    -133.743E-03    -133.743E-03     684.544E-03     684.544E-03
            2137         672.477         672.477    -173.807E-03    -173.807E-03     494.760E-03     494.760E-03
            2138         672.846         672.846    -215.618E-03    -215.618E-03     252.230E-03     252.230E-03
            2139         672.962         672.962    -256.472E-03    -256.472E-03    -43.8024E-03    -43.8024E-03
            2140         672.776         672.776    -292.602E-03    -292.602E-03    -390.024E-03    -390.024E-03
            2141         672.247         672.247    -319.278E-03    -319.278E-03    -777.703E-03    -777.703E-03
            2142         671.342         671.342    -331.053E-03    -331.053E-03        -1.19159        -1.19159
            2143         670.049         670.049    -322.301E-03    -322.301E-03        -1.60938        -1.60938
            2144         668.376         668.376    -288.257E-03    -288.257E-03        -2.00189        -2.00189
            2145         666.365         666.365    -225.155E-03    -225.155E-03        -2.33377        -2.33377
            2146         621.514         621.514         179.557         179.557        -48.1759        -48.1759
            2147         628.225         628.225         163.366         163.366        -47.8668        -47.8668
            2148         634.746         634.746         147.126         147.126        -46.2581        -46.2581
            2149         640.841         640.841         131.239         131.239        -43.8268        -43.8268
            2150         646.370         646.370         116.005         116.005        -40.6927        -40.6927
            2151         651.222         651.222         101.670         101.670        -36.9839        -36.9839
            2152         655.325         655.325         88.4243         88.4243        -32.8910        -32.8910
            2153         658.690         658.690         76.3651         76.3651        -28.5906        -28.5906
            2154         661.326         661.326         65.5390         65.5390        -24.2524        -24.2524
            2155         663.318         663.318         55.9234         55.9234        -20.0220        -20.0220
            2156         664.729         664.729         47.4624         47.4624        -16.0008        -16.0008
            2157         665.657         665.657         40.0741         40.0741        -12.2702        -12.2702
            2158         666.178         666.178         33.6605         33.6605        -8.86702        -8.86702
            2159         666.374         666.374         28.1262         28.1262        -5.81660        -5.81660
            2160         666.309         666.309         23.3703         23.3703        -3.11482        -3.11482
            2161         666.042         666.042         19.3052         19.3052    -752.525E-03    -752.525E-03
            2162         665.618         665.618         15.8430         15.8430         1.29440         1.29440
            2163         665.077         665.077         12.9094         12.9094         3.05119         3.05119
            2164         664.451         664.451         10.4324         10.4324         4.54890         4.54890
            2165         663.764         663.764         8.35065         8.35065         5.81759         5.81759
            2166         663.037         663.037         6.60554         6.60554         6.88840         6.88840
            2167         662.288         662.288         5.14609         5.14609         7.79058         7.79058
            2168         661.530         661.530         3.92366         3.92366         8.55243         8.55243
            2169         660.775         660.775         2.89462         2.89462         9.20023         9.20023
            2170         660.037         660.037         2.01698         2.01698         9.75873         9.75873
            2171         659.326         659.326         1.25163         1.25163         10.2509         10.2509
            2172         658.657         658.657     560.142E-03     560.142E-03         10.6983         10.6983
            2173         658.043         658.043    -94.7500E-03    -94.7500E-03         11.1209         11.1209
            2174         657.503         657.503    -750.684E-03    -750.684E-03         11.5374         11.5374
            2175         657.060         657.060        -1.44577        -1.44577         11.9652         11.9652
            2176         656.743         656.743        -2.21958        -2.21958         12.4192         12.4192
            2177         656.588         656.588        -3.11366        -3.11366         12.9117         12.9117
            2178         656.644         656.644        -4.17176        -4.17176         13.4498         13.4498
            2179         656.972         656.972        -5.44025        -5.44025         14.0326         14.0326
            2180         657.652         657.652        -6.96617        -6.96617         14.6456         14.6456
            2181         658.782         658.782        -8.79528        -8.79528         15.2530         15.2530
            2182         660.482         660.482        -10.9624        -10.9624         15.7848         15.7848
            2183         662.890         662.890        -13.4788        -13.4788         16.1226         16.1226
            2184         666.143         666.143        -16.2981        -16.2981         16.0774         16.0774
            2185         670.341         670.341        -19.2725        -19.2725         15.3842         15.3842
            2186         675.483         675.483        -22.0786        -22.0786         13.7048         13.7048
            2187         681.383         681.383        -24.1909        -24.1909         10.7286         10.7286
            2188         623.336         623.336         179.169         179.169        -55.0743        -55.0743
            2189         630.389         630.389         162.041         162.041        -54.6757        -54.6757
            2190         637.154         637.154         144.865         144.865        -52.6802        -52.6802
            2191         643.411         643.411         128.116         128.116        -49.7007        -49.7007
            2192         648.965         648.965         112.169         112.169        -45.8467        -45.8467
            2193         653.687         653.687         97.3315         97.3315        -41.3533        -41.3533
            2194         657.554         657.554         83.7862         83.7862        -36.4429        -36.4429
            2195         660.553         660.553         71.6430         71.6430        -31.3595        -31.3595
            2196         662.787         662.787         60.8980         60.8980        -26.3141        -26.3141
            2197         664.327         664.327         51.4983         51.4983        -21.4605        -21.4605
            2198         665.308         665.308         43.3450         43.3450        -16.9260        -16.9260
            2199         665.827         665.827         36.3148         36.3148        -12.7691        -12.7691
            2200         665.992         665.992         30.2888         30.2888        -9.03478        -9.03478
            2201         665.884         665.884         25.1390         25.1390        -5.72198        -5.72198
            2202         665.577         665.577         20.7595         20.7595        -2.82479        -2.82479
            2203         665.127         665.127         17.0429         17.0429    -314.678E-03    -314.678E-03
            2204         664.577         664.577         13.9034         13.9034         1.83727         1.83727
            2205         663.963         663.963         11.2571         11.2571         3.66841         3.66841
            2206         663.311         663.311         9.03606         9.03606         5.21421         5.21421
            2207         662.641         662.641         7.17544         7.17544         6.51161         6.51161
            2208         661.968         661.968         5.62103         5.62103         7.59475         7.59475
            2209         661.306         661.306         4.32135         4.32135         8.49634         8.49634
            2210         660.665         660.665         3.23168         3.23168         9.24611         9.24611
            2211         660.054         660.054         2.30922         2.30922         9.87141         9.87141
            2212         659.482         659.482         1.51510         1.51510         10.3969         10.3969
            2213         658.960         658.960     811.492E-03     811.492E-03         10.8447         10.8447
            2214         658.499         658.499     162.462E-03     162.462E-03         11.2344         11.2344
            2215         658.114         658.114    -467.782E-03    -467.782E-03         11.5835         11.5835
            2216         657.823         657.823        -1.11460        -1.11460         11.9066         11.9066
            2217         657.648         657.648        -1.81388        -1.81388         12.2156         12.2156
            2218         657.618         657.618        -2.60191        -2.60191         12.5188         12.5188
            2219         657.770         657.770        -3.51546        -3.51546         12.8196         12.8196
            2220         658.149         658.149        -4.59124        -4.59124         13.1142         13.1142
            2221         658.811         658.811        -5.86407        -5.86407         13.3885         13.3885
            2222         659.821         659.821        -7.36426        -7.36426         13.6135         13.6135
            2223         661.257         661.257        -9.11092        -9.11092         13.7378         13.7378
            2224         663.199         663.199        -11.1026        -11.1026         13.6811         13.6811
            2225         665.724         665.724        -13.2987        -13.2987         13.3228         13.3228
            2226         668.883         668.883        -15.5940        -15.5940         12.5017         12.5017
            2227         672.669         672.669        -17.7842        -17.7842         11.0169         11.0169
            2228         676.972         676.972        -19.5339        -19.5339         8.67092         8.67092
            2229         681.588         681.588        -20.3966        -20.3966         5.28739         5.28739
            2230         625.725         625.725         178.695         178.695        -62.3531        -62.3531
            2231         633.124         633.124         160.420         160.420        -61.7952        -61.7952
            2232         640.206         640.206         142.064         142.064        -59.3469        -59.3469
            2233         646.603         646.603         124.259         124.259        -55.6323        -55.6323
            2234         652.105         652.105         107.491         107.491        -50.9187        -50.9187
            2235         656.614         656.614         92.0922         92.0922        -45.4620        -45.4620
            2236         660.065         660.065         78.2931         78.2931        -39.6104        -39.6104
            2237         662.579         662.579         66.1344         66.1344        -33.6660        -33.6660
            2238         664.233         664.233         55.5833         55.5833        -27.8655        -27.8655
            2239         665.216         665.216         46.5177         46.5177        -22.4066        -22.4066
            2240         665.653         665.653         38.7793         38.7793        -17.3806        -17.3806
            2241         665.698         665.698         32.2138         32.2138        -12.8623        -12.8623
            2242         665.455         665.455         26.6525         26.6525        -8.85349        -8.85349
            2243         665.021         665.021         21.9628         21.9628        -5.35254        -5.35254
            2244         664.462         664.462         18.0087         18.0087        -2.32350        -2.32350
            2245         663.832         663.832         14.6882         14.6882     268.016E-03     268.016E-03
            2246         663.169         663.169         11.9007         11.9007         2.46835         2.46835
            2247         662.501         662.501         9.56973         9.56973         4.32037         4.32037
            2248         661.846         661.846         7.62185         7.62185         5.86874         5.86874
            2249         661.218         661.218         5.99890         5.99890         7.15405         7.15405
            2250         660.626         660.626         4.64584         4.64584         8.21476         8.21476
            2251         660.077         660.077         3.51676         3.51676         9.08528         9.08528
            2252         659.577         659.577         2.56810         2.56810         9.79674         9.79674
            2253         659.130         659.130         1.76155         1.76155         10.3765         10.3765
            2254         658.742         658.742         1.06019         1.06019         10.8487         10.8487
            2255         658.422         658.422     429.792E-03     429.792E-03         11.2338         11.2338
            2256         658.177         658.177    -163.300E-03    -163.300E-03         11.5492         11.5492
            2257         658.021         658.021    -751.630E-03    -751.630E-03         11.8091         11.8091
            2258         657.970         657.970        -1.36772        -1.36772         12.0240         12.0240
            2259         658.044         658.044        -2.04366        -2.04366         12.2008         12.2008
            2260         658.269         658.269        -2.81120        -2.81120         12.3413         12.3413
            2261         658.678         658.678        -3.70092        -3.70092         12.4418         12.4418
            2262         659.308         659.308        -4.74077        -4.74077         12.4904         12.4904
            2263         660.204         660.204        -5.95359        -5.95359         12.4650         12.4650
            2264         661.416         661.416        -7.35245        -7.35245         12.3288         12.3288
            2265         662.995         662.995        -8.93399        -8.93399         12.0274         12.0274
            2266         664.983         664.983        -10.6674        -10.6674         11.4837         11.4837
            2267         667.409         667.409        -12.4792        -12.4792         10.5975         10.5975
            2268         670.262         670.262        -14.2352        -14.2352         9.24765         9.24765
            2269         673.472         673.472        -15.7185        -15.7185         7.31071         7.31071
            2270         676.900         676.900        -16.6301        -16.6301         4.68237         4.68237
            2271         680.302         680.302        -16.5518        -16.5518         1.29346         1.29346
            2272         628.772         628.772         178.157         178.157        -70.0649        -70.0649
            2273         636.690         636.690         158.388         158.388        -69.3319        -69.3319
            2274         644.067         644.067         138.560         138.560        -66.2115        -66.2115
            2275         650.566         650.566         119.482         119.482        -61.6047        -61.6047
            2276         655.927         655.927         101.747         101.747        -55.7541        -55.7541
            2277         659.985         659.985         85.8112         85.8112        -49.1486        -49.1486
            2278         662.865         662.865         71.8182         71.8182        -42.2108        -42.2108
            2279         664.628         664.628         59.7971         59.7971        -35.3140        -35.3140
            2280         665.555         665.555         49.5979         49.5979        -28.7700        -28.7700
            2281         665.808         665.808         41.0143         41.0143        -22.7218        -22.7218
            2282         665.613         665.613         33.8378         33.8378        -17.2925        -17.2925
            2283         665.110         665.110         27.8365         27.8365        -12.4844        -12.4844
            2284         664.430         664.430         22.8391         22.8391        -8.30117        -8.30117
            2285         663.657         663.657         18.6670         18.6670        -4.69391        -4.69391
            2286         662.856         662.856         15.1957         15.1957        -1.61931        -1.61931
            2287         662.068         662.068         12.3014         12.3014     982.245E-03     982.245E-03
            2288         661.320         661.320         9.89613         9.89613         3.16423         3.16423
            2289         660.631         660.631         7.89510         7.89510         4.98170         4.98170
            2290         660.008         660.008         6.23522         6.23522         6.48388         6.48388
            2291         659.457         659.457         4.85683         4.85683         7.71661         7.71661
            2292         658.979         658.979         3.71273         3.71273         8.72047         8.72047
            2293         658.574         658.574         2.75841         2.75841         9.53146         9.53146
            2294         658.243         658.243         1.95634         1.95634         10.1809         10.1809
            2295         657.986         657.986         1.27066         1.27066         10.6957         10.6957
            2296         657.803         657.803     669.225E-03     669.225E-03         11.0985         11.0985
            2297         657.699         657.699     120.698E-03     120.698E-03         11.4080         11.4080
            2298         657.680         657.680    -404.505E-03    -404.505E-03         11.6389         11.6389
            2299         657.754         657.754    -935.664E-03    -935.664E-03         11.8019         11.8019
            2300         657.935         657.935        -1.50114        -1.50114         11.9037         11.9037
            2301         658.240         658.240        -2.12875        -2.12875         11.9463         11.9463
            2302         658.688         658.688        -2.84481        -2.84481         11.9270         11.9270
            2303         659.306         659.306        -3.67323        -3.67323         11.8363         11.8363
            2304         660.123         660.123        -4.63334        -4.63334         11.6576         11.6576
            2305         661.171         661.171        -5.73677        -5.73677         11.3649         11.3649
            2306         662.482         662.482        -6.98261        -6.98261         10.9209         10.9209
            2307         664.082         664.082        -8.35063        -8.35063         10.2754         10.2754
            2308         665.985         665.985        -9.79165        -9.79165         9.36536         9.36536
            2309         668.183         668.183        -11.2172        -11.2172         8.11699         8.11699
            2310         670.630         670.630        -12.4856        -12.4856         6.45499         6.45499
            2311         673.234         673.234        -13.3985        -13.3985         4.31708         4.31708
            2312         675.837         675.837        -13.6874        -13.6874         1.67140         1.67140
            2313         678.201         678.201        -13.0206        -13.0206        -1.43901        -1.43901
            2314         632.904         632.904         177.465         177.465        -78.3675        -78.3675
            2315         641.282         641.282         155.822         155.822        -77.2657        -77.2657
            2316         649.036         649.036         134.115         134.115        -73.3386        -73.3386
            2317         655.542         655.542         113.460         113.460        -67.4224        -67.4224
            2318         660.468         660.468         94.7146         94.7146        -60.1724        -60.1724
            2319         663.877         663.877         78.2568         78.2568        -52.1477        -52.1477
            2320         665.772         665.772         64.2812         64.2812        -43.9572        -43.9572
            2321         666.575         666.575         52.6111         52.6111        -36.1036        -36.1036
            2322         666.501         666.501         42.9786         42.9786        -28.8187        -28.8187
            2323         665.896         665.896         35.0881         35.0881        -22.3088        -22.3088
            2324         664.961         664.961         28.6059         28.6059        -16.5703        -16.5703
            2325         663.874         663.874         23.3038         23.3038        -11.6129        -11.6129
            2326         662.747         662.747         18.9382         18.9382        -7.36395        -7.36395
            2327         661.654         661.654         15.3547         15.3547        -3.76514        -3.76514
            2328         660.643         660.643         12.3961         12.3961    -736.628E-03    -736.628E-03
            2329         659.738         659.738         9.96023         9.96023         1.79070         1.79070
            2330         658.954         658.954         7.94725         7.94725         3.88606         3.88606
            2331         658.291         658.291         6.28818         6.28818         5.61034         5.61034
            2332         657.749         657.749         4.91755         4.91755         7.01873         7.01873
            2333         657.321         657.321         3.78675         3.78675         8.15963         8.15963
            2334         657.000         657.000         2.85012         2.85012         9.07507         9.07507
            2335         656.779         656.779         2.07106         2.07106         9.80136         9.80136
            2336         656.651         656.651         1.41499         1.41499         10.3691         10.3691
            2337         656.613         656.613     852.039E-03     852.039E-03         10.8040         10.8040
            2338         656.659         656.659     353.432E-03     353.432E-03         11.1268         11.1268
            2339         656.790         656.790    -107.281E-03    -107.281E-03         11.3537         11.3537
            2340         657.008         657.008    -556.079E-03    -556.079E-03         11.4967         11.4967
            2341         657.316         657.316        -1.01773        -1.01773         11.5633         11.5633
            2342         657.725         657.725        -1.51648        -1.51648         11.5564         11.5564
            2343         658.245         658.245        -2.07518        -2.07518         11.4745         11.4745
            2344         658.891         658.891        -2.71482        -2.71482         11.3107         11.3107
            2345         659.680         659.680        -3.45286        -3.45286         11.0525         11.0525
            2346         660.633         660.633        -4.30113        -4.30113         10.6810         10.6810
            2347         661.769         661.769        -5.26241        -5.26241         10.1700         10.1700
            2348         663.103         663.103        -6.32602        -6.32602         9.48577         9.48577
            2349         664.643         664.643        -7.46154        -7.46154         8.58765         8.58765
            2350         666.382         666.382        -8.61234        -8.61234         7.42977         7.42977
            2351         668.291         668.291        -9.68686        -9.68686         5.96655         5.96655
            2352         670.309         670.309        -10.5548        -10.5548         4.16184         4.16184
            2353         672.336         672.336        -11.0403        -11.0403         2.00082         2.00082
            2354         674.224         674.224        -10.9289        -10.9289    -485.522E-03    -485.522E-03
            2355         675.787         675.787        -9.98173        -9.98173        -3.19688        -3.19688
            2356         638.297         638.297         176.656         176.656        -87.3034        -87.3034
            2357         647.484         647.484         152.445         152.445        -85.8039        -85.8039
            2358         655.485         655.485         128.309         128.309        -80.4908        -80.4908
            2359         661.703         661.703         105.850         105.850        -72.9332        -72.9332
            2360         665.947         665.947         85.9719         85.9719        -63.7718        -63.7718
            2361         668.052         668.052         69.2822         69.2822        -54.0322        -54.0322
            2362         668.657         668.657         55.6085         55.6085        -44.5401        -44.5401
            2363         668.043         668.043         44.6202         44.6202        -35.6994        -35.6994
            2364         666.777         666.777         35.8725         35.8725        -27.8725        -27.8725
            2365         665.157         665.157         28.8560         28.8560        -21.0317        -21.0317
            2366         663.435         663.435         23.2585         23.2585        -15.1907        -15.1907
            2367         661.759         661.759         18.7347         18.7347        -10.2340        -10.2340
            2368         660.217         660.217         15.0904         15.0904        -6.07604        -6.07604
            2369         658.858         658.858         12.1219         12.1219        -2.60610        -2.60610
            2370         657.701         657.701         9.70971         9.70971     268.666E-03     268.666E-03
            2371         656.751         656.751         7.73459         7.73459         2.63677         2.63677
            2372         655.998         655.998         6.12111         6.12111         4.57487         4.57487
            2373         655.430         655.430         4.79694         4.79694         6.14979         6.14979
            2374         655.030         655.030         3.71215         3.71215         7.41969         7.41969
            2375         654.782         654.782         2.81985         2.81985         8.43358         8.43358
            2376         654.670         654.670         2.08469         2.08469         9.23373         9.23373
            2377         654.679         654.679         1.47349         1.47349         9.85502         9.85502
            2378         654.796         654.796     958.982E-03     958.982E-03         10.3268         10.3268
            2379         655.011         655.011     515.118E-03     515.118E-03         10.6724         10.6724
            2380         655.314         655.314     118.791E-03     118.791E-03         10.9103         10.9103
            2381         655.702         655.702    -252.549E-03    -252.549E-03         11.0542         11.0542
            2382         656.171         656.171    -620.003E-03    -620.003E-03         11.1130         11.1130
            2383         656.723         656.723        -1.00425        -1.00425         11.0913         11.0913
            2384         657.359         657.359        -1.42480        -1.42480         10.9889         10.9889
            2385         658.086         658.086        -1.89993        -1.89993         10.8013         10.8013
            2386         658.912         658.912        -2.44545        -2.44545         10.5191         10.5191
            2387         659.847         659.847        -3.07343        -3.07343         10.1281         10.1281
            2388         660.901         660.901        -3.78980        -3.78980         9.60914         9.60914
            2389         662.080         662.080        -4.59148        -4.59148         8.93825         8.93825
            2390         663.390         663.390        -5.46221        -5.46221         8.08772         8.08772
            2391         664.823         664.823        -6.36822        -6.36822         7.02767         7.02767
            2392         666.360         666.360        -7.25256        -7.25256         5.72969         5.72969
            2393         667.962         667.962        -8.03177        -8.03177         4.17272         4.17272
            2394         669.566         669.566        -8.59179        -8.59179         2.35086         2.35086
            2395         671.079         671.079        -8.79095        -8.79095     287.054E-03     287.054E-03
            2396         672.384         672.384        -8.46798        -8.46798        -1.95353        -1.95353
            2397         673.344         673.344        -7.46245        -7.46245        -4.24476        -4.24476
            2398         646.062         646.062         175.461         175.461        -97.2407        -97.2407
            2399         655.771         655.771         147.862         147.862        -94.6977        -94.6977
            2400         663.938         663.938         120.621         120.621        -87.6805        -87.6805
            2401         669.557         669.557         95.8906         95.8906        -77.5078        -77.5078
            2402         672.075         672.075         75.2480         75.2480        -65.9261        -65.9261
            2403         672.426         672.426         58.6776         58.6776        -54.2910        -54.2910
            2404         670.926         670.926         45.8568         45.8568        -43.3863        -43.3863
            2405         668.591         668.591         36.0598         36.0598        -33.8986        -33.8986
            2406         665.898         665.898         28.4484         28.4484        -25.7249        -25.7249
            2407         663.203         663.203         22.5842         22.5842        -18.8725        -18.8725
            2408         660.710         660.710         17.9585         17.9585        -13.1458        -13.1458
            2409         658.506         658.506         14.3265         14.3265        -8.40903        -8.40903
            2410         656.643         656.643         11.4197         11.4197        -4.50415        -4.50415
            2411         655.117         655.117         9.09893         9.09893        -1.30160        -1.30160
            2412         653.919         653.919         7.22176         7.22176         1.31276         1.31276
            2413         653.020         653.020         5.70628         5.70628         3.43710         3.43710
            2414         652.393         652.393         4.47295         4.47295         5.15200         5.15200
            2415         652.004         652.004         3.47105         3.47105         6.52753         6.52753
            2416         651.824         651.824         2.65287         2.65287         7.62031         7.62031
            2417         651.825         651.825         1.98476         1.98476         8.47923         8.47923
            2418         651.983         651.983         1.43535         1.43535         9.14354         9.14354
            2419         652.275         652.275     980.233E-03     980.233E-03         9.64644         9.64644
            2420         652.682         652.682     596.368E-03     596.368E-03         10.0140         10.0140
            2421         653.188         653.188     264.144E-03     264.144E-03         10.2674         10.2674
            2422         653.782         653.782    -35.4142E-03    -35.4142E-03         10.4219         10.4219
            2423         654.453         654.453    -319.635E-03    -319.635E-03         10.4886         10.4886
            2424         655.194         655.194    -605.527E-03    -605.527E-03         10.4736         10.4736
            2425         656.001         656.001    -909.084E-03    -909.084E-03         10.3787         10.3787
            2426         656.871         656.871        -1.24563        -1.24563         10.2013         10.2013
            2427         657.806         657.806        -1.62890        -1.62890         9.93488         9.93488
            2428         658.805         658.805        -2.07042        -2.07042         9.56836         9.56836
            2429         659.871         659.871        -2.57790        -2.57790         9.08708         9.08708
            2430         661.006         661.006        -3.15341        -3.15341         8.47293         8.47293
            2431         662.206         662.206        -3.79063        -3.79063         7.70540         7.70540
            2432         663.467         663.467        -4.47199        -4.47199         6.76318         6.76318
            2433         664.772         664.772        -5.16475        -5.16475         5.62677         5.62677
            2434         666.097         666.097        -5.81839        -5.81839         4.28259         4.28259
            2435         667.400         667.400        -6.36147        -6.36147         2.72823         2.72823
            2436         668.624         668.624        -6.70248        -6.70248     980.658E-03     980.658E-03
            2437         669.694         669.694        -6.73316        -6.73316    -915.707E-03    -915.707E-03
            2438         670.524         670.524        -6.33929        -6.33929        -2.87814        -2.87814
            2439         671.025         671.025        -5.41918        -5.41918        -4.77874        -4.77874
            2440         656.601         656.601         173.899         173.899        -108.047        -108.047
            2441         667.546         667.546         141.308         141.308        -104.405        -104.405
            2442         675.394         675.394         109.760         109.760        -93.9001        -93.9001
            2443         678.835         678.835         83.0644         83.0644        -80.3066        -80.3066
            2444         678.972         678.972         61.9652         61.9652        -65.7149        -65.7149
            2445         675.969         675.969         46.5295         46.5295        -51.8655        -51.8655
            2446         671.852         671.852         35.4468         35.4468        -40.1968        -40.1968
            2447         667.456         667.456         27.1900         27.1900        -30.3838        -30.3838
            2448         663.270         663.270         21.1348         21.1348        -22.3819        -22.3819
            2449         659.574         659.574         16.5034         16.5034        -15.8471        -15.8471
            2450         656.424         656.424         12.9907         12.9907        -10.5471        -10.5471
            2451         653.858         653.858         10.2413         10.2413        -6.25333        -6.25333
            2452         651.827         651.827         8.09683         8.09683        -2.77917        -2.77917
            2453         650.294         650.294         6.38909         6.38909     21.9152E-03     21.9152E-03
            2454         649.196         649.196         5.03118         5.03118         2.27683         2.27683
            2455         648.482         648.482         3.93774         3.93774         4.08130         4.08130
            2456         648.095         648.095         3.05841         3.05841         5.51929         5.51929
            2457         647.988         647.988         2.34601         2.34601         6.65467         6.65467
            2458         648.118         648.118         1.76931         1.76931         7.54315         7.54315
            2459         648.447         648.447         1.29951         1.29951         8.22770         8.22770
            2460         648.943         648.943     915.459E-03     915.459E-03         8.74511         8.74511
            2461         649.576         649.576     597.459E-03     597.459E-03         9.12370         9.12370
            2462         650.324         650.324     329.514E-03     329.514E-03         9.38674         9.38674
            2463         651.166         651.166     96.3319E-03     96.3319E-03         9.55142         9.55142
            2464         652.086         652.086    -115.618E-03    -115.618E-03         9.63050         9.63050
            2465         653.070         653.070    -319.595E-03    -319.595E-03         9.63184         9.63184
            2466         654.107         654.107    -527.955E-03    -527.955E-03         9.55926         9.55926
            2467         655.189         655.189    -752.749E-03    -752.749E-03         9.41224         9.41224
            2468         656.307         656.307        -1.00507        -1.00507         9.18648         9.18648
            2469         657.458         657.458        -1.29492        -1.29492         8.87381         8.87381
            2470         658.635         658.635        -1.63013        -1.63013         8.46276         8.46276
            2471         659.832         659.832        -2.01541        -2.01541         7.93891         7.93891
            2472         661.043         661.043        -2.45056        -2.45056         7.28593         7.28593
            2473         662.259         662.259        -2.92862        -2.92862         6.48684         6.48684
            2474         663.466         663.466        -3.43330        -3.43330         5.52614         5.52614
            2475         664.643         664.643        -3.93695        -3.93695         4.39281         4.39281
            2476         665.762         665.762        -4.39809        -4.39809         3.08406         3.08406
            2477         666.785         666.785        -4.76105        -4.76105         1.61071         1.61071
            2478         667.666         667.666        -4.95674        -4.95674     2.60079E-03     2.60079E-03
            2479         668.350         668.350        -4.90761        -4.90761        -1.68470        -1.68470
            2480         668.781         668.781        -4.53687        -4.53687        -3.36546        -3.36546
            2481         668.909         668.909        -3.78245        -3.78245        -4.92106        -4.92106
            2482         673.490         673.490         170.953         170.953        -120.888        -120.888
            2483         684.414         684.414         131.008         131.008        -113.354        -113.354
            2484         690.080         690.080         94.6712         94.6712        -98.3801        -98.3801
            2485         690.404         690.404         65.7413         65.7413        -79.4592        -79.4592
            2486         684.640         684.640         46.2908         46.2908        -60.9830        -60.9830
            2487         677.350         677.350         33.7011         33.7011        -46.3231        -46.3231
            2488         670.169         670.169         24.8082         24.8082        -34.4958        -34.4958
            2489         663.676         663.676         18.7379         18.7379        -25.2365        -25.2365
            2490         658.225         658.225         14.2681         14.2681        -17.9327        -17.9327
            2491         653.754         653.754         11.0315         11.0315        -12.1624        -12.1624
            2492         650.246         650.246         8.56783         8.56783        -7.60034        -7.60034
            2493         647.563         647.563         6.70226         6.70226        -3.97223        -3.97223
            2494         645.614         645.614         5.24571         5.24571        -1.09539        -1.09539
            2495         644.279         644.279         4.10902         4.10902         1.19376         1.19376
            2496         643.470         643.470         3.20595         3.20595         3.00480         3.00480
            2497         643.097         643.097         2.48824         2.48824         4.43647         4.43647
            2498         643.089         643.089         1.91214         1.91214         5.55792         5.55792
            2499         643.381         643.381         1.44976         1.44976         6.43065         6.43065
            2500         643.921         643.921         1.07631         1.07631         7.09962         7.09962
            2501         644.663         644.663     774.245E-03     774.245E-03         7.60399         7.60399
            2502         645.569         645.569     527.734E-03     527.734E-03         7.97302         7.97302
            2503         646.607         646.607     324.434E-03     324.434E-03         8.23130         8.23130
            2504         647.749         647.749     152.804E-03     152.804E-03         8.39688         8.39688
            2505         648.972         648.972     2.98511E-03     2.98511E-03         8.48382         8.48382
            2506         650.258         650.258    -134.605E-03    -134.605E-03         8.50130         8.50130
            2507         651.589         651.589    -268.743E-03    -268.743E-03         8.45485         8.45485
            2508         652.951         652.951    -408.092E-03    -408.092E-03         8.34589         8.34589
            2509         654.332         654.332    -560.742E-03    -560.742E-03         8.17245         8.17245
            2510         655.721         655.721    -734.363E-03    -734.363E-03         7.92895         7.92895
            2511         657.105         657.105    -935.560E-03    -935.560E-03         7.60677         7.60677
            2512         658.475         658.475        -1.16947        -1.16947         7.19450         7.19450
            2513         659.816         659.816        -1.43869        -1.43869         6.67878         6.67878
            2514         661.116         661.116        -1.74224        -1.74224         6.04522         6.04522
            2515         662.358         662.358        -2.07399        -2.07399         5.28009         5.28009
            2516         663.523         663.523        -2.42119        -2.42119         4.37246         4.37246
            2517         664.585         664.585        -2.76273        -2.76273         3.31707         3.31707
            2518         665.517         665.517        -3.06830        -3.06830         2.11802         2.11802
            2519         666.285         666.285        -3.29794        -3.29794     792.817E-03     792.817E-03
            2520         666.853         666.853        -3.40382        -3.40382    -623.038E-03    -623.038E-03
            2521         667.187         667.187        -3.33412        -3.33412        -2.07260        -2.07260
            2522         667.256         667.256        -3.04000        -3.04000        -3.47522        -3.47522
            2523         667.042         667.042        -2.48554        -2.48554        -4.72743        -4.72743
            2524         698.172         698.172         165.850         165.850        -133.849        -133.849
            2525         709.408         709.408         114.638         114.638        -122.258        -122.258
            2526         711.254         711.254         70.6593         70.6593        -96.6676        -96.6676
            2527         699.717         699.717         44.3405         44.3405        -70.0879        -70.0879
            2528         686.251         686.251         30.2799         30.2799        -51.1829        -51.1829
            2529         674.352         674.352         20.9525         20.9525        -37.0416        -37.0416
            2530         664.259         664.259         15.2289         15.2289        -26.5800        -26.5800
            2531         656.284         656.284         11.2048         11.2048        -18.7523        -18.7523
            2532         650.033         650.033         8.46133         8.46133        -12.7679        -12.7679
            2533         645.331         645.331         6.44613         6.44613        -8.19495        -8.19495
            2534         641.872         641.872         4.97257         4.97257        -4.63218        -4.63218
            2535         639.461         639.461         3.85210         3.85210        -1.86862        -1.86862
            2536         637.894         637.894         2.99547         2.99547     300.819E-03     300.819E-03
            2537         637.024         637.024         2.32728         2.32728         1.99230         1.99230
            2538         636.716         636.716         1.80264         1.80264         3.31702         3.31702
            2539         636.868         636.868         1.38658         1.38658         4.34430         4.34430
            2540         637.389         637.389         1.05523         1.05523         5.13839         5.13839
            2541         638.207         638.207     789.967E-03     789.967E-03         5.74281         5.74281
            2542         639.264         639.264     577.072E-03     577.072E-03         6.19658         6.19658
            2543         640.508         640.508     405.288E-03     405.288E-03         6.52761         6.52761
            2544         641.900         641.900     265.793E-03     265.793E-03         6.75999         6.75999
            2545         643.405         643.405     150.808E-03     150.808E-03         6.91114         6.91114
            2546         644.995         644.995     53.8218E-03     53.8218E-03         6.99522         6.99522
            2547         646.647         646.647    -31.3353E-03    -31.3353E-03         7.02180         7.02180
            2548         648.339         648.339    -110.191E-03    -110.191E-03         6.99742         6.99742
            2549         650.053         650.053    -188.222E-03    -188.222E-03         6.92504         6.92504
            2550         651.773         651.773    -270.540E-03    -270.540E-03         6.80471         6.80471
            2551         653.484         653.484    -362.176E-03    -362.176E-03         6.63337         6.63337
            2552         655.171         655.171    -467.698E-03    -467.698E-03         6.40526         6.40526
            2553         656.816         656.816    -591.158E-03    -591.158E-03         6.11204         6.11204
            2554         658.405         658.405    -735.504E-03    -735.504E-03         5.74334         5.74334
            2555         659.917         659.917    -902.157E-03    -902.157E-03         5.28736         5.28736
            2556         661.333         661.333        -1.09008        -1.09008         4.73199         4.73199
            2557         662.628         662.628        -1.29504        -1.29504         4.06627         4.06627
            2558         663.777         663.777        -1.50840        -1.50840         3.28243         3.28243
            2559         664.752         664.752        -1.71646        -1.71646         2.37850         2.37850
            2560         665.523         665.523        -1.89964        -1.89964         1.36127         1.36127
            2561         666.060         666.060        -2.03279        -2.03279     249.728E-03     249.728E-03
            2562         666.337         666.337        -2.08633        -2.08633    -922.035E-03    -922.035E-03
            2563         666.333         666.333        -2.02904        -2.02904        -2.10243        -2.10243
            2564         666.041         666.041        -1.83258        -1.83258        -3.22224        -3.22224
            2565         665.467         665.467        -1.47736        -1.47736        -4.19633        -4.19633
            2566         747.773         747.773         152.935         152.935        -152.822        -152.822
            2567         752.465         752.465         79.1735         79.1735        -118.375        -118.375
            2568         726.480         726.480         39.0257         39.0257        -76.7970        -76.7970
            2569         699.853         699.853         24.4087         24.4087        -51.9771        -51.9771
            2570         679.781         679.781         15.3612         15.3612        -35.9691        -35.9691
            2571         664.192         664.192         10.5951         10.5951        -24.9113        -24.9113
            2572         652.760         652.760         7.45656         7.45656        -17.2958        -17.2958
            2573         644.293         644.293         5.45192         5.45192        -11.6785        -11.6785
            2574         638.231         638.231         4.06245         4.06245        -7.58722        -7.58722
            2575         633.980         633.980         3.07398         3.07398        -4.46770        -4.46770
            2576         631.168         631.168         2.35613         2.35613        -2.11694        -2.11694
            2577         629.471         629.471         1.81354         1.81354    -297.208E-03    -297.208E-03
            2578         628.659         628.659         1.40394         1.40394         1.09604         1.09604
            2579         628.542         628.542         1.08383         1.08383         2.17673         2.17673
            2580         628.977         628.977     835.301E-03     835.301E-03         3.00464         3.00464
            2581         629.844         629.844     637.756E-03     637.756E-03         3.64007         3.64007
            2582         631.052         631.052     481.681E-03     481.681E-03         4.11951         4.11951
            2583         632.525         632.525     356.700E-03     356.700E-03         4.47753         4.47753
            2584         634.204         634.204     256.904E-03     256.904E-03         4.73720         4.73720
            2585         636.038         636.038     176.506E-03     176.506E-03         4.91928         4.91928
            2586         637.989         637.989     111.376E-03     111.376E-03         5.03834         5.03834
            2587         640.023         640.023     57.7667E-03     57.7667E-03         5.10670         5.10670
            2588         642.114         642.114     12.4420E-03     12.4420E-03         5.13283         5.13283
            2589         644.238         644.238    -27.4974E-03    -27.4974E-03         5.12311         5.12311
            2590         646.376         646.376    -64.8783E-03    -64.8783E-03         5.08104         5.08104
            2591         648.510         648.510    -102.298E-03    -102.298E-03         5.00808         5.00808
            2592         650.623         650.623    -142.394E-03    -142.394E-03         4.90327         4.90327
            2593         652.698         652.698    -187.597E-03    -187.597E-03         4.76365         4.76365
            2594         654.718         654.718    -240.263E-03    -240.263E-03         4.58413         4.58413
            2595         656.661         656.661    -302.356E-03    -302.356E-03         4.35786         4.35786
            2596         658.507         658.507    -375.384E-03    -375.384E-03         4.07649         4.07649
            2597         660.231         660.231    -459.949E-03    -459.949E-03         3.73075         3.73075
            2598         661.805         661.805    -555.478E-03    -555.478E-03         3.31130         3.31130
            2599         663.197         663.197    -659.604E-03    -659.604E-03         2.80990         2.80990
            2600         664.375         664.375    -767.810E-03    -767.810E-03         2.22107         2.22107
            2601         665.303         665.303    -872.816E-03    -872.816E-03         1.54401         1.54401
            2602         665.949         665.949    -964.485E-03    -964.485E-03     784.983E-03     784.983E-03
            2603         666.281         666.281        -1.02979        -1.02979    -40.3767E-03    -40.3767E-03
            2604         666.279         666.279        -1.05368        -1.05368    -904.895E-03    -904.895E-03
            2605         665.930         665.930        -1.02050        -1.02050        -1.76870        -1.76870
            2606         665.242         665.242    -916.355E-03    -916.355E-03        -2.57944        -2.57944
            2607         664.245         664.245    -731.987E-03    -731.987E-03        -3.27378        -3.27378
            2608         843.252         843.252         103.816         103.816        -134.296        -134.296
            2609         772.736         772.736         29.2885         29.2885        -72.9371        -72.9371
            2610         717.247         717.247         15.5562         15.5562        -41.8490        -41.8490
            2611         683.754         683.754         8.68449         8.68449        -27.4067        -27.4067
            2612         660.717         660.717         5.41147         5.41147        -17.8750        -17.8750
            2613         645.245         645.245         3.68634         3.68634        -12.1931        -12.1931
            2614         634.558         634.558         2.52385         2.52385        -8.08922        -8.08922
            2615         627.343         627.343         1.86789         1.86789        -5.31276        -5.31276
            2616         622.596         622.596         1.35700         1.35700        -3.22446        -3.22446
            2617         619.689         619.689         1.04187         1.04187        -1.71265        -1.71265
            2618         618.161         618.161     783.713E-03     783.713E-03    -553.566E-03    -553.566E-03
            2619         617.681         617.681     609.949E-03     609.949E-03     314.029E-03     314.029E-03
            2620         618.005         618.005     466.141E-03     466.141E-03     982.512E-03     982.512E-03
            2621         618.944         618.944     362.306E-03     362.306E-03         1.48797         1.48797
            2622         620.356         620.356     276.740E-03     276.740E-03         1.87423         1.87423
            2623         622.129         622.129     211.890E-03     211.890E-03         2.16345         2.16345
            2624         624.176         624.176     158.893E-03     158.893E-03         2.37898         2.37898
            2625         626.427         626.427     117.509E-03     117.509E-03         2.53481         2.53481
            2626         628.826         628.826     83.9251E-03     83.9251E-03         2.64441         2.64441
            2627         631.332         631.332     57.1473E-03     57.1473E-03         2.71671         2.71671
            2628         633.908         633.908     35.3322E-03     35.3322E-03         2.75970         2.75970
            2629         636.526         636.526     17.3754E-03     17.3754E-03         2.77880         2.77880
            2630         639.164         639.164     2.16674E-03     2.16674E-03         2.77846         2.77846
            2631         641.802         641.802    -11.3515E-03    -11.3515E-03         2.76137         2.76137
            2632         644.423         644.423    -24.0551E-03    -24.0551E-03         2.72921         2.72921
            2633         647.012         647.012    -36.9483E-03    -36.9483E-03         2.68226         2.68226
            2634         649.553         649.553    -50.8525E-03    -50.8525E-03         2.61976         2.61976
            2635         652.028         652.028    -66.7062E-03    -66.7062E-03         2.53970         2.53970
            2636         654.420         654.420    -85.2641E-03    -85.2641E-03         2.43904         2.43904
            2637         656.706         656.706    -107.280E-03    -107.280E-03         2.31371         2.31371
            2638         658.859         658.859    -133.230E-03    -133.230E-03         2.15885         2.15885
            2639         660.849         660.849    -163.365E-03    -163.365E-03         1.96910         1.96910
            2640         662.641         662.641    -197.420E-03    -197.420E-03         1.73907         1.73907
            2641         664.194         664.194    -234.570E-03    -234.570E-03         1.46406         1.46406
            2642         665.464         665.464    -273.121E-03    -273.121E-03         1.14089         1.14089
            2643         666.406         666.406    -310.484E-03    -310.484E-03     769.122E-03     769.122E-03
            2644         666.978         666.978    -342.934E-03    -342.934E-03     352.282E-03     352.282E-03
            2645         667.140         667.140    -365.839E-03    -365.839E-03    -100.745E-03    -100.745E-03
            2646         666.867         666.867    -373.748E-03    -373.748E-03    -574.664E-03    -574.664E-03
            2647         666.150         666.150    -361.162E-03    -361.162E-03        -1.04715        -1.04715
            2648         665.004         665.004    -323.256E-03    -323.256E-03        -1.48908        -1.48908
            2649         663.474         663.474    -256.762E-03    -256.762E-03        -1.86503        -1.86503
            2650         694.685         694.685        -21.7470        -21.7470         1.60811         1.60811
            2651         690.209         690.209        -15.0883        -15.0883         5.79800         5.79800
            2652         685.408         685.408        -10.0288        -10.0288         7.81948         7.81948
            2653         680.961         680.961        -6.42153        -6.42153         8.56432         8.56432
            2654         677.044         677.044        -3.95611        -3.95611         8.60625         8.60625
            2655         673.643         673.643        -2.32852        -2.32852         8.28064         8.28064
            2656         670.669         670.669        -1.29314        -1.29314         7.75868         7.75868
            2657         668.023         668.023    -664.641E-03    -664.641E-03         7.10704         7.10704
            2658         665.611         665.611    -307.174E-03    -307.174E-03         6.32059         6.32059
            2659         663.352         663.352    -121.765E-03    -121.765E-03         5.33797         5.33797
            2660         661.181         661.181    -37.3260E-03    -37.3260E-03         4.04321         4.04321
            2661         659.052         659.052    -6.61977E-03    -6.61977E-03         2.26921         2.26921
            2662         699.475         699.475        -12.8816        -12.8816         10.6393         10.6393
            2663         692.029         692.029        -6.24740        -6.24740         12.2215         12.2215
            2664         685.674         685.674        -2.13698        -2.13698         12.0905         12.0905
            2665         680.474         680.474     210.129E-03     210.129E-03         11.2530         11.2530
            2666         676.237         676.237         1.40331         1.40331         10.1965         10.1965
            2667         672.718         672.718         1.86759         1.86759         9.13113         9.13113
            2668         669.700         669.700         1.88451         1.88451         8.12424         8.12424
            2669         667.000         667.000         1.63950         1.63950         7.16757         7.16757
            2670         664.464         664.464         1.25926         1.25926         6.20668         6.20668
            2671         661.954         661.954     837.052E-03     837.052E-03         5.14888         5.14888
            2672         659.335         659.335     449.428E-03     449.428E-03         3.85847         3.85847
            2673         656.470         656.470     167.357E-03     167.357E-03         2.15430         2.15430
            2674         700.061         700.061         3.26822         3.26822         18.2441         18.2441
            2675         690.752         690.752         7.03488         7.03488         16.3004         16.3004
            2676         683.836         683.836         8.30701         8.30701         13.9505         13.9505
            2677         678.629         678.629         8.24220         8.24220         11.7789         11.7789
            2678         674.575         674.575         7.49252         7.49252         9.94888         9.94888
            2679         671.273         671.273         6.41713         6.41713         8.45099         8.45099
            2680         668.435         668.435         5.21236         5.21236         7.22197         7.22197
            2681         665.838         665.838         3.99183         3.99183         6.17994         6.17994
            2682         663.298         663.298         2.82953         2.82953         5.23272         5.23272
            2683         660.640         660.640         1.78606         1.78606         4.27394         4.27394
            2684         657.675         657.675     927.217E-03     927.217E-03         3.17203         3.17203
            2685         654.186         654.186     337.600E-03     337.600E-03         1.76212         1.76212
            2686         696.152         696.152         24.3638         24.3638         19.9595         19.9595
            2687         687.002         687.002         22.1709         22.1709         15.4712         15.4712
            2688         680.716         680.716         19.1416         19.1416         12.0126         12.0126
            2689         676.163         676.163         16.0301         16.0301         9.43925         9.43925
            2690         672.655         672.655         13.1117         13.1117         7.53318         7.53318
            2691         669.772         669.772         10.4607         10.4607         6.11070         6.11070
            2692         667.233         667.233         8.08612         8.08612         5.02895         5.02895
            2693         664.822         664.822         5.97868         5.97868         4.17529         4.17529
            2694         662.352         662.352         4.13385         4.13385         3.45348         3.45348
            2695         659.633         659.633         2.56515         2.56515         2.77233         2.77233
            2696         656.445         656.445         1.31621         1.31621         2.03352         2.03352
            2697         652.511         652.511     474.878E-03     474.878E-03         1.12205         1.12205
            2698         690.612         690.612         43.1694         43.1694         12.6395         12.6395
            2699         683.053         683.053         34.2662         34.2662         8.68676         8.68676
            2700         677.937         677.937         27.1698         27.1698         6.11823         6.11823
            2701         674.190         674.190         21.5007         21.5007         4.40060         4.40060
            2702         671.242         671.242         16.8961         16.8961         3.22197         3.22197
            2703         668.748         668.748         13.0924         13.0924         2.40001         2.40001
            2704         666.474         666.474         9.90315         9.90315         1.81859         1.81859
            2705         664.231         664.231         7.20405         7.20405         1.39820         1.39820
            2706         661.844         661.844         4.92128         4.92128         1.08101         1.08101
            2707         659.125         659.125         3.02789         3.02789     820.283E-03     820.283E-03
            2708         655.842         655.842         1.54607         1.54607     574.877E-03     574.877E-03
            2709         651.696         651.696     557.197E-03     557.197E-03     306.301E-03     306.301E-03
            2710         688.412         688.412         49.6143         49.6143        -2.18152        -2.18152
            2711         681.779         681.779         37.8312         37.8312        -2.35109        -2.35109
            2712         677.177         677.177         29.2799         29.2799        -2.34935        -2.34935
            2713         673.741         673.741         22.7895         22.7895        -2.28590        -2.28590
            2714         670.992         670.992         17.6928         17.6928        -2.18850        -2.18850
            2715         668.632         668.632         13.5815         13.5815        -2.06921        -2.06921
            2716         666.449         666.449         10.1949         10.1949        -1.93026        -1.93026
            2717         664.271         664.271         7.36761         7.36761        -1.76819        -1.76819
            2718         661.931         661.931         5.00297         5.00297        -1.57426        -1.57426
            2719         659.246         659.246         3.06039         3.06039        -1.33223        -1.33223
            2720         655.993         655.993         1.55388         1.55388        -1.01441        -1.01441
            2721         651.886         651.886     557.204E-03     557.204E-03    -575.663E-03    -575.663E-03
            2722         692.053         692.053         38.2452         38.2452        -16.5915        -16.5915
            2723         684.333         684.333         30.3715         30.3715        -13.0128        -13.0128
            2724         679.043         679.043         24.1631         24.1631        -10.5484        -10.5484
            2725         675.152         675.152         19.1755         19.1755        -8.77181        -8.77181
            2726         672.101         672.101         15.0959         15.0959        -7.44431        -7.44431
            2727         669.540         669.540         11.7025         11.7025        -6.41256        -6.41256
            2728         667.233         667.233         8.84211         8.84211        -5.57003        -5.57003
            2729         664.992         664.992         6.41446         6.41446        -4.83455        -4.83455
            2730         662.648         662.648         4.36190         4.36190        -4.13384        -4.13384
            2731         660.025         660.025         2.66631         2.66631        -3.39302        -3.39302
            2732         656.920         656.920         1.35057         1.35057        -2.52083        -2.52083
            2733         653.089         653.089     482.827E-03     482.827E-03        -1.40182        -1.40182
            2734         697.789         697.789         15.2605         15.2605        -21.3661        -21.3661
            2735         688.733         688.733         15.0594         15.0594        -17.9903        -17.9903
            2736         682.386         682.386         13.6077         13.6077        -15.1453        -15.1453
            2737         677.722         677.722         11.7427         11.7427        -12.8660        -12.8660
            2738         674.115         674.115         9.79682         9.79682        -11.0471        -11.0471
            2739         671.171         671.171         7.91387         7.91387        -9.57227        -9.57227
            2740         668.616         668.616         6.15773         6.15773        -8.33334        -8.33334
            2741         666.244         666.244         4.56012         4.56012        -7.23259        -7.23259
            2742         663.882         663.882         3.14466         3.14466        -6.17369        -6.17369
            2743         661.367         661.367         1.94012         1.94012        -5.05103        -5.05103
            2744         658.528         658.528     989.543E-03     989.543E-03        -3.73504        -3.73504
            2745         655.174         655.174     356.240E-03     356.240E-03        -2.06642        -2.06642
            2746         699.429         699.429        -6.46766        -6.46766        -15.5039        -15.5039
            2747         691.370         691.370        -1.14650        -1.14650        -15.7233        -15.7233
            2748         685.018         685.018         1.66833         1.66833        -14.7708        -14.7708
            2749         680.065         680.065         2.95179         2.95179        -13.4715        -13.4715
            2750         676.139         676.139         3.33544         3.33544        -12.1449        -12.1449
            2751         672.928         672.928         3.19783         3.19783        -10.8884        -10.8884
            2752         670.191         670.191         2.77112         2.77112        -9.70891        -9.70891
            2753         667.738         667.738         2.20236         2.20236        -8.56609        -8.56609
            2754         665.415         665.415         1.59094         1.59094        -7.39005        -7.39005
            2755         663.084         663.084         1.01099         1.01099        -6.08190        -6.08190
            2756         660.621         660.621     524.751E-03     524.751E-03        -4.50703        -4.50703
            2757         657.901         657.901     190.713E-03     190.713E-03        -2.49325        -2.49325
            2758         694.950         694.950        -19.1106        -19.1106        -5.31910        -5.31910
            2759         690.101         690.101        -12.5853        -12.5853        -9.07178        -9.07178
            2760         685.258         685.258        -7.87238        -7.87238        -10.6948        -10.6948
            2761         680.966         680.966        -4.67738        -4.67738        -11.1255        -11.1255
            2762         677.305         677.305        -2.60676        -2.60676        -10.9207        -10.9207
            2763         674.194         674.194        -1.32170        -1.32170        -10.3790        -10.3790
            2764         671.511         671.511    -570.815E-03    -570.815E-03        -9.63994        -9.63994
            2765         669.141         669.141    -172.094E-03    -172.094E-03        -8.75064        -8.75064
            2766         666.979         666.979     5.02931E-03     5.02931E-03        -7.69530        -7.69530
            2767         664.938         664.938     54.6989E-03     54.6989E-03        -6.40929        -6.40929
            2768         662.951         662.951     44.5374E-03     44.5374E-03        -4.77909        -4.77909
            2769         660.968         660.968     19.8896E-03     19.8896E-03        -2.64881        -2.64881
            2770         618.740         618.740         180.238         180.238         33.5314         33.5314
            2771         624.929         624.929         165.506         165.506         33.3489         33.3489
            2772         630.989         630.989         150.758         150.758         32.3352         32.3352
            2773         636.764         636.764         136.274         136.274         30.8224         30.8224
            2774         642.150         642.150         122.246         122.246         28.8645         28.8645
            2775         647.060         647.060         108.849         108.849         26.5267         26.5267
            2776         651.425         651.425         96.2292         96.2292         23.9051         23.9051
            2777         655.217         655.217         84.4879         84.4879         21.0961         21.0961
            2778         658.418         658.418         73.6930         73.6930         18.2008         18.2008
            2779         661.050         661.050         63.8710         63.8710         15.3095         15.3095
            2780         663.137         663.137         55.0198         55.0198         12.4978         12.4978
            2781         664.728         664.728         47.1114         47.1114         9.82739         9.82739
            2782         665.869         665.869         40.0997         40.0997         7.33863         7.33863
            2783         666.616         666.616         33.9281         33.9281         5.06052         5.06052
            2784         667.018         667.018         28.5314         28.5314         3.00405         3.00405
            2785         667.126         667.126         23.8435         23.8435         1.17297         1.17297
            2786         666.983         666.983         19.7960         19.7960    -440.775E-03    -440.775E-03
            2787         666.631         666.631         16.3238         16.3238        -1.84867        -1.84867
            2788         666.105         666.105         13.3632         13.3632        -3.06861        -3.06861
            2789         665.434         665.434         10.8548         10.8548        -4.11944        -4.11944
            2790         664.647         664.647         8.74190         8.74190        -5.02283        -5.02283
            2791         663.765         663.765         6.97229         6.97229        -5.80010        -5.80010
            2792         662.807         662.807         5.49647         5.49647        -6.47358        -6.47358
            2793         661.790         661.790         4.26876         4.26876        -7.06489        -7.06489
            2794         660.727         660.727         3.24585         3.24585        -7.59606        -7.59606
            2795         659.631         659.631         2.38725         2.38725        -8.08878        -8.08878
            2796         658.512         658.512         1.65415         1.65415        -8.56538        -8.56538
            2797         657.380         657.380         1.00933         1.00933        -9.04873        -9.04873
            2798         656.246         656.246     416.112E-03     416.112E-03        -9.56319        -9.56319
            2799         655.121         655.121    -162.236E-03    -162.236E-03        -10.1349        -10.1349
            2800         654.021         654.021    -763.822E-03    -763.822E-03        -10.7928        -10.7928
            2801         652.965         652.965        -1.42954        -1.42954        -11.5688        -11.5688
            2802         651.979         651.979        -2.20519        -2.20519        -12.4988        -12.4988
            2803         651.105         651.105        -3.14444        -3.14444        -13.6225        -13.6225
            2804         650.403         650.403        -4.31260        -4.31260        -14.9825        -14.9825
            2805         649.963         649.963        -5.79256        -5.79256        -16.6212        -16.6212
            2806         649.923         649.923        -7.69061        -7.69061        -18.5744        -18.5744
            2807         650.493         650.493        -10.1458        -10.1458        -20.8550        -20.8550
            2808         651.988         651.988        -13.3308        -13.3308        -23.4216        -23.4216
            2809         654.875         654.875        -17.4461        -17.4461        -26.1124        -26.1124
            2810         659.780         659.780        -22.6250        -22.6250        -28.5221        -28.5221
            2811         667.416         667.416        -28.7542        -28.7542        -29.8612        -29.8612
            2812         617.737         617.737         180.508         180.508         25.7620         25.7620
            2813         623.725         623.725         166.326         166.326         25.6134         25.6134
            2814         629.598         629.598         152.142         152.142         24.8462         24.8462
            2815         635.233         635.233         138.192         138.192         23.7220         23.7220
            2816         640.536         640.536         124.637         124.637         22.2680         22.2680
            2817         645.428         645.428         111.628         111.628         20.5369         20.5369
            2818         649.850         649.850         99.2896         99.2896         18.5859         18.5859
            2819         653.759         653.759         87.7214         87.7214         16.4867         16.4867
            2820         657.138         657.138         76.9912         76.9912         14.3074         14.3074
            2821         659.982         659.982         67.1396         67.1396         12.1145         12.1145
            2822         662.311         662.311         58.1791         58.1791         9.96585         9.96585
            2823         664.147         664.147         50.1005         50.1005         7.90707         7.90707
            2824         665.531         665.531         42.8764         42.8764         5.97469         5.97469
            2825         666.500         666.500         36.4658         36.4658         4.19083         4.19083
            2826         667.100         667.100         30.8194         30.8194         2.57041         2.57041
            2827         667.373         667.373         25.8808         25.8808         1.11668         1.11668
            2828         667.362         667.362         21.5923         21.5923    -171.556E-03    -171.556E-03
            2829         667.103         667.103         17.8937         17.8937        -1.30303        -1.30303
            2830         666.634         666.634         14.7270         14.7270        -2.28856        -2.28856
            2831         665.985         665.985         12.0346         12.0346        -3.14307        -3.14307
            2832         665.183         665.183         9.76263         9.76263        -3.88208        -3.88208
            2833         664.253         664.253         7.85892         7.85892        -4.52300        -4.52300
            2834         663.214         663.214         6.27510         6.27510        -5.08318        -5.08318
            2835         662.083         662.083         4.96537         4.96537        -5.58091        -5.58091
            2836         660.874         660.874         3.88722         3.88722        -6.03444        -6.03444
            2837         659.595         659.595         3.00066         3.00066        -6.46291        -6.46291
            2838         658.256         658.256         2.26837         2.26837        -6.88613        -6.88613
            2839         656.862         656.862         1.65504         1.65504        -7.32554        -7.32554
            2840         655.414         655.414         1.12711         1.12711        -7.80458        -7.80458
            2841         653.914         653.914     651.954E-03     651.954E-03        -8.34991        -8.34991
            2842         652.363         652.363     197.072E-03     197.072E-03        -8.99238        -8.99238
            2843         650.761         650.761    -271.240E-03    -271.240E-03        -9.76873        -9.76873
            2844         649.108         649.108    -789.879E-03    -789.879E-03        -10.7234        -10.7234
            2845         647.410         647.410        -1.40173        -1.40173        -11.9111        -11.9111
            2846         645.682         645.682        -2.16051        -2.16051        -13.3995        -13.3995
            2847         643.957         643.957        -3.13724        -3.13724        -15.2732        -15.2732
            2848         642.299         642.299        -4.43235        -4.43235        -17.6363        -17.6363
            2849         640.832         640.832        -6.19131        -6.19131        -20.6148        -20.6148
            2850         639.786         639.786        -8.63503        -8.63503        -24.3504        -24.3504
            2851         639.584         639.584        -12.0941        -12.0941        -28.9758        -28.9758
            2852         641.006         641.006        -17.0708        -17.0708        -34.5129        -34.5129
            2853         645.384         645.384        -24.1700        -24.1700        -40.6401        -40.6401
            2854         617.048         617.048         180.708         180.708         18.2221         18.2221
            2855         622.887         622.887         166.914         166.914         18.0944         18.0944
            2856         628.630         628.630         153.126         153.126         17.5435         17.5435
            2857         634.158         634.158         139.552         139.552         16.7495         16.7495
            2858         639.393         639.393         126.336         126.336         15.7368         15.7368
            2859         644.262         644.262         113.607         113.607         14.5326         14.5326
            2860         648.707         648.707         101.481         101.481         13.1800         13.1800
            2861         652.687         652.687         90.0492         90.0492         11.7214         11.7214
            2862         656.173         656.173         79.3825         79.3825         10.2045         10.2045
            2863         659.158         659.158         69.5258         69.5258         8.67289         8.67289
            2864         661.644         661.644         60.5025         60.5025         7.16594         7.16594
            2865         663.651         663.651         52.3146         52.3146         5.71701         5.71701
            2866         665.202         665.202         44.9470         44.9470         4.35046         4.35046
            2867         666.332         666.332         38.3711         38.3711         3.08515         3.08515
            2868         667.075         667.075         32.5472         32.5472         1.93059         1.93059
            2869         667.472         667.472         27.4288         27.4288     892.368E-03     892.368E-03
            2870         667.559         667.559         22.9642         22.9642    -31.1087E-03    -31.1087E-03
            2871         667.374         667.374         19.0996         19.0996    -843.622E-03    -843.622E-03
            2872         666.951         666.951         15.7799         15.7799        -1.55351        -1.55351
            2873         666.321         666.321         12.9513         12.9513        -2.16998        -2.16998
            2874         665.513         665.513         10.5606         10.5606        -2.70471        -2.70471
            2875         664.549         664.549         8.55768         8.55768        -3.16955        -3.16955
            2876         663.451         663.451         6.89447         6.89447        -3.57759        -3.57759
            2877         662.234         662.234         5.52620         5.52620        -3.94193        -3.94193
            2878         660.912         660.912         4.41093         4.41093        -4.27653        -4.27653
            2879         659.491         659.491         3.51001         3.51001        -4.59572        -4.59572
            2880         657.977         657.977         2.78773         2.78773        -4.91503        -4.91503
            2881         656.369         656.369         2.21140         2.21140        -5.25124        -5.25124
            2882         654.662         654.662         1.75103         1.75103        -5.62344        -5.62344
            2883         652.847         652.847         1.37917         1.37917        -6.05369        -6.05369
            2884         650.907         650.907         1.07039         1.07039        -6.56851        -6.56851
            2885         648.823         648.823     800.654E-03     800.654E-03        -7.20049        -7.20049
            2886         646.564         646.564     546.322E-03     546.322E-03        -7.99090        -7.99090
            2887         644.096         644.096     282.309E-03     282.309E-03        -8.99312        -8.99312
            2888         641.373         641.373    -20.4211E-03    -20.4211E-03        -10.2778        -10.2778
            2889         638.343         638.343    -400.226E-03    -400.226E-03        -11.9403        -11.9403
            2890         634.948         634.948    -912.014E-03    -912.014E-03        -14.1121        -14.1121
            2891         631.132         631.132        -1.64379        -1.64379        -16.9773        -16.9773
            2892         626.861         626.861        -2.74074        -2.74074        -20.7999        -20.7999
            2893         622.172         622.172        -4.46255        -4.46255        -25.9591        -25.9591
            2894         617.302         617.302        -7.28998        -7.28998        -33.0106        -33.0106
            2895         613.067         613.067        -12.1527        -12.1527        -42.6775        -42.6775
            2896         616.613         616.613         180.842         180.842         10.8375         10.8375
            2897         622.361         622.361         167.295         167.295         10.7264         10.7264
            2898         628.018         628.018         153.756         153.756         10.3675         10.3675
            2899         633.478         633.478         140.421         140.421         9.87409         9.87409
            2900         638.667         638.667         127.419         127.419         9.25569         9.25569
            2901         643.517         643.517         114.870         114.870         8.53339         8.53339
            2902         647.973         647.973         102.880         102.880         7.72726         7.72726
            2903         651.989         651.989         91.5398         91.5398         6.86514         6.86514
            2904         655.539         655.539         80.9177         80.9177         5.97180         5.97180
            2905         658.606         658.606         71.0632         71.0632         5.07321         5.07321
            2906         661.190         661.190         62.0043         62.0043         4.19165         4.19165
            2907         663.300         663.300         53.7504         53.7504         3.34554         3.34554
            2908         664.957         664.957         46.2943         46.2943         2.55004         2.55004
            2909         666.187         666.187         39.6142         39.6142         1.81447         1.81447
            2910         667.022         667.022         33.6779         33.6779         1.14584         1.14584
            2911         667.498         667.498         28.4441         28.4441     545.750E-03     545.750E-03
            2912         667.650         667.650         23.8663         23.8663     14.5470E-03     14.5470E-03
            2913         667.513         667.513         19.8940         19.8940    -451.367E-03    -451.367E-03
            2914         667.121         667.121         16.4755         16.4755    -855.987E-03    -855.987E-03
            2915         666.505         666.505         13.5580         13.5580        -1.20572        -1.20572
            2916         665.693         665.693         11.0906         11.0906        -1.50689        -1.50689
            2917         664.708         664.708         9.02345         9.02345        -1.76711        -1.76711
            2918         663.572         663.572         7.30948         7.30948        -1.99377        -1.99377
            2919         662.300         662.300         5.90433         5.90433        -2.19495        -2.19495
            2920         660.903         660.903         4.76691         4.76691        -2.37867        -2.37867
            2921         659.388         659.388         3.85944         3.85944        -2.55355        -2.55355
            2922         657.757         657.757         3.14766         3.14766        -2.72857        -2.72857
            2923         656.005         656.005         2.60088         2.60088        -2.91369        -2.91369
            2924         654.122         654.122         2.19211         2.19211        -3.12004        -3.12004
            2925         652.089         652.089         1.89804         1.89804        -3.36073        -3.36073
            2926         649.879         649.879         1.69915         1.69915        -3.65147        -3.65147
            2927         647.455         647.455         1.57976         1.57976        -4.01198        -4.01198
            2928         644.762         644.762         1.52794         1.52794        -4.46752        -4.46752
            2929         641.732         641.732         1.53556         1.53556        -5.05161        -5.05161
            2930         638.266         638.266         1.59766         1.59766        -5.80971        -5.80971
            2931         634.238         634.238         1.71221         1.71221        -6.80560        -6.80560
            2932         629.469         629.469         1.87735         1.87735        -8.13072        -8.13072
            2933         623.719         623.719         2.08919         2.08919        -9.92150        -9.92150
            2934         616.645         616.645         2.33075         2.33075        -12.3866        -12.3866
            2935         607.761         607.761         2.55641         2.55641        -15.8636        -15.8636
            2936         596.356         596.356         2.64410         2.64410        -20.9231        -20.9231
            2937         581.384         581.384         2.25440         2.25440        -28.6393        -28.6393
            2938         616.403         616.403         180.907         180.907         3.55193         3.55193
            2939         622.107         622.107         167.477         167.477         3.45921         3.45921
            2940         627.724         627.724         154.055         154.055         3.29117         3.29117
            2941         633.153         633.153         140.832         140.832         3.08317         3.08317
            2942         638.320         638.320         127.930         127.930         2.84388         2.84388
            2943         643.162         643.162         115.464         115.464         2.57765         2.57765
            2944         647.622         647.622         103.537         103.537         2.29529         2.29529
            2945         651.657         651.657         92.2366         92.2366         2.00348         2.00348
            2946         655.236         655.236         81.6335         81.6335         1.71210         1.71210
            2947         658.341         658.341         71.7777         71.7777         1.42794         1.42794
            2948         660.969         660.969         62.7002         62.7002         1.15767         1.15767
            2949         663.127         663.127         54.4139         54.4139     906.447E-03     906.447E-03
            2950         664.832         664.832         46.9148         46.9148     677.173E-03     677.173E-03
            2951         666.108         666.108         40.1850         40.1850     472.599E-03     472.599E-03
            2952         666.985         666.985         34.1951         34.1951     292.613E-03     292.613E-03
            2953         667.496         667.496         28.9069         28.9069     137.725E-03     137.725E-03
            2954         667.677         667.677         24.2759         24.2759     6.00284E-03     6.00284E-03
            2955         667.562         667.562         20.2535         20.2535    -103.592E-03    -103.592E-03
            2956         667.184         667.184         16.7889         16.7889    -193.763E-03    -193.763E-03
            2957         666.573         666.573         13.8307         13.8307    -266.342E-03    -266.342E-03
            2958         665.759         665.759         11.3280         11.3280    -324.116E-03    -324.116E-03
            2959         664.766         664.766         9.23158         9.23158    -369.147E-03    -369.147E-03
            2960         663.612         663.612         7.49458         7.49458    -403.960E-03    -403.960E-03
            2961         662.316         662.316         6.07284         6.07284    -430.527E-03    -430.527E-03
            2962         660.886         660.886         4.92552         4.92552    -451.009E-03    -451.009E-03
            2963         659.331         659.331         4.01513         4.01513    -467.171E-03    -467.171E-03
            2964         657.649         657.649         3.30802         3.30802    -480.850E-03    -480.850E-03
            2965         655.835         655.835         2.77425         2.77425    -493.629E-03    -493.629E-03
            2966         653.877         653.877         2.38811         2.38811    -507.138E-03    -507.138E-03
            2967         651.752         651.752         2.12800         2.12800    -522.881E-03    -522.881E-03
            2968         649.427         649.427         1.97702         1.97702    -542.464E-03    -542.464E-03
            2969         646.859         646.859         1.92302         1.92302    -567.484E-03    -567.484E-03
            2970         643.984         643.984         1.95947         1.95947    -599.778E-03    -599.778E-03
            2971         640.714         640.714         2.08562         2.08562    -641.296E-03    -641.296E-03
            2972         636.933         636.933         2.30824         2.30824    -694.539E-03    -694.539E-03
            2973         632.477         632.477         2.64168         2.64168    -762.219E-03    -762.219E-03
            2974         627.115         627.115         3.11177         3.11177    -848.285E-03    -848.285E-03
            2975         620.516         620.516         3.75518         3.75518    -956.761E-03    -956.761E-03
            2976         612.192         612.192         4.62847         4.62847        -1.09409        -1.09409
            2977         601.388         601.388         5.80583         5.80583        -1.26480        -1.26480
            2978         586.884         586.884         7.40245         7.40245        -1.47290        -1.47290
            2979         566.489         566.489         9.58241         9.58241        -1.67444        -1.67444
            2980         616.403         616.403         180.907         180.907        -3.69076        -3.69076
            2981         622.110         622.110         167.471         167.471        -3.74763        -3.74763
            2982         627.731         627.731         154.044         154.044        -3.71721        -3.71721
            2983         633.163         633.163         140.814         140.814        -3.62993        -3.62993
            2984         638.335         638.335         127.903         127.903        -3.48992        -3.48992
            2985         643.180         643.180         115.427         115.427        -3.29768        -3.29768
            2986         647.643         647.643         103.490         103.490        -3.06154        -3.06154
            2987         651.680         651.680         92.1798         92.1798        -2.78705        -2.78705
            2988         655.259         655.259         81.5682         81.5682        -2.48451        -2.48451
            2989         658.364         658.364         71.7053         71.7053        -2.16243        -2.16243
            2990         660.990         660.990         62.6227         62.6227        -1.83028        -1.83028
            2991         663.144         663.144         54.3331         54.3331        -1.49677        -1.49677
            2992         664.844         664.844         46.8327         46.8327        -1.16871        -1.16871
            2993         666.115         666.115         40.1034         40.1034    -852.897E-03    -852.897E-03
            2994         666.986         666.986         34.1155         34.1155    -553.013E-03    -553.013E-03
            2995         667.492         667.492         28.8307         28.8307    -273.044E-03    -273.044E-03
            2996         667.668         667.668         24.2040         24.2040    -13.9400E-03    -13.9400E-03
            2997         667.548         667.548         20.1865         20.1865     222.982E-03     222.982E-03
            2998         667.166         667.166         16.7271         16.7271     438.764E-03     438.764E-03
            2999         666.554         666.554         13.7740         13.7740     634.152E-03     634.152E-03
            3000         665.739         665.739         11.2760         11.2760     811.510E-03     811.510E-03
            3001         664.746         664.746         9.18383         9.18383     973.047E-03     973.047E-03
            3002         663.597         663.597         7.45014         7.45014         1.12206         1.12206
            3003         662.305         662.305         6.03061         6.03061         1.26188         1.26188
            3004         660.885         660.885         4.88403         4.88403         1.39669         1.39669
            3005         659.341         659.341         3.97263         3.97263         1.53104         1.53104
            3006         657.674         657.674         3.26223         3.26223         1.67040         1.67040
            3007         655.881         655.881         2.72241         2.72241         1.82112         1.82112
            3008         653.949         653.949         2.32661         2.32661         1.99101         1.99101
            3009         651.859         651.859         2.05227         2.05227         2.18964         2.18964
            3010         649.580         649.580         1.88095         1.88095         2.42931         2.42931
            3011         647.072         647.072         1.79857         1.79857         2.72586         2.72586
            3012         644.276         644.276         1.79549         1.79549         3.10052         3.10052
            3013         641.115         641.115         1.86683         1.86683         3.58193         3.58193
            3014         637.482         637.482         2.01248         2.01248         4.21039         4.21039
            3015         633.235         633.235         2.23720         2.23720         5.04284         5.04284
            3016         628.175         628.175         2.54976         2.54976         6.16412         6.16412
            3017         622.024         622.024         2.96141         2.96141         7.70103         7.70103
            3018         614.388         614.388         3.47985         3.47985         9.85660         9.85660
            3019         604.692         604.692         4.09587         4.09587         12.9614         12.9614
            3020         592.079         592.079         4.74351         4.74351         17.6054         17.6054
            3021         575.320         575.320         5.15034         5.15034         24.9147         24.9147
            3022         616.613         616.613         180.844         180.844        -10.9560        -10.9560
            3023         622.370         622.370         167.284         167.284        -10.9703        -10.9703
            3024         628.036         628.036         153.729         153.729        -10.7277        -10.7277
            3025         633.507         633.507         140.375         140.375        -10.3360        -10.3360
            3026         638.706         638.706         127.350         127.350        -9.80048        -9.80048
            3027         643.566         643.566         114.775         114.775        -9.13922        -9.13922
            3028         648.030         648.030         102.759         102.759        -8.37015        -8.37015
            3029         652.051         652.051         91.3933         91.3933        -7.52038        -7.52038
            3030         655.602         655.602         80.7488         80.7488        -6.61522        -6.61522
            3031         658.667         658.667         70.8759         70.8759        -5.68238        -5.68238
            3032         661.245         661.245         61.8035         61.8035        -4.74669        -4.74669
            3033         663.345         663.345         53.5413         53.5413        -3.82977        -3.82977
            3034         664.990         664.990         46.0818         46.0818        -2.95023        -2.95023
            3035         666.206         666.206         39.4032         39.4032        -2.12079        -2.12079
            3036         667.026         667.026         33.4723         33.4723        -1.35174        -1.35174
            3037         667.487         667.487         28.2472         28.2472    -647.467E-03    -647.467E-03
            3038         667.625         667.625         23.6806         23.6806    -10.7537E-03    -10.7537E-03
            3039         667.476         667.476         19.7210         19.7210     560.160E-03     560.160E-03
            3040         667.075         667.075         16.3158         16.3158         1.06790         1.06790
            3041         666.453         666.453         13.4116         13.4116         1.51805         1.51805
            3042         665.640         665.640         10.9566         10.9566         1.91659         1.91659
            3043         664.658         664.658         8.90035         8.90035         2.27127         2.27127
            3044         663.530         663.530         7.19507         7.19507         2.59007         2.59007
            3045         662.273         662.273         5.79573         5.79573         2.88215         2.88215
            3046         660.897         660.897         4.66050         4.66050         3.15704         3.15704
            3047         659.412         659.412         3.75067         3.75067         3.42545         3.42545
            3048         657.821         657.821         3.03093         3.03093         3.69906         3.69906
            3049         656.121         656.121         2.46916         2.46916         3.99133         3.99133
            3050         654.306         654.306         2.03650         2.03650         4.31781         4.31781
            3051         652.361         652.361         1.70710         1.70710         4.69735         4.69735
            3052         650.265         650.265         1.45794         1.45794         5.15303         5.15303
            3053         647.991         647.991         1.26843         1.26843         5.71423         5.71423
            3054         645.498         645.498         1.11964         1.11964         6.41887         6.41887
            3055         642.735         642.735     993.270E-03     993.270E-03         7.31745         7.31745
            3056         639.636         639.636     869.375E-03     869.375E-03         8.47806         8.47806
            3057         636.119         636.119     722.992E-03     722.992E-03         9.99569         9.99569
            3058         632.079         632.079     516.846E-03     516.846E-03         12.0039         12.0039
            3059         627.395         627.395     189.771E-03     189.771E-03         14.6983         14.6983
            3060         621.930         621.930    -370.077E-03    -370.077E-03         18.3662         18.3662
            3061         615.567         615.567        -1.37325        -1.37325         23.4485         23.4485
            3062         608.313         608.313        -3.25117        -3.25117         30.6211         30.6211
            3063         600.620         600.620        -6.88860        -6.88860         40.8632         40.8632
            3064         617.048         617.048         180.713         180.713        -18.3135        -18.3135
            3065         622.899         622.899         166.905         166.905        -18.2801        -18.2801
            3066         628.655         628.655         153.095         153.095        -17.8166        -17.8166
            3067         634.197         634.197         139.495         139.495        -17.0984        -17.0984
            3068         639.446         639.446         126.248         126.248        -16.1467        -16.1467
            3069         644.328         644.328         113.486         113.486        -14.9863        -14.9863
            3070         648.782         648.782         101.325         101.325        -13.6585        -13.6585
            3071         652.768         652.768         89.8612         89.8612        -12.2055        -12.2055
            3072         656.255         656.255         79.1660         79.1660        -10.6760        -10.6760
            3073         659.236         659.236         69.2862         69.2862        -9.11508        -9.11508
            3074         661.713         661.713         60.2461         60.2461        -7.56451        -7.56451
            3075         663.707         663.707         52.0481         52.0481        -6.06030        -6.06030
            3076         665.241         665.241         44.6770         44.6770        -4.62956        -4.62956
            3077         666.352         666.352         38.1036         38.1036        -3.29384        -3.29384
            3078         667.077         667.077         32.2873         32.2873        -2.06498        -2.06498
            3079         667.454         667.454         27.1806         27.1806    -950.691E-03    -950.691E-03
            3080         667.523         667.523         22.7305         22.7305     49.0172E-03     49.0172E-03
            3081         667.323         667.323         18.8824         18.8824     936.614E-03     936.614E-03
            3082         666.888         666.888         15.5799         15.5799         1.71959         1.71959
            3083         666.251         666.251         12.7683         12.7683         2.40659         2.40659
            3084         665.440         665.440         10.3936         10.3936         3.00912         3.00912
            3085         664.480         664.480         8.40468         8.40468         3.53911         3.53911
            3086         663.393         663.393         6.75279         6.75279         4.01004         4.01004
            3087         662.194         662.194         5.39234         5.39234         4.43566         4.43566
            3088         660.898         660.898         4.28050         4.28050         4.83084         4.83084
            3089         659.514         659.514         3.37759         3.37759         5.21109         5.21109
            3090         658.049         658.049         2.64665         2.64665         5.59343         5.59343
            3091         656.504         656.504         2.05341         2.05341         5.99651         5.99651
            3092         654.879         654.879         1.56579         1.56579         6.44165         6.44165
            3093         653.169         653.169         1.15355         1.15355         6.95363         6.95363
            3094         651.365         651.365     787.455E-03     787.455E-03         7.56230         7.56230
            3095         649.457         649.457     438.288E-03     438.288E-03         8.30414         8.30414
            3096         647.431         647.431     75.1969E-03     75.1969E-03         9.22508         9.22508
            3097         645.270         645.270    -337.054E-03    -337.054E-03         10.3835         10.3835
            3098         642.962         642.962    -841.929E-03    -841.929E-03         11.8556         11.8556
            3099         640.499         640.499        -1.49867        -1.49867         13.7407         13.7407
            3100         637.894         637.894        -2.39244        -2.39244         16.1712         16.1712
            3101         635.199         635.199        -3.65607        -3.65607         19.3212         19.3212
            3102         632.549         632.549        -5.49880        -5.49880         23.4200         23.4200
            3103         630.258         630.258        -8.27143        -8.27143         28.7490         28.7490
            3104         628.989         628.989        -12.5486        -12.5486         35.5991         35.5991
            3105         630.057         630.057        -19.2055        -19.2055         44.0903         44.0903
            3106         617.736         617.736         180.513         180.513        -25.8256        -25.8256
            3107         623.736         623.736         166.317         166.317        -25.7406        -25.7406
            3108         629.622         629.622         152.113         152.113        -25.0310        -25.0310
            3109         635.271         635.271         138.137         138.137        -23.9567        -23.9567
            3110         640.586         640.586         124.553         124.553        -22.5421        -22.5421
            3111         645.490         645.490         111.512         111.512        -20.8379        -20.8379
            3112         649.921         649.921         99.1411         99.1411        -18.9003        -18.9003
            3113         653.834         653.834         87.5428         87.5428        -16.8013        -16.8013
            3114         657.213         657.213         76.7864         76.7864        -14.6099        -14.6099
            3115         660.052         660.052         66.9142         66.9142        -12.3941        -12.3941
            3116         662.371         662.371         57.9392         57.9392        -10.2136        -10.2136
            3117         664.194         664.194         49.8526         49.8526        -8.11612        -8.11612
            3118         665.560         665.560         42.6266         42.6266        -6.14020        -6.14020
            3119         666.511         666.511         36.2196         36.2196        -4.30969        -4.30969
            3120         667.093         667.093         30.5814         30.5814        -2.64110        -2.64110
            3121         667.347         667.347         25.6545         25.6545        -1.13888        -1.13888
            3122         667.319         667.319         21.3802         21.3802     197.115E-03     197.115E-03
            3123         667.047         667.047         17.6974         17.6974         1.37499         1.37499
            3124         666.566         666.566         14.5471         14.5471         2.40504         2.40504
            3125         665.910         665.910         11.8708         11.8708         3.30199         3.30199
            3126         665.107         665.107         9.61383         9.61383         4.08122         4.08122
            3127         664.180         664.180         7.72339         7.72339         4.76027         4.76027
            3128         663.150         663.150         6.15047         6.15047         5.35665         5.35665
            3129         662.036         662.036         4.84855         4.84855         5.88896         5.88896
            3130         660.849         660.849         3.77446         3.77446         6.37586         6.37586
            3131         659.604         659.604         2.88736         2.88736         6.83697         6.83697
            3132         658.307         658.307         2.14900         2.14900         7.29263         7.29263
            3133         656.967         656.967         1.52282         1.52282         7.76488         7.76488
            3134         655.589         655.589     973.718E-03     973.718E-03         8.27778         8.27778
            3135         654.178         654.178     467.011E-03     467.011E-03         8.85857         8.85857
            3136         652.740         652.740    -32.4791E-03    -32.4791E-03         9.53850         9.53850
            3137         651.282         651.282    -562.003E-03    -562.003E-03         10.3544         10.3544
            3138         649.816         649.816        -1.16318        -1.16318         11.3501         11.3501
            3139         648.361         648.361        -1.88506        -1.88506         12.5782         12.5782
            3140         646.953         646.953        -2.78955        -2.78955         14.1019         14.1019
            3141         645.652         645.652        -3.95786        -3.95786         15.9960         15.9960
            3142         644.562         644.562        -5.50330        -5.50330         18.3461         18.3461
            3143         643.861         643.861        -7.58391        -7.58391         21.2426         21.2426
            3144         643.848         643.848        -10.4295        -10.4295         24.7602         24.7602
            3145         645.022         645.022        -14.3517        -14.3517         28.9065         28.9065
            3146         648.182         648.182        -19.7496        -19.7496         33.4919         33.4919
            3147         654.514         654.514        -26.9674        -26.9674         37.9310         37.9310
            3148         618.737         618.737         180.242         180.242        -33.5657        -33.5657
            3149         624.934         624.934         165.499         165.499        -33.4137        -33.4137
            3150         631.002         631.002         150.739         150.739        -32.4280        -32.4280
            3151         636.785         636.785         136.237         136.237        -30.9393        -30.9393
            3152         642.180         642.180         122.191         122.191        -29.0001        -29.0001
            3153         647.096         647.096         108.774         108.774        -26.6743        -26.6743
            3154         651.467         651.467         96.1337         96.1337        -24.0578        -24.0578
            3155         655.260         655.260         84.3740         84.3740        -21.2470        -21.2470
            3156         658.461         658.461         73.5636         73.5636        -18.3437        -18.3437
            3157         661.088         661.088         63.7295         63.7295        -15.4393        -15.4393
            3158         663.169         663.169         54.8704         54.8704        -12.6106        -12.6106
            3159         664.751         664.751         46.9580         46.9580        -9.92010        -9.92010
            3160         665.881         665.881         39.9462         39.9462        -7.40941        -7.40941
            3161         666.616         666.616         33.7777         33.7777        -5.10843        -5.10843
            3162         667.006         667.006         28.3869         28.3869        -3.02878        -3.02878
            3163         667.102         667.102         23.7069         23.7069        -1.17487        -1.17487
            3164         666.949         666.949         19.6686         19.6686     461.041E-03     461.041E-03
            3165         666.588         666.588         16.2066         16.2066         1.89010         1.89010
            3166         666.055         666.055         13.2562         13.2562         3.13011         3.13011
            3167         665.381         665.381         10.7580         10.7580         4.19976         4.19976
            3168         664.593         664.593         8.65443         8.65443         5.12076         5.12076
            3169         663.713         663.713         6.89315         6.89315         5.91446         5.91446
            3170         662.760         662.760         5.42419         5.42419         6.60325         6.60325
            3171         661.753         661.753         4.20155         4.20155         7.20887         7.20887
            3172         660.704         660.704         3.18152         3.18152         7.75342         7.75342
            3173         659.627         659.627         2.32319         2.32319         8.25871         8.25871
            3174         658.532         658.532         1.58724         1.58724         8.74712         8.74712
            3175         657.432         657.432     935.838E-03     935.838E-03         9.24154         9.24154
            3176         656.337         656.337     331.517E-03     331.517E-03         9.76622         9.76622
            3177         655.263         655.263    -263.442E-03    -263.442E-03         10.3470         10.3470
            3178         654.225         654.225    -888.377E-03    -888.377E-03         11.0123         11.0123
            3179         653.248         653.248        -1.58575        -1.58575         11.7929         11.7929
            3180         652.362         652.362        -2.40319        -2.40319         12.7230         12.7230
            3181         651.616         651.616        -3.39660        -3.39660         13.8387         13.8387
            3182         651.076         651.076        -4.63345        -4.63345         15.1774         15.1774
            3183         650.844         650.844        -6.19866        -6.19866         16.7724         16.7724
            3184         651.068         651.068        -8.19813        -8.19813         18.6445         18.6445
            3185         651.968         651.968        -10.7665        -10.7665         20.7827         20.7827
            3186         653.863         653.863        -14.0582        -14.0582         23.1084         23.1084
            3187         657.193         657.193        -18.2312        -18.2312         25.4114         25.4114
            3188         662.509         662.509        -23.3357        -23.3357         27.2479         27.2479
            3189         670.384         670.384        -29.1468        -29.1468         27.8196         27.8196
            3190         681.493         681.493        -24.1408        -24.1408        -10.6659        -10.6659
            3191         675.604         675.604        -22.0883        -22.0883        -13.6919        -13.6919
            3192         670.431         670.431        -19.2932        -19.2932        -15.4099        -15.4099
            3193         666.197         666.197        -16.3104        -16.3104        -16.1180        -16.1180
            3194         662.916         662.916        -13.4796        -13.4796        -16.1628        -16.1628
            3195         660.491         660.491        -10.9551        -10.9551        -15.8175        -15.8175
            3196         658.782         658.782        -8.78413        -8.78413        -15.2770        -15.2770
            3197         657.648         657.648        -6.95420        -6.95420        -14.6622        -14.6622
            3198         656.968         656.968        -5.42901        -5.42901        -14.0435        -14.0435
            3199         656.640         656.640        -4.16204        -4.16204        -13.4566        -13.4566
            3200         656.585         656.585        -3.10561        -3.10561        -12.9156        -12.9156
            3201         656.740         656.740        -2.21317        -2.21317        -12.4213        -12.4213
            3202         657.059         657.059        -1.44076        -1.44076        -11.9660        -11.9660
            3203         657.503         657.503    -746.855E-03    -746.855E-03        -11.5375        -11.5375
            3204         658.043         658.043    -91.8553E-03    -91.8553E-03        -11.1205        -11.1205
            3205         658.657         658.657     562.304E-03     562.304E-03        -10.6976        -10.6976
            3206         659.327         659.327         1.25325         1.25325        -10.2500        -10.2500
            3207         660.037         660.037         2.01820         2.01820        -9.75778        -9.75778
            3208         660.776         660.776         2.89556         2.89556        -9.19922        -9.19922
            3209         661.530         661.530         3.92440         3.92440        -8.55137        -8.55137
            3210         662.288         662.288         5.14671         5.14671        -7.78948        -7.78948
            3211         663.038         663.038         6.60608         6.60608        -6.88726        -6.88726
            3212         663.764         663.764         8.35116         8.35116        -5.81641        -5.81641
            3213         664.451         664.451         10.4329         10.4329        -4.54765        -4.54765
            3214         665.077         665.077         12.9099         12.9099        -3.04989        -3.04989
            3215         665.618         665.618         15.8434         15.8434        -1.29301        -1.29301
            3216         666.041         666.041         19.3056         19.3056     753.984E-03     753.984E-03
            3217         666.309         666.309         23.3706         23.3706         3.11637         3.11637
            3218         666.374         666.374         28.1264         28.1264         5.81822         5.81822
            3219         666.177         666.177         33.6605         33.6605         8.86872         8.86872
            3220         665.656         665.656         40.0740         40.0740         12.2720         12.2720
            3221         664.728         664.728         47.4620         47.4620         16.0026         16.0026
            3222         663.317         663.317         55.9226         55.9226         20.0239         20.0239
            3223         661.325         661.325         65.5379         65.5379         24.2542         24.2542
            3224         658.689         658.689         76.3635         76.3635         28.5924         28.5924
            3225         655.325         655.325         88.4221         88.4221         32.8928         32.8928
            3226         651.222         651.222         101.667         101.667         36.9856         36.9856
            3227         646.370         646.370         116.002         116.002         40.6940         40.6940
            3228         640.842         640.842         131.234         131.234         43.8276         43.8276
            3229         634.747         634.747         147.121         147.121         46.2580         46.2580
            3230         628.227         628.227         163.360         163.360         47.8652         47.8652
            3231         621.516         621.516         179.552         179.552         48.1719         48.1719
            3232         681.617         681.617        -20.3208        -20.3208        -5.26231        -5.26231
            3233         677.032         677.032        -19.5070        -19.5070        -8.64980        -8.64980
            3234         672.730         672.730        -17.7826        -17.7826        -11.0162        -11.0162
            3235         668.931         668.931        -15.5986        -15.5986        -12.5163        -12.5163
            3236         665.756         665.756        -13.3011        -13.3011        -13.3440        -13.3440
            3237         663.217         663.217        -11.1008        -11.1008        -13.7025        -13.7025
            3238         661.266         661.266        -9.10586        -9.10586        -13.7563        -13.7563
            3239         659.825         659.825        -7.35754        -7.35754        -13.6280        -13.6280
            3240         658.812         658.812        -5.85697        -5.85697        -13.3993        -13.3993
            3241         658.149         658.149        -4.58454        -4.58454        -13.1218        -13.1218
            3242         657.770         657.770        -3.50957        -3.50957        -12.8248        -12.8248
            3243         657.618         657.618        -2.59695        -2.59695        -12.5223        -12.5223
            3244         657.647         657.647        -1.80986        -1.80986        -12.2179        -12.2179
            3245         657.823         657.823        -1.11142        -1.11142        -11.9080        -11.9080
            3246         658.114         658.114    -465.313E-03    -465.313E-03        -11.5843        -11.5843
            3247         658.500         658.500     164.358E-03     164.358E-03        -11.2348        -11.2348
            3248         658.961         658.961     812.936E-03     812.936E-03        -10.8447        -10.8447
            3249         659.483         659.483         1.51620         1.51620        -10.3968        -10.3968
            3250         660.054         660.054         2.31007         2.31007        -9.87118        -9.87118
            3251         660.666         660.666         3.23236         3.23236        -9.24579        -9.24579
            3252         661.307         661.307         4.32192         4.32192        -8.49594        -8.49594
            3253         661.969         661.969         5.62152         5.62152        -7.59429        -7.59429
            3254         662.641         662.641         7.17588         7.17588        -6.51107        -6.51107
            3255         663.311         663.311         9.03647         9.03647        -5.21360        -5.21360
            3256         663.963         663.963         11.2575         11.2575        -3.66772        -3.66772
            3257         664.577         664.577         13.9038         13.9038        -1.83650        -1.83650
            3258         665.126         665.126         17.0432         17.0432     315.544E-03     315.544E-03
            3259         665.577         665.577         20.7597         20.7597         2.82575         2.82575
            3260         665.884         665.884         25.1391         25.1391         5.72304         5.72304
            3261         665.991         665.991         30.2887         30.2887         9.03593         9.03593
            3262         665.826         665.826         36.3146         36.3146         12.7704         12.7704
            3263         665.308         665.308         43.3446         43.3446         16.9273         16.9273
            3264         664.326         664.326         51.4976         51.4976         21.4619         21.4619
            3265         662.786         662.786         60.8968         60.8968         26.3155         26.3155
            3266         660.553         660.553         71.6414         71.6414         31.3609         31.3609
            3267         657.554         657.554         83.7841         83.7841         36.4442         36.4442
            3268         653.687         653.687         97.3289         97.3289         41.3544         41.3544
            3269         648.966         648.966         112.166         112.166         45.8475         45.8475
            3270         643.411         643.411         128.113         128.113         49.7010         49.7010
            3271         637.155         637.155         144.861         144.861         52.6797         52.6797
            3272         630.391         630.391         162.037         162.037         54.6738         54.6738
            3273         623.337         623.337         179.166         179.166         55.0710         55.0710
            3274         680.303         680.303        -16.4926        -16.4926        -1.30467        -1.30467
            3275         676.924         676.924        -16.5944        -16.5944        -4.67634        -4.67634
            3276         673.506         673.506        -15.7032        -15.7032        -7.30682        -7.30682
            3277         670.295         670.295        -14.2308        -14.2308        -9.25120        -9.25120
            3278         667.436         667.436        -12.4781        -12.4781        -10.6069        -10.6069
            3279         665.003         665.003        -10.6661        -10.6661        -11.4957        -11.4957
            3280         663.007         663.007        -8.93138        -8.93138        -12.0395        -12.0395
            3281         661.424         661.424        -7.34869        -7.34869        -12.3394        -12.3394
            3282         660.209         660.209        -5.94926        -5.94926        -12.4736        -12.4736
            3283         659.310         659.310        -4.73639        -4.73639        -12.4970        -12.4970
            3284         658.679         658.679        -3.69684        -3.69684        -12.4466        -12.4466
            3285         658.270         658.270        -2.80761        -2.80761        -12.3447        -12.3447
            3286         658.044         658.044        -2.04063        -2.04063        -12.2031        -12.2031
            3287         657.970         657.970        -1.36525        -1.36525        -12.0255        -12.0255
            3288         658.022         658.022    -749.655E-03    -749.655E-03        -11.8100        -11.8100
            3289         658.178         658.178    -161.752E-03    -161.752E-03        -11.5497        -11.5497
            3290         658.422         658.422     430.998E-03     430.998E-03        -11.2339        -11.2339
            3291         658.743         658.743         1.06112         1.06112        -10.8486        -10.8486
            3292         659.130         659.130         1.76229         1.76229        -10.3763        -10.3763
            3293         659.577         659.577         2.56869         2.56869        -9.79635        -9.79635
            3294         660.077         660.077         3.51725         3.51725        -9.08480        -9.08480
            3295         660.626         660.626         4.64626         4.64626        -8.21419        -8.21419
            3296         661.218         661.218         5.99928         5.99928        -7.15341        -7.15341
            3297         661.846         661.846         7.62219         7.62219        -5.86801        -5.86801
            3298         662.501         662.501         9.57003         9.57003        -4.31958        -4.31958
            3299         663.169         663.169         11.9010         11.9010        -2.46747        -2.46747
            3300         663.832         663.832         14.6884         14.6884    -267.069E-03    -267.069E-03
            3301         664.461         664.461         18.0089         18.0089         2.32453         2.32453
            3302         665.020         665.020         21.9628         21.9628         5.35363         5.35363
            3303         665.455         665.455         26.6524         26.6524         8.85465         8.85465
            3304         665.698         665.698         32.2135         32.2135         12.8635         12.8635
            3305         665.653         665.653         38.7788         38.7788         17.3818         17.3818
            3306         665.216         665.216         46.5169         46.5169         22.4078         22.4078
            3307         664.232         664.232         55.5822         55.5822         27.8668         27.8668
            3308         662.579         662.579         66.1330         66.1330         33.6672         33.6672
            3309         660.065         660.065         78.2912         78.2912         39.6115         39.6115
            3310         656.615         656.615         92.0899         92.0899         45.4628         45.4628
            3311         652.106         652.106         107.489         107.489         50.9191         50.9191
            3312         646.604         646.604         124.256         124.256         55.6322         55.6322
            3313         640.207         640.207         142.061         142.061         59.3460         59.3460
            3314         633.125         633.125         160.418         160.418         61.7934         61.7934
            3315         625.726         625.726         178.694         178.694         62.3505         62.3505
            3316         678.202         678.202        -12.9887        -12.9887         1.41083         1.41083
            3317         675.846         675.846        -13.6591        -13.6591        -1.67898        -1.67898
            3318         673.251         673.251        -13.3804        -13.3804        -4.31792        -4.31792
            3319         670.651         670.651        -12.4761        -12.4761        -6.45628        -6.45628
            3320         668.203         668.203        -11.2126        -11.2126        -8.12098        -8.12098
            3321         666.001         666.001        -9.78902        -9.78902        -9.37159        -9.37159
            3322         664.094         664.094        -8.34834        -8.34834        -10.2826        -10.2826
            3323         662.491         662.491        -6.98011        -6.98011        -10.9280        -10.9280
            3324         661.177         661.177        -5.73401        -5.73401        -11.3711        -11.3711
            3325         660.127         660.127        -4.63050        -4.63050        -11.6628        -11.6628
            3326         659.309         659.309        -3.67050        -3.67050        -11.8402        -11.8402
            3327         658.690         658.690        -2.84233        -2.84233        -11.9299        -11.9299
            3328         658.241         658.241        -2.12659        -2.12659        -11.9484        -11.9484
            3329         657.936         657.936        -1.49933        -1.49933        -11.9050        -11.9050
            3330         657.755         657.755    -934.184E-03    -934.184E-03        -11.8027        -11.8027
            3331         657.680         657.680    -403.316E-03    -403.316E-03        -11.6393        -11.6393
            3332         657.700         657.700     121.640E-03     121.640E-03        -11.4081        -11.4081
            3333         657.803         657.803     669.970E-03     669.970E-03        -11.0983        -11.0983
            3334         657.986         657.986         1.27125         1.27125        -10.6953        -10.6953
            3335         658.243         658.243         1.95682         1.95682        -10.1804        -10.1804
            3336         658.574         658.574         2.75881         2.75881        -9.53088        -9.53088
            3337         658.979         658.979         3.71307         3.71307        -8.71980        -8.71980
            3338         659.457         659.457         4.85713         4.85713        -7.71587        -7.71587
            3339         660.008         660.008         6.23548         6.23548        -6.48306        -6.48306
            3340         660.630         660.630         7.89533         7.89533        -4.98082        -4.98082
            3341         661.320         661.320         9.89632         9.89632        -3.16328        -3.16328
            3342         662.067         662.067         12.3016         12.3016    -981.237E-03    -981.237E-03
            3343         662.855         662.855         15.1958         15.1958         1.62038         1.62038
            3344         663.657         663.657         18.6669         18.6669         4.69503         4.69503
            3345         664.430         664.430         22.8389         22.8389         8.30232         8.30232
            3346         665.110         665.110         27.8362         27.8362         12.4856         12.4856
            3347         665.612         665.612         33.8372         33.8372         17.2936         17.2936
            3348         665.808         665.808         41.0136         41.0136         22.7230         22.7230
            3349         665.555         665.555         49.5968         49.5968         28.7711         28.7711
            3350         664.628         664.628         59.7957         59.7957         35.3150         35.3150
            3351         662.865         662.865         71.8165         71.8165         42.2116         42.2116
            3352         659.986         659.986         85.8092         85.8092         49.1491         49.1491
            3353         655.928         655.928         101.745         101.745         55.7542         55.7542
            3354         650.567         650.567         119.480         119.480         61.6043         61.6043
            3355         644.068         644.068         138.558         138.558         66.2105         66.2105
            3356         636.691         636.691         158.386         158.386         69.3302         69.3302
            3357         628.773         628.773         178.156         178.156         70.0627         70.0627
            3358         675.794         675.794        -9.97301        -9.97301         3.16677         3.16677
            3359         674.230         674.230        -10.9124        -10.9124     471.320E-03     471.320E-03
            3360         672.345         672.345        -11.0257        -11.0257        -2.00639        -2.00639
            3361         670.321         670.321        -10.5445        -10.5445        -4.16430        -4.16430
            3362         668.304         668.304        -9.68048        -9.68048        -5.96897        -5.96897
            3363         666.394         666.394        -8.60839        -8.60839        -7.43310        -7.43310
            3364         664.653         664.653        -7.45884        -7.45884        -8.59177        -8.59177
            3365         663.111         663.111        -6.32382        -6.32382        -9.49015        -9.49015
            3366         661.775         661.775        -5.26040        -5.26040        -10.1741        -10.1741
            3367         660.638         660.638        -4.29921        -4.29921        -10.6846        -10.6846
            3368         659.683         659.683        -3.45105        -3.45105        -11.0555        -11.0555
            3369         658.893         658.893        -2.71316        -2.71316        -11.3129        -11.3129
            3370         658.246         658.246        -2.07371        -2.07371        -11.4761        -11.4761
            3371         657.726         657.726        -1.51523        -1.51523        -11.5575        -11.5575
            3372         657.317         657.317        -1.01669        -1.01669        -11.5639        -11.5639
            3373         657.008         657.008    -555.227E-03    -555.227E-03        -11.4970        -11.4970
            3374         656.790         656.790    -106.592E-03    -106.592E-03        -11.3537        -11.3537
            3375         656.659         656.659     353.985E-03     353.985E-03        -11.1265        -11.1265
            3376         656.613         656.613     852.486E-03     852.486E-03        -10.8036        -10.8036
            3377         656.651         656.651         1.41535         1.41535        -10.3685        -10.3685
            3378         656.779         656.779         2.07137         2.07137        -9.80070        -9.80070
            3379         657.000         657.000         2.85038         2.85038        -9.07433        -9.07433
            3380         657.320         657.320         3.78698         3.78698        -8.15882        -8.15882
            3381         657.749         657.749         4.91775         4.91775        -7.01786        -7.01786
            3382         658.291         658.291         6.28835         6.28835        -5.60941        -5.60941
            3383         658.953         658.953         7.94738         7.94738        -3.88508        -3.88508
            3384         659.738         659.738         9.96031         9.96031        -1.78966        -1.78966
            3385         660.642         660.642         12.3961         12.3961     737.706E-03     737.706E-03
            3386         661.653         661.653         15.3546         15.3546         3.76625         3.76625
            3387         662.746         662.746         18.9380         18.9380         7.36508         7.36508
            3388         663.874         663.874         23.3035         23.3035         11.6140         11.6140
            3389         664.961         664.961         28.6054         28.6054         16.5714         16.5714
            3390         665.896         665.896         35.0874         35.0874         22.3098         22.3098
            3391         666.501         666.501         42.9777         42.9777         28.8196         28.8196
            3392         666.575         666.575         52.6099         52.6099         36.1044         36.1044
            3393         665.773         665.773         64.2798         64.2798         43.9578         43.9578
            3394         663.877         663.877         78.2551         78.2551         52.1480         52.1480
            3395         660.469         660.469         94.7128         94.7128         60.1723         60.1723
            3396         655.543         655.543         113.458         113.458         67.4219         67.4219
            3397         649.037         649.037         134.113         134.113         73.3376         73.3376
            3398         641.283         641.283         155.821         155.821         77.2642         77.2642
            3399         632.905         632.905         177.464         177.464         78.3657         78.3657
            3400         673.355         673.355        -7.46786        -7.46786         4.22072         4.22072
            3401         672.391         672.391        -8.46199        -8.46199         1.93861         1.93861
            3402         671.085         671.085        -8.78161        -8.78161    -294.900E-03    -294.900E-03
            3403         669.573         669.573        -8.58322        -8.58322        -2.35485        -2.35485
            3404         667.970         667.970        -8.02525        -8.02525        -4.17520        -4.17520
            3405         666.368         666.368        -7.24804        -7.24804        -5.73198        -5.73198
            3406         664.830         664.830        -6.36512        -6.36512        -7.03017        -7.03017
            3407         663.396         663.396        -5.46000        -5.46000        -8.09038        -8.09038
            3408         662.085         662.085        -4.58977        -4.58977        -8.94085        -8.94085
            3409         660.904         660.904        -3.78838        -3.78838        -9.61148        -9.61148
            3410         659.850         659.850        -3.07220        -3.07220        -10.1301        -10.1301
            3411         658.914         658.914        -2.44437        -2.44437        -10.5206        -10.5206
            3412         658.087         658.087        -1.89899        -1.89899        -10.8024        -10.8024
            3413         657.360         657.360        -1.42399        -1.42399        -10.9896        -10.9896
            3414         656.723         656.723        -1.00357        -1.00357        -11.0916        -11.0916
            3415         656.172         656.172    -619.434E-03    -619.434E-03        -11.1131        -11.1131
            3416         655.702         655.702    -252.083E-03    -252.083E-03        -11.0540        -11.0540
            3417         655.314         655.314     119.172E-03     119.172E-03        -10.9099        -10.9099
            3418         655.010         655.010     515.431E-03     515.431E-03        -10.6718        -10.6718
            3419         654.796         654.796     959.241E-03     959.241E-03        -10.3261        -10.3261
            3420         654.679         654.679         1.47371         1.47371        -9.85431        -9.85431
            3421         654.670         654.670         2.08488         2.08488        -9.23294        -9.23294
            3422         654.782         654.782         2.82001         2.82001        -8.43272        -8.43272
            3423         655.030         655.030         3.71229         3.71229        -7.41878        -7.41878
            3424         655.429         655.429         4.79706         4.79706        -6.14884        -6.14884
            3425         655.997         655.997         6.12120         6.12120        -4.57387        -4.57387
            3426         656.751         656.751         7.73464         7.73464        -2.63573        -2.63573
            3427         657.701         657.701         9.70970         9.70970    -267.607E-03    -267.607E-03
            3428         658.858         658.858         12.1219         12.1219         2.60717         2.60717
            3429         660.216         660.216         15.0902         15.0902         6.07711         6.07711
            3430         661.759         661.759         18.7344         18.7344         10.2350         10.2350
            3431         663.435         663.435         23.2580         23.2580         15.1917         15.1917
            3432         665.157         665.157         28.8554         28.8554         21.0326         21.0326
            3433         666.777         666.777         35.8717         35.8717         27.8733         27.8733
            3434         668.043         668.043         44.6192         44.6192         35.7000         35.7000
            3435         668.658         668.658         55.6072         55.6072         44.5405         44.5405
            3436         668.053         668.053         69.2809         69.2809         54.0323         54.0323
            3437         665.948         665.948         85.9704         85.9704         63.7716         63.7716
            3438         661.704         661.704         105.848         105.848         72.9326         72.9326
            3439         655.486         655.486         128.308         128.308         80.4898         80.4898
            3440         647.484         647.484         152.444         152.444         85.8026         85.8026
            3441         638.298         638.298         176.656         176.656         87.3019         87.3019
            3442         671.038         671.038        -5.43102        -5.43102         4.76276         4.76276
            3443         670.530         670.530        -6.33995        -6.33995         2.86594         2.86594
            3444         669.698         669.698        -6.72849        -6.72849     907.749E-03     907.749E-03
            3445         668.628         668.628        -6.69631        -6.69631    -985.427E-03    -985.427E-03
            3446         667.405         667.405        -6.35587        -6.35587        -2.73119        -2.73119
            3447         666.102         666.102        -5.81401        -5.81401        -4.28470        -4.28470
            3448         664.777         664.777        -5.16162        -5.16162        -5.62858        -5.62858
            3449         663.471         663.471        -4.46979        -4.46979        -6.76487        -6.76487
            3450         662.210         662.210        -3.78909        -3.78909        -7.70698        -7.70698
            3451         661.009         661.009        -3.15227        -3.15227        -8.47431        -8.47431
            3452         659.874         659.874        -2.57703        -2.57703        -9.08822        -9.08822
            3453         658.807         658.807        -2.06972        -2.06972        -9.56920        -9.56920
            3454         657.807         657.807        -1.62831        -1.62831        -9.93543        -9.93543
            3455         656.872         656.872        -1.24514        -1.24514        -10.2016        -10.2016
            3456         656.001         656.001    -908.670E-03    -908.670E-03        -10.3787        -10.3787
            3457         655.194         655.194    -605.180E-03    -605.180E-03        -10.4734        -10.4734
            3458         654.453         654.453    -319.346E-03    -319.346E-03        -10.4883        -10.4883
            3459         653.782         653.782    -35.1745E-03    -35.1745E-03        -10.4214        -10.4214
            3460         653.188         653.188     264.344E-03     264.344E-03        -10.2668        -10.2668
            3461         652.681         652.681     596.537E-03     596.537E-03        -10.0134        -10.0134
            3462         652.274         652.274     980.379E-03     980.379E-03        -9.64569        -9.64569
            3463         651.983         651.983         1.43548         1.43548        -9.14272        -9.14272
            3464         651.825         651.825         1.98488         1.98488        -8.47836        -8.47836
            3465         651.824         651.824         2.65297         2.65297        -7.61940        -7.61940
            3466         652.003         652.003         3.47113         3.47113        -6.52659        -6.52659
            3467         652.392         652.392         4.47300         4.47300        -5.15102        -5.15102
            3468         653.020         653.020         5.70630         5.70630        -3.43610        -3.43610
            3469         653.919         653.919         7.22173         7.22173        -1.31175        -1.31175
            3470         655.117         655.117         9.09884         9.09884         1.30261         1.30261
            3471         656.643         656.643         11.4195         11.4195         4.50514         4.50514
            3472         658.506         658.506         14.3263         14.3263         8.40999         8.40999
            3473         660.710         660.710         17.9581         17.9581         13.1467         13.1467
            3474         663.203         663.203         22.5837         22.5837         18.8733         18.8733
            3475         665.899         665.899         28.4478         28.4478         25.7256         25.7256
            3476         668.591         668.591         36.0589         36.0589         33.8990         33.8990
            3477         670.926         670.926         45.8558         45.8558         43.3866         43.3866
            3478         672.426         672.426         58.6765         58.6765         54.2910         54.2910
            3479         672.075         672.075         75.2469         75.2469         65.9258         65.9258
            3480         669.558         669.558         95.8895         95.8895         77.5072         77.5072
            3481         663.938         663.938         120.620         120.620         87.6796         87.6796
            3482         655.772         655.772         147.861         147.861         94.6965         94.6965
            3483         646.062         646.062         175.460         175.460         97.2394         97.2394
            3484         668.920         668.920        -3.79565        -3.79565         4.91234         4.91234
            3485         668.787         668.787        -4.54063        -4.54063         3.35685         3.35685
            3486         668.354         668.354        -4.90591        -4.90591         1.67789         1.67789
            3487         667.669         667.669        -4.95274        -4.95274    -7.46764E-03    -7.46764E-03
            3488         666.788         666.788        -4.75670        -4.75670        -1.61400        -1.61400
            3489         665.765         665.765        -4.39437        -4.39437        -3.08629        -3.08629
            3490         664.646         664.646        -3.93412        -3.93412        -4.39439        -4.39439
            3491         663.468         663.468        -3.43131        -3.43131        -5.52735        -5.52735
            3492         662.261         662.261        -2.92726        -2.92726        -6.48778        -6.48778
            3493         661.045         661.045        -2.44965        -2.44965        -7.28666        -7.28666
            3494         659.833         659.833        -2.01478        -2.01478        -7.93944        -7.93944
            3495         658.635         658.635        -1.62968        -1.62968        -8.46309        -8.46309
            3496         657.458         657.458        -1.29457        -1.29457        -8.87394        -8.87394
            3497         656.308         656.308        -1.00480        -1.00480        -9.18643        -9.18643
            3498         655.188         655.188    -752.524E-03    -752.524E-03        -9.41203        -9.41203
            3499         654.107         654.107    -527.767E-03    -527.767E-03        -9.55891        -9.55891
            3500         653.069         653.069    -319.437E-03    -319.437E-03        -9.63138        -9.63138
            3501         652.085         652.085    -115.484E-03    -115.484E-03        -9.62994        -9.62994
            3502         651.165         651.165     96.4470E-03     96.4470E-03        -9.55078        -9.55078
            3503         650.323         650.323     329.614E-03     329.614E-03        -9.38604        -9.38604
            3504         649.575         649.575     597.548E-03     597.548E-03        -9.12294        -9.12294
            3505         648.942         648.942     915.539E-03     915.539E-03        -8.74431        -8.74431
            3506         648.447         648.447         1.29958         1.29958        -8.22687        -8.22687
            3507         648.118         648.118         1.76937         1.76937        -7.54228        -7.54228
            3508         647.988         647.988         2.34606         2.34606        -6.65377        -6.65377
            3509         648.094         648.094         3.05844         3.05844        -5.51837        -5.51837
            3510         648.482         648.482         3.93774         3.93774        -4.08037        -4.08037
            3511         649.196         649.196         5.03115         5.03115        -2.27590        -2.27590
            3512         650.294         650.294         6.38901         6.38901    -20.9887E-03    -20.9887E-03
            3513         651.827         651.827         8.09669         8.09669         2.78007         2.78007
            3514         653.858         653.858         10.2411         10.2411         6.25419         6.25419
            3515         656.424         656.424         12.9904         12.9904         10.5479         10.5479
            3516         659.574         659.574         16.5030         16.5030         15.8478         15.8478
            3517         663.271         663.271         21.1343         21.1343         22.3825         22.3825
            3518         667.456         667.456         27.1894         27.1894         30.3842         30.3842
            3519         671.852         671.852         35.4461         35.4461         40.1970         40.1970
            3520         675.970         675.970         46.5287         46.5287         51.8654         51.8654
            3521         678.973         678.973         61.9644         61.9644         65.7145         65.7145
            3522         678.836         678.836         83.0636         83.0636         80.3059         80.3059
            3523         675.395         675.395         109.759         109.759         93.8992         93.8992
            3524         667.546         667.546         141.307         141.307         104.404         104.404
            3525         656.602         656.602         173.899         173.899         108.046         108.046
            3526         667.049         667.049        -2.49708        -2.49708         4.72404         4.72404
            3527         667.260         667.260        -3.04420        -3.04420         3.46974         3.46974
            3528         667.189         667.189        -3.33380        -3.33380         2.06712         2.06712
            3529         666.855         666.855        -3.40132        -3.40132     618.494E-03     618.494E-03
            3530         666.286         666.286        -3.29484        -3.29484    -796.191E-03    -796.191E-03
            3531         665.518         665.518        -3.06545        -3.06545        -2.12033        -2.12033
            3532         664.586         664.586        -2.76049        -2.76049        -3.31858        -3.31858
            3533         663.524         663.524        -2.41957        -2.41957        -4.37341        -4.37341
            3534         662.359         662.359        -2.07291        -2.07291        -5.28066        -5.28066
            3535         661.117         661.117        -1.74155        -1.74155        -6.04552        -6.04552
            3536         659.816         659.816        -1.43825        -1.43825        -6.67889        -6.67889
            3537         658.474         658.474        -1.16919        -1.16919        -7.19446        -7.19446
            3538         657.105         657.105    -935.375E-03    -935.375E-03        -7.60659        -7.60659
            3539         655.720         655.720    -734.229E-03    -734.229E-03        -7.92866        -7.92866
            3540         654.332         654.332    -560.639E-03    -560.639E-03        -8.17207        -8.17207
            3541         652.950         652.950    -408.007E-03    -408.007E-03        -8.34543        -8.34543
            3542         651.588         651.588    -268.671E-03    -268.671E-03        -8.45431        -8.45431
            3543         650.256         650.256    -134.542E-03    -134.542E-03        -8.50071        -8.50071
            3544         648.971         648.971     3.04207E-03     3.04207E-03        -8.48318        -8.48318
            3545         647.748         647.748     152.856E-03     152.856E-03        -8.39620        -8.39620
            3546         646.606         646.606     324.482E-03     324.482E-03        -8.23058        -8.23058
            3547         645.568         645.568     527.778E-03     527.778E-03        -7.97228        -7.97228
            3548         644.662         644.662     774.285E-03     774.285E-03        -7.60322        -7.60322
            3549         643.920         643.920         1.07634         1.07634        -7.09883        -7.09883
            3550         643.380         643.380         1.44978         1.44978        -6.42984        -6.42984
            3551         643.088         643.088         1.91215         1.91215        -5.55710        -5.55710
            3552         643.096         643.096         2.48823         2.48823        -4.43564        -4.43564
            3553         643.470         643.470         3.20592         3.20592        -3.00397        -3.00397
            3554         644.279         644.279         4.10896         4.10896        -1.19295        -1.19295
            3555         645.614         645.614         5.24561         5.24561         1.09618         1.09618
            3556         647.564         647.564         6.70210         6.70210         3.97297         3.97297
            3557         650.246         650.246         8.56761         8.56761         7.60100         7.60100
            3558         653.755         653.755         11.0313         11.0313         12.1629         12.1629
            3559         658.225         658.225         14.2677         14.2677         17.9332         17.9332
            3560         663.677         663.677         18.7375         18.7375         25.2368         25.2368
            3561         670.170         670.170         24.8077         24.8077         34.4959         34.4959
            3562         677.351         677.351         33.7005         33.7005         46.3229         46.3229
            3563         684.641         684.641         46.2903         46.2903         60.9826         60.9826
            3564         690.405         690.405         65.7407         65.7407         79.4586         79.4586
            3565         690.080         690.080         94.6707         94.6707         98.3792         98.3792
            3566         684.415         684.415         131.008         131.008         113.353         113.353
            3567         673.490         673.490         170.953         170.953         120.887         120.887
            3568         665.471         665.471        -1.48561        -1.48561         4.19600         4.19600
            3569         666.043         666.043        -1.83563        -1.83563         3.21869         3.21869
            3570         666.334         666.334        -2.02903        -2.02903         2.09799         2.09799
            3571         666.337         666.337        -2.08483        -2.08483     917.965E-03     917.965E-03
            3572         666.060         666.060        -2.03079        -2.03079    -252.897E-03    -252.897E-03
            3573         665.522         665.522        -1.89773        -1.89773        -1.36348        -1.36348
            3574         664.752         664.752        -1.71491        -1.71491        -2.37988        -2.37988
            3575         663.777         663.777        -1.50728        -1.50728        -3.28319        -3.28319
            3576         662.627         662.627        -1.29429        -1.29429        -4.06659        -4.06659
            3577         661.332         661.332        -1.08962        -1.08962        -4.73202        -4.73202
            3578         659.916         659.916    -901.883E-03    -901.883E-03        -5.28721        -5.28721
            3579         658.404         658.404    -735.350E-03    -735.350E-03        -5.74307        -5.74307
            3580         656.815         656.815    -591.069E-03    -591.069E-03        -6.11169        -6.11169
            3581         655.169         655.169    -467.645E-03    -467.645E-03        -6.40485        -6.40485
            3582         653.483         653.483    -362.140E-03    -362.140E-03        -6.63291        -6.63291
            3583         651.771         651.771    -270.512E-03    -270.512E-03        -6.80421        -6.80421
            3584         650.051         650.051    -188.197E-03    -188.197E-03        -6.92451        -6.92451
            3585         648.337         648.337    -110.168E-03    -110.168E-03        -6.99687        -6.99687
            3586         646.645         646.645    -31.3126E-03    -31.3126E-03        -7.02121        -7.02121
            3587         644.994         644.994     53.8442E-03     53.8442E-03        -6.99462        -6.99462
            3588         643.404         643.404     150.831E-03     150.831E-03        -6.91052        -6.91052
            3589         641.899         641.899     265.815E-03     265.815E-03        -6.75935        -6.75935
            3590         640.507         640.507     405.309E-03     405.309E-03        -6.52696        -6.52696
            3591         639.263         639.263     577.091E-03     577.091E-03        -6.19592        -6.19592
            3592         638.207         638.207     789.982E-03     789.982E-03        -5.74213        -5.74213
            3593         637.388         637.388         1.05523         1.05523        -5.13771        -5.13771
            3594         636.868         636.868         1.38658         1.38658        -4.34361        -4.34361
            3595         636.716         636.716         1.80263         1.80263        -3.31634        -3.31634
            3596         637.024         637.024         2.32724         2.32724        -1.99163        -1.99163
            3597         637.894         637.894         2.99541         2.99541    -300.180E-03    -300.180E-03
            3598         639.461         639.461         3.85200         3.85200         1.86921         1.86921
            3599         641.872         641.872         4.97243         4.97243         4.63271         4.63271
            3600         645.332         645.332         6.44595         6.44595         8.19539         8.19539
            3601         650.034         650.034         8.46110         8.46110         12.7683         12.7683
            3602         656.285         656.285         11.2045         11.2045         18.7525         18.7525
            3603         664.260         664.260         15.2286         15.2286         26.5800         26.5800
            3604         674.353         674.353         20.9521         20.9521         37.0414         37.0414
            3605         686.252         686.252         30.2796         30.2796         51.1826         51.1826
            3606         699.717         699.717         44.3402         44.3402         70.0873         70.0873
            3607         711.254         711.254         70.6589         70.6589         96.6668         96.6668
            3608         709.408         709.408         114.638         114.638         122.257         122.257
            3609         698.173         698.173         165.850         165.850         133.848         133.848
            3610         664.246         664.246    -736.377E-03    -736.377E-03         3.27412         3.27412
            3611         665.244         665.244    -917.771E-03    -917.771E-03         2.57666         2.57666
            3612         665.931         665.931        -1.02045        -1.02045         1.76511         1.76511
            3613         666.279         666.279        -1.05286        -1.05286     901.572E-03     901.572E-03
            3614         666.281         666.281        -1.02871        -1.02871     37.7529E-03     37.7529E-03
            3615         665.947         665.947    -963.436E-03    -963.436E-03    -786.793E-03    -786.793E-03
            3616         665.301         665.301    -871.964E-03    -871.964E-03        -1.54510        -1.54510
            3617         664.372         664.372    -767.186E-03    -767.186E-03        -2.22160        -2.22160
            3618         663.194         663.194    -659.194E-03    -659.194E-03        -2.81004        -2.81004
            3619         661.802         661.802    -555.227E-03    -555.227E-03        -3.31119        -3.31119
            3620         660.228         660.228    -459.811E-03    -459.811E-03        -3.73049        -3.73049
            3621         658.505         658.505    -375.312E-03    -375.312E-03        -4.07614        -4.07614
            3622         656.658         656.658    -302.322E-03    -302.322E-03        -4.35747        -4.35747
            3623         654.715         654.715    -240.247E-03    -240.247E-03        -4.58371        -4.58371
            3624         652.696         652.696    -187.589E-03    -187.589E-03        -4.76322        -4.76322
            3625         650.621         650.621    -142.389E-03    -142.389E-03        -4.90284        -4.90284
            3626         648.508         648.508    -102.293E-03    -102.293E-03        -5.00764        -5.00764
            3627         646.374         646.374    -64.8727E-03    -64.8727E-03        -5.08059        -5.08059
            3628         644.236         644.236    -27.4907E-03    -27.4907E-03        -5.12266        -5.12266
            3629         642.112         642.112     12.4495E-03     12.4495E-03        -5.13237        -5.13237
            3630         640.021         640.021     57.7751E-03     57.7751E-03        -5.10623        -5.10623
            3631         637.987         637.987     111.385E-03     111.385E-03        -5.03786        -5.03786
            3632         636.037         636.037     176.515E-03     176.515E-03        -4.91880        -4.91880
            3633         634.203         634.203     256.912E-03     256.912E-03        -4.73671        -4.73671
            3634         632.524         632.524     356.706E-03     356.706E-03        -4.47703        -4.47703
            3635         631.051         631.051     481.684E-03     481.684E-03        -4.11901        -4.11901
            3636         629.843         629.843     637.754E-03     637.754E-03        -3.63957        -3.63957
            3637         628.976         628.976     835.292E-03     835.292E-03        -3.00414        -3.00414
            3638         628.542         628.542         1.08381         1.08381        -2.17624        -2.17624
            3639         628.659         628.659         1.40391         1.40391        -1.09558        -1.09558
            3640         629.471         629.471         1.81349         1.81349     297.638E-03     297.638E-03
            3641         631.168         631.168         2.35607         2.35607         2.11732         2.11732
            3642         633.981         633.981         3.07388         3.07388         4.46801         4.46801
            3643         638.232         638.232         4.06233         4.06233         7.58745         7.58745
            3644         644.294         644.294         5.45178         5.45178         11.6787         11.6787
            3645         652.761         652.761         7.45640         7.45640         17.2958         17.2958
            3646         664.193         664.193         10.5950         10.5950         24.9111         24.9111
            3647         679.782         679.782         15.3610         15.3610         35.9688         35.9688
            3648         699.853         699.853         24.4085         24.4085         51.9767         51.9767
            3649         726.480         726.480         39.0255         39.0255         76.7964         76.7964
            3650         752.465         752.465         79.1734         79.1734         118.374         118.374
            3651         747.773         747.773         152.935         152.935         152.822         152.822
            3652         663.478         663.478    -258.166E-03    -258.166E-03         1.86481         1.86481
            3653         665.008         665.008    -323.613E-03    -323.613E-03         1.48712         1.48712
            3654         666.152         666.152    -361.100E-03    -361.100E-03         1.04492         1.04492
            3655         666.867         666.867    -373.428E-03    -373.428E-03     572.655E-03     572.655E-03
            3656         667.138         667.138    -365.422E-03    -365.422E-03     99.1902E-03     99.1902E-03
            3657         666.975         666.975    -342.540E-03    -342.540E-03    -353.341E-03    -353.341E-03
            3658         666.403         666.403    -310.158E-03    -310.158E-03    -769.730E-03    -769.730E-03
            3659         665.460         665.460    -272.888E-03    -272.888E-03        -1.14116        -1.14116
            3660         664.189         664.189    -234.415E-03    -234.415E-03        -1.46409        -1.46409
            3661         662.637         662.637    -197.328E-03    -197.328E-03        -1.73895        -1.73895
            3662         660.845         660.845    -163.315E-03    -163.315E-03        -1.96889        -1.96889
            3663         658.855         658.855    -133.206E-03    -133.206E-03        -2.15860        -2.15860
            3664         656.702         656.702    -107.270E-03    -107.270E-03        -2.31345        -2.31345
            3665         654.417         654.417    -85.2611E-03    -85.2611E-03        -2.43878        -2.43878
            3666         652.025         652.025    -66.7062E-03    -66.7062E-03        -2.53944        -2.53944
            3667         649.550         649.550    -50.8526E-03    -50.8526E-03        -2.61950        -2.61950
            3668         647.009         647.009    -36.9484E-03    -36.9484E-03        -2.68200        -2.68200
            3669         644.420         644.420    -24.0542E-03    -24.0542E-03        -2.72895        -2.72895
            3670         641.799         641.799    -11.3502E-03    -11.3502E-03        -2.76111        -2.76111
            3671         639.162         639.162     2.16878E-03     2.16878E-03        -2.77821        -2.77821
            3672         636.524         636.524     17.3778E-03     17.3778E-03        -2.77854        -2.77854
            3673         633.906         633.906     35.3350E-03     35.3350E-03        -2.75944        -2.75944
            3674         631.330         631.330     57.1501E-03     57.1501E-03        -2.71644        -2.71644
            3675         628.825         628.825     83.9277E-03     83.9277E-03        -2.64415        -2.64415
            3676         626.426         626.426     117.511E-03     117.511E-03        -2.53454        -2.53454
            3677         624.175         624.175     158.894E-03     158.894E-03        -2.37871        -2.37871
            3678         622.129         622.129     211.889E-03     211.889E-03        -2.16318        -2.16318
            3679         620.356         620.356     276.737E-03     276.737E-03        -1.87396        -1.87396
            3680         618.944         618.944     362.299E-03     362.299E-03        -1.48770        -1.48770
            3681         618.005         618.005     466.129E-03     466.129E-03    -982.262E-03    -982.262E-03
            3682         617.682         617.682     609.931E-03     609.931E-03    -313.798E-03    -313.798E-03
            3683         618.161         618.161     783.688E-03     783.688E-03     553.771E-03     553.771E-03
            3684         619.690         619.690         1.04184         1.04184         1.71281         1.71281
            3685         622.597         622.597         1.35696         1.35696         3.22458         3.22458
            3686         627.344         627.344         1.86784         1.86784         5.31282         5.31282
            3687         634.559         634.559         2.52379         2.52379         8.08921         8.08921
            3688         645.246         645.246         3.68628         3.68628         12.1930         12.1930
            3689         660.718         660.718         5.41140         5.41140         17.8749         17.8749
            3690         683.754         683.754         8.68441         8.68441         27.4065         27.4065
            3691         717.248         717.248         15.5561         15.5561         41.8487         41.8487
            3692         772.736         772.736         29.2884         29.2884         72.9367         72.9367
            3693         843.252         843.252         103.816         103.816         134.296         134.296
            3694         38.5133         38.5133        -295.112        -295.112        -36.2619        -36.2619
            3695         139.567         139.567        -120.657        -120.657        -95.3686        -95.3686
            3696         271.322         271.322        -37.7826        -37.7826        -103.808        -103.808
            3697         395.065         395.065        -6.38102        -6.38102        -85.8105        -85.8105
            3698         491.717         491.717         2.16961         2.16961        -60.7686        -60.7686
            3699         122.697         122.697        -218.613        -218.613        -83.2913        -83.2913
            3700         270.611         270.611        -120.998        -120.998        -166.777        -166.777
            3701         402.271         402.271        -71.2720        -71.2720        -165.801        -165.801
            3702         500.281         500.281        -44.2804        -44.2804        -128.939        -128.939
            3703         565.623         565.623        -28.0006        -28.0006        -87.6217        -87.6217
            3704         262.913         262.913        -125.957        -125.957        -138.218        -138.218
            3705         446.620         446.620        -122.120        -122.120        -195.693        -195.693
            3706         554.521         554.521        -102.165        -102.165        -169.995        -169.995
            3707         610.395         610.395        -74.9936        -74.9936        -121.764        -121.764
            3708         637.446         637.446        -50.4202        -50.4202        -78.1843        -78.1843
            3709         447.548         447.548        -43.7362        -43.7362        -184.734        -184.734
            3710         619.872         619.872        -117.699        -117.699        -177.506        -177.506
            3711         678.106         678.106        -112.707        -112.707        -131.269        -131.269
            3712         688.539         688.539        -84.0919        -84.0919        -85.8015        -85.8015
            3713         683.480         683.480        -55.7713        -55.7713        -51.6480        -51.6480
            3714         737.667         737.667         83.1282         83.1282         29.8699         29.8699
            3715         798.267         798.267         128.043         128.043         35.0889         35.0889
            3716         907.020         907.020         174.395         174.395         25.3194         25.3194
            3717     1.09639E+03     1.09639E+03         198.779         198.779        -18.5510        -18.5510
            3718     1.40541E+03     1.40541E+03         163.538         163.538        -118.179        -118.179
            3719         746.137         746.137         30.8545         30.8545         35.8363         35.8363
            3720         802.559         802.559         56.4007         56.4007         42.7055         42.7055
            3721         891.539         891.539         92.9490         92.9490         29.2407         29.2407
            3722     1.03146E+03     1.03146E+03         134.458         134.458        -37.3512        -37.3512
            3723     1.25020E+03     1.25020E+03         160.318         160.318        -202.312        -202.312
            3724         743.748         743.748        -16.2449        -16.2449         19.2704         19.2704
            3725         793.656         793.656        -14.2132        -14.2132         21.0479         21.0479
            3726         861.798         861.798         1.60280         1.60280         5.68713         5.68713
            3727         945.787         945.787         47.1389         47.1389        -60.5241        -60.5241
            3728     1.04447E+03     1.04447E+03         136.572         136.572        -238.923        -238.923
            3729         728.349         728.349        -41.5737        -41.5737        -4.19378        -4.19378
            3730         768.103         768.103        -57.8604        -57.8604        -12.8048        -12.8048
            3731         816.316         816.316        -66.0824        -66.0824        -35.0291        -35.0291
            3732         853.485         853.485        -37.3628        -37.3628        -92.5934        -92.5934
            3733         834.117         834.117         85.5159         85.5159        -237.026        -237.026
            3734         478.427         478.427        -31.2031        -31.2031         191.690         191.690
            3735         646.322         646.322        -116.600        -116.600         172.753         172.753
            3736         695.785         695.785        -113.353        -113.353         123.746         123.746
            3737         699.097         699.097        -84.5144        -84.5144         79.2642         79.2642
            3738         689.398         689.398        -55.8337        -55.8337         46.9773         46.9773
            3739         317.937         317.937        -96.3429        -96.3429         155.756         155.756
            3740         506.272         506.272        -122.257        -122.257         196.657         196.657
            3741         601.322         601.322        -109.483        -109.483         162.609         162.609
            3742         642.002         642.002        -81.6294        -81.6294         112.907         112.907
            3743         657.024         657.024        -54.8863        -54.8863         70.8531         70.8531
            3744         183.712         183.712        -173.708        -173.708         110.031         110.031
            3745         354.068         354.068        -122.266        -122.266         188.930         188.930
            3746         478.706         478.706        -88.9194        -88.9194         177.264         177.264
            3747         557.956         557.956        -62.6293        -62.6293         132.839         132.839
            3748         604.397         604.397        -41.8702        -41.8702         87.9183         87.9183
            3749         86.2715         86.2715        -250.698        -250.698         65.5133         65.5133
            3750         217.207         217.207        -121.601        -121.601         148.194         148.194
            3751         350.841         350.841        -59.2223        -59.2223         153.684         153.684
            3752         460.253         460.253        -30.9809        -30.9809         123.069         123.069
            3753         538.168         538.168        -17.7104        -17.7104         85.2897         85.2897
            3754         28.9087         28.9087        -308.848        -308.848         29.1237         29.1237
            3755         122.505         122.505        -122.103        -122.103         81.2764         81.2764
            3756         252.383         252.383        -33.2460        -33.2460         89.9216         89.9216
            3757         378.518         378.518    -196.847E-03    -196.847E-03         75.2761         75.2761
            3758         479.407         479.407         7.51847         7.51847         53.8649         53.8649
            3759         729.150         729.150        -42.7031        -42.7031         5.72276         5.72276
            3760         768.836         768.836        -58.8290        -58.8290         13.9614         13.9614
            3761         816.982         816.982        -66.8729        -66.8729         35.8918         35.8918
            3762         854.243         854.243        -37.9796        -37.9796         93.2598         93.2598
            3763         835.085         835.085         85.1075         85.1075         237.597         237.597
            3764         744.346         744.346        -17.1022        -17.1022        -17.8221        -17.8221
            3765         794.209         794.209        -14.9026        -14.9026        -19.9401        -19.9401
            3766         862.319         862.319         1.12271         1.12271        -4.85682        -4.85682
            3767         946.388         946.388         46.8907         46.8907         61.1235         61.1235
            3768     1.04540E+03     1.04540E+03         136.647         136.647         239.461         239.461
            3769         746.518         746.518         30.3060         30.3060        -34.4393        -34.4393
            3770         802.904         802.904         56.0123         56.0123        -41.5917        -41.5917
            3771         891.854         891.854         92.7644         92.7644        -28.3689        -28.3689
            3772     1.03185E+03     1.03185E+03         134.523         134.523         38.0386         38.0386
            3773     1.25096E+03     1.25096E+03         160.547         160.547         202.890         202.890
            3774         737.846         737.846         82.8730         82.8730        -28.4797        -28.4797
            3775         798.420         798.420         127.890         127.890        -33.9266        -33.9266
            3776         907.149         907.149         174.384         174.384        -24.3371        -24.3371
            3777     1.09658E+03     1.09658E+03         198.903         198.903         19.3785         19.3785
            3778     1.40585E+03     1.40585E+03         163.698         163.698         118.770         118.770
            3779         800.740         800.740         76.7147         76.7147        -235.540        -235.540
            3780         838.811         838.811        -50.3255        -50.3255        -98.5683        -98.5683
            3781         808.848         808.848        -75.9795        -75.9795        -42.7592        -42.7592
            3782         763.985         763.985        -64.2321        -64.2321        -19.5516        -19.5516
            3783         726.158         726.158        -45.6274        -45.6274        -9.52860        -9.52860
            3784         974.048         974.048         124.468         124.468        -244.001        -244.001
            3785         916.272         916.272         17.6379         17.6379        -70.3533        -70.3533
            3786         849.595         849.595        -25.8862        -25.8862        -6.76408        -6.76408
            3787         788.221         788.221        -34.0855        -34.0855         9.52718         9.52718
            3788         741.127         741.127        -29.1177        -29.1177         10.1761         10.1761
            3789     1.15321E+03     1.15321E+03         153.282         153.282        -229.251        -229.251
            3790         991.435         991.435         93.2005         93.2005        -48.7319        -48.7319
            3791         879.713         879.713         46.0679         46.0679         20.7437         20.7437
            3792         801.526         801.526         17.8227         17.8227         34.7208         34.7208
            3793         747.975         747.975         3.75297         3.75297         28.8866         28.8866
            3794     1.31455E+03     1.31455E+03         163.447         163.447        -182.273        -182.273
            3795     1.05846E+03     1.05846E+03         160.870         160.870        -32.0572        -32.0572
            3796         899.143         899.143         124.396         124.396         30.9093         30.9093
            3797         802.760         802.760         82.7722         82.7722         44.0994         44.0994
            3798         744.686         744.686         49.2413         49.2413         36.8025         36.8025
            3799     1.42882E+03     1.42882E+03         162.544         162.544        -102.030        -102.030
            3800     1.10672E+03     1.10672E+03         206.682         206.682        -16.5893        -16.5893
            3801         909.665         909.665         185.914         185.914         21.6915         21.6915
            3802         797.434         797.434         139.037         139.037         30.4833         30.4833
            3803         736.002         736.002         91.5794         91.5794         25.8626         25.8626
            3804         728.226         728.226        -41.7053        -41.7053         4.32570         4.32570
            3805         767.924         767.924        -58.0501        -58.0501         13.0034         13.0034
            3806         816.059         816.059        -66.3092        -66.3092         35.2901         35.2901
            3807         853.203         853.203        -37.6623        -37.6623         92.8649         92.8649
            3808         833.843         833.843         85.0219         85.0219         237.098         237.098
            3809         743.682         743.682        -16.4428        -16.4428        -19.1410        -19.1410
            3810         793.542         793.542        -14.4562        -14.4562        -20.8490        -20.8490
            3811         861.602         861.602         1.34675         1.34675        -5.42396        -5.42396
            3812         945.451         945.451         46.8676         46.8676         60.7414         60.7414
            3813     1.04400E+03     1.04400E+03         136.393         136.393         238.940         238.940
            3814         746.138         746.138         30.6000         30.6000        -35.7168        -35.7168
            3815         802.505         802.505         56.1382         56.1382        -42.4950        -42.4950
            3816         891.376         891.376         92.7030         92.7030        -28.9855        -28.9855
            3817     1.03108E+03     1.03108E+03         134.276         134.276         37.6023         37.6023
            3818     1.24947E+03     1.24947E+03         160.194         160.194         202.431         202.431
            3819         737.749         737.749         82.8433         82.8433        -29.8017        -29.8017
            3820         798.307         798.307         127.737         127.737        -34.9198        -34.9198
            3821         906.889         906.889         174.187         174.187        -25.0486        -25.0486
            3822     1.09600E+03     1.09600E+03         198.772         198.772         18.8209         18.8209
            3823     1.40446E+03     1.40446E+03         163.653         163.653         118.280         118.280
            3824         479.293         479.293        -31.6167        -31.6167         192.079         192.079
            3825         647.397         647.397        -117.423        -117.423         173.243         173.243
            3826         696.909         696.909        -114.350        -114.350         124.400         124.400
            3827         700.301         700.301        -85.6837        -85.6837         80.1838         80.1838
            3828         690.721         690.721        -57.2362        -57.2362         48.2879         48.2879
            3829         318.557         318.557        -97.0452        -97.0452         156.074         156.074
            3830         507.225         507.225        -123.222        -123.222         197.176         197.176
            3831         602.426         602.426        -110.586        -110.586         163.250         163.250
            3832         643.254         643.254        -82.8883        -82.8883         113.724         113.724
            3833         658.480         658.480        -56.3838        -56.3838         71.9694         71.9694
            3834         184.088         184.088        -174.730        -174.730         110.256         110.256
            3835         354.794         354.794        -123.342        -123.342         189.438         189.438
            3836         479.689         479.689        -90.0787        -90.0787         177.872         177.872
            3837         559.182         559.182        -63.9399        -63.9399         133.548         133.548
            3838         605.925         605.925        -43.4336        -43.4336         88.8258         88.8258
            3839         86.4366         86.4366        -252.036        -252.036         65.6559         65.6559
            3840         217.671         217.671        -122.758        -122.758         148.617         148.617
            3841         351.626         351.626        -60.3879        -60.3879         154.196         154.196
            3842         461.380         461.380        -32.2953        -32.2953         123.629         123.629
            3843         539.701         539.701        -19.3000        -19.3000         85.9569         85.9569
            3844         28.9301         28.9301        -310.430        -310.430         29.2060         29.2060
            3845         122.746         122.746        -123.310        -123.310         81.5446         81.5446
            3846         252.973         252.973        -34.3906        -34.3906         90.2448         90.2448
            3847         379.521         379.521        -1.48385        -1.48385         75.6130         75.6130
            3848         480.901         480.901         5.93465         5.93465         54.2396         54.2396
            3849         684.776         684.776        -57.1670        -57.1670        -52.9187        -52.9187
            3850         689.656         689.656        -85.2304        -85.2304        -86.7026        -86.7026
            3851         679.047         679.047        -113.646        -113.646        -131.903        -131.903
            3852         620.679         620.679        -118.504        -118.504        -177.888        -177.888
            3853         448.170         448.170        -44.3298        -44.3298        -184.890        -184.890
            3854         638.877         638.877        -51.9187        -51.9187        -79.2033        -79.2033
            3855         611.536         611.536        -76.2299        -76.2299        -122.516        -122.516
            3856         555.423         555.423        -103.247        -103.247        -170.563        -170.563
            3857         447.310         447.310        -123.144        -123.144        -196.099        -196.099
            3858         263.274         263.274        -126.935        -126.935        -138.347        -138.347
            3859         567.096         567.096        -29.5493        -29.5493        -88.3509        -88.3509
            3860         501.352         501.352        -45.5534        -45.5534        -129.501        -129.501
            3861         403.010         403.010        -72.4064        -72.4064        -166.263        -166.263
            3862         271.040         271.040        -122.140        -122.140        -167.119        -167.119
            3863         122.830         122.830        -219.944        -219.944        -83.3418        -83.3418
            3864         493.175         493.175     607.929E-03     607.929E-03        -61.1427        -61.1427
            3865         396.032         396.032        -7.64702        -7.64702        -86.1050        -86.1050
            3866         271.875         271.875        -38.9129        -38.9129        -104.054        -104.054
            3867         139.775         139.775        -121.864        -121.864        -95.5400        -95.5400
            3868         38.5074         38.5074        -296.707        -296.707        -36.2536        -36.2536


  Minimum               -10.8413        -10.8413        -465.666        -465.666        -368.371        -368.371
         At Node              28              28              28              28             590             590

  Maximum            1.67690E+03     1.67690E+03         222.496         222.496         366.211         366.211
         At Node              27              27             585             585             574             574

           Total     2.54710E+06     2.54710E+06     40.9664E+03     40.9664E+03     1.22743E+03     1.22743E+03


