********************************************************************************
Field Output Report, written Thu Feb 22 21:47:43 2024

Source 1
---------

   ODB: C:/Users/Isabel Haycock/OneDrive - Imperial College London/Fourth Year/FYP/Isabel Haycock/06 - FE models/Specimen_2/Plate_hole_1.odb
   Step: load
   Frame: Increment     10: Step Time =    1.000

Loc 1 : Nodal values at shell < composite > < elset = ASSEMBLY_PLATE_1-1_COMPOSITELAYUP-1-1 > from source 1 : SNEG, (fraction = -1.0), Layer = 1
Loc 2 : Nodal values at shell < composite > < elset = ASSEMBLY_PLATE_1-1_COMPOSITELAYUP-1-1 > from source 1 : SPOS, (fraction = 1.0), Layer = 8

Output sorted by column "Node Label".

Field Output reported at nodes for part: PLATE_1-1
   Computation algorithm: EXTRAPOLATE_COMPUTE_AVERAGE
   Averaged at nodes
   Averaging regions: ODB_REGIONS

      Node Label           S.S11           S.S11           S.S22           S.S22           S.S12           S.S12
                          @Loc 1          @Loc 2          @Loc 1          @Loc 2          @Loc 1          @Loc 2
-----------------------------------------------------------------------------------------------------------------
               1     1.71819E+03     1.71819E+03        -79.3399        -79.3399        -36.2041        -36.2041
               2     1.63502E+03     1.63502E+03         2.16345         2.16345    -99.5557E-03    -99.5557E-03
               3     1.63528E+03     1.63528E+03     11.3280E-03     11.3280E-03    -11.1620E-03    -11.1620E-03
               4     1.65383E+03     1.65383E+03    -100.098E-03    -100.098E-03         3.41917         3.41917
               5     1.71890E+03     1.71890E+03        -79.0655        -79.0655         34.9330         34.9330
               6     1.63502E+03     1.63502E+03         2.16376         2.16376     99.5460E-03     99.5460E-03
               7     1.31865E+03     1.31865E+03         36.2573         36.2573        -5.03196        -5.03196
               8     1.64793E+03     1.64793E+03    -122.315E-03    -122.315E-03        -2.88306        -2.88306
               9     1.72166E+03     1.72166E+03        -82.5975        -82.5975         39.5508         39.5508
              10     1.75030E+03     1.75030E+03         171.276         171.276         1.92231         1.92231
              11     1.65415E+03     1.65415E+03    -104.468E-03    -104.468E-03        -3.41849        -3.41849
              12     1.63528E+03     1.63528E+03     11.3307E-03     11.3307E-03     11.1646E-03     11.1646E-03
              13     1.53732E+03     1.53732E+03         467.382         467.382        -101.767        -101.767
              14     2.49664E+03     2.49664E+03         344.059         344.059        -402.802        -402.802
              15     1.71978E+03     1.71978E+03        -83.1067        -83.1067        -41.8228        -41.8228
              16     1.64814E+03     1.64814E+03    -127.895E-03    -127.895E-03         2.88562         2.88562
              17     1.74966E+03     1.74966E+03         173.439         173.439        -4.91099        -4.91099
              18     1.53733E+03     1.53733E+03         467.369         467.369         101.744         101.744
              19     1.32347E+03     1.32347E+03         31.5999         31.5999        -5.02485        -5.02485
              20     2.49664E+03     2.49664E+03         344.059         344.059         402.801         402.801
              21        -27.1321        -27.1321    -1.14467E+03    -1.14467E+03     889.331E-03     889.331E-03
              22     1.35903E+03     1.35903E+03         318.862         318.862        -670.916        -670.916
              23     4.16334E+03     4.16334E+03         258.802         258.802     456.398E-03     456.398E-03
              24     1.38000E+03     1.38000E+03         327.900         327.900         680.208         680.208
              25     1.38245E+03     1.38245E+03         328.292         328.292         681.532         681.532
              26     1.33447E+03     1.33447E+03         314.670         314.670        -663.885        -663.885
              27     4.17146E+03     4.17146E+03         255.903         255.903         19.5776         19.5776
              28        -27.3245        -27.3245    -1.14958E+03    -1.14958E+03     974.531E-03     974.531E-03
              29     1.68623E+03     1.68623E+03        -63.5564        -63.5564        -41.9175        -41.9175
              30     1.66768E+03     1.66768E+03        -53.3842        -53.3842        -45.7124        -45.7124
              31     1.65301E+03     1.65301E+03        -42.7406        -42.7406        -45.7236        -45.7236
              32     1.64213E+03     1.64213E+03        -33.0021        -33.0021        -43.4987        -43.4987
              33     1.63441E+03     1.63441E+03        -24.6309        -24.6309        -40.1841        -40.1841
              34     1.62915E+03     1.62915E+03        -17.6750        -17.6750        -36.5098        -36.5098
              35     1.62570E+03     1.62570E+03        -11.9888        -11.9888        -32.8810        -32.8810
              36     1.62357E+03     1.62357E+03        -7.38980        -7.38980        -29.4966        -29.4966
              37     1.62239E+03     1.62239E+03        -3.69778        -3.69778        -26.4384        -26.4384
              38     1.62189E+03     1.62189E+03    -757.310E-03    -757.310E-03        -23.7220        -23.7220
              39     1.62186E+03     1.62186E+03         1.56256         1.56256        -21.3308        -21.3308
              40     1.62215E+03     1.62215E+03         3.36938         3.36938        -19.2322        -19.2322
              41     1.62267E+03     1.62267E+03         4.75173         4.75173        -17.3894        -17.3894
              42     1.62333E+03     1.62333E+03         5.78269         5.78269        -15.7657        -15.7657
              43     1.62408E+03     1.62408E+03         6.52300         6.52300        -14.3279        -14.3279
              44     1.62487E+03     1.62487E+03         7.02352         7.02352        -13.0468        -13.0468
              45     1.62568E+03     1.62568E+03         7.32709         7.32709        -11.8980        -11.8980
              46     1.62649E+03     1.62649E+03         7.46999         7.46999        -10.8608        -10.8608
              47     1.62728E+03     1.62728E+03         7.48306         7.48306        -9.91891        -9.91891
              48     1.62804E+03     1.62804E+03         7.39255         7.39255        -9.05875        -9.05875
              49     1.62876E+03     1.62876E+03         7.22078         7.22078        -8.26963        -8.26963
              50     1.62944E+03     1.62944E+03         6.98676         6.98676        -7.54297        -7.54297
              51     1.63007E+03     1.63007E+03         6.70657         6.70657        -6.87188        -6.87188
              52     1.63065E+03     1.63065E+03         6.39381         6.39381        -6.25081        -6.25081
              53     1.63119E+03     1.63119E+03         6.05991         6.05991        -5.67523        -5.67523
              54     1.63169E+03     1.63169E+03         5.71442         5.71442        -5.14134        -5.14134
              55     1.63214E+03     1.63214E+03         5.36527         5.36527        -4.64590        -4.64590
              56     1.63255E+03     1.63255E+03         5.01902         5.01902        -4.18606        -4.18606
              57     1.63291E+03     1.63291E+03         4.68102         4.68102        -3.75924        -3.75924
              58     1.63324E+03     1.63324E+03         4.35559         4.35559        -3.36306        -3.36306
              59     1.63354E+03     1.63354E+03         4.04623         4.04623        -2.99521        -2.99521
              60     1.63380E+03     1.63380E+03         3.75568         3.75568        -2.65350        -2.65350
              61     1.63403E+03     1.63403E+03         3.48611         3.48611        -2.33575        -2.33575
              62     1.63423E+03     1.63423E+03         3.23918         3.23918        -2.03981        -2.03981
              63     1.63441E+03     1.63441E+03         3.01615         3.01615        -1.76351        -1.76351
              64     1.63456E+03     1.63456E+03         2.81796         2.81796        -1.50470        -1.50470
              65     1.63468E+03     1.63468E+03         2.64529         2.64529        -1.26122        -1.26122
              66     1.63479E+03     1.63479E+03         2.49861         2.49861        -1.03090        -1.03090
              67     1.63487E+03     1.63487E+03         2.37826         2.37826    -811.546E-03    -811.546E-03
              68     1.63494E+03     1.63494E+03         2.28447         2.28447    -600.978E-03    -600.978E-03
              69     1.63498E+03     1.63498E+03         2.21736         2.21736    -397.004E-03    -397.004E-03
              70     1.63501E+03     1.63501E+03         2.17697         2.17697    -197.974E-03    -197.974E-03
              71     1.63520E+03     1.63520E+03         1.94811         1.94811    -107.885E-03    -107.885E-03
              72     1.63538E+03     1.63538E+03         1.73222         1.73222    -112.953E-03    -112.953E-03
              73     1.63555E+03     1.63555E+03         1.50896         1.50896    -115.398E-03    -115.398E-03
              74     1.63570E+03     1.63570E+03         1.28357         1.28357    -115.090E-03    -115.090E-03
              75     1.63583E+03     1.63583E+03         1.06147         1.06147    -111.980E-03    -111.980E-03
              76     1.63593E+03     1.63593E+03     848.148E-03     848.148E-03    -106.066E-03    -106.066E-03
              77     1.63599E+03     1.63599E+03     648.985E-03     648.985E-03    -97.4249E-03    -97.4249E-03
              78     1.63600E+03     1.63600E+03     469.184E-03     469.184E-03    -86.1841E-03    -86.1841E-03
              79     1.63596E+03     1.63596E+03     313.588E-03     313.588E-03    -72.5824E-03    -72.5824E-03
              80     1.63585E+03     1.63585E+03     186.562E-03     186.562E-03    -56.8666E-03    -56.8666E-03
              81     1.63568E+03     1.63568E+03     91.7659E-03     91.7659E-03    -39.5159E-03    -39.5159E-03
              82     1.63543E+03     1.63543E+03     32.0767E-03     32.0767E-03    -20.8490E-03    -20.8490E-03
              83     1.63531E+03     1.63531E+03     11.5534E-03     11.5534E-03    -20.4632E-03    -20.4632E-03
              84     1.63537E+03     1.63537E+03     11.8749E-03     11.8749E-03    -40.0892E-03    -40.0892E-03
              85     1.63547E+03     1.63547E+03     12.1975E-03     12.1975E-03    -61.0717E-03    -61.0717E-03
              86     1.63561E+03     1.63561E+03     12.7440E-03     12.7440E-03    -82.9598E-03    -82.9598E-03
              87     1.63580E+03     1.63580E+03     13.4470E-03     13.4470E-03    -106.149E-03    -106.149E-03
              88     1.63603E+03     1.63603E+03     14.3028E-03     14.3028E-03    -130.964E-03    -130.964E-03
              89     1.63632E+03     1.63632E+03     15.3145E-03     15.3145E-03    -157.739E-03    -157.739E-03
              90     1.63666E+03     1.63666E+03     16.4717E-03     16.4717E-03    -186.804E-03    -186.804E-03
              91     1.63706E+03     1.63706E+03     17.7740E-03     17.7740E-03    -218.486E-03    -218.486E-03
              92     1.63753E+03     1.63753E+03     19.2093E-03     19.2093E-03    -253.107E-03    -253.107E-03
              93     1.63807E+03     1.63807E+03     20.7685E-03     20.7685E-03    -290.977E-03    -290.977E-03
              94     1.63869E+03     1.63869E+03     22.4334E-03     22.4334E-03    -332.391E-03    -332.391E-03
              95     1.63940E+03     1.63940E+03     24.1827E-03     24.1827E-03    -377.616E-03    -377.616E-03
              96     1.64019E+03     1.64019E+03     25.9855E-03     25.9855E-03    -426.881E-03    -426.881E-03
              97     1.64109E+03     1.64109E+03     27.8016E-03     27.8016E-03    -480.360E-03    -480.360E-03
              98     1.64211E+03     1.64211E+03     29.5787E-03     29.5787E-03    -538.151E-03    -538.151E-03
              99     1.64324E+03     1.64324E+03     31.2470E-03     31.2470E-03    -600.252E-03    -600.252E-03
             100     1.64449E+03     1.64449E+03     32.7208E-03     32.7208E-03    -666.526E-03    -666.526E-03
             101     1.64589E+03     1.64589E+03     33.8842E-03     33.8842E-03    -736.658E-03    -736.658E-03
             102     1.64743E+03     1.64743E+03     34.6024E-03     34.6024E-03    -810.106E-03    -810.106E-03
             103     1.64911E+03     1.64911E+03     34.6912E-03     34.6912E-03    -886.037E-03    -886.037E-03
             104     1.65095E+03     1.65095E+03     33.9482E-03     33.9482E-03    -963.255E-03    -963.255E-03
             105     1.65294E+03     1.65294E+03     32.0939E-03     32.0939E-03        -1.04011        -1.04011
             106     1.65508E+03     1.65508E+03     28.8421E-03     28.8421E-03        -1.11441        -1.11441
             107     1.65736E+03     1.65736E+03     23.7946E-03     23.7946E-03        -1.18328        -1.18328
             108     1.65977E+03     1.65977E+03     16.5821E-03     16.5821E-03        -1.24312        -1.24312
             109     1.66229E+03     1.66229E+03     6.68979E-03     6.68979E-03        -1.28941        -1.28941
             110     1.66488E+03     1.66488E+03    -6.28974E-03    -6.28974E-03        -1.31669        -1.31669
             111     1.66750E+03     1.66750E+03    -22.9109E-03    -22.9109E-03        -1.31853        -1.31853
             112     1.67009E+03     1.67009E+03    -43.4811E-03    -43.4811E-03        -1.28749        -1.28749
             113     1.67257E+03     1.67257E+03    -68.3620E-03    -68.3620E-03        -1.21541        -1.21541
             114     1.67487E+03     1.67487E+03    -97.4699E-03    -97.4699E-03        -1.09362        -1.09362
             115     1.67686E+03     1.67686E+03    -130.496E-03    -130.496E-03    -913.673E-03    -913.673E-03
             116     1.67843E+03     1.67843E+03    -166.492E-03    -166.492E-03    -668.011E-03    -668.011E-03
             117     1.67945E+03     1.67945E+03    -203.769E-03    -203.769E-03    -351.413E-03    -351.413E-03
             118     1.67976E+03     1.67976E+03    -239.952E-03    -239.952E-03     37.7589E-03     37.7589E-03
             119     1.67923E+03     1.67923E+03    -271.370E-03    -271.370E-03     495.528E-03     495.528E-03
             120     1.67773E+03     1.67773E+03    -293.993E-03    -293.993E-03         1.01071         1.01071
             121     1.67517E+03     1.67517E+03    -302.508E-03    -302.508E-03         1.56321         1.56321
             122     1.67150E+03     1.67150E+03    -292.162E-03    -292.162E-03         2.12319         2.12319
             123     1.66675E+03     1.66675E+03    -258.587E-03    -258.587E-03         2.65186         2.65186
             124     1.66102E+03     1.66102E+03    -198.802E-03    -198.802E-03         3.10027         3.10027
             125     1.65523E+03     1.65523E+03    -294.528E-03    -294.528E-03         6.30524         6.30524
             126     1.65834E+03     1.65834E+03    -865.322E-03    -865.322E-03         11.3380         11.3380
             127     1.66201E+03     1.66201E+03        -1.80919        -1.80919         15.0632         15.0632
             128     1.66617E+03     1.66617E+03        -3.18639        -3.18639         17.7829         17.7829
             129     1.67084E+03     1.67084E+03        -5.13587        -5.13587         19.6912         19.6912
             130     1.67609E+03     1.67609E+03        -7.86875        -7.86875         20.8475         20.8475
             131     1.68199E+03     1.68199E+03        -11.6680        -11.6680         21.1609         21.1609
             132     1.68859E+03     1.68859E+03        -16.8825        -16.8825         20.3581         20.3581
             133     1.69580E+03     1.69580E+03        -23.9015        -23.9015         17.9135         17.9135
             134     1.70320E+03     1.70320E+03        -33.0510        -33.0510         12.9901         12.9901
             135     1.70979E+03     1.70979E+03        -44.3879        -44.3879         4.40408         4.40408
             136     1.71351E+03     1.71351E+03        -57.2301        -57.2301        -9.08801        -9.08801
             137     1.68711E+03     1.68711E+03        -63.3924        -63.3924         40.6451         40.6451
             138     1.66869E+03     1.66869E+03        -53.4455        -53.4455         44.6731         44.6731
             139     1.65405E+03     1.65405E+03        -42.9663        -42.9663         44.9505         44.9505
             140     1.64311E+03     1.64311E+03        -33.3098        -33.3098         42.9772         42.9772
             141     1.63527E+03     1.63527E+03        -24.9540        -24.9540         39.8632         39.8632
             142     1.62987E+03     1.62987E+03        -17.9740        -17.9740         36.3332         36.3332
             143     1.62629E+03     1.62629E+03        -12.2478        -12.2478         32.8000         32.8000
             144     1.62406E+03     1.62406E+03        -7.60629        -7.60629         29.4770         29.4770
             145     1.62278E+03     1.62278E+03        -3.87487        -3.87487         26.4563         26.4563
             146     1.62220E+03     1.62220E+03    -900.627E-03    -900.627E-03         23.7619         23.7619
             147     1.62211E+03     1.62211E+03         1.44725         1.44725         21.3823         21.3823
             148     1.62236E+03     1.62236E+03         3.27665         3.27665         19.2890         19.2890
             149     1.62284E+03     1.62284E+03         4.67701         4.67701         17.4474         17.4474
             150     1.62347E+03     1.62347E+03         5.72219         5.72219         15.8225         15.8225
             151     1.62419E+03     1.62419E+03         6.47369         6.47369         14.3819         14.3819
             152     1.62497E+03     1.62497E+03         6.98301         6.98301         13.0972         13.0972
             153     1.62576E+03     1.62576E+03         7.29352         7.29352         11.9443         11.9443
             154     1.62656E+03     1.62656E+03         7.44193         7.44193         10.9030         10.9030
             155     1.62734E+03     1.62734E+03         7.45940         7.45940         9.95691         9.95691
             156     1.62809E+03     1.62809E+03         7.37245         7.37245         9.09276         9.09276
             157     1.62880E+03     1.62880E+03         7.20359         7.20359         8.29985         8.29985
             158     1.62947E+03     1.62947E+03         6.97198         6.97198         7.56965         7.56965
             159     1.63010E+03     1.63010E+03         6.69381         6.69381         6.89530         6.89530
             160     1.63068E+03     1.63068E+03         6.38278         6.38278         6.27124         6.27124
             161     1.63121E+03     1.63121E+03         6.05036         6.05036         5.69294         5.69294
             162     1.63170E+03     1.63170E+03         5.70616         5.70616         5.15659         5.15659
             163     1.63215E+03     1.63215E+03         5.35815         5.35815         4.65895         4.65895
             164     1.63256E+03     1.63256E+03         5.01289         5.01289         4.19716         4.19716
             165     1.63292E+03     1.63292E+03         4.67577         4.67577         3.76861         3.76861
             166     1.63325E+03     1.63325E+03         4.35112         4.35112         3.37089         3.37089
             167     1.63354E+03     1.63354E+03         4.04244         4.04244         3.00171         3.00171
             168     1.63380E+03     1.63380E+03         3.75251         3.75251         2.65883         2.65883
             169     1.63403E+03     1.63403E+03         3.48348         3.48348         2.34008         2.34008
             170     1.63423E+03     1.63423E+03         3.23703         3.23703         2.04327         2.04327
             171     1.63441E+03     1.63441E+03         3.01442         3.01442         1.76623         1.76623
             172     1.63456E+03     1.63456E+03         2.81661         2.81661         1.50680         1.50680
             173     1.63468E+03     1.63468E+03         2.64427         2.64427         1.26281         1.26281
             174     1.63479E+03     1.63479E+03         2.49790         2.49790         1.03205         1.03205
             175     1.63487E+03     1.63487E+03         2.37783         2.37783     812.349E-03     812.349E-03
             176     1.63494E+03     1.63494E+03         2.28429         2.28429     601.496E-03     601.496E-03
             177     1.63498E+03     1.63498E+03         2.21742         2.21742     397.289E-03     397.289E-03
             178     1.63501E+03     1.63501E+03         2.17721         2.17721     198.059E-03     198.059E-03
             179     1.63482E+03     1.63482E+03         2.38203         2.38203     87.1563E-03     87.1563E-03
             180     1.63464E+03     1.63464E+03         2.57899         2.57899     71.2241E-03     71.2241E-03
             181     1.63449E+03     1.63449E+03         2.73312         2.73312     52.7829E-03     52.7829E-03
             182     1.63438E+03     1.63438E+03         2.83900         2.83900     32.4810E-03     32.4810E-03
             183     1.63433E+03     1.63433E+03         2.89287         2.89287     11.0286E-03     11.0286E-03
             184     1.63433E+03     1.63433E+03         2.89282         2.89282    -10.8233E-03    -10.8233E-03
             185     1.63438E+03     1.63438E+03         2.83888         2.83888    -32.3059E-03    -32.3059E-03
             186     1.63449E+03     1.63449E+03         2.73297         2.73297    -52.6724E-03    -52.6724E-03
             187     1.63464E+03     1.63464E+03         2.57876         2.57876    -71.1844E-03    -71.1844E-03
             188     1.63482E+03     1.63482E+03         2.38174         2.38174    -87.1402E-03    -87.1402E-03
             189     1.35452E+03     1.35452E+03         18.9438         18.9438         88.9913         88.9913
             190     1.45099E+03     1.45099E+03        -24.8337        -24.8337         140.124         140.124
             191     1.55780E+03     1.55780E+03        -66.2243        -66.2243         143.074         143.074
             192     1.64073E+03     1.64073E+03        -88.3202        -88.3202         114.307         114.307
             193     1.69023E+03     1.69023E+03        -90.3629        -90.3629         75.5695         75.5695
             194     1.68118E+03     1.68118E+03        -90.1749        -90.1749        -83.2658        -83.2658
             195     1.60998E+03     1.60998E+03        -80.7061        -80.7061        -126.635        -126.635
             196     1.49561E+03     1.49561E+03        -42.5336        -42.5336        -143.338        -143.338
             197     1.37575E+03     1.37575E+03         9.19172         9.19172        -100.348        -100.348
             198     1.64946E+03     1.64946E+03    -359.499E-03    -359.499E-03        -5.26346        -5.26346
             199     1.65290E+03     1.65290E+03        -1.05367        -1.05367        -9.31849        -9.31849
             200     1.65704E+03     1.65704E+03        -2.19082        -2.19082        -12.1477        -12.1477
             201     1.66179E+03     1.66179E+03        -3.81901        -3.81901        -14.0758        -14.0758
             202     1.66715E+03     1.66715E+03        -6.06522        -6.06522        -15.3106        -15.3106
             203     1.67315E+03     1.67315E+03        -9.12896        -9.12896        -15.9218        -15.9218
             204     1.67985E+03     1.67985E+03        -13.2824        -13.2824        -15.8249        -15.8249
             205     1.68727E+03     1.68727E+03        -18.8638        -18.8638        -14.7492        -14.7492
             206     1.69529E+03     1.69529E+03        -26.2531        -26.2531        -12.1687        -12.1687
             207     1.70349E+03     1.70349E+03        -35.7672        -35.7672        -7.24081        -7.24081
             208     1.71083E+03     1.71083E+03        -47.4540        -47.4540         1.22707         1.22707
             209     1.71524E+03     1.71524E+03        -60.6323        -60.6323         14.5070         14.5070
             210     1.75748E+03     1.75748E+03        -72.5073        -72.5073         4.74453         4.74453
             211     1.78045E+03     1.78045E+03        -33.6465        -33.6465        -33.5118        -33.5118
             212     1.78077E+03     1.78077E+03         42.9622         42.9622        -61.1492        -61.1492
             213     1.76223E+03     1.76223E+03         130.678         130.678        -50.1046        -50.1046
             214     1.76181E+03     1.76181E+03         131.419         131.419         53.9829         53.9829
             215     1.77989E+03     1.77989E+03         44.4663         44.4663         65.1466         65.1466
             216     1.77910E+03     1.77910E+03        -31.3893        -31.3893         37.7368         37.7368
             217     1.75564E+03     1.75564E+03        -69.5481        -69.5481    -199.794E-03    -199.794E-03
             218     1.64484E+03     1.64484E+03     47.5115E-03     47.5115E-03         3.51106         3.51106
             219     1.63545E+03     1.63545E+03     220.915E-03     220.915E-03         3.22914         3.22914
             220     1.62745E+03     1.62745E+03     381.362E-03     381.362E-03         2.51764         2.51764
             221     1.62193E+03     1.62193E+03     494.668E-03     494.668E-03         1.45226         1.45226
             222     1.61964E+03     1.61964E+03     534.273E-03     534.273E-03     188.765E-03     188.765E-03
             223     1.62087E+03     1.62087E+03     490.032E-03     490.032E-03        -1.06817        -1.06817
             224     1.62530E+03     1.62530E+03     372.116E-03     372.116E-03        -2.11387        -2.11387
             225     1.63213E+03     1.63213E+03     207.169E-03     207.169E-03        -2.79261        -2.79261
             226     1.64024E+03     1.64024E+03     29.3086E-03     29.3086E-03        -3.02859        -3.02859
             227     1.71324E+03     1.71324E+03        -57.3468        -57.3468         9.27273         9.27273
             228     1.70959E+03     1.70959E+03        -44.5097        -44.5097        -4.27012        -4.27012
             229     1.70305E+03     1.70305E+03        -33.1817        -33.1817        -12.8749        -12.8749
             230     1.69569E+03     1.69569E+03        -24.0417        -24.0417        -17.8108        -17.8108
             231     1.68853E+03     1.68853E+03        -17.0268        -17.0268        -20.2705        -20.2705
             232     1.68197E+03     1.68197E+03        -11.8068        -11.8068        -21.0912        -21.0912
             233     1.67609E+03     1.67609E+03        -7.99194        -7.99194        -20.7956        -20.7956
             234     1.67088E+03     1.67088E+03        -5.23587        -5.23587        -19.6540        -19.6540
             235     1.66624E+03     1.66624E+03        -3.25969        -3.25969        -17.7559        -17.7559
             236     1.66213E+03     1.66213E+03        -1.85591        -1.85591        -15.0426        -15.0426
             237     1.65853E+03     1.65853E+03    -890.047E-03    -890.047E-03        -11.3226        -11.3226
             238     1.65551E+03     1.65551E+03    -304.418E-03    -304.418E-03        -6.29857        -6.29857
             239     1.66112E+03     1.66112E+03    -198.560E-03    -198.560E-03        -3.09676        -3.09676
             240     1.66683E+03     1.66683E+03    -258.830E-03    -258.830E-03        -2.64749        -2.64749
             241     1.67157E+03     1.67157E+03    -292.207E-03    -292.207E-03        -2.11873        -2.11873
             242     1.67523E+03     1.67523E+03    -302.608E-03    -302.608E-03        -1.55876        -1.55876
             243     1.67778E+03     1.67778E+03    -293.917E-03    -293.917E-03        -1.00637        -1.00637
             244     1.67928E+03     1.67928E+03    -271.283E-03    -271.283E-03    -491.481E-03    -491.481E-03
             245     1.67980E+03     1.67980E+03    -239.782E-03    -239.782E-03    -34.0679E-03    -34.0679E-03
             246     1.67948E+03     1.67948E+03    -203.583E-03    -203.583E-03     354.666E-03     354.666E-03
             247     1.67846E+03     1.67846E+03    -166.295E-03    -166.295E-03     670.822E-03     670.822E-03
             248     1.67689E+03     1.67689E+03    -130.301E-03    -130.301E-03     916.039E-03     916.039E-03
             249     1.67489E+03     1.67489E+03    -97.3002E-03    -97.3002E-03         1.09559         1.09559
             250     1.67259E+03     1.67259E+03    -68.2056E-03    -68.2056E-03         1.21702         1.21702
             251     1.67010E+03     1.67010E+03    -43.3592E-03    -43.3592E-03         1.28880         1.28880
             252     1.66751E+03     1.66751E+03    -22.8032E-03    -22.8032E-03         1.31960         1.31960
             253     1.66489E+03     1.66489E+03    -6.21100E-03    -6.21100E-03         1.31757         1.31757
             254     1.66229E+03     1.66229E+03     6.75874E-03     6.75874E-03         1.29013         1.29013
             255     1.65978E+03     1.65978E+03     16.6309E-03     16.6309E-03         1.24371         1.24371
             256     1.65736E+03     1.65736E+03     23.8383E-03     23.8383E-03         1.18378         1.18378
             257     1.65508E+03     1.65508E+03     28.8729E-03     28.8729E-03         1.11482         1.11482
             258     1.65294E+03     1.65294E+03     32.1225E-03     32.1225E-03         1.04047         1.04047
             259     1.65095E+03     1.65095E+03     33.9689E-03     33.9689E-03     963.559E-03     963.559E-03
             260     1.64911E+03     1.64911E+03     34.7111E-03     34.7111E-03     886.299E-03     886.299E-03
             261     1.64743E+03     1.64743E+03     34.6172E-03     34.6172E-03     810.333E-03     810.333E-03
             262     1.64589E+03     1.64589E+03     33.8988E-03     33.8988E-03     736.855E-03     736.855E-03
             263     1.64449E+03     1.64449E+03     32.7320E-03     32.7320E-03     666.698E-03     666.698E-03
             264     1.64324E+03     1.64324E+03     31.2581E-03     31.2581E-03     600.401E-03     600.401E-03
             265     1.64211E+03     1.64211E+03     29.5876E-03     29.5876E-03     538.281E-03     538.281E-03
             266     1.64109E+03     1.64109E+03     27.8102E-03     27.8102E-03     480.473E-03     480.473E-03
             267     1.64019E+03     1.64019E+03     25.9925E-03     25.9925E-03     426.979E-03     426.979E-03
             268     1.63939E+03     1.63939E+03     24.1895E-03     24.1895E-03     377.701E-03     377.701E-03
             269     1.63869E+03     1.63869E+03     22.4391E-03     22.4391E-03     332.465E-03     332.465E-03
             270     1.63807E+03     1.63807E+03     20.7739E-03     20.7739E-03     291.041E-03     291.041E-03
             271     1.63753E+03     1.63753E+03     19.2139E-03     19.2139E-03     253.161E-03     253.161E-03
             272     1.63706E+03     1.63706E+03     17.7784E-03     17.7784E-03     218.533E-03     218.533E-03
             273     1.63666E+03     1.63666E+03     16.4756E-03     16.4756E-03     186.844E-03     186.844E-03
             274     1.63632E+03     1.63632E+03     15.3182E-03     15.3182E-03     157.773E-03     157.773E-03
             275     1.63603E+03     1.63603E+03     14.3062E-03     14.3062E-03     130.992E-03     130.992E-03
             276     1.63579E+03     1.63579E+03     13.4503E-03     13.4503E-03     106.171E-03     106.171E-03
             277     1.63561E+03     1.63561E+03     12.7471E-03     12.7471E-03     82.9773E-03     82.9773E-03
             278     1.63546E+03     1.63546E+03     12.2005E-03     12.2005E-03     61.0845E-03     61.0845E-03
             279     1.63536E+03     1.63536E+03     11.8778E-03     11.8778E-03     40.0976E-03     40.0976E-03
             280     1.63530E+03     1.63530E+03     11.5563E-03     11.5563E-03     20.4676E-03     20.4676E-03
             281     1.63543E+03     1.63543E+03     32.0841E-03     32.0841E-03     20.8537E-03     20.8537E-03
             282     1.63567E+03     1.63567E+03     91.7866E-03     91.7866E-03     39.5245E-03     39.5245E-03
             283     1.63585E+03     1.63585E+03     186.603E-03     186.603E-03     56.8787E-03     56.8787E-03
             284     1.63596E+03     1.63596E+03     313.656E-03     313.656E-03     72.5976E-03     72.5976E-03
             285     1.63600E+03     1.63600E+03     469.285E-03     469.285E-03     86.2019E-03     86.2019E-03
             286     1.63599E+03     1.63599E+03     649.122E-03     649.122E-03     97.4445E-03     97.4445E-03
             287     1.63593E+03     1.63593E+03     848.325E-03     848.325E-03     106.087E-03     106.087E-03
             288     1.63583E+03     1.63583E+03         1.06169         1.06169     112.001E-03     112.001E-03
             289     1.63570E+03     1.63570E+03         1.28383         1.28383     115.112E-03     115.112E-03
             290     1.63555E+03     1.63555E+03         1.50926         1.50926     115.416E-03     115.416E-03
             291     1.63538E+03     1.63538E+03         1.73255         1.73255     112.969E-03     112.969E-03
             292     1.63520E+03     1.63520E+03         1.94844         1.94844     107.869E-03     107.869E-03
             293     1.54539E+03     1.54539E+03         448.219         448.219        -102.406        -102.406
             294     1.56154E+03     1.56154E+03         409.637         409.637        -101.794        -101.794
             295     1.57723E+03     1.57723E+03         371.017         371.017        -98.4889        -98.4889
             296     1.59207E+03     1.59207E+03         333.160         333.160        -93.5890        -93.5890
             297     1.60573E+03     1.60573E+03         296.679         296.679        -87.2212        -87.2212
             298     1.61794E+03     1.61794E+03         262.103         262.103        -79.6931        -79.6931
             299     1.62858E+03     1.62858E+03         229.824         229.824        -71.2970        -71.2970
             300     1.63754E+03     1.63754E+03         200.128         200.128        -62.4043        -62.4043
             301     1.64490E+03     1.64490E+03         173.134         173.134        -53.3380        -53.3380
             302     1.65068E+03     1.65068E+03         148.876         148.876        -44.3901        -44.3901
             303     1.65509E+03     1.65509E+03         127.274         127.274        -35.8028        -35.8028
             304     1.65823E+03     1.65823E+03         108.196         108.196        -27.7358        -27.7358
             305     1.66031E+03     1.66031E+03         91.4693         91.4693        -20.3163        -20.3163
             306     1.66146E+03     1.66146E+03         76.8920         76.8920        -13.5915        -13.5915
             307     1.66186E+03     1.66186E+03         64.2688         64.2688        -7.59388        -7.59388
             308     1.66164E+03     1.66164E+03         53.3909         53.3909        -2.30070        -2.30070
             309     1.66090E+03     1.66090E+03         44.0744         44.0744         2.31384         2.31384
             310     1.65976E+03     1.65976E+03         36.1314         36.1314         6.30656         6.30656
             311     1.65830E+03     1.65830E+03         29.4006         29.4006         9.73123         9.73123
             312     1.65659E+03     1.65659E+03         23.7214         23.7214         12.6560         12.6560
             313     1.65469E+03     1.65469E+03         18.9557         18.9557         15.1435         15.1435
             314     1.65265E+03     1.65265E+03         14.9681         14.9681         17.2616         17.2616
             315     1.65051E+03     1.65051E+03         11.6400         11.6400         19.0725         19.0725
             316     1.64832E+03     1.64832E+03         8.85578         8.85578         20.6389         20.6389
             317     1.64609E+03     1.64609E+03         6.51105         6.51105         22.0194         22.0194
             318     1.64387E+03     1.64387E+03         4.50362         4.50362         23.2720         23.2720
             319     1.64168E+03     1.64168E+03         2.73784         2.73784         24.4519         24.4519
             320     1.63956E+03     1.63956E+03         1.11810         1.11810         25.6144         25.6144
             321     1.63755E+03     1.63755E+03    -449.260E-03    -449.260E-03         26.8142         26.8142
             322     1.63569E+03     1.63569E+03        -2.06105        -2.06105         28.1065         28.1065
             323     1.63406E+03     1.63406E+03        -3.81754        -3.81754         29.5465         29.5465
             324     1.63272E+03     1.63272E+03        -5.82701        -5.82701         31.1892         31.1892
             325     1.63180E+03     1.63180E+03        -8.20833        -8.20833         33.0859         33.0859
             326     1.63142E+03     1.63142E+03        -11.0951        -11.0951         35.2796         35.2796
             327     1.63181E+03     1.63181E+03        -14.6402        -14.6402         37.7937         37.7937
             328     1.63323E+03     1.63323E+03        -19.0152        -19.0152         40.6140         40.6140
             329     1.63605E+03     1.63605E+03        -24.4109        -24.4109         43.6566         43.6566
             330     1.64076E+03     1.64076E+03        -31.0093        -31.0093         46.7144         46.7144
             331     1.64796E+03     1.64796E+03        -38.9437        -38.9437         49.3796         49.3796
             332     1.65831E+03     1.65831E+03        -48.1462        -48.1462         50.9309         50.9309
             333     1.67241E+03     1.67241E+03        -58.1446        -58.1446         50.2601         50.2601
             334     1.69033E+03     1.69033E+03        -67.5798        -67.5798         45.8672         45.8672
             335     1.65390E+03     1.65390E+03    -224.369E-03    -224.369E-03        -2.51006        -2.51006
             336     1.65839E+03     1.65839E+03    -287.019E-03    -287.019E-03        -2.00473        -2.00473
             337     1.66180E+03     1.66180E+03    -323.599E-03    -323.599E-03        -1.41224        -1.41224
             338     1.66398E+03     1.66398E+03    -336.594E-03    -336.594E-03    -781.589E-03    -781.589E-03
             339     1.66491E+03     1.66491E+03    -330.999E-03    -330.999E-03    -151.473E-03    -151.473E-03
             340     1.66462E+03     1.66462E+03    -310.758E-03    -310.758E-03     448.300E-03     448.300E-03
             341     1.66319E+03     1.66319E+03    -282.078E-03    -282.078E-03     997.617E-03     997.617E-03
             342     1.66072E+03     1.66072E+03    -247.787E-03    -247.787E-03         1.48524         1.48524
             343     1.65735E+03     1.65735E+03    -212.914E-03    -212.914E-03         1.90699         1.90699
             344     1.65321E+03     1.65321E+03    -177.926E-03    -177.926E-03         2.26422         2.26422
             345     1.64841E+03     1.64841E+03    -146.747E-03    -146.747E-03         2.56167         2.56167
             346     1.64308E+03     1.64308E+03    -117.168E-03    -117.168E-03         2.80628         2.80628
             347     1.63730E+03     1.63730E+03    -93.3069E-03    -93.3069E-03         3.00562         3.00562
             348     1.63117E+03     1.63117E+03    -69.9385E-03    -69.9385E-03         3.16727         3.16727
             349     1.62475E+03     1.62475E+03    -53.2227E-03    -53.2227E-03         3.29798         3.29798
             350     1.61809E+03     1.61809E+03    -33.8916E-03    -33.8916E-03         3.40345         3.40345
             351     1.61124E+03     1.61124E+03    -22.5364E-03    -22.5364E-03         3.48797         3.48797
             352     1.60425E+03     1.60425E+03    -3.60612E-03    -3.60612E-03         3.55438         3.55438
             353     1.59713E+03     1.59713E+03     4.40244E-03     4.40244E-03         3.60405         3.60405
             354     1.58994E+03     1.58994E+03     27.4877E-03     27.4877E-03         3.63670         3.63670
             355     1.58270E+03     1.58270E+03     33.6430E-03     33.6430E-03         3.65066         3.65066
             356     1.57545E+03     1.57545E+03     66.6262E-03     66.6262E-03         3.64239         3.64239
             357     1.56824E+03     1.56824E+03     71.4477E-03     71.4477E-03         3.60704         3.60704
             358     1.56114E+03     1.56114E+03     122.299E-03     122.299E-03         3.53716         3.53716
             359     1.55422E+03     1.55422E+03     124.867E-03     124.867E-03         3.42426         3.42426
             360     1.54758E+03     1.54758E+03     205.915E-03     205.915E-03         3.25529         3.25529
             361     1.54134E+03     1.54134E+03     203.086E-03     203.086E-03         3.01712         3.01712
             362     1.53566E+03     1.53566E+03     335.317E-03     335.317E-03         2.68684         2.68684
             363     1.53074E+03     1.53074E+03     320.094E-03     320.094E-03         2.24522         2.24522
             364     1.52686E+03     1.52686E+03     542.612E-03     542.612E-03         1.64879         1.64879
             365     1.52433E+03     1.52433E+03     500.205E-03     500.205E-03     871.006E-03     871.006E-03
             366     1.52361E+03     1.52361E+03     893.853E-03     893.853E-03    -181.297E-03    -181.297E-03
             367     1.52529E+03     1.52529E+03     790.439E-03     790.439E-03        -1.53831        -1.53831
             368     1.53016E+03     1.53016E+03         1.54584         1.54584        -3.43024        -3.43024
             369     1.53936E+03     1.53936E+03         1.29161         1.29161        -5.86356        -5.86356
             370     1.55451E+03     1.55451E+03         2.94064         2.94064        -9.50227        -9.50227
             371     1.57805E+03     1.57805E+03         2.25249         2.25249        -14.1990        -14.1990
             372     1.61406E+03     1.61406E+03         6.65130         6.65130        -22.2683        -22.2683
             373     1.66893E+03     1.66893E+03         4.46527         4.46527        -32.8197        -32.8197
             374     1.75765E+03     1.75765E+03         20.8957         20.8957        -56.8989        -56.8989
             375     1.90479E+03     1.90479E+03         12.2692         12.2692        -90.1485        -90.1485
             376     2.24647E+03     2.24647E+03         160.117         160.117        -253.469        -253.469
             377     2.18675E+03     2.18675E+03         419.349         419.349        -428.599        -428.599
             378     1.82682E+03     1.82682E+03         484.426         484.426        -401.128        -401.128
             379     1.72756E+03     1.72756E+03         475.976         475.976        -337.578        -337.578
             380     1.65970E+03     1.65970E+03         475.613         475.613        -303.471        -303.471
             381     1.62337E+03     1.62337E+03         472.359         472.359        -268.330        -268.330
             382     1.59681E+03     1.59681E+03         470.760         470.760        -241.761        -241.761
             383     1.57967E+03     1.57967E+03         469.443         469.443        -216.183        -216.183
             384     1.56660E+03     1.56660E+03         468.557         468.557        -194.260        -194.260
             385     1.55740E+03     1.55740E+03         468.049         468.049        -173.361        -173.361
             386     1.55020E+03     1.55020E+03         467.658         467.658        -154.388        -154.388
             387     1.54488E+03     1.54488E+03         467.503         467.503        -136.234        -136.234
             388     1.54066E+03     1.54066E+03         467.366         467.366        -119.224        -119.224
             389     1.71455E+03     1.71455E+03        -60.9006        -60.9006        -15.3771        -15.3771
             390     1.71041E+03     1.71041E+03        -47.9200        -47.9200        -2.05128        -2.05128
             391     1.70332E+03     1.70332E+03        -36.3420        -36.3420         6.56345         6.56345
             392     1.69528E+03     1.69528E+03        -26.8389        -26.8389         11.6723         11.6723
             393     1.68735E+03     1.68735E+03        -19.3915        -19.3915         14.4186         14.4186
             394     1.67997E+03     1.67997E+03        -13.7186        -13.7186         15.6234         15.6234
             395     1.67328E+03     1.67328E+03        -9.46720        -9.46720         15.8113         15.8113
             396     1.66728E+03     1.66728E+03        -6.31214        -6.31214         15.2606         15.2606
             397     1.66191E+03     1.66191E+03        -3.98690        -3.98690         14.0630         14.0630
             398     1.65716E+03     1.65716E+03        -2.29333        -2.29333         12.1549         12.1549
             399     1.65304E+03     1.65304E+03        -1.10505        -1.10505         9.33184         9.33184
             400     1.64964E+03     1.64964E+03    -376.982E-03    -376.982E-03         5.27139         5.27139
             401     1.64099E+03     1.64099E+03     10.5814E-03     10.5814E-03         3.05491         3.05491
             402     1.63345E+03     1.63345E+03     171.850E-03     171.850E-03         2.90184         2.90184
             403     1.62678E+03     1.62678E+03     330.035E-03     330.035E-03         2.37286         2.37286
             404     1.62188E+03     1.62188E+03     455.444E-03     455.444E-03         1.50902         1.50902
             405     1.61949E+03     1.61949E+03     533.091E-03     533.091E-03     405.220E-03     405.220E-03
             406     1.62001E+03     1.62001E+03     531.117E-03     531.117E-03    -785.563E-03    -785.563E-03
             407     1.62344E+03     1.62344E+03     460.452E-03     460.452E-03        -1.88821        -1.88821
             408     1.62936E+03     1.62936E+03     344.975E-03     344.975E-03        -2.77068        -2.77068
             409     1.63710E+03     1.63710E+03     190.090E-03     190.090E-03        -3.33552        -3.33552
             410     1.64580E+03     1.64580E+03     31.2063E-03     31.2063E-03        -3.53483        -3.53483
             411     1.75815E+03     1.75815E+03         146.205         146.205         45.4200         45.4200
             412     1.77637E+03     1.77637E+03         74.5309         74.5309         65.2384         65.2384
             413     1.78518E+03     1.78518E+03    -490.129E-03    -490.129E-03         52.0013         52.0013
             414     1.77603E+03     1.77603E+03        -52.5564        -52.5564         20.8602         20.8602
             415     1.75286E+03     1.75286E+03        -76.7754        -76.7754        -10.9250        -10.9250
             416     1.75540E+03     1.75540E+03        -69.8263        -69.8263     464.315E-03     464.315E-03
             417     1.77899E+03     1.77899E+03        -31.9218        -31.9218        -37.4591        -37.4591
             418     1.77999E+03     1.77999E+03         43.6378         43.6378        -65.0060        -65.0060
             419     1.76213E+03     1.76213E+03         130.415         130.415        -54.2052        -54.2052
             420     1.54540E+03     1.54540E+03         448.209         448.209         102.377         102.377
             421     1.56154E+03     1.56154E+03         409.636         409.636         101.752         101.752
             422     1.57722E+03     1.57722E+03         371.027         371.027         98.4326         98.4326
             423     1.59206E+03     1.59206E+03         333.183         333.183         93.5199         93.5199
             424     1.60571E+03     1.60571E+03         296.717         296.717         87.1418         87.1418
             425     1.61792E+03     1.61792E+03         262.156         262.156         79.6078         79.6078
             426     1.62856E+03     1.62856E+03         229.892         229.892         71.2096         71.2096
             427     1.63752E+03     1.63752E+03         200.209         200.209         62.3194         62.3194
             428     1.64487E+03     1.64487E+03         173.226         173.226         53.2588         53.2588
             429     1.65066E+03     1.65066E+03         148.976         148.976         44.3199         44.3199
             430     1.65507E+03     1.65507E+03         127.379         127.379         35.7437         35.7437
             431     1.65822E+03     1.65822E+03         108.303         108.303         27.6892         27.6892
             432     1.66030E+03     1.66030E+03         91.5764         91.5764         20.2832         20.2832
             433     1.66147E+03     1.66147E+03         76.9964         76.9964         13.5720         13.5720
             434     1.66188E+03     1.66188E+03         64.3686         64.3686         7.58815         7.58815
             435     1.66166E+03     1.66166E+03         53.4847         53.4847         2.30802         2.30802
             436     1.66094E+03     1.66094E+03         44.1615         44.1615        -2.29376        -2.29376
             437     1.65980E+03     1.65980E+03         36.2111         36.2111        -6.27471        -6.27471
             438     1.65835E+03     1.65835E+03         29.4730         29.4730        -9.68810        -9.68810
             439     1.65664E+03     1.65664E+03         23.7865         23.7865        -12.6026        -12.6026
             440     1.65474E+03     1.65474E+03         19.0144         19.0144        -15.0804        -15.0804
             441     1.65270E+03     1.65270E+03         15.0209         15.0209        -17.1897        -17.1897
             442     1.65055E+03     1.65055E+03         11.6883         11.6883        -18.9923        -18.9923
             443     1.64835E+03     1.64835E+03         8.90057         8.90057        -20.5513        -20.5513
             444     1.64611E+03     1.64611E+03         6.55419         6.55419        -21.9249        -21.9249
             445     1.64388E+03     1.64388E+03         4.54689         4.54689        -23.1713        -23.1713
             446     1.64167E+03     1.64167E+03         2.78364         2.78364        -24.3458        -24.3458
             447     1.63953E+03     1.63953E+03         1.16906         1.16906        -25.5039        -25.5039
             448     1.63749E+03     1.63749E+03    -389.791E-03    -389.791E-03        -26.7004        -26.7004
             449     1.63561E+03     1.63561E+03        -1.98926        -1.98926        -27.9913        -27.9913
             450     1.63393E+03     1.63393E+03        -3.72869        -3.72869        -29.4327        -29.4327
             451     1.63254E+03     1.63254E+03        -5.71576        -5.71576        -31.0811        -31.0811
             452     1.63155E+03     1.63155E+03        -8.06833        -8.06833        -32.9900        -32.9900
             453     1.63109E+03     1.63109E+03        -10.9199        -10.9199        -35.2061        -35.2061
             454     1.63138E+03     1.63138E+03        -14.4231        -14.4231        -37.7582        -37.7582
             455     1.63268E+03     1.63268E+03        -18.7525        -18.7525        -40.6404        -40.6404
             456     1.63537E+03     1.63537E+03        -24.1038        -24.1038        -43.7789        -43.7789
             457     1.63993E+03     1.63993E+03        -30.6731        -30.6731        -46.9811        -46.9811
             458     1.64700E+03     1.64700E+03        -38.6158        -38.6158        -49.8464        -49.8464
             459     1.65728E+03     1.65728E+03        -47.8927        -47.8927        -51.6469        -51.6469
             460     1.67140E+03     1.67140E+03        -58.0462        -58.0462        -51.2346        -51.2346
             461     1.68947E+03     1.68947E+03        -67.6986        -67.6986        -47.0572        -47.0572
             462     1.68480E+03     1.68480E+03        -94.1910        -94.1910        -87.2317        -87.2317
             463     1.61418E+03     1.61418E+03        -85.0222        -85.0222        -129.788        -129.788
             464     1.50019E+03     1.50019E+03        -47.0499        -47.0499        -145.546        -145.546
             465     1.38050E+03     1.38050E+03         4.57607         4.57607        -101.474        -101.474
             466     1.35936E+03     1.35936E+03         14.2790         14.2790         90.0318         90.0318
             467     1.45574E+03     1.45574E+03        -29.4498        -29.4498         142.069         142.069
             468     1.56232E+03     1.56232E+03        -70.7123        -70.7123         145.824         145.824
             469     1.64485E+03     1.64485E+03        -92.5940        -92.5940         117.778         117.778
             470     1.69380E+03     1.69380E+03        -94.3550        -94.3550         79.6819         79.6819
             471     1.53443E+03     1.53443E+03         467.378         467.378        -83.0256        -83.0256
             472     1.53220E+03     1.53220E+03         467.418         467.418        -63.8400        -63.8400
             473     1.53066E+03     1.53066E+03         467.454         467.454        -45.2549        -45.2549
             474     1.52970E+03     1.52970E+03         467.494         467.494        -27.0240        -27.0240
             475     1.52923E+03     1.52923E+03         467.507         467.507        -9.04566        -9.04566
             476     1.52924E+03     1.52924E+03         467.500         467.500         8.89203         8.89203
             477     1.52971E+03     1.52971E+03         467.474         467.474         26.8890         26.8890
             478     1.53067E+03     1.53067E+03         467.429         467.429         45.1476         45.1476
             479     1.53222E+03     1.53222E+03         467.391         467.391         63.7647         63.7647
             480     1.53444E+03     1.53444E+03         467.357         467.357         82.9803         82.9803
             481     1.54066E+03     1.54066E+03         467.359         467.359         119.210         119.210
             482     1.54489E+03     1.54489E+03         467.500         467.500         136.225         136.225
             483     1.55021E+03     1.55021E+03         467.657         467.657         154.381         154.381
             484     1.55740E+03     1.55740E+03         468.048         468.048         173.355         173.355
             485     1.56660E+03     1.56660E+03         468.557         468.557         194.255         194.255
             486     1.57967E+03     1.57967E+03         469.443         469.443         216.179         216.179
             487     1.59681E+03     1.59681E+03         470.760         470.760         241.758         241.758
             488     1.62337E+03     1.62337E+03         472.359         472.359         268.328         268.328
             489     1.65971E+03     1.65971E+03         475.613         475.613         303.469         303.469
             490     1.72756E+03     1.72756E+03         475.977         475.977         337.576         337.576
             491     1.82682E+03     1.82682E+03         484.426         484.426         401.126         401.126
             492     2.18675E+03     2.18675E+03         419.349         419.349         428.598         428.598
             493     2.24647E+03     2.24647E+03         160.117         160.117         253.468         253.468
             494     1.90479E+03     1.90479E+03         12.2692         12.2692         90.1479         90.1479
             495     1.75765E+03     1.75765E+03         20.8956         20.8956         56.8984         56.8984
             496     1.66893E+03     1.66893E+03         4.46521         4.46521         32.8193         32.8193
             497     1.61407E+03     1.61407E+03         6.65124         6.65124         22.2680         22.2680
             498     1.57805E+03     1.57805E+03         2.25243         2.25243         14.1988         14.1988
             499     1.55452E+03     1.55452E+03         2.94059         2.94059         9.50226         9.50226
             500     1.53937E+03     1.53937E+03         1.29156         1.29156         5.86364         5.86364
             501     1.53017E+03     1.53017E+03         1.54580         1.54580         3.43039         3.43039
             502     1.52529E+03     1.52529E+03     790.409E-03     790.409E-03         1.53853         1.53853
             503     1.52361E+03     1.52361E+03     893.829E-03     893.829E-03     181.563E-03     181.563E-03
             504     1.52433E+03     1.52433E+03     500.188E-03     500.188E-03    -870.705E-03    -870.705E-03
             505     1.52686E+03     1.52686E+03     542.600E-03     542.600E-03        -1.64846        -1.64846
             506     1.53075E+03     1.53075E+03     320.088E-03     320.088E-03        -2.24489        -2.24489
             507     1.53566E+03     1.53566E+03     335.314E-03     335.314E-03        -2.68650        -2.68650
             508     1.54134E+03     1.54134E+03     203.086E-03     203.086E-03        -3.01677        -3.01677
             509     1.54758E+03     1.54758E+03     205.917E-03     205.917E-03        -3.25494        -3.25494
             510     1.55422E+03     1.55422E+03     124.869E-03     124.869E-03        -3.42392        -3.42392
             511     1.56114E+03     1.56114E+03     122.303E-03     122.303E-03        -3.53682        -3.53682
             512     1.56824E+03     1.56824E+03     71.4502E-03     71.4502E-03        -3.60670        -3.60670
             513     1.57545E+03     1.57545E+03     66.6327E-03     66.6327E-03        -3.64205        -3.64205
             514     1.58269E+03     1.58269E+03     33.6446E-03     33.6446E-03        -3.65032        -3.65032
             515     1.58993E+03     1.58993E+03     27.4962E-03     27.4962E-03        -3.63636        -3.63636
             516     1.59713E+03     1.59713E+03     4.40240E-03     4.40240E-03        -3.60371        -3.60371
             517     1.60424E+03     1.60424E+03    -3.59539E-03    -3.59539E-03        -3.55405        -3.55405
             518     1.61124E+03     1.61124E+03    -22.5385E-03    -22.5385E-03        -3.48763        -3.48763
             519     1.61808E+03     1.61808E+03    -33.8776E-03    -33.8776E-03        -3.40310        -3.40310
             520     1.62474E+03     1.62474E+03    -53.2253E-03    -53.2253E-03        -3.29763        -3.29763
             521     1.63116E+03     1.63116E+03    -69.9171E-03    -69.9171E-03        -3.16691        -3.16691
             522     1.63730E+03     1.63730E+03    -93.2997E-03    -93.2997E-03        -3.00527        -3.00527
             523     1.64307E+03     1.64307E+03    -117.124E-03    -117.124E-03        -2.80594        -2.80594
             524     1.64840E+03     1.64840E+03    -146.697E-03    -146.697E-03        -2.56140        -2.56140
             525     1.65320E+03     1.65320E+03    -177.821E-03    -177.821E-03        -2.26405        -2.26405
             526     1.65734E+03     1.65734E+03    -212.756E-03    -212.756E-03        -1.90704        -1.90704
             527     1.66071E+03     1.66071E+03    -247.561E-03    -247.561E-03        -1.48562        -1.48562
             528     1.66318E+03     1.66318E+03    -281.741E-03    -281.741E-03    -998.506E-03    -998.506E-03
             529     1.66461E+03     1.66461E+03    -310.403E-03    -310.403E-03    -449.821E-03    -449.821E-03
             530     1.66491E+03     1.66491E+03    -330.552E-03    -330.552E-03     149.193E-03     149.193E-03
             531     1.66398E+03     1.66398E+03    -336.323E-03    -336.323E-03     778.618E-03     778.618E-03
             532     1.66180E+03     1.66180E+03    -323.452E-03    -323.452E-03         1.40885         1.40885
             533     1.65841E+03     1.65841E+03    -287.267E-03    -287.267E-03         2.00140         2.00140
             534     1.65392E+03     1.65392E+03    -225.252E-03    -225.252E-03         2.50869         2.50869
             535         26.7509         26.7509        -807.306        -807.306        -3.91369        -3.91369
             536         226.596         226.596        -296.872        -296.872        -10.3214        -10.3214
             537         545.284         545.284        -55.0115        -55.0115        -11.6777        -11.6777
             538         872.251         872.251         30.1655         30.1655        -10.1295        -10.1295
             539     1.14277E+03     1.14277E+03         43.6408         43.6408        -7.27837        -7.27837
             540     1.76475E+03     1.76475E+03        -126.520        -126.520        -67.2929        -67.2929
             541     1.82853E+03     1.82853E+03        -189.995        -189.995        -120.273        -120.273
             542     1.88862E+03     1.88862E+03        -247.795        -247.795        -205.512        -205.512
             543     1.87400E+03     1.87400E+03        -227.033        -227.033        -338.387        -338.387
             544     1.59676E+03     1.59676E+03         67.8208         67.8208        -544.915        -544.915
             545         807.496         807.496         69.2035         69.2035        -434.327        -434.327
             546         377.914         377.914        -293.814        -293.814        -203.511        -203.511
             547         123.627         123.627        -694.039        -694.039        -39.7776        -39.7776
             548         4.82325         4.82325    -1.01224E+03    -1.01224E+03         19.3314         19.3314
             549     1.82698E+03     1.82698E+03         264.184         264.184         1.69081         1.69081
             550     1.98435E+03     1.98435E+03         391.784         391.784         1.44922         1.44922
             551     2.27981E+03     2.27981E+03         507.930         507.930         1.26517         1.26517
             552     2.80298E+03     2.80298E+03         540.227         540.227         1.06963         1.06963
             553     3.64870E+03     3.64870E+03         391.363         391.363     705.208E-03     705.208E-03
             554     3.96791E+03     3.96791E+03         305.455         305.455        -463.917        -463.917
             555     3.44335E+03     3.44335E+03         410.358         410.358        -793.329        -793.329
             556     2.73485E+03     2.73485E+03         485.600         485.600        -920.120        -920.120
             557     2.00276E+03     2.00276E+03         456.239         456.239        -856.634        -856.634
             558     1.61514E+03     1.61514E+03         73.2100         73.2100         548.189         548.189
             559     1.88651E+03     1.88651E+03        -225.764        -225.764         334.417         334.417
             560     1.89568E+03     1.89568E+03        -247.087        -247.087         200.743         200.743
             561     1.83214E+03     1.83214E+03        -189.358        -189.358         116.584         116.584
             562     1.76648E+03     1.76648E+03        -125.952        -125.952         64.8146         64.8146
             563        -6.48061        -6.48061    -1.06674E+03    -1.06674E+03        -23.1213        -23.1213
             564         67.5490         67.5490        -827.321        -827.321         3.26630         3.26630
             565         224.398         224.398        -500.809        -500.809         104.592         104.592
             566         492.122         492.122        -162.488        -162.488         272.864         272.864
             567         884.167         884.167         124.601         124.601         473.974         473.974
             568     1.76927E+03     1.76927E+03        -128.990        -128.990         68.2783         68.2783
             569     1.83481E+03     1.83481E+03        -191.842        -191.842         118.972         118.972
             570     1.89826E+03     1.89826E+03        -249.100        -249.100         202.333         202.333
             571     1.88917E+03     1.88917E+03        -227.240        -227.240         335.496         335.496
             572     1.61772E+03     1.61772E+03         72.8340         72.8340         549.302         549.302
             573     2.00535E+03     2.00535E+03         455.576         455.576         857.969         857.969
             574     2.73770E+03     2.73770E+03         486.267         486.267         921.566         921.566
             575     3.44589E+03     3.44589E+03         410.959         410.959         794.648         794.648
             576     3.96942E+03     3.96942E+03         305.788         305.788         464.961         464.961
             577     1.57933E+03     1.57933E+03         61.5940         61.5940        -542.800        -542.800
             578     1.86641E+03     1.86641E+03        -234.197        -234.197        -342.651        -342.651
             579     1.88508E+03     1.88508E+03        -252.982        -252.982        -211.181        -211.181
             580     1.82734E+03     1.82734E+03        -193.960        -193.960        -125.733        -125.733
             581     1.76517E+03     1.76517E+03        -130.150        -130.150        -72.7189        -72.7189
             582     1.82647E+03     1.82647E+03         266.835         266.835        -5.29282        -5.29282
             583     1.98448E+03     1.98448E+03         394.543         394.543        -5.55229        -5.55229
             584     2.28132E+03     2.28132E+03         509.982         509.982        -3.75285        -3.75285
             585     2.80653E+03     2.80653E+03         540.912         540.912         1.66949         1.66949
             586     3.65512E+03     3.65512E+03         389.885         389.885         12.5236         12.5236
             587     4.04572E+03     4.04572E+03         287.847         287.847        -398.680        -398.680
             588     3.66178E+03     3.66178E+03         373.368         373.368        -714.144        -714.144
             589     3.11080E+03     3.11080E+03         461.038         461.038        -893.512        -893.512
             590     2.48954E+03     2.48954E+03         496.755         496.755        -927.266        -927.266
             591     1.88605E+03     1.88605E+03         447.928         447.928        -839.252        -839.252
             592     2.00205E+03     2.00205E+03         454.707         454.707         856.362         856.362
             593     2.73357E+03     2.73357E+03         485.422         485.422         919.846         919.846
             594     3.44110E+03     3.44110E+03         410.048         410.048         793.300         793.300
             595     3.96456E+03     3.96456E+03         305.850         305.850         463.839         463.839
             596     1.14633E+03     1.14633E+03         39.8318         39.8318        -7.23449        -7.23449
             597         874.525         874.525         27.0976         27.0976        -10.0417        -10.0417
             598         546.482         546.482        -57.7465        -57.7465        -11.5509        -11.5509
             599         226.929         226.929        -299.845        -299.845        -10.1817        -10.1817
             600         26.6376         26.6376        -811.394        -811.394        -3.80248        -3.80248
             601        -6.59072        -6.59072    -1.07126E+03    -1.07126E+03        -23.2452        -23.2452
             602         67.6146         67.6146        -830.915        -830.915         3.11964         3.11964
             603         224.822         224.822        -503.205        -503.205         104.637         104.637
             604         493.056         493.056        -163.712        -163.712         273.309         273.309
             605         885.836         885.836         124.377         124.377         474.831         474.831
             606         808.624         808.624         68.1652         68.1652        -434.485        -434.485
             607         378.250         378.250        -296.103        -296.103        -203.350        -203.350
             608         123.608         123.608        -697.622        -697.622        -39.4003        -39.4003
             609         4.65182         4.65182    -1.01682E+03    -1.01682E+03         19.6559         19.6559
             610     1.69587E+03     1.69587E+03        -55.8120        -55.8120        -21.7313        -21.7313
             611     1.68074E+03     1.68074E+03        -50.0892        -50.0892        -28.6422        -28.6422
             612     1.66743E+03     1.66743E+03        -42.6338        -42.6338        -32.2825        -32.2825
             613     1.65647E+03     1.65647E+03        -34.7858        -34.7858        -33.4086        -33.4086
             614     1.64785E+03     1.64785E+03        -27.3743        -27.3743        -32.8871        -32.8871
             615     1.64133E+03     1.64133E+03        -20.7765        -20.7765        -31.3979        -31.3979
             616     1.63654E+03     1.63654E+03        -15.1099        -15.1099        -29.4267        -29.4267
             617     1.63312E+03     1.63312E+03        -10.3493        -10.3493        -27.2752        -27.2752
             618     1.63076E+03     1.63076E+03        -6.41573        -6.41573        -25.1227        -25.1227
             619     1.62921E+03     1.62921E+03        -3.20851        -3.20851        -23.0649        -23.0649
             620     1.62827E+03     1.62827E+03    -628.211E-03    -628.211E-03        -21.1469        -21.1469
             621     1.62777E+03     1.62777E+03         1.41823         1.41823        -19.3837        -19.3837
             622     1.62761E+03     1.62761E+03         3.01316         3.01316        -17.7734        -17.7734
             623     1.62769E+03     1.62769E+03         4.22897         4.22897        -16.3059        -16.3059
             624     1.62794E+03     1.62794E+03         5.12808         5.12808        -14.9673        -14.9673
             625     1.62830E+03     1.62830E+03         5.76440         5.76440        -13.7433        -13.7433
             626     1.62873E+03     1.62873E+03         6.18412         6.18412        -12.6203        -12.6203
             627     1.62921E+03     1.62921E+03         6.42685         6.42685        -11.5862        -11.5862
             628     1.62971E+03     1.62971E+03         6.52637         6.52637        -10.6309        -10.6309
             629     1.63020E+03     1.63020E+03         6.51151         6.51151        -9.74557        -9.74557
             630     1.63069E+03     1.63069E+03         6.40671         6.40671        -8.92333        -8.92333
             631     1.63117E+03     1.63117E+03         6.23268         6.23268        -8.15838        -8.15838
             632     1.63161E+03     1.63161E+03         6.00684         6.00684        -7.44598        -7.44598
             633     1.63203E+03     1.63203E+03         5.74380         5.74380        -6.78219        -6.78219
             634     1.63242E+03     1.63242E+03         5.45576         5.45576        -6.16368        -6.16368
             635     1.63278E+03     1.63278E+03         5.15282         5.15282        -5.58753        -5.58753
             636     1.63311E+03     1.63311E+03         4.84330         4.84330        -5.05115        -5.05115
             637     1.63341E+03     1.63341E+03         4.53401         4.53401        -4.55211        -4.55211
             638     1.63368E+03     1.63368E+03         4.23047         4.23047        -4.08811        -4.08811
             639     1.63392E+03     1.63392E+03         3.93711         3.93711        -3.65690        -3.65690
             640     1.63413E+03     1.63413E+03         3.65747         3.65747        -3.25628        -3.25628
             641     1.63432E+03     1.63432E+03         3.39433         3.39433        -2.88400        -2.88400
             642     1.63449E+03     1.63449E+03         3.14985         3.14985        -2.53783        -2.53783
             643     1.63464E+03     1.63464E+03         2.92569         2.92569        -2.21549        -2.21549
             644     1.63476E+03     1.63476E+03         2.72309         2.72309        -1.91469        -1.91469
             645     1.63487E+03     1.63487E+03         2.54297         2.54297        -1.63310        -1.63310
             646     1.63496E+03     1.63496E+03         2.38601         2.38601        -1.36836        -1.36836
             647     1.63504E+03     1.63504E+03         2.25266         2.25266        -1.11810        -1.11810
             648     1.63510E+03     1.63510E+03         2.14324         2.14324    -879.941E-03    -879.941E-03
             649     1.63515E+03     1.63515E+03         2.05798         2.05798    -651.470E-03    -651.470E-03
             650     1.63518E+03     1.63518E+03         1.99701         1.99701    -430.283E-03    -430.283E-03
             651     1.63520E+03     1.63520E+03         1.96036         1.96036    -214.548E-03    -214.548E-03
             652     1.69737E+03     1.69737E+03        -46.8821        -46.8821        -7.89778        -7.89778
             653     1.68554E+03     1.68554E+03        -44.2612        -44.2612        -15.7834        -15.7834
             654     1.67449E+03     1.67449E+03        -39.4717        -39.4717        -21.0542        -21.0542
             655     1.66471E+03     1.66471E+03        -33.6105        -33.6105        -24.1384        -24.1384
             656     1.65647E+03     1.65647E+03        -27.5260        -27.5260        -25.5301        -25.5301
             657     1.64980E+03     1.64980E+03        -21.7360        -21.7360        -25.7436        -25.7436
             658     1.64456E+03     1.64456E+03        -16.5084        -16.5084        -25.1927        -25.1927
             659     1.64055E+03     1.64055E+03        -11.9497        -11.9497        -24.1875        -24.1875
             660     1.63754E+03     1.63754E+03        -8.07060        -8.07060        -22.9373        -22.9373
             661     1.63535E+03     1.63535E+03        -4.83437        -4.83437        -21.5785        -21.5785
             662     1.63381E+03     1.63381E+03        -2.18036        -2.18036        -20.1946        -20.1946
             663     1.63276E+03     1.63276E+03    -40.7415E-03    -40.7415E-03        -18.8342        -18.8342
             664     1.63210E+03     1.63210E+03         1.65298         1.65298        -17.5237        -17.5237
             665     1.63172E+03     1.63172E+03         2.96509         2.96509        -16.2753        -16.2753
             666     1.63156E+03     1.63156E+03         3.95444         3.95444        -15.0935        -15.0935
             667     1.63156E+03     1.63156E+03         4.67344         4.67344        -13.9781        -13.9781
             668     1.63166E+03     1.63166E+03         5.16832         5.16832        -12.9268        -12.9268
             669     1.63184E+03     1.63184E+03         5.47925         5.47925        -11.9365        -11.9365
             670     1.63207E+03     1.63207E+03         5.64097         5.64097        -11.0038        -11.0038
             671     1.63233E+03     1.63233E+03         5.68318         5.68318        -10.1256        -10.1256
             672     1.63260E+03     1.63260E+03         5.63122         5.63122        -9.29915        -9.29915
             673     1.63288E+03     1.63288E+03         5.50647         5.50647        -8.52191        -8.52191
             674     1.63315E+03     1.63315E+03         5.32694         5.32694        -7.79173        -7.79173
             675     1.63340E+03     1.63340E+03         5.10763         5.10763        -7.10662        -7.10662
             676     1.63365E+03     1.63365E+03         4.86103         4.86103        -6.46473        -6.46473
             677     1.63387E+03     1.63387E+03         4.59741         4.59741        -5.86426        -5.86426
             678     1.63408E+03     1.63408E+03         4.32520         4.32520        -5.30343        -5.30343
             679     1.63427E+03     1.63427E+03         4.05124         4.05124        -4.78040        -4.78040
             680     1.63444E+03     1.63444E+03         3.78103         3.78103        -4.29327        -4.29327
             681     1.63459E+03     1.63459E+03         3.51899         3.51899        -3.84007        -3.84007
             682     1.63472E+03     1.63472E+03         3.26860         3.26860        -3.41873        -3.41873
             683     1.63484E+03     1.63484E+03         3.03259         3.03259        -3.02709        -3.02709
             684     1.63495E+03     1.63495E+03         2.81306         2.81306        -2.66292        -2.66292
             685     1.63504E+03     1.63504E+03         2.61162         2.61162        -2.32391        -2.32391
             686     1.63511E+03     1.63511E+03         2.42945         2.42945        -2.00769        -2.00769
             687     1.63518E+03     1.63518E+03         2.26745         2.26745        -1.71183        -1.71183
             688     1.63524E+03     1.63524E+03         2.12624         2.12624        -1.43387        -1.43387
             689     1.63528E+03     1.63528E+03         2.00626         2.00626        -1.17129        -1.17129
             690     1.63532E+03     1.63532E+03         1.90782         1.90782    -921.561E-03    -921.561E-03
             691     1.63535E+03     1.63535E+03         1.83111         1.83111    -682.140E-03    -682.140E-03
             692     1.63536E+03     1.63536E+03         1.77625         1.77625    -450.463E-03    -450.463E-03
             693     1.63538E+03     1.63538E+03         1.74326         1.74326    -224.597E-03    -224.597E-03
             694     1.69525E+03     1.69525E+03        -37.8426        -37.8426         2.25763         2.25763
             695     1.68657E+03     1.68657E+03        -37.5888        -37.5888        -5.65776        -5.65776
             696     1.67784E+03     1.67784E+03        -34.9088        -34.9088        -11.6209        -11.6209
             697     1.66964E+03     1.66964E+03        -30.8398        -30.8398        -15.8170        -15.8170
             698     1.66234E+03     1.66234E+03        -26.1247        -26.1247        -18.5097        -18.5097
             699     1.65608E+03     1.65608E+03        -21.3104        -21.3104        -20.0144        -20.0144
             700     1.65090E+03     1.65090E+03        -16.7365        -16.7365        -20.6433        -20.6433
             701     1.64672E+03     1.64672E+03        -12.5916        -12.5916        -20.6557        -20.6557
             702     1.64342E+03     1.64342E+03        -8.95936        -8.95936        -20.2542        -20.2542
             703     1.64086E+03     1.64086E+03        -5.85734        -5.85734        -19.5848        -19.5848
             704     1.63891E+03     1.63891E+03        -3.26533        -3.26533        -18.7509        -18.7509
             705     1.63746E+03     1.63746E+03        -1.14215        -1.14215        -17.8221        -17.8221
             706     1.63641E+03     1.63641E+03     562.359E-03     562.359E-03        -16.8455        -16.8455
             707     1.63566E+03     1.63566E+03         1.90125         1.90125        -15.8516        -15.8516
             708     1.63515E+03     1.63515E+03         2.92612         2.92612        -14.8607        -14.8607
             709     1.63482E+03     1.63482E+03         3.68525         3.68525        -13.8858        -13.8858
             710     1.63463E+03     1.63463E+03         4.22235         4.22235        -12.9354        -12.9354
             711     1.63453E+03     1.63453E+03         4.57634         4.57634        -12.0153        -12.0153
             712     1.63451E+03     1.63451E+03         4.78119         4.78119        -11.1293        -11.1293
             713     1.63453E+03     1.63453E+03         4.86630         4.86630        -10.2799        -10.2799
             714     1.63458E+03     1.63458E+03         4.85678         4.85678        -9.46889        -9.46889
             715     1.63466E+03     1.63466E+03         4.77391         4.77391        -8.69730        -8.69730
             716     1.63474E+03     1.63474E+03         4.63556         4.63556        -7.96575        -7.96575
             717     1.63483E+03     1.63483E+03         4.45663         4.45663        -7.27442        -7.27442
             718     1.63492E+03     1.63492E+03         4.24946         4.24946        -6.62310        -6.62310
             719     1.63501E+03     1.63501E+03         4.02416         4.02416        -6.01123        -6.01123
             720     1.63509E+03     1.63509E+03         3.78897         3.78897        -5.43795        -5.43795
             721     1.63516E+03     1.63516E+03         3.55058         3.55058        -4.90210        -4.90210
             722     1.63522E+03     1.63522E+03         3.31432         3.31432        -4.40226        -4.40226
             723     1.63528E+03     1.63528E+03         3.08444         3.08444        -3.93678        -3.93678
             724     1.63533E+03     1.63533E+03         2.86429         2.86429        -3.50381        -3.50381
             725     1.63537E+03     1.63537E+03         2.65646         2.65646        -3.10132        -3.10132
             726     1.63541E+03     1.63541E+03         2.46295         2.46295        -2.72713        -2.72713
             727     1.63544E+03     1.63544E+03         2.28525         2.28525        -2.37894        -2.37894
             728     1.63547E+03     1.63547E+03         2.12449         2.12449        -2.05436        -2.05436
             729     1.63549E+03     1.63549E+03         1.98149         1.98149        -1.75090        -1.75090
             730     1.63551E+03     1.63551E+03         1.85682         1.85682        -1.46601        -1.46601
             731     1.63552E+03     1.63552E+03         1.75090         1.75090        -1.19713        -1.19713
             732     1.63553E+03     1.63553E+03         1.66399         1.66399    -941.605E-03    -941.605E-03
             733     1.63554E+03     1.63554E+03         1.59626         1.59626    -696.804E-03    -696.804E-03
             734     1.63554E+03     1.63554E+03         1.54782         1.54782    -460.059E-03    -460.059E-03
             735     1.63555E+03     1.63555E+03         1.51870         1.51870    -229.383E-03    -229.383E-03
             736     1.69113E+03     1.69113E+03        -29.5613        -29.5613         9.16229         9.16229
             737     1.68518E+03     1.68518E+03        -30.8251        -30.8251         1.91593         1.91593
             738     1.67865E+03     1.67865E+03        -29.7345        -29.7345        -4.10305        -4.10305
             739     1.67214E+03     1.67214E+03        -27.1193        -27.1193        -8.79992        -8.79992
             740     1.66602E+03     1.66602E+03        -23.6497        -23.6497        -12.2642        -12.2642
             741     1.66051E+03     1.66051E+03        -19.8219        -19.8219        -14.6587        -14.6587
             742     1.65574E+03     1.65574E+03        -15.9932        -15.9932        -16.1800        -16.1800
             743     1.65172E+03     1.65172E+03        -12.3891        -12.3891        -17.0217        -17.0217
             744     1.64839E+03     1.64839E+03        -9.13784        -9.13784        -17.3509        -17.3509
             745     1.64569E+03     1.64569E+03        -6.29776        -6.29776        -17.3041        -17.3041
             746     1.64353E+03     1.64353E+03        -3.88114        -3.88114        -16.9864        -16.9864
             747     1.64183E+03     1.64183E+03        -1.87202        -1.87202        -16.4774        -16.4774
             748     1.64049E+03     1.64049E+03    -238.120E-03    -238.120E-03        -15.8361        -15.8361
             749     1.63946E+03     1.63946E+03         1.06063         1.06063        -15.1063        -15.1063
             750     1.63866E+03     1.63866E+03         2.06702         2.06702        -14.3203        -14.3203
             751     1.63805E+03     1.63805E+03         2.82312         2.82312        -13.5023        -13.5023
             752     1.63759E+03     1.63759E+03         3.36848         3.36848        -12.6704        -12.6704
             753     1.63723E+03     1.63723E+03         3.73899         3.73899        -11.8382        -11.8382
             754     1.63696E+03     1.63696E+03         3.96657         3.96657        -11.0162        -11.0162
             755     1.63676E+03     1.63676E+03         4.07905         4.07905        -10.2125        -10.2125
             756     1.63660E+03     1.63660E+03         4.10035         4.10035        -9.43320        -9.43320
             757     1.63647E+03     1.63647E+03         4.05080         4.05080        -8.68287        -8.68287
             758     1.63637E+03     1.63637E+03         3.94749         3.94749        -7.96485        -7.96485
             759     1.63629E+03     1.63629E+03         3.80464         3.80464        -7.28148        -7.28148
             760     1.63622E+03     1.63622E+03         3.63400         3.63400        -6.63417        -6.63417
             761     1.63616E+03     1.63616E+03         3.44519         3.44519        -6.02364        -6.02364
             762     1.63611E+03     1.63611E+03         3.24600         3.24600        -5.44996        -5.44996
             763     1.63606E+03     1.63606E+03         3.04271         3.04271        -4.91266        -4.91266
             764     1.63602E+03     1.63602E+03         2.84034         2.84034        -4.41082        -4.41082
             765     1.63598E+03     1.63598E+03         2.64285         2.64285        -3.94314        -3.94314
             766     1.63594E+03     1.63594E+03         2.45334         2.45334        -3.50802        -3.50802
             767     1.63590E+03     1.63590E+03         2.27419         2.27419        -3.10357        -3.10357
             768     1.63587E+03     1.63587E+03         2.10725         2.10725        -2.72772        -2.72772
             769     1.63584E+03     1.63584E+03         1.95387         1.95387        -2.37820        -2.37820
             770     1.63581E+03     1.63581E+03         1.81507         1.81507        -2.05265        -2.05265
             771     1.63579E+03     1.63579E+03         1.69159         1.69159        -1.74856        -1.74856
             772     1.63577E+03     1.63577E+03         1.58393         1.58393        -1.46337        -1.46337
             773     1.63575E+03     1.63575E+03         1.49246         1.49246        -1.19447        -1.19447
             774     1.63573E+03     1.63573E+03         1.41742         1.41742    -939.178E-03    -939.178E-03
             775     1.63572E+03     1.63572E+03         1.35894         1.35894    -694.805E-03    -694.805E-03
             776     1.63571E+03     1.63571E+03         1.31712         1.31712    -458.642E-03    -458.642E-03
             777     1.63571E+03     1.63571E+03         1.29198         1.29198    -228.683E-03    -228.683E-03
             778     1.68621E+03     1.68621E+03        -22.4810        -22.4810         13.4983         13.4983
             779     1.68243E+03     1.68243E+03        -24.5049        -24.5049         7.22095         7.22095
             780     1.67785E+03     1.67785E+03        -24.4629        -24.4629         1.57777         1.57777
             781     1.67295E+03     1.67295E+03        -22.9546        -22.9546        -3.19135        -3.19135
             782     1.66808E+03     1.66808E+03        -20.5187        -20.5187        -7.01862        -7.01862
             783     1.66350E+03     1.66350E+03        -17.5955        -17.5955        -9.94981        -9.94981
             784     1.65935E+03     1.65935E+03        -14.5128        -14.5128        -12.0836        -12.0836
             785     1.65570E+03     1.65570E+03        -11.5027        -11.5027        -13.5427        -13.5427
             786     1.65256E+03     1.65256E+03        -8.71125        -8.71125        -14.4513        -14.4513
             787     1.64991E+03     1.64991E+03        -6.22049        -6.22049        -14.9218        -14.9218
             788     1.64769E+03     1.64769E+03        -4.06519        -4.06519        -15.0507        -15.0507
             789     1.64585E+03     1.64585E+03        -2.24871        -2.24871        -14.9171        -14.9171
             790     1.64433E+03     1.64433E+03    -754.494E-03    -754.494E-03        -14.5854        -14.5854
             791     1.64309E+03     1.64309E+03     445.420E-03     445.420E-03        -14.1066        -14.1066
             792     1.64206E+03     1.64206E+03         1.38446         1.38446        -13.5216        -13.5216
             793     1.64121E+03     1.64121E+03         2.09768         2.09768        -12.8627        -12.8627
             794     1.64051E+03     1.64051E+03         2.61922         2.61922        -12.1555        -12.1555
             795     1.63992E+03     1.63992E+03         2.98087         2.98087        -11.4204        -11.4204
             796     1.63942E+03     1.63942E+03         3.21131         3.21131        -10.6737        -10.6737
             797     1.63899E+03     1.63899E+03         3.33581         3.33581        -9.92807        -9.92807
             798     1.63862E+03     1.63862E+03         3.37622         3.37622        -9.19356        -9.19356
             799     1.63829E+03     1.63829E+03         3.35119         3.35119        -8.47788        -8.47788
             800     1.63801E+03     1.63801E+03         3.27639         3.27639        -7.78685        -7.78685
             801     1.63775E+03     1.63775E+03         3.16485         3.16485        -7.12473        -7.12473
             802     1.63752E+03     1.63752E+03         3.02733         3.02733        -6.49445        -6.49445
             803     1.63731E+03     1.63731E+03         2.87261         2.87261        -5.89786        -5.89786
             804     1.63713E+03     1.63713E+03         2.70779         2.70779        -5.33589        -5.33589
             805     1.63696E+03     1.63696E+03         2.53855         2.53855        -4.80869        -4.80869
             806     1.63680E+03     1.63680E+03         2.36941         2.36941        -4.31584        -4.31584
             807     1.63666E+03     1.63666E+03         2.20394         2.20394        -3.85636        -3.85636
             808     1.63653E+03     1.63653E+03         2.04489         2.04489        -3.42888        -3.42888
             809     1.63641E+03     1.63641E+03         1.89439         1.89439        -3.03170        -3.03170
             810     1.63631E+03     1.63631E+03         1.75405         1.75405        -2.66284        -2.66284
             811     1.63622E+03     1.63622E+03         1.62508         1.62508        -2.32015        -2.32015
             812     1.63613E+03     1.63613E+03         1.50835         1.50835        -2.00128        -2.00128
             813     1.63606E+03     1.63606E+03         1.40451         1.40451        -1.70378        -1.70378
             814     1.63600E+03     1.63600E+03         1.31398         1.31398        -1.42511        -1.42511
             815     1.63595E+03     1.63595E+03         1.23707         1.23707        -1.16266        -1.16266
             816     1.63591E+03     1.63591E+03         1.17398         1.17398    -913.784E-03    -913.784E-03
             817     1.63588E+03     1.63588E+03         1.12482         1.12482    -675.790E-03    -675.790E-03
             818     1.63585E+03     1.63585E+03         1.08967         1.08967    -445.980E-03    -445.980E-03
             819     1.63584E+03     1.63584E+03         1.06854         1.06854    -222.382E-03    -222.382E-03
             820     1.68120E+03     1.68120E+03        -16.6672        -16.6672         15.9097         15.9097
             821     1.67910E+03     1.67910E+03        -18.9025        -18.9025         10.6522         10.6522
             822     1.67615E+03     1.67615E+03        -19.4442        -19.4442         5.59364         5.59364
             823     1.67271E+03     1.67271E+03        -18.6987        -18.6987         1.04113         1.04113
             824     1.66908E+03     1.66908E+03        -17.0718        -17.0718        -2.85062        -2.85062
             825     1.66547E+03     1.66547E+03        -14.9196        -14.9196        -6.03249        -6.03249
             826     1.66205E+03     1.66205E+03        -12.5290        -12.5290        -8.52737        -8.52737
             827     1.65891E+03     1.65891E+03        -10.1113        -10.1113        -10.3963        -10.3963
             828     1.65610E+03     1.65610E+03        -7.81207        -7.81207        -11.7195        -11.7195
             829     1.65361E+03     1.65361E+03        -5.72049        -5.72049        -12.5817        -12.5817
             830     1.65145E+03     1.65145E+03        -3.88332        -3.88332        -13.0637        -13.0637
             831     1.64957E+03     1.64957E+03        -2.31629        -2.31629        -13.2384        -13.2384
             832     1.64795E+03     1.64795E+03        -1.01453        -1.01453        -13.1694        -13.1694
             833     1.64655E+03     1.64655E+03     39.7194E-03     39.7194E-03        -12.9107        -12.9107
             834     1.64534E+03     1.64534E+03     871.297E-03     871.297E-03        -12.5076        -12.5076
             835     1.64429E+03     1.64429E+03         1.50808         1.50808        -11.9978        -11.9978
             836     1.64336E+03     1.64336E+03         1.97833         1.97833        -11.4122        -11.4122
             837     1.64255E+03     1.64255E+03         2.30898         2.30898        -10.7763        -10.7763
             838     1.64183E+03     1.64183E+03         2.52470         2.52470        -10.1105        -10.1105
             839     1.64119E+03     1.64119E+03         2.64743         2.64743        -9.43141        -9.43141
             840     1.64061E+03     1.64061E+03         2.69625         2.69625        -8.75198        -8.75198
             841     1.64009E+03     1.64009E+03         2.68750         2.68750        -8.08248        -8.08248
             842     1.63962E+03     1.63962E+03         2.63490         2.63490        -7.43070        -7.43070
             843     1.63919E+03     1.63919E+03         2.54989         2.54989        -6.80245        -6.80245
             844     1.63880E+03     1.63880E+03         2.44189         2.44189        -6.20187        -6.20187
             845     1.63844E+03     1.63844E+03         2.31853         2.31853        -5.63173        -5.63173
             846     1.63812E+03     1.63812E+03         2.18600         2.18600        -5.09365        -5.09365
             847     1.63782E+03     1.63782E+03         2.04923         2.04923        -4.58831        -4.58831
             848     1.63755E+03     1.63755E+03         1.91212         1.91212        -4.11566        -4.11566
             849     1.63731E+03     1.63731E+03         1.77771         1.77771        -3.67503        -3.67503
             850     1.63709E+03     1.63709E+03         1.64837         1.64837        -3.26526        -3.26526
             851     1.63689E+03     1.63689E+03         1.52591         1.52591        -2.88481        -2.88481
             852     1.63672E+03     1.63672E+03         1.41168         1.41168        -2.53184        -2.53184
             853     1.63656E+03     1.63656E+03         1.30669         1.30669        -2.20429        -2.20429
             854     1.63642E+03     1.63642E+03         1.21168         1.21168        -1.89992        -1.89992
             855     1.63631E+03     1.63631E+03         1.12717         1.12717        -1.61634        -1.61634
             856     1.63621E+03     1.63621E+03         1.05351         1.05351        -1.35110        -1.35110
             857     1.63612E+03     1.63612E+03     990.943E-03     990.943E-03        -1.10165        -1.10165
             858     1.63605E+03     1.63605E+03     939.623E-03     939.623E-03    -865.407E-03    -865.407E-03
             859     1.63600E+03     1.63600E+03     899.644E-03     899.644E-03    -639.762E-03    -639.762E-03
             860     1.63596E+03     1.63596E+03     871.059E-03     871.059E-03    -422.084E-03    -422.084E-03
             861     1.63594E+03     1.63594E+03     853.884E-03     853.884E-03    -210.487E-03    -210.487E-03
             862     1.67646E+03     1.67646E+03        -12.0089        -12.0089         16.8798         16.8798
             863     1.67567E+03     1.67567E+03        -14.0955        -14.0955         12.5644         12.5644
             864     1.67409E+03     1.67409E+03        -14.8726        -14.8726         8.16340         8.16340
             865     1.67195E+03     1.67195E+03        -14.5990        -14.5990         3.99136         3.99136
             866     1.66946E+03     1.66946E+03        -13.5634        -13.5634     248.609E-03     248.609E-03
             867     1.66682E+03     1.66682E+03        -12.0387        -12.0387        -2.96079        -2.96079
             868     1.66417E+03     1.66417E+03        -10.2555        -10.2555        -5.60180        -5.60180
             869     1.66160E+03     1.66160E+03        -8.39429        -8.39429        -7.68817        -7.68817
             870     1.65919E+03     1.65919E+03        -6.58399        -6.58399        -9.26217        -9.26217
             871     1.65695E+03     1.65695E+03        -4.90979        -4.90979        -10.3817        -10.3817
             872     1.65491E+03     1.65491E+03        -3.42026        -3.42026        -11.1104        -11.1104
             873     1.65306E+03     1.65306E+03        -2.13704        -2.13704        -11.5114        -11.5114
             874     1.65139E+03     1.65139E+03        -1.06245        -1.06245        -11.6439        -11.6439
             875     1.64988E+03     1.64988E+03    -186.359E-03    -186.359E-03        -11.5612        -11.5612
             876     1.64851E+03     1.64851E+03     508.820E-03     508.820E-03        -11.3099        -11.3099
             877     1.64727E+03     1.64727E+03         1.04431         1.04431        -10.9303        -10.9303
             878     1.64615E+03     1.64615E+03         1.44245         1.44245        -10.4563        -10.4563
             879     1.64512E+03     1.64512E+03         1.72500         1.72500        -9.91607        -9.91607
             880     1.64419E+03     1.64419E+03         1.91214         1.91214        -9.33301        -9.33301
             881     1.64333E+03     1.64333E+03         2.02201         2.02201        -8.72596        -8.72596
             882     1.64255E+03     1.64255E+03         2.07042         2.07042        -8.10999        -8.10999
             883     1.64183E+03     1.64183E+03         2.07093         2.07093        -7.49695        -7.49695
             884     1.64117E+03     1.64117E+03         2.03499         2.03499        -6.89597        -6.89597
             885     1.64057E+03     1.64057E+03         1.97208         1.97208        -6.31388        -6.31388
             886     1.64002E+03     1.64002E+03         1.89000         1.89000        -5.75560        -5.75560
             887     1.63951E+03     1.63951E+03         1.79510         1.79510        -5.22450        -5.22450
             888     1.63905E+03     1.63905E+03         1.69245         1.69245        -4.72267        -4.72267
             889     1.63863E+03     1.63863E+03         1.58612         1.58612        -4.25115        -4.25115
             890     1.63825E+03     1.63825E+03         1.47927         1.47927        -3.81017        -3.81017
             891     1.63791E+03     1.63791E+03         1.37441         1.37441        -3.39926        -3.39926
             892     1.63760E+03     1.63760E+03         1.27344         1.27344        -3.01745        -3.01745
             893     1.63732E+03     1.63732E+03         1.17781         1.17781        -2.66336        -2.66336
             894     1.63708E+03     1.63708E+03         1.08861         1.08861        -2.33529        -2.33529
             895     1.63686E+03     1.63686E+03         1.00664         1.00664        -2.03129        -2.03129
             896     1.63667E+03     1.63667E+03     932.484E-03     932.484E-03        -1.74926        -1.74926
             897     1.63650E+03     1.63650E+03     866.537E-03     866.537E-03        -1.48694        -1.48694
             898     1.63637E+03     1.63637E+03     809.078E-03     809.078E-03        -1.24199        -1.24199
             899     1.63625E+03     1.63625E+03     760.287E-03     760.287E-03        -1.01201        -1.01201
             900     1.63616E+03     1.63616E+03     720.277E-03     720.277E-03    -794.546E-03    -794.546E-03
             901     1.63608E+03     1.63608E+03     689.112E-03     689.112E-03    -587.114E-03    -587.114E-03
             902     1.63603E+03     1.63603E+03     666.831E-03     666.831E-03    -387.222E-03    -387.222E-03
             903     1.63600E+03     1.63600E+03     653.451E-03     653.451E-03    -193.138E-03    -193.138E-03
             904     1.67217E+03     1.67217E+03        -8.32738        -8.32738         16.7159         16.7159
             905     1.67247E+03     1.67247E+03        -10.0607        -10.0607         13.2210         13.2210
             906     1.67207E+03     1.67207E+03        -10.8364        -10.8364         9.47672         9.47672
             907     1.67108E+03     1.67108E+03        -10.8135        -10.8135         5.77620         5.77620
             908     1.66965E+03     1.66965E+03        -10.1865        -10.1865         2.32926         2.32926
             909     1.66793E+03     1.66793E+03        -9.15157        -9.15157    -730.791E-03    -730.791E-03
             910     1.66603E+03     1.66603E+03        -7.88289        -7.88289        -3.33556        -3.33556
             911     1.66405E+03     1.66405E+03        -6.52135        -6.52135        -5.46468        -5.46468
             912     1.66206E+03     1.66206E+03        -5.17243        -5.17243        -7.13234        -7.13234
             913     1.66010E+03     1.66010E+03        -3.90780        -3.90780        -8.37406        -8.37406
             914     1.65821E+03     1.65821E+03        -2.77131        -2.77131        -9.23747        -9.23747
             915     1.65641E+03     1.65641E+03        -1.78455        -1.78455        -9.77516        -9.77516
             916     1.65471E+03     1.65471E+03    -953.238E-03    -953.238E-03        -10.0399        -10.0399
             917     1.65310E+03     1.65310E+03    -272.175E-03    -272.175E-03        -10.0815        -10.0815
             918     1.65159E+03     1.65159E+03     270.469E-03     270.469E-03        -9.94540        -9.94540
             919     1.65017E+03     1.65017E+03     690.092E-03     690.092E-03        -9.67167        -9.67167
             920     1.64885E+03     1.64885E+03         1.00342         1.00342        -9.29478        -9.29478
             921     1.64762E+03     1.64762E+03         1.22706         1.22706        -8.84391        -8.84391
             922     1.64647E+03     1.64647E+03         1.37658         1.37658        -8.34325        -8.34325
             923     1.64540E+03     1.64540E+03         1.46602         1.46602        -7.81257        -7.81257
             924     1.64441E+03     1.64441E+03         1.50770         1.50770        -7.26771        -7.26771
             925     1.64349E+03     1.64349E+03         1.51220         1.51220        -6.72115        -6.72115
             926     1.64265E+03     1.64265E+03         1.48842         1.48842        -6.18252        -6.18252
             927     1.64187E+03     1.64187E+03         1.44373         1.44373        -5.65903        -5.65903
             928     1.64116E+03     1.64116E+03         1.38420         1.38420        -5.15592        -5.15592
             929     1.64050E+03     1.64050E+03         1.31472         1.31472        -4.67678        -4.67678
             930     1.63991E+03     1.63991E+03         1.23922         1.23922        -4.22389        -4.22389
             931     1.63937E+03     1.63937E+03         1.16081         1.16081        -3.79847        -3.79847
             932     1.63888E+03     1.63888E+03         1.08193         1.08193        -3.40086        -3.40086
             933     1.63843E+03     1.63843E+03         1.00447         1.00447        -3.03074        -3.03074
             934     1.63804E+03     1.63804E+03     929.869E-03     929.869E-03        -2.68729        -2.68729
             935     1.63768E+03     1.63768E+03     859.226E-03     859.226E-03        -2.36926        -2.36926
             936     1.63737E+03     1.63737E+03     793.354E-03     793.354E-03        -2.07510        -2.07510
             937     1.63709E+03     1.63709E+03     732.846E-03     732.846E-03        -1.80302        -1.80302
             938     1.63685E+03     1.63685E+03     678.125E-03     678.125E-03        -1.55109        -1.55109
             939     1.63665E+03     1.63665E+03     629.485E-03     629.485E-03        -1.31722        -1.31722
             940     1.63647E+03     1.63647E+03     587.125E-03     587.125E-03        -1.09928        -1.09928
             941     1.63633E+03     1.63633E+03     551.169E-03     551.169E-03    -895.041E-03    -895.041E-03
             942     1.63621E+03     1.63621E+03     521.690E-03     521.690E-03    -702.258E-03    -702.258E-03
             943     1.63612E+03     1.63612E+03     498.733E-03     498.733E-03    -518.653E-03    -518.653E-03
             944     1.63605E+03     1.63605E+03     482.318E-03     482.318E-03    -341.947E-03    -341.947E-03
             945     1.63602E+03     1.63602E+03     472.466E-03     472.466E-03    -170.608E-03    -170.608E-03
             946     1.66841E+03     1.66841E+03        -5.44786        -5.44786         15.5653         15.5653
             947     1.66972E+03     1.66972E+03        -6.73543        -6.73543         12.7770         12.7770
             948     1.67039E+03     1.67039E+03        -7.37129        -7.37129         9.66832         9.66832
             949     1.67045E+03     1.67045E+03        -7.44768        -7.44768         6.49624         6.49624
             950     1.67001E+03     1.67001E+03        -7.08883        -7.08883         3.45916         3.45916
             951     1.66914E+03     1.66914E+03        -6.42592        -6.42592     695.274E-03     695.274E-03
             952     1.66795E+03     1.66795E+03        -5.57990        -5.57990        -1.71154        -1.71154
             953     1.66653E+03     1.66653E+03        -4.65181        -4.65181        -3.72301        -3.72301
             954     1.66494E+03     1.66494E+03        -3.71889        -3.71889        -5.33471        -5.33471
             955     1.66324E+03     1.66324E+03        -2.83552        -2.83552        -6.56630        -6.56630
             956     1.66150E+03     1.66150E+03        -2.03572        -2.03572        -7.45225        -7.45225
             957     1.65973E+03     1.65973E+03        -1.33758        -1.33758        -8.03511        -8.03511
             958     1.65798E+03     1.65798E+03    -746.995E-03    -746.995E-03        -8.36022        -8.36022
             959     1.65626E+03     1.65626E+03    -261.682E-03    -261.682E-03        -8.47221        -8.47221
             960     1.65460E+03     1.65460E+03     125.948E-03     125.948E-03        -8.41276        -8.41276
             961     1.65299E+03     1.65299E+03     426.345E-03     426.345E-03        -8.21933        -8.21933
             962     1.65146E+03     1.65146E+03     651.170E-03     651.170E-03        -7.92464        -7.92464
             963     1.65001E+03     1.65001E+03     812.144E-03     812.144E-03        -7.55653        -7.55653
             964     1.64864E+03     1.64864E+03     920.337E-03     920.337E-03        -7.13824        -7.13824
             965     1.64736E+03     1.64736E+03     985.777E-03     985.777E-03        -6.68879        -6.68879
             966     1.64616E+03     1.64616E+03         1.01727         1.01727        -6.22345        -6.22345
             967     1.64504E+03     1.64504E+03         1.02236         1.02236        -5.75421        -5.75421
             968     1.64401E+03     1.64401E+03         1.00740         1.00740        -5.29031        -5.29031
             969     1.64306E+03     1.64306E+03     977.669E-03     977.669E-03        -4.83869        -4.83869
             970     1.64219E+03     1.64219E+03     937.451E-03     937.451E-03        -4.40433        -4.40433
             971     1.64139E+03     1.64139E+03     890.222E-03     890.222E-03        -3.99069        -3.99069
             972     1.64066E+03     1.64066E+03     838.752E-03     838.752E-03        -3.59995        -3.59995
             973     1.64000E+03     1.64000E+03     785.226E-03     785.226E-03        -3.23326        -3.23326
             974     1.63940E+03     1.63940E+03     731.350E-03     731.350E-03        -2.89100        -2.89100
             975     1.63887E+03     1.63887E+03     678.441E-03     678.441E-03        -2.57292        -2.57292
             976     1.63839E+03     1.63839E+03     627.501E-03     627.501E-03        -2.27828        -2.27828
             977     1.63796E+03     1.63796E+03     579.284E-03     579.284E-03        -2.00598        -2.00598
             978     1.63759E+03     1.63759E+03     534.346E-03     534.346E-03        -1.75464        -1.75464
             979     1.63726E+03     1.63726E+03     493.089E-03     493.089E-03        -1.52268        -1.52268
             980     1.63697E+03     1.63697E+03     455.798E-03     455.798E-03        -1.30837        -1.30837
             981     1.63672E+03     1.63672E+03     422.669E-03     422.669E-03        -1.10989        -1.10989
             982     1.63651E+03     1.63651E+03     393.831E-03     393.831E-03    -925.331E-03    -925.331E-03
             983     1.63634E+03     1.63634E+03     369.366E-03     369.366E-03    -752.753E-03    -752.753E-03
             984     1.63620E+03     1.63620E+03     349.315E-03     349.315E-03    -590.187E-03    -590.187E-03
             985     1.63609E+03     1.63609E+03     333.694E-03     333.694E-03    -435.634E-03    -435.634E-03
             986     1.63602E+03     1.63602E+03     322.523E-03     322.523E-03    -287.092E-03    -287.092E-03
             987     1.63597E+03     1.63597E+03     315.820E-03     315.820E-03    -143.330E-03    -143.330E-03
             988     1.66527E+03     1.66527E+03        -3.23227        -3.23227         13.4386         13.4386
             989     1.66762E+03     1.66762E+03        -4.06657        -4.06657         11.2814         11.2814
             990     1.66934E+03     1.66934E+03        -4.50192        -4.50192         8.80573         8.80573
             991     1.67042E+03     1.67042E+03        -4.58874        -4.58874         6.22352         6.22352
             992     1.67089E+03     1.67089E+03        -4.39918        -4.39918         3.70579         3.70579
             993     1.67082E+03     1.67082E+03        -4.01250        -4.01250         1.37851         1.37851
             994     1.67027E+03     1.67027E+03        -3.50359        -3.50359    -676.690E-03    -676.690E-03
             995     1.66932E+03     1.66932E+03        -2.93626        -2.93626        -2.41640        -2.41640
             996     1.66807E+03     1.66807E+03        -2.36035        -2.36035        -3.82809        -3.82809
             997     1.66657E+03     1.66657E+03        -1.81127        -1.81127        -4.92149        -4.92149
             998     1.66491E+03     1.66491E+03        -1.31187        -1.31187        -5.72138        -5.72138
             999     1.66313E+03     1.66313E+03    -874.447E-03    -874.447E-03        -6.26110        -6.26110
            1000     1.66129E+03     1.66129E+03    -503.599E-03    -503.599E-03        -6.57788        -6.57788
            1001     1.65942E+03     1.65942E+03    -198.345E-03    -198.345E-03        -6.70932        -6.70932
            1002     1.65757E+03     1.65757E+03     45.7446E-03     45.7446E-03        -6.69109        -6.69109
            1003     1.65575E+03     1.65575E+03     235.096E-03     235.096E-03        -6.55559        -6.55559
            1004     1.65399E+03     1.65399E+03     376.972E-03     376.972E-03        -6.33126        -6.33126
            1005     1.65230E+03     1.65230E+03     478.735E-03     478.735E-03        -6.04243        -6.04243
            1006     1.65069E+03     1.65069E+03     547.364E-03     547.364E-03        -5.70938        -5.70938
            1007     1.64918E+03     1.64918E+03     589.181E-03     589.181E-03        -5.34870        -5.34870
            1008     1.64777E+03     1.64777E+03     609.745E-03     609.745E-03        -4.97365        -4.97365
            1009     1.64645E+03     1.64645E+03     613.809E-03     613.809E-03        -4.59464        -4.59464
            1010     1.64523E+03     1.64523E+03     605.373E-03     605.373E-03        -4.21965        -4.21965
            1011     1.64410E+03     1.64410E+03     587.735E-03     587.735E-03        -3.85462        -3.85462
            1012     1.64307E+03     1.64307E+03     563.588E-03     563.588E-03        -3.50380        -3.50380
            1013     1.64214E+03     1.64214E+03     535.094E-03     535.094E-03        -3.17011        -3.17011
            1014     1.64128E+03     1.64128E+03     503.976E-03     503.976E-03        -2.85537        -2.85537
            1015     1.64051E+03     1.64051E+03     471.585E-03     471.585E-03        -2.56053        -2.56053
            1016     1.63981E+03     1.63981E+03     438.975E-03     438.975E-03        -2.28588        -2.28588
            1017     1.63919E+03     1.63919E+03     406.954E-03     406.954E-03        -2.03116        -2.03116
            1018     1.63864E+03     1.63864E+03     376.135E-03     376.135E-03        -1.79576        -1.79576
            1019     1.63814E+03     1.63814E+03     346.975E-03     346.975E-03        -1.57871        -1.57871
            1020     1.63771E+03     1.63771E+03     319.810E-03     319.810E-03        -1.37886        -1.37886
            1021     1.63733E+03     1.63733E+03     294.884E-03     294.884E-03        -1.19489        -1.19489
            1022     1.63700E+03     1.63700E+03     272.364E-03     272.364E-03        -1.02535        -1.02535
            1023     1.63672E+03     1.63672E+03     252.367E-03     252.367E-03    -868.732E-03    -868.732E-03
            1024     1.63648E+03     1.63648E+03     234.969E-03     234.969E-03    -723.470E-03    -723.470E-03
            1025     1.63628E+03     1.63628E+03     220.214E-03     220.214E-03    -587.962E-03    -587.962E-03
            1026     1.63613E+03     1.63613E+03     208.135E-03     208.135E-03    -460.596E-03    -460.596E-03
            1027     1.63600E+03     1.63600E+03     198.724E-03     198.724E-03    -339.766E-03    -339.766E-03
            1028     1.63592E+03     1.63592E+03     191.961E-03     191.961E-03    -223.829E-03    -223.829E-03
            1029     1.63587E+03     1.63587E+03     187.902E-03     187.902E-03    -111.870E-03    -111.870E-03
            1030     1.66289E+03     1.66289E+03        -1.60313        -1.60313         10.2216         10.2216
            1031     1.66641E+03     1.66641E+03        -2.04299        -2.04299         8.68553         8.68553
            1032     1.66925E+03     1.66925E+03        -2.28008        -2.28008         6.89197         6.89197
            1033     1.67134E+03     1.67134E+03        -2.33814        -2.33814         4.99879         4.99879
            1034     1.67268E+03     1.67268E+03        -2.25272        -2.25272         3.13563         3.13563
            1035     1.67331E+03     1.67331E+03        -2.06356        -2.06356         1.40025         1.40025
            1036     1.67330E+03     1.67330E+03        -1.80900        -1.80900    -141.809E-03    -141.809E-03
            1037     1.67273E+03     1.67273E+03        -1.52215        -1.52215        -1.45417        -1.45417
            1038     1.67169E+03     1.67169E+03        -1.22901        -1.22901        -2.52406        -2.52406
            1039     1.67029E+03     1.67029E+03    -948.390E-03    -948.390E-03        -3.35664        -3.35664
            1040     1.66860E+03     1.66860E+03    -692.378E-03    -692.378E-03        -3.96902        -3.96902
            1041     1.66671E+03     1.66671E+03    -467.726E-03    -467.726E-03        -4.38562        -4.38562
            1042     1.66470E+03     1.66470E+03    -276.972E-03    -276.972E-03        -4.63417        -4.63417
            1043     1.66261E+03     1.66261E+03    -119.799E-03    -119.799E-03        -4.74300        -4.74300
            1044     1.66051E+03     1.66051E+03     6.01159E-03     6.01159E-03        -4.73913        -4.73913
            1045     1.65843E+03     1.65843E+03     103.717E-03     103.717E-03        -4.64718        -4.64718
            1046     1.65640E+03     1.65640E+03     177.047E-03     177.047E-03        -4.48874        -4.48874
            1047     1.65445E+03     1.65445E+03     229.790E-03     229.790E-03        -4.28222        -4.28222
            1048     1.65259E+03     1.65259E+03     265.537E-03     265.537E-03        -4.04295        -4.04295
            1049     1.65084E+03     1.65084E+03     287.550E-03     287.550E-03        -3.78341        -3.78341
            1050     1.64920E+03     1.64920E+03     298.683E-03     298.683E-03        -3.51352        -3.51352
            1051     1.64767E+03     1.64767E+03     301.383E-03     301.383E-03        -3.24102        -3.24102
            1052     1.64626E+03     1.64626E+03     297.696E-03     297.696E-03        -2.97179        -2.97179
            1053     1.64497E+03     1.64497E+03     289.313E-03     289.313E-03        -2.71017        -2.71017
            1054     1.64379E+03     1.64379E+03     277.606E-03     277.606E-03        -2.45926        -2.45926
            1055     1.64272E+03     1.64272E+03     263.678E-03     263.678E-03        -2.22113        -2.22113
            1056     1.64174E+03     1.64174E+03     248.401E-03     248.401E-03        -1.99703        -1.99703
            1057     1.64087E+03     1.64087E+03     232.464E-03     232.464E-03        -1.78762        -1.78762
            1058     1.64008E+03     1.64008E+03     216.396E-03     216.396E-03        -1.59303        -1.59303
            1059     1.63938E+03     1.63938E+03     200.605E-03     200.605E-03        -1.41303        -1.41303
            1060     1.63876E+03     1.63876E+03     185.400E-03     185.400E-03        -1.24711        -1.24711
            1061     1.63821E+03     1.63821E+03     171.011E-03     171.011E-03        -1.09454        -1.09454
            1062     1.63772E+03     1.63772E+03     157.604E-03     157.604E-03    -954.440E-03    -954.440E-03
            1063     1.63730E+03     1.63730E+03     145.302E-03     145.302E-03    -825.824E-03    -825.824E-03
            1064     1.63694E+03     1.63694E+03     134.189E-03     134.189E-03    -707.630E-03    -707.630E-03
            1065     1.63663E+03     1.63663E+03     124.320E-03     124.320E-03    -598.746E-03    -598.746E-03
            1066     1.63636E+03     1.63636E+03     115.736E-03     115.736E-03    -498.027E-03    -498.027E-03
            1067     1.63615E+03     1.63615E+03     108.457E-03     108.457E-03    -404.317E-03    -404.317E-03
            1068     1.63598E+03     1.63598E+03     102.500E-03     102.500E-03    -316.441E-03    -316.441E-03
            1069     1.63584E+03     1.63584E+03     97.8858E-03     97.8858E-03    -233.237E-03    -233.237E-03
            1070     1.63575E+03     1.63575E+03     94.5496E-03     94.5496E-03    -153.593E-03    -153.593E-03
            1071     1.63569E+03     1.63569E+03     92.4740E-03     92.4740E-03    -77.0205E-03    -77.0205E-03
            1072     1.66146E+03     1.66146E+03    -564.319E-03    -564.319E-03         5.70953         5.70953
            1073     1.66640E+03     1.66640E+03    -726.720E-03    -726.720E-03         4.87616         4.87616
            1074     1.67049E+03     1.67049E+03    -816.163E-03    -816.163E-03         3.89604         3.89604
            1075     1.67362E+03     1.67362E+03    -841.047E-03    -841.047E-03         2.85748         2.85748
            1076     1.67579E+03     1.67579E+03    -813.665E-03    -813.665E-03         1.83268         1.83268
            1077     1.67702E+03     1.67702E+03    -748.141E-03    -748.141E-03     876.470E-03     876.470E-03
            1078     1.67740E+03     1.67740E+03    -658.368E-03    -658.368E-03     25.9090E-03     25.9090E-03
            1079     1.67703E+03     1.67703E+03    -556.287E-03    -556.287E-03    -698.147E-03    -698.147E-03
            1080     1.67605E+03     1.67605E+03    -451.471E-03    -451.471E-03        -1.28833        -1.28833
            1081     1.67456E+03     1.67456E+03    -350.755E-03    -350.755E-03        -1.74725        -1.74725
            1082     1.67270E+03     1.67270E+03    -258.662E-03    -258.662E-03        -2.08446        -2.08446
            1083     1.67057E+03     1.67057E+03    -177.668E-03    -177.668E-03        -2.31354        -2.31354
            1084     1.66826E+03     1.66826E+03    -108.772E-03    -108.772E-03        -2.45006        -2.45006
            1085     1.66586E+03     1.66586E+03    -51.8908E-03    -51.8908E-03        -2.50982        -2.50982
            1086     1.66343E+03     1.66343E+03    -6.25395E-03    -6.25395E-03        -2.50793        -2.50793
            1087     1.66102E+03     1.66102E+03     29.2943E-03     29.2943E-03        -2.45806        -2.45806
            1088     1.65867E+03     1.65867E+03     56.0905E-03     56.0905E-03        -2.37219        -2.37219
            1089     1.65642E+03     1.65642E+03     75.4878E-03     75.4878E-03        -2.26049        -2.26049
            1090     1.65428E+03     1.65428E+03     88.7790E-03     88.7790E-03        -2.13137        -2.13137
            1091     1.65228E+03     1.65228E+03     97.1298E-03     97.1298E-03        -1.99166        -1.99166
            1092     1.65040E+03     1.65040E+03     101.567E-03     101.567E-03        -1.84674        -1.84674
            1093     1.64867E+03     1.64867E+03     102.965E-03     102.965E-03        -1.70079        -1.70079
            1094     1.64708E+03     1.64708E+03     102.058E-03     102.058E-03        -1.55695        -1.55695
            1095     1.64562E+03     1.64562E+03     99.4497E-03     99.4497E-03        -1.41753        -1.41753
            1096     1.64430E+03     1.64430E+03     95.6318E-03     95.6318E-03        -1.28414        -1.28414
            1097     1.64310E+03     1.64310E+03     90.9976E-03     90.9976E-03        -1.15785        -1.15785
            1098     1.64202E+03     1.64202E+03     85.8597E-03     85.8597E-03        -1.03930        -1.03930
            1099     1.64105E+03     1.64105E+03     80.4628E-03     80.4628E-03    -928.780E-03    -928.780E-03
            1100     1.64019E+03     1.64019E+03     74.9971E-03     74.9971E-03    -826.331E-03    -826.331E-03
            1101     1.63942E+03     1.63942E+03     69.6084E-03     69.6084E-03    -731.792E-03    -731.792E-03
            1102     1.63874E+03     1.63874E+03     64.4068E-03     64.4068E-03    -644.856E-03    -644.856E-03
            1103     1.63814E+03     1.63814E+03     59.4750E-03     59.4750E-03    -565.110E-03    -565.110E-03
            1104     1.63762E+03     1.63762E+03     54.8733E-03     54.8733E-03    -492.062E-03    -492.062E-03
            1105     1.63716E+03     1.63716E+03     50.6460E-03     50.6460E-03    -425.167E-03    -425.167E-03
            1106     1.63677E+03     1.63677E+03     46.8229E-03     46.8229E-03    -363.845E-03    -363.845E-03
            1107     1.63644E+03     1.63644E+03     43.4267E-03     43.4267E-03    -307.492E-03    -307.492E-03
            1108     1.63616E+03     1.63616E+03     40.4685E-03     40.4685E-03    -255.492E-03    -255.492E-03
            1109     1.63593E+03     1.63593E+03     37.9630E-03     37.9630E-03    -207.218E-03    -207.218E-03
            1110     1.63574E+03     1.63574E+03     35.9067E-03     35.9067E-03    -162.049E-03    -162.049E-03
            1111     1.63560E+03     1.63560E+03     34.3265E-03     34.3265E-03    -119.343E-03    -119.343E-03
            1112     1.63551E+03     1.63551E+03     33.2282E-03     33.2282E-03    -78.5036E-03    -78.5036E-03
            1113     1.63545E+03     1.63545E+03     32.4330E-03     32.4330E-03    -39.6669E-03    -39.6669E-03
            1114     1.66597E+03     1.66597E+03        -66.9499        -66.9499         65.1350         65.1350
            1115     1.64588E+03     1.64588E+03        -52.0169        -52.0169         63.1116         63.1116
            1116     1.63213E+03     1.63213E+03        -38.9039        -38.9039         58.0079         58.0079
            1117     1.62326E+03     1.62326E+03        -28.1441        -28.1441         51.7901         51.7901
            1118     1.61788E+03     1.61788E+03        -19.6055        -19.6055         45.5434         45.5434
            1119     1.61489E+03     1.61489E+03        -12.8997        -12.8997         39.7769         39.7769
            1120     1.61349E+03     1.61349E+03        -7.65415        -7.65415         34.6790         34.6790
            1121     1.61315E+03     1.61315E+03        -3.55007        -3.55007         30.2749         30.2749
            1122     1.61348E+03     1.61348E+03    -343.537E-03    -343.537E-03         26.5156         26.5156
            1123     1.61425E+03     1.61425E+03         2.15407         2.15407         23.3238         23.3238
            1124     1.61528E+03     1.61528E+03         4.08462         4.08462         20.6163         20.6163
            1125     1.61646E+03     1.61646E+03         5.55767         5.55767         18.3143         18.3143
            1126     1.61772E+03     1.61772E+03         6.65793         6.65793         16.3482         16.3482
            1127     1.61901E+03     1.61901E+03         7.45269         7.45269         14.6583         14.6583
            1128     1.62029E+03     1.62029E+03         7.99608         7.99608         13.1951         13.1951
            1129     1.62153E+03     1.62153E+03         8.33256         8.33256         11.9176         11.9176
            1130     1.62273E+03     1.62273E+03         8.49913         8.49913         10.7929         10.7929
            1131     1.62387E+03     1.62387E+03         8.52700         8.52700         9.79426         9.79426
            1132     1.62495E+03     1.62495E+03         8.44269         8.44269         8.90064         8.90064
            1133     1.62596E+03     1.62596E+03         8.26888         8.26888         8.09518         8.09518
            1134     1.62690E+03     1.62690E+03         8.02502         8.02502         7.36458         7.36458
            1135     1.62778E+03     1.62778E+03         7.72780         7.72780         6.69834         6.69834
            1136     1.62858E+03     1.62858E+03         7.39152         7.39152         6.08814         6.08814
            1137     1.62933E+03     1.62933E+03         7.02837         7.02837         5.52733         5.52733
            1138     1.63001E+03     1.63001E+03         6.64873         6.64873         5.01059         5.01059
            1139     1.63063E+03     1.63063E+03         6.26138         6.26138         4.53355         4.53355
            1140     1.63120E+03     1.63120E+03         5.87369         5.87369         4.09257         4.09257
            1141     1.63171E+03     1.63171E+03         5.49179         5.49179         3.68456         3.68456
            1142     1.63217E+03     1.63217E+03         5.12076         5.12076         3.30678         3.30678
            1143     1.63258E+03     1.63258E+03         4.76476         4.76476         2.95679         2.95679
            1144     1.63295E+03     1.63295E+03         4.42715         4.42715         2.63233         2.63233
            1145     1.63328E+03     1.63328E+03         4.11062         4.11062         2.33128         2.33128
            1146     1.63357E+03     1.63357E+03         3.81731         3.81731         2.05158         2.05158
            1147     1.63382E+03     1.63382E+03         3.54886         3.54886         1.79124         1.79124
            1148     1.63404E+03     1.63404E+03         3.30654         3.30654         1.54831         1.54831
            1149     1.63423E+03     1.63423E+03         3.09131         3.09131         1.32084         1.32084
            1150     1.63440E+03     1.63440E+03         2.90387         2.90387         1.10691         1.10691
            1151     1.63453E+03     1.63453E+03         2.74472         2.74472     904.598E-03     904.598E-03
            1152     1.63463E+03     1.63463E+03         2.61422         2.61422     711.973E-03     711.973E-03
            1153     1.63472E+03     1.63472E+03         2.51260         2.51260     527.119E-03     527.119E-03
            1154     1.63477E+03     1.63477E+03         2.44004         2.44004     348.120E-03     348.120E-03
            1155     1.63481E+03     1.63481E+03         2.39653         2.39653     173.501E-03     173.501E-03
            1156     1.62571E+03     1.62571E+03        -61.0759        -61.0759         90.6284         90.6284
            1157     1.60948E+03     1.60948E+03        -42.7420        -42.7420         79.1005         79.1005
            1158     1.60104E+03     1.60104E+03        -28.9416        -28.9416         67.3008         67.3008
            1159     1.59744E+03     1.59744E+03        -18.8123        -18.8123         56.6397         56.6397
            1160     1.59668E+03     1.59668E+03        -11.3708        -11.3708         47.5617         47.5617
            1161     1.59753E+03     1.59753E+03        -5.85834        -5.85834         40.0334         40.0334
            1162     1.59926E+03     1.59926E+03        -1.72264        -1.72264         33.8634         33.8634
            1163     1.60142E+03     1.60142E+03         1.40840         1.40840         28.8264         28.8264
            1164     1.60375E+03     1.60375E+03         3.79356         3.79356         24.7135         24.7135
            1165     1.60612E+03     1.60612E+03         5.60943         5.60943         21.3444         21.3444
            1166     1.60844E+03     1.60844E+03         6.98155         6.98155         18.5709         18.5709
            1167     1.61067E+03     1.61067E+03         7.99979         7.99979         16.2729         16.2729
            1168     1.61277E+03     1.61277E+03         8.73127         8.73127         14.3542         14.3542
            1169     1.61475E+03     1.61475E+03         9.22731         9.22731         12.7384         12.7384
            1170     1.61660E+03     1.61660E+03         9.52863         9.52863         11.3649         11.3649
            1171     1.61832E+03     1.61832E+03         9.66843         9.66843         10.1859         10.1859
            1172     1.61991E+03     1.61991E+03         9.67449         9.67449         9.16390         9.16390
            1173     1.62139E+03     1.62139E+03         9.57050         9.57050         8.26926         8.26926
            1174     1.62276E+03     1.62276E+03         9.37693         9.37693         7.47885         7.47885
            1175     1.62402E+03     1.62402E+03         9.11164         9.11164         6.77451         6.77451
            1176     1.62518E+03     1.62518E+03         8.79028         8.79028         6.14208         6.14208
            1177     1.62624E+03     1.62624E+03         8.42654         8.42654         5.57042         5.57042
            1178     1.62722E+03     1.62722E+03         8.03238         8.03238         5.05081         5.05081
            1179     1.62811E+03     1.62811E+03         7.61824         7.61824         4.57637         4.57637
            1180     1.62892E+03     1.62892E+03         7.19314         7.19314         4.14159         4.14159
            1181     1.62966E+03     1.62966E+03         6.76483         6.76483         3.74206         3.74206
            1182     1.63033E+03     1.63033E+03         6.33993         6.33993         3.37414         3.37414
            1183     1.63094E+03     1.63094E+03         5.92403         5.92403         3.03478         3.03478
            1184     1.63149E+03     1.63149E+03         5.52183         5.52183         2.72137         2.72137
            1185     1.63198E+03     1.63198E+03         5.13720         5.13720         2.43164         2.43164
            1186     1.63242E+03     1.63242E+03         4.77332         4.77332         2.16349         2.16349
            1187     1.63280E+03     1.63280E+03         4.43276         4.43276         1.91504         1.91504
            1188     1.63315E+03     1.63315E+03         4.11757         4.11757         1.68447         1.68447
            1189     1.63345E+03     1.63345E+03         3.82936         3.82936         1.47006         1.47006
            1190     1.63371E+03     1.63371E+03         3.56938         3.56938         1.27015         1.27015
            1191     1.63394E+03     1.63394E+03         3.33858         3.33858         1.08310         1.08310
            1192     1.63413E+03     1.63413E+03         3.13764         3.13764     907.290E-03     907.290E-03
            1193     1.63429E+03     1.63429E+03         2.96708         2.96708     741.139E-03     741.139E-03
            1194     1.63442E+03     1.63442E+03         2.82728         2.82728     583.056E-03     583.056E-03
            1195     1.63451E+03     1.63451E+03         2.71847         2.71847     431.467E-03     431.467E-03
            1196     1.63458E+03     1.63458E+03         2.64084         2.64084     284.804E-03     284.804E-03
            1197     1.63462E+03     1.63462E+03         2.59441         2.59441     141.866E-03     141.866E-03
            1198     1.56461E+03     1.56461E+03        -41.6497        -41.6497         106.305         106.305
            1199     1.56142E+03     1.56142E+03        -24.7585        -24.7585         84.9232         84.9232
            1200     1.56389E+03     1.56389E+03        -13.7333        -13.7333         67.6824         67.6824
            1201     1.56877E+03     1.56877E+03        -6.42716        -6.42716         54.2409         54.2409
            1202     1.57443E+03     1.57443E+03        -1.43802        -1.43802         43.8548         43.8548
            1203     1.58010E+03     1.58010E+03         2.08107         2.08107         35.8185         35.8185
            1204     1.58546E+03     1.58546E+03         4.62742         4.62742         29.5616         29.5616
            1205     1.59037E+03     1.59037E+03         6.50812         6.50812         24.6539         24.6539
            1206     1.59482E+03     1.59482E+03         7.91067         7.91067         20.7714         20.7714
            1207     1.59882E+03     1.59882E+03         8.95577         8.95577         17.6734         17.6734
            1208     1.60240E+03     1.60240E+03         9.72179         9.72179         15.1783         15.1783
            1209     1.60563E+03     1.60563E+03         10.2627         10.2627         13.1500         13.1500
            1210     1.60853E+03     1.60853E+03         10.6172         10.6172         11.4845         11.4845
            1211     1.61114E+03     1.61114E+03         10.8144         10.8144         10.1031         10.1031
            1212     1.61350E+03     1.61350E+03         10.8781         10.8781         8.94485         8.94485
            1213     1.61565E+03     1.61565E+03         10.8279         10.8279         7.96328         7.96328
            1214     1.61759E+03     1.61759E+03         10.6812         10.6812         7.12232         7.12232
            1215     1.61937E+03     1.61937E+03         10.4535         10.4535         6.39415         6.39415
            1216     1.62098E+03     1.62098E+03         10.1588         10.1588         5.75720         5.75720
            1217     1.62245E+03     1.62245E+03         9.81007         9.81007         5.19476         5.19476
            1218     1.62379E+03     1.62379E+03         9.41898         9.41898         4.69386         4.69386
            1219     1.62501E+03     1.62501E+03         8.99624         8.99624         4.24442         4.24442
            1220     1.62613E+03     1.62613E+03         8.55149         8.55149         3.83855         3.83855
            1221     1.62714E+03     1.62714E+03         8.09338         8.09338         3.47007         3.47007
            1222     1.62806E+03     1.62806E+03         7.62958         7.62958         3.13407         3.13407
            1223     1.62890E+03     1.62890E+03         7.16683         7.16683         2.82665         2.82665
            1224     1.62965E+03     1.62965E+03         6.71100         6.71100         2.54462         2.54462
            1225     1.63033E+03     1.63033E+03         6.26711         6.26711         2.28534         2.28534
            1226     1.63095E+03     1.63095E+03         5.83944         5.83944         2.04657         2.04657
            1227     1.63150E+03     1.63150E+03         5.43159         5.43159         1.82639         1.82639
            1228     1.63199E+03     1.63199E+03         5.04653         5.04653         1.62307         1.62307
            1229     1.63243E+03     1.63243E+03         4.68669         4.68669         1.43507         1.43507
            1230     1.63281E+03     1.63281E+03         4.35402         4.35402         1.26092         1.26092
            1231     1.63315E+03     1.63315E+03         4.05008         4.05008         1.09926         1.09926
            1232     1.63345E+03     1.63345E+03         3.77605         3.77605     948.781E-03     948.781E-03
            1233     1.63370E+03     1.63370E+03         3.53288         3.53288     808.215E-03     808.215E-03
            1234     1.63392E+03     1.63392E+03         3.32124         3.32124     676.321E-03     676.321E-03
            1235     1.63410E+03     1.63410E+03         3.14163         3.14163     551.883E-03     551.883E-03
            1236     1.63424E+03     1.63424E+03         2.99443         2.99443     433.703E-03     433.703E-03
            1237     1.63435E+03     1.63435E+03         2.87989         2.87989     320.598E-03     320.598E-03
            1238     1.63443E+03     1.63443E+03         2.79819         2.79819     211.396E-03     211.396E-03
            1239     1.63447E+03     1.63447E+03         2.74934         2.74934     105.204E-03     105.204E-03
            1240     1.49168E+03     1.49168E+03        -11.2893        -11.2893         98.8957         98.8957
            1241     1.51007E+03     1.51007E+03        -1.82262        -1.82262         73.4037         73.4037
            1242     1.52724E+03     1.52724E+03         3.32573         3.32573         55.5332         55.5332
            1243     1.54208E+03     1.54208E+03         6.31110         6.31110         42.8367         42.8367
            1244     1.55460E+03     1.55460E+03         8.17358         8.17358         33.6340         33.6340
            1245     1.56509E+03     1.56509E+03         9.41299         9.41299         26.8329         26.8329
            1246     1.57390E+03     1.57390E+03         10.2856         10.2856         21.7235         21.7235
            1247     1.58133E+03     1.58133E+03         10.9217         10.9217         17.8247         17.8247
            1248     1.58764E+03     1.58764E+03         11.3903         11.3903         14.8099         14.8099
            1249     1.59305E+03     1.59305E+03         11.7273         11.7273         12.4482         12.4482
            1250     1.59770E+03     1.59770E+03         11.9521         11.9521         10.5764         10.5764
            1251     1.60175E+03     1.60175E+03         12.0762         12.0762         9.07544         9.07544
            1252     1.60530E+03     1.60530E+03         12.1075         12.1075         7.85812         7.85812
            1253     1.60843E+03     1.60843E+03         12.0527         12.0527         6.85941         6.85941
            1254     1.61120E+03     1.61120E+03         11.9184         11.9184         6.03063         6.03063
            1255     1.61368E+03     1.61368E+03         11.7118         11.7118         5.33484         5.33484
            1256     1.61589E+03     1.61589E+03         11.4407         11.4407         4.74402         4.74402
            1257     1.61789E+03     1.61789E+03         11.1132         11.1132         4.23669         4.23669
            1258     1.61969E+03     1.61969E+03         10.7379         10.7379         3.79638         3.79638
            1259     1.62132E+03     1.62132E+03         10.3231         10.3231         3.41045         3.41045
            1260     1.62280E+03     1.62280E+03         9.87739         9.87739         3.06911         3.06911
            1261     1.62414E+03     1.62414E+03         9.40890         9.40890         2.76479         2.76479
            1262     1.62535E+03     1.62535E+03         8.92530         8.92530         2.49161         2.49161
            1263     1.62645E+03     1.62645E+03         8.43375         8.43375         2.24497         2.24497
            1264     1.62745E+03     1.62745E+03         7.94081         7.94081         2.02123         2.02123
            1265     1.62835E+03     1.62835E+03         7.45236         7.45236         1.81750         1.81750
            1266     1.62917E+03     1.62917E+03         6.97362         6.97362         1.63143         1.63143
            1267     1.62991E+03     1.62991E+03         6.50917         6.50917         1.46110         1.46110
            1268     1.63057E+03     1.63057E+03         6.06292         6.06292         1.30488         1.30488
            1269     1.63116E+03     1.63116E+03         5.63823         5.63823         1.16137         1.16137
            1270     1.63169E+03     1.63169E+03         5.23788         5.23788         1.02936         1.02936
            1271     1.63216E+03     1.63216E+03         4.86417         4.86417     907.741E-03     907.741E-03
            1272     1.63258E+03     1.63258E+03         4.51898         4.51898     795.503E-03     795.503E-03
            1273     1.63295E+03     1.63295E+03         4.20379         4.20379     691.706E-03     691.706E-03
            1274     1.63326E+03     1.63326E+03         3.91975         3.91975     595.456E-03     595.456E-03
            1275     1.63354E+03     1.63354E+03         3.66777         3.66777     505.901E-03     505.901E-03
            1276     1.63377E+03     1.63377E+03         3.44850         3.44850     422.219E-03     422.219E-03
            1277     1.63396E+03     1.63396E+03         3.26244         3.26244     343.611E-03     343.611E-03
            1278     1.63412E+03     1.63412E+03         3.10995         3.10995     269.301E-03     269.301E-03
            1279     1.63423E+03     1.63423E+03         2.99126         2.99126     198.532E-03     198.532E-03
            1280     1.63432E+03     1.63432E+03         2.90656         2.90656     130.566E-03     130.566E-03
            1281     1.63437E+03     1.63437E+03         2.85586         2.85586     64.8367E-03     64.8367E-03
            1282     1.42929E+03     1.42929E+03         18.1971         18.1971         60.3632         60.3632
            1283     1.46995E+03     1.46995E+03         17.7836         17.7836         42.2759         42.2759
            1284     1.50024E+03     1.50024E+03         16.7747         16.7747         30.7695         30.7695
            1285     1.52323E+03     1.52323E+03         15.8173         15.8173         23.0576         23.0576
            1286     1.54103E+03     1.54103E+03         15.0575         15.0575         17.6847         17.6847
            1287     1.55508E+03     1.55508E+03         14.5014         14.5014         13.8352         13.8352
            1288     1.56636E+03     1.56636E+03         14.1130         14.1130         11.0096         11.0096
            1289     1.57554E+03     1.57554E+03         13.8451         13.8451         8.89633         8.89633
            1290     1.58311E+03     1.58311E+03         13.6542         13.6542         7.28799         7.28799
            1291     1.58945E+03     1.58945E+03         13.5026         13.5026         6.04619         6.04619
            1292     1.59481E+03     1.59481E+03         13.3610         13.3610         5.07382         5.07382
            1293     1.59940E+03     1.59940E+03         13.2074         13.2074         4.30284         4.30284
            1294     1.60336E+03     1.60336E+03         13.0263         13.0263         3.68375         3.68375
            1295     1.60681E+03     1.60681E+03         12.8076         12.8076         3.18066         3.18066
            1296     1.60984E+03     1.60984E+03         12.5461         12.5461         2.76684         2.76684
            1297     1.61252E+03     1.61252E+03         12.2399         12.2399         2.42241         2.42241
            1298     1.61490E+03     1.61490E+03         11.8902         11.8902         2.13238         2.13238
            1299     1.61704E+03     1.61704E+03         11.5001         11.5001         1.88542         1.88542
            1300     1.61895E+03     1.61895E+03         11.0745         11.0745         1.67288         1.67288
            1301     1.62068E+03     1.62068E+03         10.6189         10.6189         1.48817         1.48817
            1302     1.62223E+03     1.62223E+03         10.1397         10.1397         1.32622         1.32622
            1303     1.62364E+03     1.62364E+03         9.64325         9.64325         1.18313         1.18313
            1304     1.62491E+03     1.62491E+03         9.13613         9.13613         1.05587         1.05587
            1305     1.62607E+03     1.62607E+03         8.62448         8.62448     942.051E-03     942.051E-03
            1306     1.62711E+03     1.62711E+03         8.11413         8.11413     839.809E-03     839.809E-03
            1307     1.62805E+03     1.62805E+03         7.61043         7.61043     747.646E-03     747.646E-03
            1308     1.62891E+03     1.62891E+03         7.11821         7.11821     664.346E-03     664.346E-03
            1309     1.62967E+03     1.62967E+03         6.64171         6.64171     588.907E-03     588.907E-03
            1310     1.63036E+03     1.63036E+03         6.18466         6.18466     520.486E-03     520.486E-03
            1311     1.63098E+03     1.63098E+03         5.75022         5.75022     458.360E-03     458.360E-03
            1312     1.63153E+03     1.63153E+03         5.34107         5.34107     401.897E-03     401.897E-03
            1313     1.63202E+03     1.63202E+03         4.95943         4.95943     350.534E-03     350.534E-03
            1314     1.63246E+03     1.63246E+03         4.60709         4.60709     303.762E-03     303.762E-03
            1315     1.63284E+03     1.63284E+03         4.28550         4.28550     261.115E-03     261.115E-03
            1316     1.63317E+03     1.63317E+03         3.99577         3.99577     222.162E-03     222.162E-03
            1317     1.63345E+03     1.63345E+03         3.73879         3.73879     186.499E-03     186.499E-03
            1318     1.63369E+03     1.63369E+03         3.51518         3.51518     153.751E-03     153.751E-03
            1319     1.63389E+03     1.63389E+03         3.32543         3.32543     123.563E-03     123.563E-03
            1320     1.63405E+03     1.63405E+03         3.16988         3.16988     95.6045E-03     95.6045E-03
            1321     1.63417E+03     1.63417E+03         3.04874         3.04874     69.5656E-03     69.5656E-03
            1322     1.63426E+03     1.63426E+03         2.96219         2.96219     45.1600E-03     45.1600E-03
            1323     1.63431E+03     1.63431E+03         2.91022         2.91022     22.1799E-03     22.1799E-03
            1324     1.40757E+03     1.40757E+03         29.0151         29.0151        -4.10726        -4.10726
            1325     1.45714E+03     1.45714E+03         24.2838         24.2838        -3.58212        -3.58212
            1326     1.49206E+03     1.49206E+03         20.9663         20.9663        -3.04286        -3.04286
            1327     1.51775E+03     1.51775E+03         18.6447         18.6447        -2.59525        -2.59525
            1328     1.53723E+03     1.53723E+03         17.0226         17.0226        -2.22910        -2.22910
            1329     1.55237E+03     1.55237E+03         15.9037         15.9037        -1.93269        -1.93269
            1330     1.56438E+03     1.56438E+03         15.1323         15.1323        -1.68999        -1.68999
            1331     1.57406E+03     1.57406E+03         14.5996         14.5996        -1.49102        -1.49102
            1332     1.58200E+03     1.58200E+03         14.2200         14.2200        -1.32618        -1.32618
            1333     1.58859E+03     1.58859E+03         13.9328         13.9328        -1.18907        -1.18907
            1334     1.59414E+03     1.59414E+03         13.6918         13.6918        -1.07404        -1.07404
            1335     1.59887E+03     1.59887E+03         13.4648         13.4648    -976.987E-03    -976.987E-03
            1336     1.60293E+03     1.60293E+03         13.2286         13.2286    -894.391E-03    -894.391E-03
            1337     1.60647E+03     1.60647E+03         12.9685         12.9685    -823.533E-03    -823.533E-03
            1338     1.60956E+03     1.60956E+03         12.6753         12.6753    -762.124E-03    -762.124E-03
            1339     1.61229E+03     1.61229E+03         12.3449         12.3449    -708.335E-03    -708.335E-03
            1340     1.61471E+03     1.61471E+03         11.9763         11.9763    -660.650E-03    -660.650E-03
            1341     1.61688E+03     1.61688E+03         11.5716         11.5716    -617.848E-03    -617.848E-03
            1342     1.61882E+03     1.61882E+03         11.1343         11.1343    -578.937E-03    -578.937E-03
            1343     1.62057E+03     1.62057E+03         10.6694         10.6694    -543.126E-03    -543.126E-03
            1344     1.62214E+03     1.62214E+03         10.1826         10.1826    -509.787E-03    -509.787E-03
            1345     1.62356E+03     1.62356E+03         9.68001         9.68001    -478.432E-03    -478.432E-03
            1346     1.62485E+03     1.62485E+03         9.16773         9.16773    -448.687E-03    -448.687E-03
            1347     1.62601E+03     1.62601E+03         8.65174         8.65174    -420.269E-03    -420.269E-03
            1348     1.62706E+03     1.62706E+03         8.13769         8.13769    -392.969E-03    -392.969E-03
            1349     1.62802E+03     1.62802E+03         7.63081         7.63081    -366.636E-03    -366.636E-03
            1350     1.62887E+03     1.62887E+03         7.13582         7.13582    -341.163E-03    -341.163E-03
            1351     1.62965E+03     1.62965E+03         6.65691         6.65691    -316.473E-03    -316.473E-03
            1352     1.63034E+03     1.63034E+03         6.19774         6.19774    -292.509E-03    -292.509E-03
            1353     1.63096E+03     1.63096E+03         5.76144         5.76144    -269.228E-03    -269.228E-03
            1354     1.63152E+03     1.63152E+03         5.35065         5.35065    -246.592E-03    -246.592E-03
            1355     1.63201E+03     1.63201E+03         4.96756         4.96756    -224.559E-03    -224.559E-03
            1356     1.63245E+03     1.63245E+03         4.61395         4.61395    -203.087E-03    -203.087E-03
            1357     1.63283E+03     1.63283E+03         4.29124         4.29124    -182.120E-03    -182.120E-03
            1358     1.63316E+03     1.63316E+03         4.00054         4.00054    -161.592E-03    -161.592E-03
            1359     1.63345E+03     1.63345E+03         3.74268         3.74268    -141.424E-03    -141.424E-03
            1360     1.63369E+03     1.63369E+03         3.51832         3.51832    -121.519E-03    -121.519E-03
            1361     1.63389E+03     1.63389E+03         3.32789         3.32789    -101.762E-03    -101.762E-03
            1362     1.63405E+03     1.63405E+03         3.17173         3.17173    -82.0206E-03    -82.0206E-03
            1363     1.63417E+03     1.63417E+03         3.05003         3.05003    -62.1410E-03    -62.1410E-03
            1364     1.63426E+03     1.63426E+03         2.96295         2.96295    -41.9468E-03    -41.9468E-03
            1365     1.63431E+03     1.63431E+03         2.91045         2.91045    -21.2854E-03    -21.2854E-03
            1366     1.44427E+03     1.44427E+03         11.0816         11.0816        -69.4472        -69.4472
            1367     1.48054E+03     1.48054E+03         12.6187         12.6187        -50.2856        -50.2856
            1368     1.50787E+03     1.50787E+03         12.9771         12.9771        -37.6893        -37.6893
            1369     1.52887E+03     1.52887E+03         12.9715         12.9715        -28.9977        -28.9977
            1370     1.54531E+03     1.54531E+03         12.8855         12.8855        -22.7993        -22.7993
            1371     1.55840E+03     1.55840E+03         12.8149         12.8149        -18.2602        -18.2602
            1372     1.56897E+03     1.56897E+03         12.7844         12.7844        -14.8660        -14.8660
            1373     1.57763E+03     1.57763E+03         12.7842         12.7842        -12.2813        -12.2813
            1374     1.58482E+03     1.58482E+03         12.7968         12.7968        -10.2828        -10.2828
            1375     1.59086E+03     1.59086E+03         12.8018         12.8018        -8.71562        -8.71562
            1376     1.59600E+03     1.59600E+03         12.7823         12.7823        -7.47108        -7.47108
            1377     1.60040E+03     1.60040E+03         12.7243         12.7243        -6.47064        -6.47064
            1378     1.60421E+03     1.60421E+03         12.6189         12.6189        -5.65691        -5.65691
            1379     1.60755E+03     1.60755E+03         12.4604         12.4604        -4.98716        -4.98716
            1380     1.61048E+03     1.61048E+03         12.2470         12.2470        -4.42934        -4.42934
            1381     1.61309E+03     1.61309E+03         11.9795         11.9795        -3.95913        -3.95913
            1382     1.61540E+03     1.61540E+03         11.6610         11.6610        -3.55797        -3.55797
            1383     1.61748E+03     1.61748E+03         11.2964         11.2964        -3.21163        -3.21163
            1384     1.61935E+03     1.61935E+03         10.8915         10.8915        -2.90918        -2.90918
            1385     1.62103E+03     1.62103E+03         10.4531         10.4531        -2.64215        -2.64215
            1386     1.62256E+03     1.62256E+03         9.98816         9.98816        -2.40405        -2.40405
            1387     1.62393E+03     1.62393E+03         9.50383         9.50383        -2.18982        -2.18982
            1388     1.62518E+03     1.62518E+03         9.00703         9.00703        -1.99557        -1.99557
            1389     1.62631E+03     1.62631E+03         8.50434         8.50434        -1.81825        -1.81825
            1390     1.62733E+03     1.62733E+03         8.00188         8.00188        -1.65551        -1.65551
            1391     1.62825E+03     1.62825E+03         7.50522         7.50522        -1.50546        -1.50546
            1392     1.62909E+03     1.62909E+03         7.01934         7.01934        -1.36663        -1.36663
            1393     1.62984E+03     1.62984E+03         6.54863         6.54863        -1.23780        -1.23780
            1394     1.63051E+03     1.63051E+03         6.09690         6.09690        -1.11797        -1.11797
            1395     1.63111E+03     1.63111E+03         5.66738         5.66738        -1.00628        -1.00628
            1396     1.63165E+03     1.63165E+03         5.26277         5.26277    -901.984E-03    -901.984E-03
            1397     1.63213E+03     1.63213E+03         4.88531         4.88531    -804.404E-03    -804.404E-03
            1398     1.63256E+03     1.63256E+03         4.53682         4.53682    -712.903E-03    -712.903E-03
            1399     1.63293E+03     1.63293E+03         4.21872         4.21872    -626.876E-03    -626.876E-03
            1400     1.63325E+03     1.63325E+03         3.93213         3.93213    -545.728E-03    -545.728E-03
            1401     1.63353E+03     1.63353E+03         3.67789         3.67789    -468.869E-03    -468.869E-03
            1402     1.63376E+03     1.63376E+03         3.45664         3.45664    -395.709E-03    -395.709E-03
            1403     1.63395E+03     1.63395E+03         3.26882         3.26882    -325.646E-03    -325.646E-03
            1404     1.63411E+03     1.63411E+03         3.11475         3.11475    -258.069E-03    -258.069E-03
            1405     1.63423E+03     1.63423E+03         2.99461         2.99461    -192.350E-03    -192.350E-03
            1406     1.63432E+03     1.63432E+03         2.90852         2.90852    -127.847E-03    -127.847E-03
            1407     1.63437E+03     1.63437E+03         2.85644         2.85644    -64.0624E-03    -64.0624E-03
            1408     1.52256E+03     1.52256E+03        -24.2921        -24.2921        -103.192        -103.192
            1409     1.53243E+03     1.53243E+03        -11.8125        -11.8125        -79.0143        -79.0143
            1410     1.54374E+03     1.54374E+03        -4.33665        -4.33665        -61.3515        -61.3515
            1411     1.55449E+03     1.55449E+03     404.884E-03     404.884E-03        -48.3825        -48.3825
            1412     1.56410E+03     1.56410E+03         3.57712         3.57712        -38.7193        -38.7193
            1413     1.57249E+03     1.57249E+03         5.80180         5.80180        -31.4195        -31.4195
            1414     1.57976E+03     1.57976E+03         7.41787         7.41787        -25.8296        -25.8296
            1415     1.58604E+03     1.58604E+03         8.62237         8.62237        -21.4958        -21.4958
            1416     1.59148E+03     1.59148E+03         9.52836         9.52836        -18.0966        -18.0966
            1417     1.59621E+03     1.59621E+03         10.2053         10.2053        -15.4009        -15.4009
            1418     1.60034E+03     1.60034E+03         10.6960         10.6960        -13.2401        -13.2401
            1419     1.60398E+03     1.60398E+03         11.0295         11.0295        -11.4896        -11.4896
            1420     1.60720E+03     1.60720E+03         11.2265         11.2265        -10.0563        -10.0563
            1421     1.61006E+03     1.61006E+03         11.3035         11.3035        -8.86980        -8.86980
            1422     1.61262E+03     1.61262E+03         11.2747         11.2747        -7.87648        -7.87648
            1423     1.61492E+03     1.61492E+03         11.1527         11.1527        -7.03538        -7.03538
            1424     1.61699E+03     1.61699E+03         10.9500         10.9500        -6.31500        -6.31500
            1425     1.61886E+03     1.61886E+03         10.6780         10.6780        -5.69104        -5.69104
            1426     1.62055E+03     1.62055E+03         10.3480         10.3480        -5.14474        -5.14474
            1427     1.62209E+03     1.62209E+03         9.97079         9.97079        -4.66159        -4.66159
            1428     1.62349E+03     1.62349E+03         9.55643         9.55643        -4.23034        -4.23034
            1429     1.62476E+03     1.62476E+03         9.11442         9.11442        -3.84229        -3.84229
            1430     1.62591E+03     1.62591E+03         8.65351         8.65351        -3.49064        -3.49064
            1431     1.62696E+03     1.62696E+03         8.18168         8.18168        -3.17012        -3.17012
            1432     1.62791E+03     1.62791E+03         7.70611         7.70611        -2.87655        -2.87655
            1433     1.62877E+03     1.62877E+03         7.23317         7.23317        -2.60664        -2.60664
            1434     1.62955E+03     1.62955E+03         6.76844         6.76844        -2.35772        -2.35772
            1435     1.63025E+03     1.63025E+03         6.31674         6.31674        -2.12760        -2.12760
            1436     1.63088E+03     1.63088E+03         5.88221         5.88221        -1.91447        -1.91447
            1437     1.63144E+03     1.63144E+03         5.46829         5.46829        -1.71672        -1.71672
            1438     1.63194E+03     1.63194E+03         5.07788         5.07788        -1.53297        -1.53297
            1439     1.63239E+03     1.63239E+03         4.71332         4.71332        -1.36194        -1.36194
            1440     1.63278E+03     1.63278E+03         4.37648         4.37648        -1.20245        -1.20245
            1441     1.63313E+03     1.63313E+03         4.06887         4.06887        -1.05334        -1.05334
            1442     1.63343E+03     1.63343E+03         3.79162         3.79162    -913.530E-03    -913.530E-03
            1443     1.63369E+03     1.63369E+03         3.54561         3.54561    -781.930E-03    -781.930E-03
            1444     1.63391E+03     1.63391E+03         3.33147         3.33147    -657.465E-03    -657.465E-03
            1445     1.63409E+03     1.63409E+03         3.14964         3.14964    -539.060E-03    -539.060E-03
            1446     1.63423E+03     1.63423E+03         3.00044         3.00044    -425.638E-03    -425.638E-03
            1447     1.63435E+03     1.63435E+03         2.88406         2.88406    -316.111E-03    -316.111E-03
            1448     1.63442E+03     1.63442E+03         2.80061         2.80061    -209.389E-03    -209.389E-03
            1449     1.63447E+03     1.63447E+03         2.75005         2.75005    -104.632E-03    -104.632E-03
            1450     1.60293E+03     1.60293E+03        -54.0946        -54.0946        -97.5349        -97.5349
            1451     1.59154E+03     1.59154E+03        -36.0809        -36.0809        -81.8863        -81.8863
            1452     1.58739E+03     1.58739E+03        -23.3255        -23.3255        -67.7826        -67.7826
            1453     1.58715E+03     1.58715E+03        -14.3329        -14.3329        -55.9777        -55.9777
            1454     1.58892E+03     1.58892E+03        -7.87279        -7.87279        -46.3935        -46.3935
            1455     1.59163E+03     1.59163E+03        -3.14437        -3.14437        -38.6892        -38.6892
            1456     1.59472E+03     1.59472E+03     381.126E-03     381.126E-03        -32.5093        -32.5093
            1457     1.59790E+03     1.59790E+03         3.04375         3.04375        -27.5418        -27.5418
            1458     1.60100E+03     1.60100E+03         5.07034         5.07034        -23.5317        -23.5317
            1459     1.60394E+03     1.60394E+03         6.61205         6.61205        -20.2756        -20.2756
            1460     1.60670E+03     1.60670E+03         7.77412         7.77412        -17.6134        -17.6134
            1461     1.60926E+03     1.60926E+03         8.63105         8.63105        -15.4198        -15.4198
            1462     1.61163E+03     1.61163E+03         9.23822         9.23822        -13.5964        -13.5964
            1463     1.61381E+03     1.61381E+03         9.63806         9.63806        -12.0666        -12.0666
            1464     1.61582E+03     1.61582E+03         9.86456         9.86456        -10.7701        -10.7701
            1465     1.61767E+03     1.61767E+03         9.94580         9.94580        -9.65998        -9.65998
            1466     1.61938E+03     1.61938E+03         9.90567         9.90567        -8.69946        -8.69946
            1467     1.62094E+03     1.62094E+03         9.76493         9.76493        -7.85980        -7.85980
            1468     1.62238E+03     1.62238E+03         9.54181         9.54181        -7.11858        -7.11858
            1469     1.62370E+03     1.62370E+03         9.25248         9.25248        -6.45831        -6.45831
            1470     1.62491E+03     1.62491E+03         8.91132         8.91132        -5.86534        -5.86534
            1471     1.62601E+03     1.62601E+03         8.53105         8.53105        -5.32905        -5.32905
            1472     1.62703E+03     1.62703E+03         8.12293         8.12293        -4.84110        -4.84110
            1473     1.62795E+03     1.62795E+03         7.69685         7.69685        -4.39495        -4.39495
            1474     1.62879E+03     1.62879E+03         7.26144         7.26144        -3.98542        -3.98542
            1475     1.62955E+03     1.62955E+03         6.82414         6.82414        -3.60836        -3.60836
            1476     1.63024E+03     1.63024E+03         6.39136         6.39136        -3.26037        -3.26037
            1477     1.63086E+03     1.63086E+03         5.96853         5.96853        -2.93865        -2.93865
            1478     1.63142E+03     1.63142E+03         5.56019         5.56019        -2.64078        -2.64078
            1479     1.63192E+03     1.63192E+03         5.17013         5.17013        -2.36468        -2.36468
            1480     1.63237E+03     1.63237E+03         4.80145         4.80145        -2.10844        -2.10844
            1481     1.63277E+03     1.63277E+03         4.45664         4.45664        -1.87032        -1.87032
            1482     1.63312E+03     1.63312E+03         4.13771         4.13771        -1.64867        -1.64867
            1483     1.63343E+03     1.63343E+03         3.84620         3.84620        -1.44191        -1.44191
            1484     1.63370E+03     1.63370E+03         3.58332         3.58332        -1.24850        -1.24850
            1485     1.63393E+03     1.63393E+03         3.34995         3.34995        -1.06691        -1.06691
            1486     1.63412E+03     1.63412E+03         3.14676         3.14676    -895.625E-03    -895.625E-03
            1487     1.63428E+03     1.63428E+03         2.97420         2.97420    -733.149E-03    -733.149E-03
            1488     1.63441E+03     1.63441E+03         2.83258         2.83258    -577.971E-03    -577.971E-03
            1489     1.63451E+03     1.63451E+03         2.72212         2.72212    -428.582E-03    -428.582E-03
            1490     1.63458E+03     1.63458E+03         2.64293         2.64293    -283.474E-03    -283.474E-03
            1491     1.63462E+03     1.63462E+03         2.59496         2.59496    -141.494E-03    -141.494E-03
            1492     1.65847E+03     1.65847E+03        -65.9169        -65.9169        -70.3115        -70.3115
            1493     1.63898E+03     1.63898E+03        -50.2232        -50.2232        -66.3949        -66.3949
            1494     1.62625E+03     1.62625E+03        -36.9350        -36.9350        -59.8838        -59.8838
            1495     1.61847E+03     1.61847E+03        -26.3178        -26.3178        -52.7216        -52.7216
            1496     1.61406E+03     1.61406E+03        -18.0393        -18.0393        -45.8941        -45.8941
            1497     1.61187E+03     1.61187E+03        -11.6082        -11.6082        -39.7886        -39.7886
            1498     1.61111E+03     1.61111E+03        -6.60890        -6.60890        -34.5017        -34.5017
            1499     1.61126E+03     1.61126E+03        -2.71240        -2.71240        -29.9992        -29.9992
            1500     1.61198E+03     1.61198E+03     325.653E-03     325.653E-03        -26.1957        -26.1957
            1501     1.61304E+03     1.61304E+03         2.68869         2.68869        -22.9913        -22.9913
            1502     1.61430E+03     1.61430E+03         4.51302         4.51302        -20.2892        -20.2892
            1503     1.61567E+03     1.61567E+03         5.90258         5.90258        -18.0027        -18.0027
            1504     1.61707E+03     1.61707E+03         6.93741         6.93741        -16.0572        -16.0572
            1505     1.61847E+03     1.61847E+03         7.68086         7.68086        -14.3903        -14.3903
            1506     1.61984E+03     1.61984E+03         8.18391         8.18391        -12.9505        -12.9505
            1507     1.62116E+03     1.62116E+03         8.48856         8.48856        -11.6962        -11.6962
            1508     1.62242E+03     1.62242E+03         8.62984         8.62984        -10.5936        -10.5936
            1509     1.62361E+03     1.62361E+03         8.63745         8.63745        -9.61592        -9.61592
            1510     1.62473E+03     1.62473E+03         8.53675         8.53675        -8.74182        -8.74182
            1511     1.62577E+03     1.62577E+03         8.34953         8.34953        -7.95443        -7.95443
            1512     1.62674E+03     1.62674E+03         8.09456         8.09456        -7.24044        -7.24044
            1513     1.62764E+03     1.62764E+03         7.78801         7.78801        -6.58939        -6.58939
            1514     1.62847E+03     1.62847E+03         7.44380         7.44380        -5.99299        -5.99299
            1515     1.62923E+03     1.62923E+03         7.07384         7.07384        -5.44470        -5.44470
            1516     1.62993E+03     1.62993E+03         6.68830         6.68830        -4.93922        -4.93922
            1517     1.63056E+03     1.63056E+03         6.29578         6.29578        -4.47229        -4.47229
            1518     1.63114E+03     1.63114E+03         5.90353         5.90353        -4.04033        -4.04033
            1519     1.63166E+03     1.63166E+03         5.51761         5.51761        -3.64032        -3.64032
            1520     1.63213E+03     1.63213E+03         5.14301         5.14301        -3.26962        -3.26962
            1521     1.63255E+03     1.63255E+03         4.78385         4.78385        -2.92586        -2.92586
            1522     1.63293E+03     1.63293E+03         4.44344         4.44344        -2.60685        -2.60685
            1523     1.63326E+03     1.63326E+03         4.12443         4.12443        -2.31053        -2.31053
            1524     1.63355E+03     1.63355E+03         3.82893         3.82893        -2.03492        -2.03492
            1525     1.63381E+03     1.63381E+03         3.55854         3.55854        -1.77809        -1.77809
            1526     1.63404E+03     1.63404E+03         3.31453         3.31453        -1.53813        -1.53813
            1527     1.63423E+03     1.63423E+03         3.09780         3.09780        -1.31317        -1.31317
            1528     1.63439E+03     1.63439E+03         2.90903         2.90903        -1.10131        -1.10131
            1529     1.63452E+03     1.63452E+03         2.74870         2.74870    -900.689E-03    -900.689E-03
            1530     1.63463E+03     1.63463E+03         2.61713         2.61713    -709.408E-03    -709.408E-03
            1531     1.63471E+03     1.63471E+03         2.51454         2.51454    -525.587E-03    -525.587E-03
            1532     1.63477E+03     1.63477E+03         2.44106         2.44106    -347.345E-03    -347.345E-03
            1533     1.63481E+03     1.63481E+03         2.39668         2.39668    -173.262E-03    -173.262E-03
            1534     1.64292E+03     1.64292E+03     57.4607E-03     57.4607E-03        -5.54157        -5.54157
            1535     1.64827E+03     1.64827E+03     95.6668E-03     95.6668E-03        -9.87406        -9.87406
            1536     1.65369E+03     1.65369E+03     53.3583E-03     53.3583E-03        -13.0504        -13.0504
            1537     1.65929E+03     1.65929E+03    -183.499E-03    -183.499E-03        -15.4809        -15.4809
            1538     1.66525E+03     1.66525E+03    -782.203E-03    -782.203E-03        -17.4579        -17.4579
            1539     1.67177E+03     1.67177E+03        -1.97562        -1.97562        -19.1472        -19.1472
            1540     1.67911E+03     1.67911E+03        -4.08739        -4.08739        -20.5866        -20.5866
            1541     1.68754E+03     1.68754E+03        -7.57027        -7.57027        -21.6514        -21.6514
            1542     1.69735E+03     1.69735E+03        -13.0513        -13.0513        -21.9747        -21.9747
            1543     1.70870E+03     1.70870E+03        -21.3625        -21.3625        -20.7847        -20.7847
            1544     1.72133E+03     1.72133E+03        -33.4543        -33.4543        -16.6644        -16.6644
            1545     1.73382E+03     1.73382E+03        -49.9921        -49.9921        -7.27544        -7.27544
            1546     1.63599E+03     1.63599E+03     548.773E-03     548.773E-03        -5.11526        -5.11526
            1547     1.64328E+03     1.64328E+03         1.45731         1.45731        -9.15084        -9.15084
            1548     1.64986E+03     1.64986E+03         2.73381         2.73381        -12.2114        -12.2114
            1549     1.65610E+03     1.65610E+03         4.21711         4.21711        -14.7371        -14.7371
            1550     1.66232E+03     1.66232E+03         5.74538         5.74538        -17.0666        -17.0666
            1551     1.66889E+03     1.66889E+03         7.13161         7.13161        -19.4472        -19.4472
            1552     1.67619E+03     1.67619E+03         8.12438         8.12438        -22.0533        -22.0533
            1553     1.68471E+03     1.68471E+03         8.34751         8.34751        -24.9807        -24.9807
            1554     1.69503E+03     1.69503E+03         7.20139         7.20139        -28.1996        -28.1996
            1555     1.70795E+03     1.70795E+03         3.70155         3.70155        -31.4269        -31.4269
            1556     1.72434E+03     1.72434E+03        -3.75997        -3.75997        -33.7873        -33.7873
            1557     1.74486E+03     1.74486E+03        -17.6033        -17.6033        -33.1141        -33.1141
            1558     1.63016E+03     1.63016E+03         1.00599         1.00599        -3.87058        -3.87058
            1559     1.63901E+03     1.63901E+03         2.73003         2.73003        -6.93168        -6.93168
            1560     1.64645E+03     1.64645E+03         5.25597         5.25597        -9.29568        -9.29568
            1561     1.65302E+03     1.65302E+03         8.40240         8.40240        -11.3402        -11.3402
            1562     1.65919E+03     1.65919E+03         12.0557         12.0557        -13.3713        -13.3713
            1563     1.66538E+03     1.66538E+03         16.1440         16.1440        -15.6450        -15.6450
            1564     1.67204E+03     1.67204E+03         20.6083         20.6083        -18.4004        -18.4004
            1565     1.67969E+03     1.67969E+03         25.3615         25.3615        -21.8845        -21.8845
            1566     1.68902E+03     1.68902E+03         30.2207         30.2207        -26.3684        -26.3684
            1567     1.70103E+03     1.70103E+03         34.7677         34.7677        -32.1418        -32.1418
            1568     1.71733E+03     1.71733E+03         38.0261         38.0261        -39.4193        -39.4193
            1569     1.74044E+03     1.74044E+03         37.6834         37.6834        -47.9505        -47.9505
            1570     1.62638E+03     1.62638E+03         1.33338         1.33338        -1.94610        -1.94610
            1571     1.63626E+03     1.63626E+03         3.64374         3.64374        -3.46384        -3.46384
            1572     1.64421E+03     1.64421E+03         7.07461         7.07461        -4.62721        -4.62721
            1573     1.65090E+03     1.65090E+03         11.4415         11.4415        -5.65923        -5.65923
            1574     1.65688E+03     1.65688E+03         16.6862         16.6862        -6.74577        -6.74577
            1575     1.66259E+03     1.66259E+03         22.8572         22.8572        -8.05341        -8.05341
            1576     1.66847E+03     1.66847E+03         30.1012         30.1012        -9.75535        -9.75535
            1577     1.67499E+03     1.67499E+03         38.6693         38.6693        -12.0600        -12.0600
            1578     1.68275E+03     1.68275E+03         48.9329         48.9329        -15.2484        -15.2484
            1579     1.69263E+03     1.69263E+03         61.4120         61.4120        -19.7316        -19.7316
            1580     1.70608E+03     1.70608E+03         76.7928         76.7928        -26.1735        -26.1735
            1581     1.72578E+03     1.72578E+03         95.8123         95.8123        -35.7099        -35.7099
            1582     1.62538E+03     1.62538E+03         1.45641         1.45641     369.829E-03     369.829E-03
            1583     1.63560E+03     1.63560E+03         3.98783         3.98783     725.114E-03     725.114E-03
            1584     1.64369E+03     1.64369E+03         7.76124         7.76124         1.06001         1.06001
            1585     1.65038E+03     1.65038E+03         12.5925         12.5925         1.36358         1.36358
            1586     1.65623E+03     1.65623E+03         18.4468         18.4468         1.62812         1.62812
            1587     1.66169E+03     1.66169E+03         25.4228         25.4228         1.84765         1.84765
            1588     1.66719E+03     1.66719E+03         33.7556         33.7556         2.01772         2.01772
            1589     1.67315E+03     1.67315E+03         43.8449         43.8449         2.13555         2.13555
            1590     1.68012E+03     1.68012E+03         56.3206         56.3206         2.19955         2.19955
            1591     1.68887E+03     1.68887E+03         72.1653         72.1653         2.20979         2.20979
            1592     1.70058E+03     1.70058E+03         92.9830         92.9830         2.16822         2.16822
            1593     1.71748E+03     1.71748E+03         121.654         121.654         2.07557         2.07557
            1594     1.62743E+03     1.62743E+03         1.34684         1.34684         2.69828         2.69828
            1595     1.63725E+03     1.63725E+03         3.68260         3.68260         4.93768         4.93768
            1596     1.64512E+03     1.64512E+03         7.15321         7.15321         6.78030         6.78030
            1597     1.65172E+03     1.65172E+03         11.5719         11.5719         8.42720         8.42720
            1598     1.65757E+03     1.65757E+03         16.8781         16.8781         10.0490         10.0490
            1599     1.66315E+03     1.66315E+03         23.1180         23.1180         11.8002         11.8002
            1600     1.66888E+03     1.66888E+03         30.4364         30.4364         13.8455         13.8455
            1601     1.67525E+03     1.67525E+03         39.0824         39.0824         16.3876         16.3876
            1602     1.68285E+03     1.68285E+03         49.4258         49.4258         19.7048         19.7048
            1603     1.69258E+03     1.69258E+03         61.9852         61.9852         24.2082         24.2082
            1604     1.70589E+03     1.70589E+03         77.4437         77.4437         30.5635         30.5635
            1605     1.72544E+03     1.72544E+03         96.5387         96.5387         39.9150         39.9150
            1606     1.63227E+03     1.63227E+03         1.03282         1.03282         4.66029         4.66029
            1607     1.64103E+03     1.64103E+03         2.80754         2.80754         8.47634         8.47634
            1608     1.64831E+03     1.64831E+03         5.41282         5.41282         11.5479         11.5479
            1609     1.65467E+03     1.65467E+03         8.66254         8.66254         14.2305         14.2305
            1610     1.66059E+03     1.66059E+03         12.4384         12.4384         16.8151         16.8151
            1611     1.66651E+03     1.66651E+03         16.6642         16.6642         19.5461         19.5461
            1612     1.67287E+03     1.67287E+03         21.2766         21.2766         22.6542         22.6542
            1613     1.68021E+03     1.68021E+03         26.1849         26.1849         26.3812         26.3812
            1614     1.68922E+03     1.68922E+03         31.2025         31.2025         30.9959         30.9959
            1615     1.70093E+03     1.70093E+03         35.9085         35.9085         36.7885         36.7885
            1616     1.71694E+03     1.71694E+03         39.3251         39.3251         43.9756         43.9756
            1617     1.73977E+03     1.73977E+03         39.1323         39.1323         52.3105         52.3105
            1618     1.63926E+03     1.63926E+03     588.807E-03     588.807E-03         5.96748         5.96748
            1619     1.64637E+03     1.64637E+03         1.57312         1.57312         10.8134         10.8134
            1620     1.65270E+03     1.65270E+03         2.96826         2.96826         14.6285         14.6285
            1621     1.65861E+03     1.65861E+03         4.60593         4.60593         17.8308         17.8308
            1622     1.66446E+03     1.66446E+03         6.31727         6.31727         20.7441         20.7441
            1623     1.67060E+03     1.67060E+03         7.90849         7.90849         23.6045         23.6045
            1624     1.67745E+03     1.67745E+03         9.12188         9.12188         26.5784         26.5784
            1625     1.68549E+03     1.68549E+03         9.57528         9.57528         29.7571         29.7571
            1626     1.69535E+03     1.69535E+03         8.66387         8.66387         33.1096         33.1096
            1627     1.70780E+03     1.70780E+03         5.39904         5.39904         36.3545         36.3545
            1628     1.72374E+03     1.72374E+03        -1.83058        -1.83058         38.6209         38.6209
            1629     1.74382E+03     1.74382E+03        -15.4436        -15.4436         37.7416         37.7416
            1630     1.64742E+03     1.64742E+03     110.513E-03     110.513E-03         6.48131         6.48131
            1631     1.65254E+03     1.65254E+03     249.306E-03     249.306E-03         11.7015         11.7015
            1632     1.65759E+03     1.65759E+03     364.529E-03     364.529E-03         15.6979         15.6979
            1633     1.66274E+03     1.66274E+03     332.489E-03     332.489E-03         18.8583         18.8583
            1634     1.66816E+03     1.66816E+03    -23.6942E-03    -23.6942E-03         21.4609         21.4609
            1635     1.67410E+03     1.67410E+03    -946.030E-03    -946.030E-03         23.6606         23.6606
            1636     1.68081E+03     1.68081E+03        -2.76684        -2.76684         25.4880         25.4880
            1637     1.68860E+03     1.68860E+03        -5.94698        -5.94698         26.8149         26.8149
            1638     1.69776E+03     1.69776E+03        -11.1208        -11.1208         27.2741         27.2741
            1639     1.70848E+03     1.70848E+03        -19.1270        -19.1270         26.0972         26.0972
            1640     1.72051E+03     1.72051E+03        -30.9197        -30.9197         21.8753         21.8753
            1641     1.73241E+03     1.73241E+03        -47.1638        -47.1638         12.2788         12.2788
            1642     1.63520E+03     1.63520E+03         1.96073         1.96073     214.544E-03     214.544E-03
            1643     1.63518E+03     1.63518E+03         1.99742         1.99742     430.326E-03     430.326E-03
            1644     1.63514E+03     1.63514E+03         2.05841         2.05841     651.573E-03     651.573E-03
            1645     1.63510E+03     1.63510E+03         2.14368         2.14368     880.095E-03     880.095E-03
            1646     1.63504E+03     1.63504E+03         2.25311         2.25311         1.11830         1.11830
            1647     1.63496E+03     1.63496E+03         2.38648         2.38648         1.36860         1.36860
            1648     1.63487E+03     1.63487E+03         2.54347         2.54347         1.63338         1.63338
            1649     1.63476E+03     1.63476E+03         2.72363         2.72363         1.91502         1.91502
            1650     1.63464E+03     1.63464E+03         2.92627         2.92627         2.21586         2.21586
            1651     1.63449E+03     1.63449E+03         3.15049         3.15049         2.53825         2.53825
            1652     1.63432E+03     1.63432E+03         3.39504         3.39504         2.88448         2.88448
            1653     1.63413E+03     1.63413E+03         3.65825         3.65825         3.25682         3.25682
            1654     1.63392E+03     1.63392E+03         3.93798         3.93798         3.65751         3.65751
            1655     1.63367E+03     1.63367E+03         4.23143         4.23143         4.08880         4.08880
            1656     1.63341E+03     1.63341E+03         4.53509         4.53509         4.55289         4.55289
            1657     1.63311E+03     1.63311E+03         4.84449         4.84449         5.05203         5.05203
            1658     1.63278E+03     1.63278E+03         5.15413         5.15413         5.58852         5.58852
            1659     1.63242E+03     1.63242E+03         5.45719         5.45719         6.16479         6.16479
            1660     1.63203E+03     1.63203E+03         5.74536         5.74536         6.78343         6.78343
            1661     1.63161E+03     1.63161E+03         6.00850         6.00850         7.44736         7.44736
            1662     1.63116E+03     1.63116E+03         6.23444         6.23444         8.15990         8.15990
            1663     1.63069E+03     1.63069E+03         6.40853         6.40853         8.92498         8.92498
            1664     1.63020E+03     1.63020E+03         6.51334         6.51334         9.74732         9.74732
            1665     1.62970E+03     1.62970E+03         6.52814         6.52814         10.6327         10.6327
            1666     1.62921E+03     1.62921E+03         6.42844         6.42844         11.5880         11.5880
            1667     1.62873E+03     1.62873E+03         6.18539         6.18539         12.6220         12.6220
            1668     1.62830E+03     1.62830E+03         5.76515         5.76515         13.7446         13.7446
            1669     1.62794E+03     1.62794E+03         5.12806         5.12806         14.9679         14.9679
            1670     1.62769E+03     1.62769E+03         4.22789         4.22789         16.3052         16.3052
            1671     1.62761E+03     1.62761E+03         3.01068         3.01068         17.7707         17.7707
            1672     1.62777E+03     1.62777E+03         1.41403         1.41403         19.3777         19.3777
            1673     1.62826E+03     1.62826E+03    -634.352E-03    -634.352E-03         21.1360         21.1360
            1674     1.62921E+03     1.62921E+03        -3.21643        -3.21643         23.0466         23.0466
            1675     1.63075E+03     1.63075E+03        -6.42469        -6.42469         25.0939         25.0939
            1676     1.63311E+03     1.63311E+03        -10.3571        -10.3571         27.2315         27.2315
            1677     1.63652E+03     1.63652E+03        -15.1122        -15.1122         29.3636         29.3636
            1678     1.64128E+03     1.64128E+03        -20.7655        -20.7655         31.3120         31.3120
            1679     1.64776E+03     1.64776E+03        -27.3384        -27.3384         32.7804         32.7804
            1680     1.65630E+03     1.65630E+03        -34.7145        -34.7145         33.2976         33.2976
            1681     1.66717E+03     1.66717E+03        -42.5310        -42.5310         32.2018         32.2018
            1682     1.68040E+03     1.68040E+03        -49.9940        -49.9940         28.6439         28.6439
            1683     1.69554E+03     1.69554E+03        -55.8096        -55.8096         21.8322         21.8322
            1684     1.63537E+03     1.63537E+03         1.74360         1.74360     224.626E-03     224.626E-03
            1685     1.63536E+03     1.63536E+03         1.77660         1.77660     450.527E-03     450.527E-03
            1686     1.63534E+03     1.63534E+03         1.83148         1.83148     682.251E-03     682.251E-03
            1687     1.63532E+03     1.63532E+03         1.90821         1.90821     921.721E-03     921.721E-03
            1688     1.63528E+03     1.63528E+03         2.00667         2.00667         1.17149         1.17149
            1689     1.63523E+03     1.63523E+03         2.12667         2.12667         1.43412         1.43412
            1690     1.63518E+03     1.63518E+03         2.26791         2.26791         1.71213         1.71213
            1691     1.63511E+03     1.63511E+03         2.42995         2.42995         2.00804         2.00804
            1692     1.63504E+03     1.63504E+03         2.61215         2.61215         2.32430         2.32430
            1693     1.63495E+03     1.63495E+03         2.81365         2.81365         2.66336         2.66336
            1694     1.63484E+03     1.63484E+03         3.03324         3.03324         3.02759         3.02759
            1695     1.63472E+03     1.63472E+03         3.26932         3.26932         3.41929         3.41929
            1696     1.63459E+03     1.63459E+03         3.51979         3.51979         3.84070         3.84070
            1697     1.63443E+03     1.63443E+03         3.78192         3.78192         4.29398         4.29398
            1698     1.63426E+03     1.63426E+03         4.05222         4.05222         4.78119         4.78119
            1699     1.63408E+03     1.63408E+03         4.32629         4.32629         5.30432         5.30432
            1700     1.63387E+03     1.63387E+03         4.59862         4.59862         5.86525         5.86525
            1701     1.63364E+03     1.63364E+03         4.86235         4.86235         6.46582         6.46582
            1702     1.63340E+03     1.63340E+03         5.10907         5.10907         7.10782         7.10782
            1703     1.63314E+03     1.63314E+03         5.32848         5.32848         7.79303         7.79303
            1704     1.63288E+03     1.63288E+03         5.50812         5.50812         8.52331         8.52331
            1705     1.63260E+03     1.63260E+03         5.63295         5.63295         9.30063         9.30063
            1706     1.63233E+03     1.63233E+03         5.68496         5.68496         10.1271         10.1271
            1707     1.63207E+03     1.63207E+03         5.64275         5.64275         11.0053         11.0053
            1708     1.63184E+03     1.63184E+03         5.48097         5.48097         11.9379         11.9379
            1709     1.63166E+03     1.63166E+03         5.16990         5.16990         12.9279         12.9279
            1710     1.63155E+03     1.63155E+03         4.67477         4.67477         13.9786         13.9786
            1711     1.63156E+03     1.63156E+03         3.95542         3.95542         15.0932         15.0932
            1712     1.63172E+03     1.63172E+03         2.96561         2.96561         16.2736         16.2736
            1713     1.63209E+03     1.63209E+03         1.65299         1.65299         17.5199         17.5199
            1714     1.63275E+03     1.63275E+03    -41.2110E-03    -41.2110E-03         18.8273         18.8273
            1715     1.63380E+03     1.63380E+03        -2.18102        -2.18102         20.1833         20.1833
            1716     1.63534E+03     1.63534E+03        -4.83458        -4.83458         21.5612         21.5612
            1717     1.63753E+03     1.63753E+03        -8.06898        -8.06898         22.9120         22.9120
            1718     1.64052E+03     1.64052E+03        -11.9439        -11.9439         24.1526         24.1526
            1719     1.64452E+03     1.64452E+03        -16.4949        -16.4949         25.1473         25.1473
            1720     1.64973E+03     1.64973E+03        -21.7100        -21.7100         25.6897         25.6897
            1721     1.65636E+03     1.65636E+03        -27.4839        -27.4839         25.4755         25.4755
            1722     1.66455E+03     1.66455E+03        -33.5548        -33.5548         24.0977         24.0977
            1723     1.67429E+03     1.67429E+03        -39.4175        -39.4175         21.0482         21.0482
            1724     1.68533E+03     1.68533E+03        -44.2416        -44.2416         15.8211         15.8211
            1725     1.69718E+03     1.69718E+03        -46.9184        -46.9184         7.95598         7.95598
            1726     1.63555E+03     1.63555E+03         1.51900         1.51900     229.421E-03     229.421E-03
            1727     1.63554E+03     1.63554E+03         1.54814         1.54814     460.137E-03     460.137E-03
            1728     1.63554E+03     1.63554E+03         1.59659         1.59659     696.925E-03     696.925E-03
            1729     1.63553E+03     1.63553E+03         1.66433         1.66433     941.774E-03     941.774E-03
            1730     1.63552E+03     1.63552E+03         1.75126         1.75126         1.19734         1.19734
            1731     1.63551E+03     1.63551E+03         1.85721         1.85721         1.46628         1.46628
            1732     1.63549E+03     1.63549E+03         1.98190         1.98190         1.75121         1.75121
            1733     1.63547E+03     1.63547E+03         2.12493         2.12493         2.05473         2.05473
            1734     1.63544E+03     1.63544E+03         2.28573         2.28573         2.37937         2.37937
            1735     1.63541E+03     1.63541E+03         2.46347         2.46347         2.72762         2.72762
            1736     1.63537E+03     1.63537E+03         2.65705         2.65705         3.10187         3.10187
            1737     1.63533E+03     1.63533E+03         2.86494         2.86494         3.50444         3.50444
            1738     1.63528E+03     1.63528E+03         3.08517         3.08517         3.93748         3.93748
            1739     1.63522E+03     1.63522E+03         3.31512         3.31512         4.40305         4.40305
            1740     1.63516E+03     1.63516E+03         3.55147         3.55147         4.90299         4.90299
            1741     1.63508E+03     1.63508E+03         3.78996         3.78996         5.43894         5.43894
            1742     1.63500E+03     1.63500E+03         4.02525         4.02525         6.01234         6.01234
            1743     1.63492E+03     1.63492E+03         4.25067         4.25067         6.62433         6.62433
            1744     1.63483E+03     1.63483E+03         4.45796         4.45796         7.27577         7.27577
            1745     1.63474E+03     1.63474E+03         4.63699         4.63699         7.96723         7.96723
            1746     1.63466E+03     1.63466E+03         4.77546         4.77546         8.69889         8.69889
            1747     1.63458E+03     1.63458E+03         4.85843         4.85843         9.47057         9.47057
            1748     1.63453E+03     1.63453E+03         4.86805         4.86805         10.2817         10.2817
            1749     1.63450E+03     1.63450E+03         4.78302         4.78302         11.1311         11.1311
            1750     1.63453E+03     1.63453E+03         4.57823         4.57823         12.0170         12.0170
            1751     1.63462E+03     1.63462E+03         4.22428         4.22428         12.9368         12.9368
            1752     1.63482E+03     1.63482E+03         3.68720         3.68720         13.8867         13.8867
            1753     1.63515E+03     1.63515E+03         2.92810         2.92810         14.8609         14.8609
            1754     1.63565E+03     1.63565E+03         1.90331         1.90331         15.8506         15.8506
            1755     1.63640E+03     1.63640E+03     564.618E-03     564.618E-03         16.8428         16.8428
            1756     1.63745E+03     1.63745E+03        -1.13941        -1.13941         17.8170         17.8170
            1757     1.63890E+03     1.63890E+03        -3.26165        -3.26165         18.7425         18.7425
            1758     1.64084E+03     1.64084E+03        -5.85188        -5.85188         19.5724         19.5724
            1759     1.64339E+03     1.64339E+03        -8.95088        -8.95088         20.2370         20.2370
            1760     1.64669E+03     1.64669E+03        -12.5784        -12.5784         20.6336         20.6336
            1761     1.65085E+03     1.65085E+03        -16.7165        -16.7165         20.6176         20.6176
            1762     1.65601E+03     1.65601E+03        -21.2824        -21.2824         19.9887         19.9887
            1763     1.66224E+03     1.66224E+03        -26.0902        -26.0902         18.4905         18.4905
            1764     1.66952E+03     1.66952E+03        -30.8051        -30.8051         15.8129         15.8129
            1765     1.67770E+03     1.67770E+03        -34.8876        -34.8876         11.6370         11.6370
            1766     1.68643E+03     1.68643E+03        -37.5928        -37.5928         5.68816         5.68816
            1767     1.69512E+03     1.69512E+03        -37.8723        -37.8723        -2.22728        -2.22728
            1768     1.63570E+03     1.63570E+03         1.29224         1.29224     228.724E-03     228.724E-03
            1769     1.63571E+03     1.63571E+03         1.31739         1.31739     458.726E-03     458.726E-03
            1770     1.63572E+03     1.63572E+03         1.35922         1.35922     694.933E-03     694.933E-03
            1771     1.63573E+03     1.63573E+03         1.41771         1.41771     939.353E-03     939.353E-03
            1772     1.63575E+03     1.63575E+03         1.49278         1.49278         1.19469         1.19469
            1773     1.63576E+03     1.63576E+03         1.58426         1.58426         1.46365         1.46365
            1774     1.63579E+03     1.63579E+03         1.69194         1.69194         1.74889         1.74889
            1775     1.63581E+03     1.63581E+03         1.81546         1.81546         2.05303         2.05303
            1776     1.63584E+03     1.63584E+03         1.95429         1.95429         2.37865         2.37865
            1777     1.63587E+03     1.63587E+03         2.10771         2.10771         2.72823         2.72823
            1778     1.63590E+03     1.63590E+03         2.27471         2.27471         3.10415         3.10415
            1779     1.63594E+03     1.63594E+03         2.45391         2.45391         3.50868         3.50868
            1780     1.63597E+03     1.63597E+03         2.64349         2.64349         3.94389         3.94389
            1781     1.63602E+03     1.63602E+03         2.84105         2.84105         4.41167         4.41167
            1782     1.63606E+03     1.63606E+03         3.04350         3.04350         4.91361         4.91361
            1783     1.63611E+03     1.63611E+03         3.24687         3.24687         5.45103         5.45103
            1784     1.63616E+03     1.63616E+03         3.44616         3.44616         6.02484         6.02484
            1785     1.63622E+03     1.63622E+03         3.63508         3.63508         6.63550         6.63550
            1786     1.63629E+03     1.63629E+03         3.80583         3.80583         7.28294         7.28294
            1787     1.63637E+03     1.63637E+03         3.94880         3.94880         7.96647         7.96647
            1788     1.63647E+03     1.63647E+03         4.05223         4.05223         8.68462         8.68462
            1789     1.63660E+03     1.63660E+03         4.10191         4.10191         9.43508         9.43508
            1790     1.63676E+03     1.63676E+03         4.08075         4.08075         10.2145         10.2145
            1791     1.63696E+03     1.63696E+03         3.96842         3.96842         11.0182         11.0182
            1792     1.63723E+03     1.63723E+03         3.74100         3.74100         11.8402         11.8402
            1793     1.63758E+03     1.63758E+03         3.37068         3.37068         12.6722         12.6722
            1794     1.63805E+03     1.63805E+03         2.82556         2.82556         13.5039         13.5039
            1795     1.63866E+03     1.63866E+03         2.06979         2.06979         14.3214         14.3214
            1796     1.63945E+03     1.63945E+03         1.06386         1.06386         15.1065         15.1065
            1797     1.64048E+03     1.64048E+03    -234.185E-03    -234.185E-03         15.8352         15.8352
            1798     1.64182E+03     1.64182E+03        -1.86705        -1.86705         16.4749         16.4749
            1799     1.64352E+03     1.64352E+03        -3.87461        -3.87461         16.9821         16.9821
            1800     1.64567E+03     1.64567E+03        -6.28898        -6.28898         17.2977         17.2977
            1801     1.64836E+03     1.64836E+03        -9.12594        -9.12594         17.3424         17.3424
            1802     1.65168E+03     1.65168E+03        -12.3732        -12.3732         17.0119         17.0119
            1803     1.65569E+03     1.65569E+03        -15.9729        -15.9729         16.1708         16.1708
            1804     1.66045E+03     1.66045E+03        -19.7979        -19.7979         14.6531         14.6531
            1805     1.66593E+03     1.66593E+03        -23.6249        -23.6249         12.2661         12.2661
            1806     1.67204E+03     1.67204E+03        -27.0999        -27.0999         8.81219         8.81219
            1807     1.67855E+03     1.67855E+03        -29.7268        -29.7268         4.12470         4.12470
            1808     1.68508E+03     1.68508E+03        -30.8330        -30.8330        -1.89037        -1.89037
            1809     1.69103E+03     1.69103E+03        -29.5809        -29.5809        -9.14018        -9.14018
            1810     1.63584E+03     1.63584E+03         1.06876         1.06876     222.424E-03     222.424E-03
            1811     1.63585E+03     1.63585E+03         1.08989         1.08989     446.065E-03     446.065E-03
            1812     1.63587E+03     1.63587E+03         1.12505         1.12505     675.919E-03     675.919E-03
            1813     1.63591E+03     1.63591E+03         1.17422         1.17422     913.960E-03     913.960E-03
            1814     1.63595E+03     1.63595E+03         1.23733         1.23733         1.16289         1.16289
            1815     1.63600E+03     1.63600E+03         1.31426         1.31426         1.42538         1.42538
            1816     1.63606E+03     1.63606E+03         1.40481         1.40481         1.70411         1.70411
            1817     1.63613E+03     1.63613E+03         1.50868         1.50868         2.00167         2.00167
            1818     1.63622E+03     1.63622E+03         1.62544         1.62544         2.32060         2.32060
            1819     1.63631E+03     1.63631E+03         1.75444         1.75444         2.66336         2.66336
            1820     1.63641E+03     1.63641E+03         1.89482         1.89482         3.03229         3.03229
            1821     1.63653E+03     1.63653E+03         2.04537         2.04537         3.42956         3.42956
            1822     1.63666E+03     1.63666E+03         2.20448         2.20448         3.85713         3.85713
            1823     1.63680E+03     1.63680E+03         2.37002         2.37002         4.31671         4.31671
            1824     1.63695E+03     1.63695E+03         2.53922         2.53922         4.80968         4.80968
            1825     1.63713E+03     1.63713E+03         2.70854         2.70854         5.33699         5.33699
            1826     1.63731E+03     1.63731E+03         2.87346         2.87346         5.89910         5.89910
            1827     1.63752E+03     1.63752E+03         3.02827         3.02827         6.49584         6.49584
            1828     1.63775E+03     1.63775E+03         3.16589         3.16589         7.12627         7.12627
            1829     1.63801E+03     1.63801E+03         3.27754         3.27754         7.78855         7.78855
            1830     1.63829E+03     1.63829E+03         3.35248         3.35248         8.47974         8.47974
            1831     1.63862E+03     1.63862E+03         3.37765         3.37765         9.19559         9.19559
            1832     1.63899E+03     1.63899E+03         3.33740         3.33740         9.93024         9.93024
            1833     1.63941E+03     1.63941E+03         3.21309         3.21309         10.6760         10.6760
            1834     1.63991E+03     1.63991E+03         2.98289         2.98289         11.4228         11.4228
            1835     1.64050E+03     1.64050E+03         2.62154         2.62154         12.1579         12.1579
            1836     1.64121E+03     1.64121E+03         2.10040         2.10040         12.8650         12.8650
            1837     1.64206E+03     1.64206E+03         1.38769         1.38769         13.5237         13.5237
            1838     1.64308E+03     1.64308E+03     449.352E-03     449.352E-03         14.1084         14.1084
            1839     1.64433E+03     1.64433E+03    -749.612E-03    -749.612E-03         14.5866         14.5866
            1840     1.64584E+03     1.64584E+03        -2.24253        -2.24253         14.9177         14.9177
            1841     1.64768E+03     1.64768E+03        -4.05731        -4.05731         15.0506         15.0506
            1842     1.64989E+03     1.64989E+03        -6.21042        -6.21042         14.9213         14.9213
            1843     1.65254E+03     1.65254E+03        -8.69858        -8.69858         14.4508         14.4508
            1844     1.65567E+03     1.65567E+03        -11.4872        -11.4872         13.5431         13.5431
            1845     1.65931E+03     1.65931E+03        -14.4950        -14.4950         12.0865         12.0865
            1846     1.66345E+03     1.66345E+03        -17.5767        -17.5767         9.95724         9.95724
            1847     1.66802E+03     1.66802E+03        -20.5019        -20.5019         7.03210         7.03210
            1848     1.67288E+03     1.67288E+03        -22.9432        -22.9432         3.21108         3.21108
            1849     1.67778E+03     1.67778E+03        -24.4603        -24.4603        -1.55374        -1.55374
            1850     1.68236E+03     1.68236E+03        -24.5113        -24.5113        -7.19664        -7.19664
            1851     1.68614E+03     1.68614E+03        -22.4940        -22.4940        -13.4768        -13.4768
            1852     1.63594E+03     1.63594E+03     854.063E-03     854.063E-03     210.528E-03     210.528E-03
            1853     1.63596E+03     1.63596E+03     871.243E-03     871.243E-03     422.166E-03     422.166E-03
            1854     1.63600E+03     1.63600E+03     899.834E-03     899.834E-03     639.887E-03     639.887E-03
            1855     1.63605E+03     1.63605E+03     939.822E-03     939.822E-03     865.577E-03     865.577E-03
            1856     1.63612E+03     1.63612E+03     991.154E-03     991.154E-03         1.10186         1.10186
            1857     1.63620E+03     1.63620E+03         1.05374         1.05374         1.35136         1.35136
            1858     1.63630E+03     1.63630E+03         1.12741         1.12741         1.61666         1.61666
            1859     1.63642E+03     1.63642E+03         1.21195         1.21195         1.90030         1.90030
            1860     1.63656E+03     1.63656E+03         1.30699         1.30699         2.20474         2.20474
            1861     1.63672E+03     1.63672E+03         1.41200         1.41200         2.53235         2.53235
            1862     1.63689E+03     1.63689E+03         1.52627         1.52627         2.88539         2.88539
            1863     1.63709E+03     1.63709E+03         1.64877         1.64877         3.26593         3.26593
            1864     1.63731E+03     1.63731E+03         1.77815         1.77815         3.67579         3.67579
            1865     1.63755E+03     1.63755E+03         1.91262         1.91262         4.11653         4.11653
            1866     1.63782E+03     1.63782E+03         2.04979         2.04979         4.58929         4.58929
            1867     1.63811E+03     1.63811E+03         2.18663         2.18663         5.09475         5.09475
            1868     1.63844E+03     1.63844E+03         2.31923         2.31923         5.63298         5.63298
            1869     1.63879E+03     1.63879E+03         2.44267         2.44267         6.20327         6.20327
            1870     1.63919E+03     1.63919E+03         2.55077         2.55077         6.80401         6.80401
            1871     1.63961E+03     1.63961E+03         2.63589         2.63589         7.43244         7.43244
            1872     1.64009E+03     1.64009E+03         2.68861         2.68861         8.08440         8.08440
            1873     1.64061E+03     1.64061E+03         2.69751         2.69751         8.75411         8.75411
            1874     1.64119E+03     1.64119E+03         2.64886         2.64886         9.43373         9.43373
            1875     1.64183E+03     1.64183E+03         2.52635         2.52635         10.1131         10.1131
            1876     1.64255E+03     1.64255E+03         2.31091         2.31091         10.7790         10.7790
            1877     1.64336E+03     1.64336E+03         1.98061         1.98061         11.4151         11.4151
            1878     1.64428E+03     1.64428E+03         1.51081         1.51081         12.0007         12.0007
            1879     1.64534E+03     1.64534E+03     874.630E-03     874.630E-03         12.5107         12.5107
            1880     1.64655E+03     1.64655E+03     43.8359E-03     43.8359E-03         12.9138         12.9138
            1881     1.64795E+03     1.64795E+03        -1.00939        -1.00939         13.1727         13.1727
            1882     1.64956E+03     1.64956E+03        -2.30986        -2.30986         13.2418         13.2418
            1883     1.65144E+03     1.65144E+03        -3.87532        -3.87532         13.0674         13.0674
            1884     1.65360E+03     1.65360E+03        -5.71067        -5.71067         12.5861         12.5861
            1885     1.65608E+03     1.65608E+03        -7.80033        -7.80033         11.7252         11.7252
            1886     1.65889E+03     1.65889E+03        -10.0979        -10.0979         10.4042         10.4042
            1887     1.66202E+03     1.66202E+03        -12.5147        -12.5147         8.53839         8.53839
            1888     1.66543E+03     1.66543E+03        -14.9057        -14.9057         6.04764         6.04764
            1889     1.66904E+03     1.66904E+03        -17.0603        -17.0603         2.87030         2.87030
            1890     1.67267E+03     1.67267E+03        -18.6918        -18.6918        -1.01756        -1.01756
            1891     1.67610E+03     1.67610E+03        -19.4429        -19.4429        -5.56811        -5.56811
            1892     1.67905E+03     1.67905E+03        -18.9067        -18.9067        -10.6272        -10.6272
            1893     1.68115E+03     1.68115E+03        -16.6757        -16.6757        -15.8873        -15.8873
            1894     1.63600E+03     1.63600E+03     653.589E-03     653.589E-03     193.176E-03     193.176E-03
            1895     1.63603E+03     1.63603E+03     666.973E-03     666.973E-03     387.299E-03     387.299E-03
            1896     1.63608E+03     1.63608E+03     689.259E-03     689.259E-03     587.231E-03     587.231E-03
            1897     1.63615E+03     1.63615E+03     720.431E-03     720.431E-03     794.706E-03     794.706E-03
            1898     1.63625E+03     1.63625E+03     760.450E-03     760.450E-03         1.01222         1.01222
            1899     1.63636E+03     1.63636E+03     809.254E-03     809.254E-03         1.24224         1.24224
            1900     1.63650E+03     1.63650E+03     866.727E-03     866.727E-03         1.48724         1.48724
            1901     1.63667E+03     1.63667E+03     932.691E-03     932.691E-03         1.74961         1.74961
            1902     1.63686E+03     1.63686E+03         1.00687         1.00687         2.03171         2.03171
            1903     1.63707E+03     1.63707E+03         1.08886         1.08886         2.33577         2.33577
            1904     1.63732E+03     1.63732E+03         1.17809         1.17809         2.66392         2.66392
            1905     1.63760E+03     1.63760E+03         1.27375         1.27375         3.01809         3.01809
            1906     1.63791E+03     1.63791E+03         1.37476         1.37476         3.39998         3.39998
            1907     1.63825E+03     1.63825E+03         1.47967         1.47967         3.81099         3.81099
            1908     1.63863E+03     1.63863E+03         1.58656         1.58656         4.25209         4.25209
            1909     1.63905E+03     1.63905E+03         1.69295         1.69295         4.72373         4.72373
            1910     1.63951E+03     1.63951E+03         1.79566         1.79566         5.22570         5.22570
            1911     1.64002E+03     1.64002E+03         1.89063         1.89063         5.75695         5.75695
            1912     1.64057E+03     1.64057E+03         1.97279         1.97279         6.31540         6.31540
            1913     1.64117E+03     1.64117E+03         2.03579         2.03579         6.89768         6.89768
            1914     1.64183E+03     1.64183E+03         2.07185         2.07185         7.49887         7.49887
            1915     1.64255E+03     1.64255E+03         2.07147         2.07147         8.11212         8.11212
            1916     1.64333E+03     1.64333E+03         2.02323         2.02323         8.72833         8.72833
            1917     1.64419E+03     1.64419E+03         1.91358         1.91358         9.33564         9.33564
            1918     1.64512E+03     1.64512E+03         1.72670         1.72670         9.91896         9.91896
            1919     1.64615E+03     1.64615E+03         1.44451         1.44451         10.4595         10.4595
            1920     1.64727E+03     1.64727E+03         1.04683         1.04683         10.9338         10.9338
            1921     1.64851E+03     1.64851E+03     511.923E-03     511.923E-03         11.3138         11.3138
            1922     1.64987E+03     1.64987E+03    -182.500E-03    -182.500E-03         11.5655         11.5655
            1923     1.65138E+03     1.65138E+03        -1.05766        -1.05766         11.6488         11.6488
            1924     1.65306E+03     1.65306E+03        -2.13111        -2.13111         11.5170         11.5170
            1925     1.65491E+03     1.65491E+03        -3.41303        -3.41303         11.1170         11.1170
            1926     1.65694E+03     1.65694E+03        -4.90119        -4.90119         10.3897         10.3897
            1927     1.65917E+03     1.65917E+03        -6.57413        -6.57413         9.27217         9.27217
            1928     1.66159E+03     1.66159E+03        -8.38353        -8.38353         7.70076         7.70076
            1929     1.66415E+03     1.66415E+03        -10.2446        -10.2446         5.61756         5.61756
            1930     1.66680E+03     1.66680E+03        -12.0288        -12.0288         2.98008         2.98008
            1931     1.66944E+03     1.66944E+03        -13.5557        -13.5557    -225.889E-03    -225.889E-03
            1932     1.67192E+03     1.67192E+03        -14.5944        -14.5944        -3.96604        -3.96604
            1933     1.67406E+03     1.67406E+03        -14.8717        -14.8717        -8.13688        -8.13688
            1934     1.67564E+03     1.67564E+03        -14.0976        -14.0976        -12.5386        -12.5386
            1935     1.67643E+03     1.67643E+03        -12.0142        -12.0142        -16.8564        -16.8564
            1936     1.63601E+03     1.63601E+03     472.567E-03     472.567E-03     170.643E-03     170.643E-03
            1937     1.63605E+03     1.63605E+03     482.422E-03     482.422E-03     342.016E-03     342.016E-03
            1938     1.63612E+03     1.63612E+03     498.841E-03     498.841E-03     518.758E-03     518.758E-03
            1939     1.63621E+03     1.63621E+03     521.803E-03     521.803E-03     702.401E-03     702.401E-03
            1940     1.63632E+03     1.63632E+03     551.289E-03     551.289E-03     895.224E-03     895.224E-03
            1941     1.63647E+03     1.63647E+03     587.254E-03     587.254E-03         1.09950         1.09950
            1942     1.63665E+03     1.63665E+03     629.625E-03     629.625E-03         1.31750         1.31750
            1943     1.63685E+03     1.63685E+03     678.277E-03     678.277E-03         1.55141         1.55141
            1944     1.63709E+03     1.63709E+03     733.014E-03     733.014E-03         1.80340         1.80340
            1945     1.63737E+03     1.63737E+03     793.540E-03     793.540E-03         2.07553         2.07553
            1946     1.63768E+03     1.63768E+03     859.433E-03     859.433E-03         2.36976         2.36976
            1947     1.63804E+03     1.63804E+03     930.100E-03     930.100E-03         2.68787         2.68787
            1948     1.63843E+03     1.63843E+03         1.00473         1.00473         3.03141         3.03141
            1949     1.63887E+03     1.63887E+03         1.08222         1.08222         3.40161         3.40161
            1950     1.63936E+03     1.63936E+03         1.16114         1.16114         3.79933         3.79933
            1951     1.63991E+03     1.63991E+03         1.23959         1.23959         4.22487         4.22487
            1952     1.64050E+03     1.64050E+03         1.31514         1.31514         4.67789         4.67789
            1953     1.64116E+03     1.64116E+03         1.38467         1.38467         5.15717         5.15717
            1954     1.64187E+03     1.64187E+03         1.44427         1.44427         5.66045         5.66045
            1955     1.64265E+03     1.64265E+03         1.48903         1.48903         6.18413         6.18413
            1956     1.64349E+03     1.64349E+03         1.51291         1.51291         6.72297         6.72297
            1957     1.64441E+03     1.64441E+03         1.50853         1.50853         7.26976         7.26976
            1958     1.64540E+03     1.64540E+03         1.46698         1.46698         7.81488         7.81488
            1959     1.64647E+03     1.64647E+03         1.37773         1.37773         8.34585         8.34585
            1960     1.64762E+03     1.64762E+03         1.22845         1.22845         8.84684         8.84684
            1961     1.64885E+03     1.64885E+03         1.00513         1.00513         9.29811         9.29811
            1962     1.65017E+03     1.65017E+03     692.195E-03     692.195E-03         9.67546         9.67546
            1963     1.65159E+03     1.65159E+03     273.086E-03     273.086E-03         9.94976         9.94976
            1964     1.65310E+03     1.65310E+03    -268.919E-03    -268.919E-03         10.0865         10.0865
            1965     1.65470E+03     1.65470E+03    -949.204E-03    -949.204E-03         10.0458         10.0458
            1966     1.65641E+03     1.65641E+03        -1.77962        -1.77962         9.78218         9.78218
            1967     1.65821E+03     1.65821E+03        -2.76540        -2.76540         9.24590         9.24590
            1968     1.66010E+03     1.66010E+03        -3.90095        -3.90095         8.38425         8.38425
            1969     1.66205E+03     1.66205E+03        -5.16480        -5.16480         7.14473         7.14473
            1970     1.66404E+03     1.66404E+03        -6.51334        -6.51334         5.47967         5.47967
            1971     1.66602E+03     1.66602E+03        -7.87508        -7.87508         3.35344         3.35344
            1972     1.66792E+03     1.66792E+03        -9.14477        -9.14477     751.619E-03     751.619E-03
            1973     1.66964E+03     1.66964E+03        -10.1814        -10.1814        -2.30579        -2.30579
            1974     1.67107E+03     1.67107E+03        -10.8106        -10.8106        -5.75072        -5.75072
            1975     1.67206E+03     1.67206E+03        -10.8356        -10.8356        -9.45029        -9.45029
            1976     1.67246E+03     1.67246E+03        -10.0614        -10.0614        -13.1949        -13.1949
            1977     1.67216E+03     1.67216E+03        -8.32921        -8.32921        -16.6923        -16.6923
            1978     1.63597E+03     1.63597E+03     315.889E-03     315.889E-03     143.359E-03     143.359E-03
            1979     1.63602E+03     1.63602E+03     322.593E-03     322.593E-03     287.151E-03     287.151E-03
            1980     1.63609E+03     1.63609E+03     333.767E-03     333.767E-03     435.723E-03     435.723E-03
            1981     1.63620E+03     1.63620E+03     349.392E-03     349.392E-03     590.308E-03     590.308E-03
            1982     1.63634E+03     1.63634E+03     369.447E-03     369.447E-03     752.908E-03     752.908E-03
            1983     1.63651E+03     1.63651E+03     393.918E-03     393.918E-03     925.523E-03     925.523E-03
            1984     1.63672E+03     1.63672E+03     422.764E-03     422.764E-03         1.11012         1.11012
            1985     1.63697E+03     1.63697E+03     455.901E-03     455.901E-03         1.30864         1.30864
            1986     1.63725E+03     1.63725E+03     493.203E-03     493.203E-03         1.52300         1.52300
            1987     1.63759E+03     1.63759E+03     534.472E-03     534.472E-03         1.75501         1.75501
            1988     1.63796E+03     1.63796E+03     579.425E-03     579.425E-03         2.00641         2.00641
            1989     1.63839E+03     1.63839E+03     627.659E-03     627.659E-03         2.27878         2.27878
            1990     1.63887E+03     1.63887E+03     678.618E-03     678.618E-03         2.57349         2.57349
            1991     1.63940E+03     1.63940E+03     731.549E-03     731.549E-03         2.89166         2.89166
            1992     1.64000E+03     1.64000E+03     785.450E-03     785.450E-03         3.23401         3.23401
            1993     1.64066E+03     1.64066E+03     839.005E-03     839.005E-03         3.60080         3.60080
            1994     1.64139E+03     1.64139E+03     890.510E-03     890.510E-03         3.99166         3.99166
            1995     1.64219E+03     1.64219E+03     937.778E-03     937.778E-03         4.40544         4.40544
            1996     1.64306E+03     1.64306E+03     978.042E-03     978.042E-03         4.83994         4.83994
            1997     1.64401E+03     1.64401E+03         1.00783         1.00783         5.29174         5.29174
            1998     1.64504E+03     1.64504E+03         1.02286         1.02286         5.75583         5.75583
            1999     1.64616E+03     1.64616E+03         1.01785         1.01785         6.22529         6.22529
            2000     1.64736E+03     1.64736E+03     986.474E-03     986.474E-03         6.69090         6.69090
            2001     1.64864E+03     1.64864E+03     921.176E-03     921.176E-03         7.14065         7.14065
            2002     1.65001E+03     1.65001E+03     813.170E-03     813.170E-03         7.55929         7.55929
            2003     1.65147E+03     1.65147E+03     652.437E-03     652.437E-03         7.92784         7.92784
            2004     1.65300E+03     1.65300E+03     427.923E-03     427.923E-03         8.22307         8.22307
            2005     1.65460E+03     1.65460E+03     127.919E-03     127.919E-03         8.41715         8.41715
            2006     1.65627E+03     1.65627E+03    -259.227E-03    -259.227E-03         8.47740         8.47740
            2007     1.65798E+03     1.65798E+03    -743.970E-03    -743.970E-03         8.36642         8.36642
            2008     1.65973E+03     1.65973E+03        -1.33391        -1.33391         8.04256         8.04256
            2009     1.66150E+03     1.66150E+03        -2.03140        -2.03140         7.46124         7.46124
            2010     1.66325E+03     1.66325E+03        -2.83058        -2.83058         6.57712         6.57712
            2011     1.66494E+03     1.66494E+03        -3.71352        -3.71352         5.34769         5.34769
            2012     1.66653E+03     1.66653E+03        -4.64632        -4.64632         3.73837         3.73837
            2013     1.66796E+03     1.66796E+03        -5.57472        -5.57472         1.72939         1.72939
            2014     1.66915E+03     1.66915E+03        -6.42154        -6.42154    -675.038E-03    -675.038E-03
            2015     1.67002E+03     1.67002E+03        -7.08572        -7.08572        -3.43683        -3.43683
            2016     1.67046E+03     1.67046E+03        -7.44599        -7.44599        -6.47238        -6.47238
            2017     1.67040E+03     1.67040E+03        -7.37084        -7.37084        -9.64343        -9.64343
            2018     1.66974E+03     1.66974E+03        -6.73520        -6.73520        -12.7519        -12.7519
            2019     1.66842E+03     1.66842E+03        -5.44674        -5.44674        -15.5420        -15.5420
            2020     1.63587E+03     1.63587E+03     187.944E-03     187.944E-03     111.893E-03     111.893E-03
            2021     1.63592E+03     1.63592E+03     192.004E-03     192.004E-03     223.876E-03     223.876E-03
            2022     1.63600E+03     1.63600E+03     198.768E-03     198.768E-03     339.837E-03     339.837E-03
            2023     1.63612E+03     1.63612E+03     208.181E-03     208.181E-03     460.691E-03     460.691E-03
            2024     1.63628E+03     1.63628E+03     220.263E-03     220.263E-03     588.085E-03     588.085E-03
            2025     1.63648E+03     1.63648E+03     235.022E-03     235.022E-03     723.621E-03     723.621E-03
            2026     1.63672E+03     1.63672E+03     252.424E-03     252.424E-03     868.915E-03     868.915E-03
            2027     1.63700E+03     1.63700E+03     272.426E-03     272.426E-03         1.02557         1.02557
            2028     1.63733E+03     1.63733E+03     294.952E-03     294.952E-03         1.19514         1.19514
            2029     1.63771E+03     1.63771E+03     319.887E-03     319.887E-03         1.37916         1.37916
            2030     1.63814E+03     1.63814E+03     347.060E-03     347.060E-03         1.57905         1.57905
            2031     1.63864E+03     1.63864E+03     376.230E-03     376.230E-03         1.79615         1.79615
            2032     1.63919E+03     1.63919E+03     407.061E-03     407.061E-03         2.03162         2.03162
            2033     1.63981E+03     1.63981E+03     439.096E-03     439.096E-03         2.28640         2.28640
            2034     1.64051E+03     1.64051E+03     471.721E-03     471.721E-03         2.56113         2.56113
            2035     1.64128E+03     1.64128E+03     504.130E-03     504.130E-03         2.85605         2.85605
            2036     1.64213E+03     1.64213E+03     535.269E-03     535.269E-03         3.17090         3.17090
            2037     1.64307E+03     1.64307E+03     563.787E-03     563.787E-03         3.50469         3.50469
            2038     1.64410E+03     1.64410E+03     587.964E-03     587.964E-03         3.85564         3.85564
            2039     1.64523E+03     1.64523E+03     605.637E-03     605.637E-03         4.22082         4.22082
            2040     1.64645E+03     1.64645E+03     614.118E-03     614.118E-03         4.59597         4.59597
            2041     1.64777E+03     1.64777E+03     610.110E-03     610.110E-03         4.97517         4.97517
            2042     1.64918E+03     1.64918E+03     589.619E-03     589.619E-03         5.35046         5.35046
            2043     1.65070E+03     1.65070E+03     547.896E-03     547.896E-03         5.71142         5.71142
            2044     1.65230E+03     1.65230E+03     479.391E-03     479.391E-03         6.04481         6.04481
            2045     1.65399E+03     1.65399E+03     377.789E-03     377.789E-03         6.33405         6.33405
            2046     1.65575E+03     1.65575E+03     236.118E-03     236.118E-03         6.55888         6.55888
            2047     1.65757E+03     1.65757E+03     47.0266E-03     47.0266E-03         6.69501         6.69501
            2048     1.65943E+03     1.65943E+03    -196.749E-03    -196.749E-03         6.71404         6.71404
            2049     1.66129E+03     1.66129E+03    -501.635E-03    -501.635E-03         6.58358         6.58358
            2050     1.66314E+03     1.66314E+03    -872.085E-03    -872.085E-03         6.26799         6.26799
            2051     1.66492E+03     1.66492E+03        -1.30910        -1.30910         5.72971         5.72971
            2052     1.66658E+03     1.66658E+03        -1.80816        -1.80816         4.93150         4.93150
            2053     1.66808E+03     1.66808E+03        -2.35702        -2.35702         3.83998         3.83998
            2054     1.66934E+03     1.66934E+03        -2.93293        -2.93293         2.43030         2.43030
            2055     1.67028E+03     1.67028E+03        -3.50052        -3.50052     692.608E-03     692.608E-03
            2056     1.67083E+03     1.67083E+03        -4.01001        -4.01001        -1.36072        -1.36072
            2057     1.67092E+03     1.67092E+03        -4.39750        -4.39750        -3.68645        -3.68645
            2058     1.67045E+03     1.67045E+03        -4.58799        -4.58799        -6.20302        -6.20302
            2059     1.66937E+03     1.66937E+03        -4.50191        -4.50191        -8.78447        -8.78447
            2060     1.66766E+03     1.66766E+03        -4.06639        -4.06639        -11.2594        -11.2594
            2061     1.66531E+03     1.66531E+03        -3.22964        -3.22964        -13.4171        -13.4171
            2062     1.63569E+03     1.63569E+03     92.4949E-03     92.4949E-03     77.0367E-03     77.0367E-03
            2063     1.63575E+03     1.63575E+03     94.5710E-03     94.5710E-03     153.625E-03     153.625E-03
            2064     1.63584E+03     1.63584E+03     97.9080E-03     97.9080E-03     233.286E-03     233.286E-03
            2065     1.63597E+03     1.63597E+03     102.523E-03     102.523E-03     316.507E-03     316.507E-03
            2066     1.63615E+03     1.63615E+03     108.482E-03     108.482E-03     404.401E-03     404.401E-03
            2067     1.63636E+03     1.63636E+03     115.762E-03     115.762E-03     498.132E-03     498.132E-03
            2068     1.63662E+03     1.63662E+03     124.349E-03     124.349E-03     598.872E-03     598.872E-03
            2069     1.63694E+03     1.63694E+03     134.220E-03     134.220E-03     707.780E-03     707.780E-03
            2070     1.63730E+03     1.63730E+03     145.336E-03     145.336E-03     826.001E-03     826.001E-03
            2071     1.63772E+03     1.63772E+03     157.642E-03     157.642E-03     954.646E-03     954.646E-03
            2072     1.63821E+03     1.63821E+03     171.053E-03     171.053E-03         1.09478         1.09478
            2073     1.63876E+03     1.63876E+03     185.448E-03     185.448E-03         1.24739         1.24739
            2074     1.63938E+03     1.63938E+03     200.658E-03     200.658E-03         1.41335         1.41335
            2075     1.64008E+03     1.64008E+03     216.456E-03     216.456E-03         1.59340         1.59340
            2076     1.64087E+03     1.64087E+03     232.531E-03     232.531E-03         1.78804         1.78804
            2077     1.64174E+03     1.64174E+03     248.478E-03     248.478E-03         1.99752         1.99752
            2078     1.64272E+03     1.64272E+03     263.764E-03     263.764E-03         2.22168         2.22168
            2079     1.64379E+03     1.64379E+03     277.705E-03     277.705E-03         2.45989         2.45989
            2080     1.64497E+03     1.64497E+03     289.427E-03     289.427E-03         2.71090         2.71090
            2081     1.64626E+03     1.64626E+03     297.828E-03     297.828E-03         2.97262         2.97262
            2082     1.64767E+03     1.64767E+03     301.538E-03     301.538E-03         3.24197         3.24197
            2083     1.64920E+03     1.64920E+03     298.867E-03     298.867E-03         3.51462         3.51462
            2084     1.65084E+03     1.65084E+03     287.772E-03     287.772E-03         3.78469         3.78469
            2085     1.65259E+03     1.65259E+03     265.809E-03     265.809E-03         4.04444         4.04444
            2086     1.65445E+03     1.65445E+03     230.127E-03     230.127E-03         4.28397         4.28397
            2087     1.65640E+03     1.65640E+03     177.468E-03     177.468E-03         4.49081         4.49081
            2088     1.65843E+03     1.65843E+03     104.248E-03     104.248E-03         4.64966         4.64966
            2089     1.66051E+03     1.66051E+03     6.67751E-03     6.67751E-03         4.74213         4.74213
            2090     1.66262E+03     1.66262E+03    -118.968E-03    -118.968E-03         4.74662         4.74662
            2091     1.66470E+03     1.66470E+03    -275.953E-03    -275.953E-03         4.63858         4.63858
            2092     1.66672E+03     1.66672E+03    -466.501E-03    -466.501E-03         4.39100         4.39100
            2093     1.66861E+03     1.66861E+03    -690.957E-03    -690.957E-03         3.97554         3.97554
            2094     1.67030E+03     1.67030E+03    -946.802E-03    -946.802E-03         3.36446         3.36446
            2095     1.67171E+03     1.67171E+03        -1.22734        -1.22734         2.53333         2.53333
            2096     1.67275E+03     1.67275E+03        -1.52050        -1.52050         1.46493         1.46493
            2097     1.67332E+03     1.67332E+03        -1.80753        -1.80753     154.043E-03     154.043E-03
            2098     1.67334E+03     1.67334E+03        -2.06240        -2.06240        -1.38672        -1.38672
            2099     1.67272E+03     1.67272E+03        -2.25203        -2.25203        -3.12105        -3.12105
            2100     1.67138E+03     1.67138E+03        -2.33794        -2.33794        -4.98350        -4.98350
            2101     1.66930E+03     1.66930E+03        -2.28033        -2.28033        -6.87627        -6.87627
            2102     1.66647E+03     1.66647E+03        -2.04323        -2.04323        -8.66946        -8.66946
            2103     1.66295E+03     1.66295E+03        -1.60109        -1.60109        -10.2052        -10.2052
            2104     1.63545E+03     1.63545E+03     32.4406E-03     32.4406E-03     39.6753E-03     39.6753E-03
            2105     1.63550E+03     1.63550E+03     33.2360E-03     33.2360E-03     78.5201E-03     78.5201E-03
            2106     1.63560E+03     1.63560E+03     34.3345E-03     34.3345E-03     119.368E-03     119.368E-03
            2107     1.63574E+03     1.63574E+03     35.9151E-03     35.9151E-03     162.083E-03     162.083E-03
            2108     1.63593E+03     1.63593E+03     37.9718E-03     37.9718E-03     207.262E-03     207.262E-03
            2109     1.63616E+03     1.63616E+03     40.4779E-03     40.4779E-03     255.545E-03     255.545E-03
            2110     1.63644E+03     1.63644E+03     43.4369E-03     43.4369E-03     307.557E-03     307.557E-03
            2111     1.63677E+03     1.63677E+03     46.8339E-03     46.8339E-03     363.923E-03     363.923E-03
            2112     1.63716E+03     1.63716E+03     50.6582E-03     50.6582E-03     425.258E-03     425.258E-03
            2113     1.63761E+03     1.63761E+03     54.8867E-03     54.8867E-03     492.168E-03     492.168E-03
            2114     1.63814E+03     1.63814E+03     59.4899E-03     59.4899E-03     565.233E-03     565.233E-03
            2115     1.63874E+03     1.63874E+03     64.4234E-03     64.4234E-03     644.999E-03     644.999E-03
            2116     1.63942E+03     1.63942E+03     69.6270E-03     69.6270E-03     731.957E-03     731.957E-03
            2117     1.64019E+03     1.64019E+03     75.0180E-03     75.0180E-03     826.521E-03     826.521E-03
            2118     1.64105E+03     1.64105E+03     80.4864E-03     80.4864E-03     928.999E-03     928.999E-03
            2119     1.64202E+03     1.64202E+03     85.8863E-03     85.8863E-03         1.03955         1.03955
            2120     1.64310E+03     1.64310E+03     91.0279E-03     91.0279E-03         1.15814         1.15814
            2121     1.64430E+03     1.64430E+03     95.6663E-03     95.6663E-03         1.28447         1.28447
            2122     1.64562E+03     1.64562E+03     99.4893E-03     99.4893E-03         1.41791         1.41791
            2123     1.64708E+03     1.64708E+03     102.104E-03     102.104E-03         1.55739         1.55739
            2124     1.64867E+03     1.64867E+03     103.019E-03     103.019E-03         1.70129         1.70129
            2125     1.65041E+03     1.65041E+03     101.631E-03     101.631E-03         1.84732         1.84732
            2126     1.65228E+03     1.65228E+03     97.2075E-03     97.2075E-03         1.99234         1.99234
            2127     1.65429E+03     1.65429E+03     88.8744E-03     88.8744E-03         2.13217         2.13217
            2128     1.65643E+03     1.65643E+03     75.6066E-03     75.6066E-03         2.26143         2.26143
            2129     1.65868E+03     1.65868E+03     56.2398E-03     56.2398E-03         2.37331         2.37331
            2130     1.66102E+03     1.66102E+03     29.4826E-03     29.4826E-03         2.45941         2.45941
            2131     1.66343E+03     1.66343E+03    -6.01655E-03    -6.01655E-03         2.50957         2.50957
            2132     1.66587E+03     1.66587E+03    -51.5947E-03    -51.5947E-03         2.51183         2.51183
            2133     1.66827E+03     1.66827E+03    -108.408E-03    -108.408E-03         2.45251         2.45251
            2134     1.67058E+03     1.67058E+03    -177.233E-03    -177.233E-03         2.31654         2.31654
            2135     1.67272E+03     1.67272E+03    -258.158E-03    -258.158E-03         2.08810         2.08810
            2136     1.67458E+03     1.67458E+03    -350.199E-03    -350.199E-03         1.75163         1.75163
            2137     1.67607E+03     1.67607E+03    -450.887E-03    -450.887E-03         1.29352         1.29352
            2138     1.67706E+03     1.67706E+03    -555.725E-03    -555.725E-03     704.172E-03     704.172E-03
            2139     1.67743E+03     1.67743E+03    -657.870E-03    -657.870E-03    -19.0945E-03    -19.0945E-03
            2140     1.67706E+03     1.67706E+03    -747.784E-03    -747.784E-03    -868.950E-03    -868.950E-03
            2141     1.67584E+03     1.67584E+03    -813.466E-03    -813.466E-03        -1.82464        -1.82464
            2142     1.67368E+03     1.67368E+03    -841.093E-03    -841.093E-03        -2.84912        -2.84912
            2143     1.67055E+03     1.67055E+03    -816.337E-03    -816.337E-03        -3.88759        -3.88759
            2144     1.66648E+03     1.66648E+03    -727.034E-03    -727.034E-03        -4.86773        -4.86773
            2145     1.66154E+03     1.66154E+03    -563.599E-03    -563.599E-03        -5.70144        -5.70144
            2146     1.54916E+03     1.54916E+03         447.290         447.290        -119.883        -119.883
            2147     1.56595E+03     1.56595E+03         406.793         406.793        -119.037        -119.037
            2148     1.58224E+03     1.58224E+03         366.197         366.197        -114.938        -114.938
            2149     1.59746E+03     1.59746E+03         326.513         326.513        -108.789        -108.789
            2150     1.61125E+03     1.61125E+03         288.491         288.491        -100.894        -100.894
            2151     1.62333E+03     1.62333E+03         252.741         252.741        -91.5813        -91.5813
            2152     1.63354E+03     1.63354E+03         219.734         219.734        -81.3294        -81.3294
            2153     1.64189E+03     1.64189E+03         189.707         189.707        -70.5823        -70.5823
            2154     1.64843E+03     1.64843E+03         162.770         162.770        -59.7639        -59.7639
            2155     1.65335E+03     1.65335E+03         138.861         138.861        -49.2350        -49.2350
            2156     1.65683E+03     1.65683E+03         117.835         117.835        -39.2460        -39.2460
            2157     1.65912E+03     1.65912E+03         99.4834         99.4834        -29.9957        -29.9957
            2158     1.66039E+03     1.66039E+03         83.5602         83.5602        -21.5727        -21.5727
            2159     1.66086E+03     1.66086E+03         69.8255         69.8255        -14.0361        -14.0361
            2160     1.66068E+03     1.66068E+03         58.0269         58.0269        -7.37274        -7.37274
            2161     1.66001E+03     1.66001E+03         47.9454         47.9454        -1.55697        -1.55697
            2162     1.65895E+03     1.65895E+03         39.3619         39.3619         3.47345         3.47345
            2163     1.65760E+03     1.65760E+03         32.0917         32.0917         7.78315         7.78315
            2164     1.65604E+03     1.65604E+03         25.9554         25.9554         11.4508         11.4508
            2165     1.65433E+03     1.65433E+03         20.8008         20.8008         14.5523         14.5523
            2166     1.65253E+03     1.65253E+03         16.4823         16.4823         17.1659         17.1659
            2167     1.65067E+03     1.65067E+03         12.8734         12.8734         19.3649         19.3649
            2168     1.64879E+03     1.64879E+03         9.85354         9.85354         21.2201         21.2201
            2169     1.64692E+03     1.64692E+03         7.31467         7.31467         22.7969         22.7969
            2170     1.64508E+03     1.64508E+03         5.15280         5.15280         24.1570         24.1570
            2171     1.64332E+03     1.64332E+03         3.27114         3.27114         25.3576         25.3576
            2172     1.64165E+03     1.64165E+03         1.57469         1.57469         26.4521         26.4521
            2173     1.64012E+03     1.64012E+03    -28.7468E-03    -28.7468E-03         27.4903         27.4903
            2174     1.63877E+03     1.63877E+03        -1.63224        -1.63224         28.5189         28.5189
            2175     1.63766E+03     1.63766E+03        -3.33006        -3.33006         29.5808         29.5808
            2176     1.63685E+03     1.63685E+03        -5.22020        -5.22020         30.7140         30.7140
            2177     1.63644E+03     1.63644E+03        -7.40557        -7.40557         31.9494         31.9494
            2178     1.63655E+03     1.63655E+03        -9.99486        -9.99486         33.3060         33.3060
            2179     1.63733E+03     1.63733E+03        -13.1035        -13.1035         34.7832         34.7832
            2180     1.63898E+03     1.63898E+03        -16.8490        -16.8490         36.3474         36.3474
            2181     1.64174E+03     1.64174E+03        -21.3468        -21.3468         37.9131         37.9131
            2182     1.64592E+03     1.64592E+03        -26.6865        -26.6865         39.3104         39.3104
            2183     1.65185E+03     1.65185E+03        -32.9010        -32.9010         40.2499         40.2499
            2184     1.65990E+03     1.65990E+03        -39.8832        -39.8832         40.2656         40.2656
            2185     1.67032E+03     1.67032E+03        -47.2772        -47.2772         38.7001         38.7001
            2186     1.68313E+03     1.68313E+03        -54.2921        -54.2921         34.7070         34.7070
            2187     1.69788E+03     1.69788E+03        -59.6331        -59.6331         27.5002         27.5002
            2188     1.55371E+03     1.55371E+03         446.285         446.285        -137.047        -137.047
            2189     1.57135E+03     1.57135E+03         403.445         403.445        -135.959        -135.959
            2190     1.58825E+03     1.58825E+03         360.515         360.515        -130.878        -130.878
            2191     1.60386E+03     1.60386E+03         318.690         318.690        -123.342        -123.342
            2192     1.61770E+03     1.61770E+03         278.903         278.903        -113.639        -113.639
            2193     1.62945E+03     1.62945E+03         241.918         241.918        -102.361        -102.361
            2194     1.63905E+03     1.63905E+03         208.186         208.186        -90.0704        -90.0704
            2195     1.64648E+03     1.64648E+03         177.970         177.970        -77.3766        -77.3766
            2196     1.65200E+03     1.65200E+03         151.252         151.252        -64.8041        -64.8041
            2197     1.65580E+03     1.65580E+03         127.895         127.895        -52.7351        -52.7351
            2198     1.65820E+03     1.65820E+03         107.645         107.645        -41.4803        -41.4803
            2199     1.65947E+03     1.65947E+03         90.1920         90.1920        -31.1822        -31.1822
            2200     1.65986E+03     1.65986E+03         75.2366         75.2366        -21.9471        -21.9471
            2201     1.65958E+03     1.65958E+03         62.4596         62.4596        -13.7689        -13.7689
            2202     1.65880E+03     1.65880E+03         51.5960         51.5960        -6.62925        -6.62925
            2203     1.65768E+03     1.65768E+03         42.3789         42.3789    -454.232E-03    -454.232E-03
            2204     1.65631E+03     1.65631E+03         34.5943         34.5943         4.83034         4.83034
            2205     1.65479E+03     1.65479E+03         28.0340         28.0340         9.31921         9.31921
            2206     1.65317E+03     1.65317E+03         22.5295         22.5295         13.1019         13.1019
            2207     1.65151E+03     1.65151E+03         17.9198         17.9198         16.2714         16.2714
            2208     1.64985E+03     1.64985E+03         14.0706         14.0706         18.9133         18.9133
            2209     1.64821E+03     1.64821E+03         10.8543         10.8543         21.1095         21.1095
            2210     1.64663E+03     1.64663E+03         8.16008         8.16008         22.9341         22.9341
            2211     1.64511E+03     1.64511E+03         5.88210         5.88210         24.4555         24.4555
            2212     1.64370E+03     1.64370E+03         3.92419         3.92419         25.7348         25.7348
            2213     1.64240E+03     1.64240E+03         2.19276         2.19276         26.8274         26.8274
            2214     1.64126E+03     1.64126E+03     598.945E-03     598.945E-03         27.7820         27.7820
            2215     1.64030E+03     1.64030E+03    -945.807E-03    -945.807E-03         28.6418         28.6418
            2216     1.63957E+03     1.63957E+03        -2.52901        -2.52901         29.4435         29.4435
            2217     1.63912E+03     1.63912E+03        -4.23959        -4.23959         30.2169         30.2169
            2218     1.63903E+03     1.63903E+03        -6.16761        -6.16761         30.9831         30.9831
            2219     1.63939E+03     1.63939E+03        -8.40456        -8.40456         31.7510         31.7510
            2220     1.64031E+03     1.64031E+03        -11.0421        -11.0421         32.5126         32.5126
            2221     1.64192E+03     1.64192E+03        -14.1675        -14.1675         33.2341         33.2341
            2222     1.64440E+03     1.64440E+03        -17.8579        -17.8579         33.8454         33.8454
            2223     1.64793E+03     1.64793E+03        -22.1634        -22.1634         34.2213         34.2213
            2224     1.65273E+03     1.65273E+03        -27.0844        -27.0844         34.1640         34.1640
            2225     1.65898E+03     1.65898E+03        -32.5257        -32.5257         33.3761         33.3761
            2226     1.66683E+03     1.66683E+03        -38.2334        -38.2334         31.4564         31.4564
            2227     1.67627E+03     1.67627E+03        -43.7083        -43.7083         27.9013         27.9013
            2228     1.68703E+03     1.68703E+03        -48.1238        -48.1238         22.2103         22.2103
            2229     1.69862E+03     1.69862E+03        -50.3752        -50.3752         13.9305         13.9305
            2230     1.55968E+03     1.55968E+03         445.060         445.060        -155.156        -155.156
            2231     1.57818E+03     1.57818E+03         399.348         399.348        -153.650        -153.650
            2232     1.59587E+03     1.59587E+03         353.477         353.477        -147.413        -147.413
            2233     1.61182E+03     1.61182E+03         309.031         309.031        -138.025        -138.025
            2234     1.62551E+03     1.62551E+03         267.217         267.217        -126.163        -126.163
            2235     1.63670E+03     1.63670E+03         228.858         228.858        -112.479        -112.479
            2236     1.64525E+03     1.64525E+03         194.518         194.518        -97.8447        -97.8447
            2237     1.65145E+03     1.65145E+03         164.287         164.287        -83.0140        -83.0140
            2238     1.65552E+03     1.65552E+03         138.072         138.072        -68.5754        -68.5754
            2239     1.65793E+03     1.65793E+03         115.560         115.560        -55.0138        -55.0138
            2240     1.65898E+03     1.65898E+03         96.3524         96.3524        -42.5523        -42.5523
            2241     1.65907E+03     1.65907E+03         80.0601         80.0601        -31.3694        -31.3694
            2242     1.65845E+03     1.65845E+03         66.2630         66.2630        -21.4650        -21.4650
            2243     1.65736E+03     1.65736E+03         54.6291         54.6291        -12.8303        -12.8303
            2244     1.65597E+03     1.65597E+03         44.8210         44.8210        -5.37211        -5.37211
            2245     1.65441E+03     1.65441E+03         36.5844         36.5844     997.726E-03     997.726E-03
            2246     1.65277E+03     1.65277E+03         29.6704         29.6704         6.39672         6.39672
            2247     1.65112E+03     1.65112E+03         23.8887         23.8887         10.9331         10.9331
            2248     1.64951E+03     1.64951E+03         19.0578         19.0578         14.7190         14.7190
            2249     1.64796E+03     1.64796E+03         15.0334         15.0334         17.8565         17.8565
            2250     1.64650E+03     1.64650E+03         11.6793         11.6793         20.4416         20.4416
            2251     1.64515E+03     1.64515E+03         8.88185         8.88185         22.5603         22.5603
            2252     1.64391E+03     1.64391E+03         6.53326         6.53326         24.2905         24.2905
            2253     1.64281E+03     1.64281E+03         4.53881         4.53881         25.7002         25.7002
            2254     1.64186E+03     1.64186E+03         2.80714         2.80714         26.8493         26.8493
            2255     1.64107E+03     1.64107E+03         1.25369         1.25369         27.7891         27.7891
            2256     1.64046E+03     1.64046E+03    -204.867E-03    -204.867E-03         28.5629         28.5629
            2257     1.64007E+03     1.64007E+03        -1.64906        -1.64906         29.2057         29.2057
            2258     1.63994E+03     1.63994E+03        -3.15950        -3.15950         29.7441         29.7441
            2259     1.64012E+03     1.64012E+03        -4.81584        -4.81584         30.1951         30.1951
            2260     1.64067E+03     1.64067E+03        -6.69714        -6.69714         30.5641         30.5641
            2261     1.64167E+03     1.64167E+03        -8.87983        -8.87983         30.8422         30.8422
            2262     1.64321E+03     1.64321E+03        -11.4342        -11.4342         31.0007         31.0007
            2263     1.64542E+03     1.64542E+03        -14.4185        -14.4185         30.9854         30.9854
            2264     1.64841E+03     1.64841E+03        -17.8673        -17.8673         30.7062         30.7062
            2265     1.65232E+03     1.65232E+03        -21.7754        -21.7754         30.0288         30.0288
            2266     1.65725E+03     1.65725E+03        -26.0704        -26.0704         28.7617         28.7617
            2267     1.66328E+03     1.66328E+03        -30.5750        -30.5750         26.6552         26.6552
            2268     1.67040E+03     1.67040E+03        -34.9616        -34.9616         23.4052         23.4052
            2269     1.67843E+03     1.67843E+03        -38.6957        -38.6957         18.6979         18.6979
            2270     1.68704E+03     1.68704E+03        -41.0380        -41.0380         12.2641         12.2641
            2271     1.69562E+03     1.69562E+03        -40.9481        -40.9481         3.91700         3.91700
            2272     1.56729E+03     1.56729E+03         443.659         443.659        -174.343        -174.343
            2273     1.58709E+03     1.58709E+03         394.213         394.213        -172.367        -172.367
            2274     1.60550E+03     1.60550E+03         344.677         344.677        -164.427        -164.427
            2275     1.62168E+03     1.62168E+03         297.072         297.072        -152.788        -152.788
            2276     1.63500E+03     1.63500E+03         252.877         252.877        -138.079        -138.079
            2277     1.64504E+03     1.64504E+03         213.211         213.211        -121.530        -121.530
            2278     1.65214E+03     1.65214E+03         178.420         178.420        -104.197        -104.197
            2279     1.65647E+03     1.65647E+03         148.558         148.558        -87.0120        -87.0120
            2280     1.65872E+03     1.65872E+03         123.238         123.238        -70.7408        -70.7408
            2281     1.65931E+03     1.65931E+03         101.940         101.940        -55.7342        -55.7342
            2282     1.65879E+03     1.65879E+03         84.1363         84.1363        -42.2874        -42.2874
            2283     1.65753E+03     1.65753E+03         69.2506         69.2506        -30.4004        -30.4004
            2284     1.65583E+03     1.65583E+03         56.8543         56.8543        -20.0758        -20.0758
            2285     1.65391E+03     1.65391E+03         46.5046         46.5046        -11.1874        -11.1874
            2286     1.65193E+03     1.65193E+03         37.8920         37.8920        -3.62429        -3.62429
            2287     1.64998E+03     1.64998E+03         30.7097         30.7097         2.76448         2.76448
            2288     1.64814E+03     1.64814E+03         24.7396         24.7396         8.11353         8.11353
            2289     1.64644E+03     1.64644E+03         19.7721         19.7721         12.5613         12.5613
            2290     1.64492E+03     1.64492E+03         15.6509         15.6509         16.2309         16.2309
            2291     1.64357E+03     1.64357E+03         12.2284         12.2284         19.2372         19.2372
            2292     1.64240E+03     1.64240E+03         9.38790         9.38790         21.6813         21.6813
            2293     1.64141E+03     1.64141E+03         7.01930         7.01930         23.6532         23.6532
            2294     1.64060E+03     1.64060E+03         5.02982         5.02982         25.2309         25.2309
            2295     1.63997E+03     1.63997E+03         3.33083         3.33083         26.4814         26.4814
            2296     1.63953E+03     1.63953E+03         1.84284         1.84284         27.4613         27.4613
            2297     1.63928E+03     1.63928E+03     488.330E-03     488.330E-03         28.2167         28.2167
            2298     1.63924E+03     1.63924E+03    -805.897E-03    -805.897E-03         28.7844         28.7844
            2299     1.63943E+03     1.63943E+03        -2.11240        -2.11240         29.1912         29.1912
            2300     1.63988E+03     1.63988E+03        -3.50155        -3.50155         29.4537         29.4537
            2301     1.64063E+03     1.64063E+03        -5.04257        -5.04257         29.5774         29.5774
            2302     1.64174E+03     1.64174E+03        -6.80124        -6.80124         29.5551         29.5551
            2303     1.64326E+03     1.64326E+03        -8.83762        -8.83762         29.3643         29.3643
            2304     1.64528E+03     1.64528E+03        -11.2009        -11.2009         28.9638         28.9638
            2305     1.64788E+03     1.64788E+03        -13.9218        -13.9218         28.2891         28.2891
            2306     1.65113E+03     1.65113E+03        -17.0002        -17.0002         27.2479         27.2479
            2307     1.65510E+03     1.65510E+03        -20.3891        -20.3891         25.7150         25.7150
            2308     1.65984E+03     1.65984E+03        -23.9700        -23.9700         23.5325         23.5325
            2309     1.66532E+03     1.66532E+03        -27.5271        -27.5271         20.5144         20.5144
            2310     1.67145E+03     1.67145E+03        -30.7119        -30.7119         16.4688         16.4688
            2311     1.67799E+03     1.67799E+03        -33.0340        -33.0340         11.2338         11.2338
            2312     1.68455E+03     1.68455E+03        -33.8258        -33.8258         4.72032         4.72032
            2313     1.69055E+03     1.69055E+03        -32.2579        -32.2579        -2.97745        -2.97745
            2314     1.57761E+03     1.57761E+03         441.864         441.864        -194.994        -194.994
            2315     1.59855E+03     1.59855E+03         387.730         387.730        -192.064        -192.064
            2316     1.61788E+03     1.61788E+03         333.517         333.517        -182.069        -182.069
            2317     1.63405E+03     1.63405E+03         282.011         282.011        -167.143        -167.143
            2318     1.64626E+03     1.64626E+03         235.335         235.335        -148.934        -148.934
            2319     1.65465E+03     1.65465E+03         194.413         194.413        -128.853        -128.853
            2320     1.65928E+03     1.65928E+03         159.702         159.702        -108.422        -108.422
            2321     1.66120E+03     1.66120E+03         130.740         130.740        -88.8778        -88.8778
            2322     1.66096E+03     1.66096E+03         106.849         106.849        -70.7917        -70.7917
            2323     1.65942E+03     1.65942E+03         87.2824         87.2824        -54.6603        -54.6603
            2324     1.65708E+03     1.65708E+03         71.2092         71.2092        -40.4660        -40.4660
            2325     1.65437E+03     1.65437E+03         58.0599         58.0599        -28.2241        -28.2241
            2326     1.65157E+03     1.65157E+03         47.2307         47.2307        -17.7485        -17.7485
            2327     1.64887E+03     1.64887E+03         38.3383         38.3383        -8.89039        -8.89039
            2328     1.64638E+03     1.64638E+03         30.9937         30.9937        -1.44792        -1.44792
            2329     1.64416E+03     1.64416E+03         24.9440         24.9440         4.75232         4.75232
            2330     1.64223E+03     1.64223E+03         19.9421         19.9421         9.88409         9.88409
            2331     1.64061E+03     1.64061E+03         15.8179         15.8179         14.0994         14.0994
            2332     1.63929E+03     1.63929E+03         12.4091         12.4091         17.5364         17.5364
            2333     1.63825E+03     1.63825E+03         9.59585         9.59585         20.3156         20.3156
            2334     1.63748E+03     1.63748E+03         7.26513         7.26513         22.5418         22.5418
            2335     1.63695E+03     1.63695E+03         5.32665         5.32665         24.3056         24.3056
            2336     1.63666E+03     1.63666E+03         3.69478         3.69478         25.6830         25.6830
            2337     1.63658E+03     1.63658E+03         2.29582         2.29582         26.7381         26.7381
            2338     1.63671E+03     1.63671E+03         1.05853         1.05853         27.5224         27.5224
            2339     1.63704E+03     1.63704E+03    -82.4795E-03    -82.4795E-03         28.0765         28.0765
            2340     1.63759E+03     1.63759E+03        -1.19156        -1.19156         28.4299         28.4299
            2341     1.63837E+03     1.63837E+03        -2.33014        -2.33014         28.6014         28.6014
            2342     1.63938E+03     1.63938E+03        -3.55847        -3.55847         28.5985         28.5985
            2343     1.64068E+03     1.64068E+03        -4.93358        -4.93358         28.4173         28.4173
            2344     1.64228E+03     1.64228E+03        -6.50812        -6.50812         28.0408         28.0408
            2345     1.64424E+03     1.64424E+03        -8.32631        -8.32631         27.4380         27.4380
            2346     1.64661E+03     1.64661E+03        -10.4188        -10.4188         26.5616         26.5616
            2347     1.64943E+03     1.64943E+03        -12.7942        -12.7942         25.3465         25.3465
            2348     1.65275E+03     1.65275E+03        -15.4283        -15.4283         23.7080         23.7080
            2349     1.65659E+03     1.65659E+03        -18.2482        -18.2482         21.5436         21.5436
            2350     1.66093E+03     1.66093E+03        -21.1161        -21.1161         18.7370         18.7370
            2351     1.66571E+03     1.66571E+03        -23.8072        -23.8072         15.1714         15.1714
            2352     1.67078E+03     1.67078E+03        -25.9996        -25.9996         10.7517         10.7517
            2353     1.67589E+03     1.67589E+03        -27.2569        -27.2569         5.43435         5.43435
            2354     1.68067E+03     1.68067E+03        -27.0428        -27.0428    -712.089E-03    -712.089E-03
            2355     1.68466E+03     1.68466E+03        -24.7573        -24.7573        -7.44689        -7.44689
            2356     1.59108E+03     1.59108E+03         439.754         439.754        -217.220        -217.220
            2357     1.61403E+03     1.61403E+03         379.208         379.208        -213.237        -213.237
            2358     1.63395E+03     1.63395E+03         318.959         318.959        -199.748        -199.748
            2359     1.64936E+03     1.64936E+03         262.994         262.994        -180.696        -180.696
            2360     1.65981E+03     1.65981E+03         213.556         213.556        -157.723        -157.723
            2361     1.66493E+03     1.66493E+03         172.107         172.107        -133.395        -133.395
            2362     1.66633E+03     1.66633E+03         138.186         138.186        -109.753        -109.753
            2363     1.66472E+03     1.66472E+03         110.948         110.948        -87.7938        -87.7938
            2364     1.66152E+03     1.66152E+03         89.2669         89.2669        -68.3921        -68.3921
            2365     1.65747E+03     1.65747E+03         71.8774         71.8774        -51.4654        -51.4654
            2366     1.65319E+03     1.65319E+03         57.9998         57.9998        -37.0369        -37.0369
            2367     1.64904E+03     1.64904E+03         46.7796         46.7796        -24.8112        -24.8112
            2368     1.64523E+03     1.64523E+03         37.7358         37.7358        -14.5720        -14.5720
            2369     1.64188E+03     1.64188E+03         30.3641         30.3641        -6.03985        -6.03985
            2370     1.63904E+03     1.63904E+03         24.3694         24.3694         1.01722         1.01722
            2371     1.63671E+03     1.63671E+03         19.4571         19.4571         6.82096         6.82096
            2372     1.63488E+03     1.63488E+03         15.4409         15.4409         11.5624         11.5624
            2373     1.63350E+03     1.63350E+03         12.1421         12.1421         15.4084         15.4084
            2374     1.63254E+03     1.63254E+03         9.43752         9.43752         18.5036         18.5036
            2375     1.63196E+03     1.63196E+03         7.21111         7.21111         20.9702         20.9702
            2376     1.63171E+03     1.63171E+03         5.37573         5.37573         22.9132         22.9132
            2377     1.63176E+03     1.63176E+03         3.84925         3.84925         24.4195         24.4195
            2378     1.63207E+03     1.63207E+03         2.56435         2.56435         25.5619         25.5619
            2379     1.63262E+03     1.63262E+03         1.45660         1.45660         26.3987         26.3987
            2380     1.63339E+03     1.63339E+03     468.883E-03     468.883E-03         26.9759         26.9759
            2381     1.63437E+03     1.63437E+03    -454.652E-03    -454.652E-03         27.3273         27.3273
            2382     1.63555E+03     1.63555E+03        -1.36627        -1.36627         27.4753         27.4753
            2383     1.63693E+03     1.63693E+03        -2.31736        -2.31736         27.4310         27.4310
            2384     1.63851E+03     1.63851E+03        -3.35645        -3.35645         27.1945         27.1945
            2385     1.64033E+03     1.64033E+03        -4.52929        -4.52929         26.7541         26.7541
            2386     1.64239E+03     1.64239E+03        -5.87569        -5.87569         26.0865         26.0865
            2387     1.64471E+03     1.64471E+03        -7.42651        -7.42651         25.1560         25.1560
            2388     1.64734E+03     1.64734E+03        -9.19767        -9.19767         23.9145         23.9145
            2389     1.65028E+03     1.65028E+03        -11.1831        -11.1831         22.3016         22.3016
            2390     1.65355E+03     1.65355E+03        -13.3444        -13.3444         20.2471         20.2471
            2391     1.65713E+03     1.65713E+03        -15.5996        -15.5996         17.6746         17.6746
            2392     1.66098E+03     1.66098E+03        -17.8095        -17.8095         14.5105         14.5105
            2393     1.66501E+03     1.66501E+03        -19.7683        -19.7683         10.6987         10.6987
            2394     1.66905E+03     1.66905E+03        -21.1931        -21.1931         6.21937         6.21937
            2395     1.67288E+03     1.67288E+03        -21.7306        -21.7306         1.12379         1.12379
            2396     1.67620E+03     1.67620E+03        -20.9763        -20.9763        -4.43210        -4.43210
            2397     1.67868E+03     1.67868E+03        -18.5248        -18.5248        -10.1399        -10.1399
            2398     1.61045E+03     1.61045E+03         436.664         436.664        -241.919        -241.919
            2399     1.63470E+03     1.63470E+03         367.653         367.653        -235.276        -235.276
            2400     1.65498E+03     1.65498E+03         299.696         299.696        -217.463        -217.463
            2401     1.66883E+03     1.66883E+03         238.151         238.151        -191.878        -191.878
            2402     1.67494E+03     1.67494E+03         186.878         186.878        -162.898        -162.898
            2403     1.67565E+03     1.67565E+03         145.788         145.788        -133.888        -133.888
            2404     1.67180E+03     1.67180E+03         114.030         114.030        -106.794        -106.794
            2405     1.66593E+03     1.66593E+03         89.7634         89.7634        -83.2717        -83.2717
            2406     1.65921E+03     1.65921E+03         70.9104         70.9104        -63.0444        -63.0444
            2407     1.65251E+03     1.65251E+03         56.3773         56.3773        -46.1153        -46.1153
            2408     1.64634E+03     1.64634E+03         44.9062         44.9062        -31.9869        -31.9869
            2409     1.64090E+03     1.64090E+03         35.8922         35.8922        -20.3187        -20.3187
            2410     1.63631E+03     1.63631E+03         28.6705         28.6705        -10.7129        -10.7129
            2411     1.63256E+03     1.63256E+03         22.8993         22.8993        -2.84713        -2.84713
            2412     1.62963E+03     1.62963E+03         18.2254         18.2254         3.56406         3.56406
            2413     1.62745E+03     1.62745E+03         14.4477         14.4477         8.76457         8.76457
            2414     1.62593E+03     1.62593E+03         11.3693         11.3693         12.9552         12.9552
            2415     1.62501E+03     1.62501E+03         8.86536         8.86536         16.3100         16.3100
            2416     1.62460E+03     1.62460E+03         6.81774         6.81774         18.9697         18.9697
            2417     1.62464E+03     1.62464E+03         5.14357         5.14357         21.0559         21.0559
            2418     1.62506E+03     1.62506E+03         3.76514         3.76514         22.6660         22.6660
            2419     1.62581E+03     1.62581E+03         2.62228         2.62228         23.8826         23.8826
            2420     1.62685E+03     1.62685E+03         1.65792         1.65792         24.7705         24.7705
            2421     1.62813E+03     1.62813E+03     823.601E-03     823.601E-03         25.3820         25.3820
            2422     1.62962E+03     1.62962E+03     72.3219E-03     72.3219E-03         25.7556         25.7556
            2423     1.63130E+03     1.63130E+03    -638.813E-03    -638.813E-03         25.9186         25.9186
            2424     1.63316E+03     1.63316E+03        -1.35203        -1.35203         25.8861         25.8861
            2425     1.63517E+03     1.63517E+03        -2.10706        -2.10706         25.6629         25.6629
            2426     1.63735E+03     1.63735E+03        -2.94216        -2.94216         25.2425         25.2425
            2427     1.63968E+03     1.63968E+03        -3.89173        -3.89173         24.6081         24.6081
            2428     1.64217E+03     1.64217E+03        -4.98497        -4.98497         23.7323         23.7323
            2429     1.64483E+03     1.64483E+03        -6.24174        -6.24174         22.5779         22.5779
            2430     1.64767E+03     1.64767E+03        -7.66828        -7.66828         21.0991         21.0991
            2431     1.65067E+03     1.65067E+03        -9.25016        -9.25016         19.2438         19.2438
            2432     1.65383E+03     1.65383E+03        -10.9452        -10.9452         16.9572         16.9572
            2433     1.65710E+03     1.65710E+03        -12.6736        -12.6736         14.1883         14.1883
            2434     1.66043E+03     1.66043E+03        -14.3111        -14.3111         10.9003         10.9003
            2435     1.66371E+03     1.66371E+03        -15.6810        -15.6810         7.08326         7.08326
            2436     1.66681E+03     1.66681E+03        -16.5556        -16.5556         2.77506         2.77506
            2437     1.66954E+03     1.66954E+03        -16.6640        -16.6640        -1.91851        -1.91851
            2438     1.67167E+03     1.67167E+03        -15.7185        -15.7185        -6.79584        -6.79584
            2439     1.67298E+03     1.67298E+03        -13.4608        -13.4608        -11.5414        -11.5414
            2440     1.63677E+03     1.63677E+03         432.608         432.608        -268.780        -268.780
            2441     1.66404E+03     1.66404E+03         351.156         351.156        -259.258        -259.258
            2442     1.68343E+03     1.68343E+03         272.550         272.550        -232.709        -232.709
            2443     1.69179E+03     1.69179E+03         206.202         206.202        -198.599        -198.599
            2444     1.69188E+03     1.69188E+03         153.900         153.900        -162.167        -162.167
            2445     1.68423E+03     1.68423E+03         115.700         115.700        -127.752        -127.752
            2446     1.67391E+03     1.67391E+03         88.2680         88.2680        -98.8280        -98.8280
            2447     1.66295E+03     1.66295E+03         67.8286         67.8286        -74.5459        -74.5459
            2448     1.65256E+03     1.65256E+03         52.8284         52.8284        -54.7794        -54.7794
            2449     1.64341E+03     1.64341E+03         41.3437         41.3437        -38.6563        -38.6563
            2450     1.63564E+03     1.63564E+03         32.6241         32.6241        -25.5986        -25.5986
            2451     1.62932E+03     1.62932E+03         25.7895         25.7895        -15.0329        -15.0329
            2452     1.62434E+03     1.62434E+03         20.4515         20.4515        -6.49644        -6.49644
            2453     1.62059E+03     1.62059E+03         16.1934         16.1934     376.291E-03     376.291E-03
            2454     1.61792E+03     1.61792E+03         12.8022         12.8022         5.89986         5.89986
            2455     1.61620E+03     1.61620E+03         10.0663         10.0663         10.3123         10.3123
            2456     1.61529E+03     1.61529E+03         7.86220         7.86220         13.8217         13.8217
            2457     1.61507E+03     1.61507E+03         6.07279         6.07279         16.5867         16.5867
            2458     1.61544E+03     1.61544E+03         4.62129         4.62129         18.7455         18.7455
            2459     1.61629E+03     1.61629E+03         3.43629         3.43629         20.4047         20.4047
            2460     1.61755E+03     1.61755E+03         2.46564         2.46564         21.6556         21.6556
            2461     1.61915E+03     1.61915E+03         1.66047         1.66047         22.5685         22.5685
            2462     1.62103E+03     1.62103E+03     981.277E-03     981.277E-03         23.2013         23.2013
            2463     1.62314E+03     1.62314E+03     390.127E-03     390.127E-03         23.5966         23.5966
            2464     1.62545E+03     1.62545E+03    -146.465E-03    -146.465E-03         23.7861         23.7861
            2465     1.62791E+03     1.62791E+03    -661.421E-03    -661.421E-03         23.7896         23.7896
            2466     1.63050E+03     1.63050E+03        -1.18541        -1.18541         23.6164         23.6164
            2467     1.63320E+03     1.63320E+03        -1.74845        -1.74845         23.2654         23.2654
            2468     1.63599E+03     1.63599E+03        -2.37825        -2.37825         22.7256         22.7256
            2469     1.63886E+03     1.63886E+03        -3.09992        -3.09992         21.9767         21.9767
            2470     1.64180E+03     1.64180E+03        -3.93336        -3.93336         20.9897         20.9897
            2471     1.64480E+03     1.64480E+03        -4.89090        -4.89090         19.7281         19.7281
            2472     1.64783E+03     1.64783E+03        -5.97277        -5.97277         18.1504         18.1504
            2473     1.65087E+03     1.65087E+03        -7.16266        -7.16266         16.2128         16.2128
            2474     1.65390E+03     1.65390E+03        -8.42114        -8.42114         13.8749         13.8749
            2475     1.65686E+03     1.65686E+03        -9.68044        -9.68044         11.1068         11.1068
            2476     1.65969E+03     1.65969E+03        -10.8382        -10.8382         7.89841         7.89841
            2477     1.66228E+03     1.66228E+03        -11.7563        -11.7563         4.27324         4.27324
            2478     1.66452E+03     1.66452E+03        -12.2623        -12.2623     301.702E-03     301.702E-03
            2479     1.66628E+03     1.66628E+03        -12.1615        -12.1615        -3.88142        -3.88142
            2480     1.66741E+03     1.66741E+03        -11.2599        -11.2599        -8.06544        -8.06544
            2481     1.66778E+03     1.66778E+03        -9.39913        -9.39913        -11.9563        -11.9563
            2482     1.67884E+03     1.67884E+03         425.078         425.078        -300.617        -300.617
            2483     1.70600E+03     1.70600E+03         325.314         325.314        -281.303        -281.303
            2484     1.71986E+03     1.71986E+03         234.883         234.883        -243.520        -243.520
            2485     1.72025E+03     1.72025E+03         163.178         163.178        -196.186        -196.186
            2486     1.70564E+03     1.70564E+03         115.098         115.098        -150.280        -150.280
            2487     1.68742E+03     1.68742E+03         83.9592         83.9592        -113.963        -113.963
            2488     1.66954E+03     1.66954E+03         61.9559         61.9559        -84.7068        -84.7068
            2489     1.65344E+03     1.65344E+03         46.9229         46.9229        -61.8425        -61.8425
            2490     1.63995E+03     1.63995E+03         35.8361         35.8361        -43.8240        -43.8240
            2491     1.62892E+03     1.62892E+03         27.7981         27.7981        -29.6074        -29.6074
            2492     1.62028E+03     1.62028E+03         21.6665         21.6665        -18.3794        -18.3794
            2493     1.61370E+03     1.61370E+03         17.0158         17.0158        -9.46173        -9.46173
            2494     1.60894E+03     1.60894E+03         13.3762         13.3762        -2.39986        -2.39986
            2495     1.60570E+03     1.60570E+03         10.5299         10.5299         3.21084         3.21084
            2496     1.60375E+03     1.60375E+03         8.26268         8.26268         7.64220         7.64220
            2497     1.60289E+03     1.60289E+03         6.45643         6.45643         11.1387         11.1387
            2498     1.60292E+03     1.60292E+03         5.00229         5.00229         13.8715         13.8715
            2499     1.60369E+03     1.60369E+03         3.83184         3.83184         15.9932         15.9932
            2500     1.60508E+03     1.60508E+03         2.88337         2.88337         17.6150         17.6150
            2501     1.60695E+03     1.60695E+03         2.11368         2.11368         18.8341         18.8341
            2502     1.60923E+03     1.60923E+03         1.48338         1.48338         19.7231         19.7231
            2503     1.61183E+03     1.61183E+03     961.973E-03     961.973E-03         20.3428         20.3428
            2504     1.61469E+03     1.61469E+03     520.753E-03     520.753E-03         20.7382         20.7382
            2505     1.61775E+03     1.61775E+03     135.307E-03     135.307E-03         20.9443         20.9443
            2506     1.62095E+03     1.62095E+03    -218.198E-03    -218.198E-03         20.9838         20.9838
            2507     1.62427E+03     1.62427E+03    -561.546E-03    -561.546E-03         20.8705         20.8705
            2508     1.62767E+03     1.62767E+03    -916.312E-03    -916.312E-03         20.6082         20.6082
            2509     1.63111E+03     1.63111E+03        -1.30266        -1.30266         20.1917         20.1917
            2510     1.63458E+03     1.63458E+03        -1.73977        -1.73977         19.6073         19.6073
            2511     1.63803E+03     1.63803E+03        -2.24428        -2.24428         18.8333         18.8333
            2512     1.64145E+03     1.64145E+03        -2.82925        -2.82925         17.8408         17.8408
            2513     1.64481E+03     1.64481E+03        -3.50152        -3.50152         16.5961         16.5961
            2514     1.64806E+03     1.64806E+03        -4.25922        -4.25922         15.0622         15.0622
            2515     1.65118E+03     1.65118E+03        -5.08764        -5.08764         13.2038         13.2038
            2516     1.65411E+03     1.65411E+03        -5.95576        -5.95576         10.9915         10.9915
            2517     1.65679E+03     1.65679E+03        -6.81163        -6.81163         8.41005         8.41005
            2518     1.65915E+03     1.65915E+03        -7.58015        -7.58015         5.46683         5.46683
            2519     1.66111E+03     1.66111E+03        -8.16185        -8.16185         2.20228         2.20228
            2520     1.66258E+03     1.66258E+03        -8.43705        -8.43705        -1.29825        -1.29825
            2521     1.66346E+03     1.66346E+03        -8.27535        -8.27535        -4.89564        -4.89564
            2522     1.66368E+03     1.66368E+03        -7.55301        -7.55301        -8.39083        -8.39083
            2523     1.66320E+03     1.66320E+03        -6.17796        -6.17796        -11.5264        -11.5264
            2524     1.74040E+03     1.74040E+03         412.043         412.043        -332.755        -332.755
            2525     1.76815E+03     1.76815E+03         284.303         284.303        -302.964        -302.964
            2526     1.77203E+03     1.77203E+03         175.234         175.234        -238.775        -238.775
            2527     1.74289E+03     1.74289E+03         110.247         110.247        -172.758        -172.758
            2528     1.70931E+03     1.70931E+03         75.4990         75.4990        -125.981        -125.981
            2529     1.67974E+03     1.67974E+03         52.4195         52.4195        -91.0182        -91.0182
            2530     1.65473E+03     1.65473E+03         38.2457         38.2457        -65.1998        -65.1998
            2531     1.63502E+03     1.63502E+03         28.2538         28.2538        -45.8934        -45.8934
            2532     1.61960E+03     1.61960E+03         21.4324         21.4324        -31.1506        -31.1506
            2533     1.60803E+03     1.60803E+03         16.4059         16.4059        -19.8943        -19.8943
            2534     1.59954E+03     1.59954E+03         12.7230         12.7230        -11.1345        -11.1345
            2535     1.59365E+03     1.59365E+03         9.91292         9.91292        -4.34779        -4.34779
            2536     1.58985E+03     1.58985E+03         7.75896         7.75896     972.658E-03     972.658E-03
            2537     1.58777E+03     1.58777E+03         6.07246         6.07246         5.11419         5.11419
            2538     1.58707E+03     1.58707E+03         4.74410         4.74410         8.35192         8.35192
            2539     1.58751E+03     1.58751E+03         3.68622         3.68622         10.8571         10.8571
            2540     1.58886E+03     1.58886E+03         2.84041         2.84041         12.7890         12.7890
            2541     1.59093E+03     1.59093E+03         2.16006         2.16006         14.2550         14.2550
            2542     1.59359E+03     1.59359E+03         1.61138         1.61138         15.3519         15.3519
            2543     1.59671E+03     1.59671E+03         1.16621         1.16621         16.1488         16.1488
            2544     1.60020E+03     1.60020E+03     802.732E-03     802.732E-03         16.7054         16.7054
            2545     1.60395E+03     1.60395E+03     501.497E-03     501.497E-03         17.0649         17.0649
            2546     1.60792E+03     1.60792E+03     246.350E-03     246.350E-03         17.2625         17.2625
            2547     1.61203E+03     1.61203E+03     21.8778E-03     21.8778E-03         17.3221         17.3221
            2548     1.61624E+03     1.61624E+03    -185.664E-03    -185.664E-03         17.2599         17.2599
            2549     1.62051E+03     1.62051E+03    -389.947E-03    -389.947E-03         17.0833         17.0833
            2550     1.62479E+03     1.62479E+03    -603.712E-03    -603.712E-03         16.7926         16.7926
            2551     1.62905E+03     1.62905E+03    -839.541E-03    -839.541E-03         16.3801         16.3801
            2552     1.63325E+03     1.63325E+03        -1.10887        -1.10887         15.8316         15.8316
            2553     1.63735E+03     1.63735E+03        -1.42190        -1.42190         15.1260         15.1260
            2554     1.64132E+03     1.64132E+03        -1.78613        -1.78613         14.2373         14.2373
            2555     1.64510E+03     1.64510E+03        -2.20532        -2.20532         13.1356         13.1356
            2556     1.64865E+03     1.64865E+03        -2.67714        -2.67714         11.7897         11.7897
            2557     1.65190E+03     1.65190E+03        -3.19135        -3.19135         10.1713         10.1713
            2558     1.65480E+03     1.65480E+03        -3.72677        -3.72677         8.25932         8.25932
            2559     1.65727E+03     1.65727E+03        -4.24948        -4.24948         6.04680         6.04680
            2560     1.65923E+03     1.65923E+03        -4.71079        -4.71079         3.54829         3.54829
            2561     1.66062E+03     1.66062E+03        -5.04788        -5.04788     808.558E-03     808.558E-03
            2562     1.66136E+03     1.66136E+03        -5.18650        -5.18650        -2.08993        -2.08993
            2563     1.66141E+03     1.66141E+03        -5.04788        -5.04788        -5.02068        -5.02068
            2564     1.66072E+03     1.66072E+03        -4.56010        -4.56010        -7.81242        -7.81242
            2565     1.65934E+03     1.65934E+03        -3.67284        -3.67284        -10.2530        -10.2530
            2566     1.86376E+03     1.86376E+03         379.575         379.575        -379.257        -379.257
            2567     1.87437E+03     1.87437E+03         196.198         196.198        -292.587        -292.587
            2568     1.80905E+03     1.80905E+03         97.0419         97.0419        -189.303        -189.303
            2569     1.74282E+03     1.74282E+03         60.9664         60.9664        -127.988        -127.988
            2570     1.69302E+03     1.69302E+03         38.5486         38.5486        -88.4350        -88.4350
            2571     1.65443E+03     1.65443E+03         26.7409         26.7409        -61.1605        -61.1605
            2572     1.62619E+03     1.62619E+03         18.9263         18.9263        -42.3834        -42.3834
            2573     1.60530E+03     1.60530E+03         13.9300         13.9300        -28.5448        -28.5448
            2574     1.59039E+03     1.59039E+03         10.4484         10.4484        -18.4733        -18.4733
            2575     1.57996E+03     1.57996E+03         7.96656         7.96656        -10.8003        -10.8003
            2576     1.57309E+03     1.57309E+03         6.15407         6.15407        -5.02477        -5.02477
            2577     1.56898E+03     1.56898E+03         4.78007         4.78007    -558.892E-03    -558.892E-03
            2578     1.56706E+03     1.56706E+03         3.73666         3.73666         2.85487         2.85487
            2579     1.56684E+03     1.56684E+03         2.91806         2.91806         5.49849         5.49849
            2580     1.56799E+03     1.56799E+03         2.27841         2.27841         7.51924         7.51924
            2581     1.57020E+03     1.57020E+03         1.76740         1.76740         9.06648         9.06648
            2582     1.57325E+03     1.57325E+03         1.36074         1.36074         10.2302         10.2302
            2583     1.57694E+03     1.57694E+03         1.03293         1.03293         11.0960         11.0960
            2584     1.58114E+03     1.58114E+03     768.942E-03     768.942E-03         11.7210         11.7210
            2585     1.58571E+03     1.58571E+03     554.481E-03     554.481E-03         12.1567         12.1567
            2586     1.59057E+03     1.59057E+03     379.077E-03     379.077E-03         12.4390         12.4390
            2587     1.59563E+03     1.59563E+03     233.409E-03     233.409E-03         12.5987         12.5987
            2588     1.60083E+03     1.60083E+03     109.310E-03     109.310E-03         12.6567         12.6567
            2589     1.60611E+03     1.60611E+03    -460.715E-06    -460.715E-06         12.6289         12.6289
            2590     1.61142E+03     1.61142E+03    -103.015E-03    -103.015E-03         12.5241         12.5241
            2591     1.61672E+03     1.61672E+03    -204.847E-03    -204.847E-03         12.3461         12.3461
            2592     1.62197E+03     1.62197E+03    -312.582E-03    -312.582E-03         12.0925         12.0925
            2593     1.62713E+03     1.62713E+03    -432.302E-03    -432.302E-03         11.7559         11.7559
            2594     1.63215E+03     1.63215E+03    -569.929E-03    -569.929E-03         11.3238         11.3238
            2595     1.63699E+03     1.63699E+03    -730.401E-03    -730.401E-03         10.7790         10.7790
            2596     1.64159E+03     1.64159E+03    -917.538E-03    -917.538E-03         10.1005         10.1005
            2597     1.64590E+03     1.64590E+03        -1.13291        -1.13291         9.26483         9.26483
            2598     1.64984E+03     1.64984E+03        -1.37515        -1.37515         8.24810         8.24810
            2599     1.65334E+03     1.65334E+03        -1.63846        -1.63846         7.02888         7.02888
            2600     1.65631E+03     1.65631E+03        -1.91161        -1.91161         5.59231         5.59231
            2601     1.65867E+03     1.65867E+03        -2.17645        -2.17645         3.93485         3.93485
            2602     1.66033E+03     1.66033E+03        -2.40760        -2.40760         2.07035         2.07035
            2603     1.66122E+03     1.66122E+03        -2.57236        -2.57236     35.8775E-03     35.8775E-03
            2604     1.66127E+03     1.66127E+03        -2.63276        -2.63276        -2.10265        -2.10265
            2605     1.66046E+03     1.66046E+03        -2.54923        -2.54923        -4.24733        -4.24733
            2606     1.65880E+03     1.65880E+03        -2.28638        -2.28638        -6.26849        -6.26849
            2607     1.65636E+03     1.65636E+03        -1.82050        -1.82050        -8.00826        -8.00826
            2608     2.09994E+03     2.09994E+03         257.348         257.348        -332.673        -332.673
            2609     1.92368E+03     1.92368E+03         72.7088         72.7088        -179.808        -179.808
            2610     1.78579E+03     1.78579E+03         38.9498         38.9498        -103.087        -103.087
            2611     1.70279E+03     1.70279E+03         21.8680         21.8680        -67.4307        -67.4307
            2612     1.64577E+03     1.64577E+03         13.7599         13.7599        -43.9226        -43.9226
            2613     1.60755E+03     1.60755E+03         9.43943         9.43943        -29.9194        -29.9194
            2614     1.58118E+03     1.58118E+03         6.53459         6.53459        -19.8060        -19.8060
            2615     1.56343E+03     1.56343E+03         4.87575         4.87575        -12.9710        -12.9710
            2616     1.55178E+03     1.55178E+03         3.58594         3.58594        -7.83110        -7.83110
            2617     1.54469E+03     1.54469E+03         2.78012         2.78012        -4.11509        -4.11509
            2618     1.54101E+03     1.54101E+03         2.12035         2.12035        -1.26784        -1.26784
            2619     1.53991E+03     1.53991E+03         1.67048         1.67048     859.700E-03     859.700E-03
            2620     1.54080E+03     1.54080E+03         1.29767         1.29767         2.49696         2.49696
            2621     1.54320E+03     1.54320E+03         1.02502         1.02502         3.73203         3.73203
            2622     1.54676E+03     1.54676E+03     799.470E-03     799.470E-03         4.67389         4.67389
            2623     1.55121E+03     1.55121E+03     626.307E-03     626.307E-03         5.37679         5.37679
            2624     1.55633E+03     1.55633E+03     483.802E-03     483.802E-03         5.89878         5.89878
            2625     1.56194E+03     1.56194E+03     370.975E-03     370.975E-03         6.27423         6.27423
            2626     1.56791E+03     1.56791E+03     278.437E-03     278.437E-03         6.53669         6.53669
            2627     1.57414E+03     1.57414E+03     203.510E-03     203.510E-03         6.70809         6.70809
            2628     1.58054E+03     1.58054E+03     141.615E-03     141.615E-03         6.80840         6.80840
            2629     1.58704E+03     1.58704E+03     89.8883E-03     89.8883E-03         6.85098         6.85098
            2630     1.59358E+03     1.59358E+03     45.5446E-03     45.5446E-03         6.84694         6.84694
            2631     1.60012E+03     1.60012E+03     5.87739E-03     5.87739E-03         6.80297         6.80297
            2632     1.60662E+03     1.60662E+03    -31.3221E-03    -31.3221E-03         6.72332         6.72332
            2633     1.61304E+03     1.61304E+03    -68.6031E-03    -68.6031E-03         6.60874         6.60874
            2634     1.61934E+03     1.61934E+03    -108.036E-03    -108.036E-03         6.45738         6.45738
            2635     1.62548E+03     1.62548E+03    -151.991E-03    -151.991E-03         6.26427         6.26427
            2636     1.63142E+03     1.63142E+03    -202.365E-03    -202.365E-03         6.02190         6.02190
            2637     1.63711E+03     1.63711E+03    -261.055E-03    -261.055E-03         5.72008         5.72008
            2638     1.64247E+03     1.64247E+03    -329.255E-03    -329.255E-03         5.34664         5.34664
            2639     1.64744E+03     1.64744E+03    -407.589E-03    -407.589E-03         4.88804         4.88804
            2640     1.65192E+03     1.65192E+03    -495.385E-03    -495.385E-03         4.33052         4.33052
            2641     1.65582E+03     1.65582E+03    -590.562E-03    -590.562E-03         3.66188         3.66188
            2642     1.65902E+03     1.65902E+03    -688.843E-03    -688.843E-03         2.87353         2.87353
            2643     1.66142E+03     1.66142E+03    -783.683E-03    -783.683E-03         1.96357         1.96357
            2644     1.66291E+03     1.66291E+03    -865.667E-03    -865.667E-03     939.804E-03     939.804E-03
            2645     1.66338E+03     1.66338E+03    -923.055E-03    -923.055E-03    -176.672E-03    -176.672E-03
            2646     1.66277E+03     1.66277E+03    -942.021E-03    -942.021E-03        -1.34873        -1.34873
            2647     1.66105E+03     1.66105E+03    -908.570E-03    -908.570E-03        -2.52153        -2.52153
            2648     1.65826E+03     1.65826E+03    -810.399E-03    -810.399E-03        -3.62295        -3.62295
            2649     1.65451E+03     1.65451E+03    -639.159E-03    -639.159E-03        -4.56474        -4.56474
            2650     1.73142E+03     1.73142E+03        -53.9524        -53.9524         2.86346         2.86346
            2651     1.72051E+03     1.72051E+03        -37.5223        -37.5223         13.5138         13.5138
            2652     1.70870E+03     1.70870E+03        -24.9928        -24.9928         18.7508         18.7508
            2653     1.69771E+03     1.69771E+03        -16.0306        -16.0306         20.7731         20.7731
            2654     1.68802E+03     1.68802E+03        -9.88659        -9.88659         21.0073         21.0073
            2655     1.67959E+03     1.67959E+03        -5.81822        -5.81822         20.2933         20.2933
            2656     1.67221E+03     1.67221E+03        -3.22188        -3.22188         19.0646         19.0646
            2657     1.66566E+03     1.66566E+03        -1.64050        -1.64050         17.4940         17.4940
            2658     1.65970E+03     1.65970E+03    -738.290E-03    -738.290E-03         15.5753         15.5753
            2659     1.65413E+03     1.65413E+03    -270.581E-03    -270.581E-03         13.1618         13.1618
            2660     1.64879E+03     1.64879E+03    -62.0264E-03    -62.0264E-03         9.97160         9.97160
            2661     1.64357E+03     1.64357E+03     3.06565E-03     3.06565E-03         5.59661         5.59661
            2662     1.74371E+03     1.74371E+03        -32.1655        -32.1655         25.3320         25.3320
            2663     1.72532E+03     1.72532E+03        -15.7024        -15.7024         29.5863         29.5863
            2664     1.70956E+03     1.70956E+03        -5.45711        -5.45711         29.4996         29.4996
            2665     1.69663E+03     1.69663E+03     423.395E-03     423.395E-03         27.5865         27.5865
            2666     1.68609E+03     1.68609E+03         3.43627         3.43627         25.0763         25.0763
            2667     1.67734E+03     1.67734E+03         4.63102         4.63102         22.5068         22.5068
            2668     1.66984E+03     1.66984E+03         4.70523         4.70523         20.0564         20.0564
            2669     1.66314E+03     1.66314E+03         4.11936         4.11936         17.7131         17.7131
            2670     1.65685E+03     1.65685E+03         3.18813         3.18813         15.3478         15.3478
            2671     1.65065E+03     1.65065E+03         2.14278         2.14278         12.7353         12.7353
            2672     1.64420E+03     1.64420E+03         1.17204         1.17204         9.54350         9.54350
            2673     1.63716E+03     1.63716E+03     449.578E-03     449.578E-03         5.32782         5.32782
            2674     1.74555E+03     1.74555E+03         7.82118         7.82118         44.4505         44.4505
            2675     1.72238E+03     1.72238E+03         17.2651         17.2651         39.9459         39.9459
            2676     1.70513E+03     1.70513E+03         20.5149         20.5149         34.3151         34.3151
            2677     1.69213E+03     1.69213E+03         20.4287         20.4287         29.0498         29.0498
            2678     1.68200E+03     1.68200E+03         18.6231         18.6231         24.5844         24.5844
            2679     1.67377E+03     1.67377E+03         15.9927         15.9927         20.9134         20.9134
            2680     1.66669E+03     1.66669E+03         13.0277         13.0277         17.8905         17.8905
            2681     1.66024E+03     1.66024E+03         10.0124         10.0124         15.3192         15.3192
            2682     1.65395E+03     1.65395E+03         7.13137         7.13137         12.9753         12.9753
            2683     1.64737E+03     1.64737E+03         4.53484         4.53484         10.5982         10.5982
            2684     1.64006E+03     1.64006E+03         2.38437         2.38437         7.86432         7.86432
            2685     1.63146E+03     1.63146E+03     886.422E-03     886.422E-03         4.36773         4.36773
            2686     1.73609E+03     1.73609E+03         60.2794         60.2794         49.0588         49.0588
            2687     1.71318E+03     1.71318E+03         54.9670         54.9670         38.1484         38.1484
            2688     1.69742E+03     1.69742E+03         47.5393         47.5393         29.6897         29.6897
            2689     1.68601E+03     1.68601E+03         39.8751         39.8751         23.3728         23.3728
            2690     1.67723E+03     1.67723E+03         32.6682         32.6682         18.6813         18.6813
            2691     1.67003E+03     1.67003E+03         26.1098         26.1098         15.1721         15.1721
            2692     1.66369E+03     1.66369E+03         20.2262         20.2262         12.4974         12.4974
            2693     1.65770E+03     1.65770E+03         14.9967         14.9967         10.3816         10.3816
            2694     1.65158E+03     1.65158E+03         10.4105         10.4105         8.58852         8.58852
            2695     1.64485E+03     1.64485E+03         6.50026         6.50026         6.89372         6.89372
            2696     1.63698E+03     1.63698E+03         3.37176         3.37176         5.05479         5.05479
            2697     1.62728E+03     1.62728E+03         1.23860         1.23860         2.78805         2.78805
            2698     1.72242E+03     1.72242E+03         107.160         107.160         31.2056         31.2056
            2699     1.70339E+03     1.70339E+03         85.1602         85.1602         21.5044         21.5044
            2700     1.69051E+03     1.69051E+03         67.5986         67.5986         15.1812         15.1812
            2701     1.68110E+03     1.68110E+03         53.5546         53.5546         10.9447         10.9447
            2702     1.67370E+03     1.67370E+03         42.1380         42.1380         8.03260         8.03260
            2703     1.66746E+03     1.66746E+03         32.7001         32.7001         5.99766         5.99766
            2704     1.66179E+03     1.66179E+03         24.7808         24.7808         4.55472         4.55472
            2705     1.65621E+03     1.65621E+03         18.0722         18.0722         3.50804         3.50804
            2706     1.65030E+03     1.65030E+03         12.3907         12.3907         2.71517         2.71517
            2707     1.64357E+03     1.64357E+03         7.66757         7.66757         2.06083         2.06083
            2708     1.63547E+03     1.63547E+03         3.95482         3.95482         1.44360         1.44360
            2709     1.62524E+03     1.62524E+03         1.44931         1.44931     768.615E-03     768.615E-03
            2710     1.71696E+03     1.71696E+03         123.238         123.238        -5.33953        -5.33953
            2711     1.70022E+03     1.70022E+03         94.0616         94.0616        -5.76211        -5.76211
            2712     1.68862E+03     1.68862E+03         72.8687         72.8687        -5.76012        -5.76012
            2713     1.67998E+03     1.67998E+03         56.7736         56.7736        -5.60546        -5.60546
            2714     1.67307E+03     1.67307E+03         44.1276         44.1276        -5.36724        -5.36724
            2715     1.66717E+03     1.66717E+03         33.9212         33.9212        -5.07543        -5.07543
            2716     1.66172E+03     1.66172E+03         25.5088         25.5088        -4.73578        -4.73578
            2717     1.65631E+03     1.65631E+03         18.4802         18.4802        -4.33976        -4.33976
            2718     1.65050E+03     1.65050E+03         12.5943         12.5943        -3.86577        -3.86577
            2719     1.64386E+03     1.64386E+03         7.74844         7.74844        -3.27351        -3.27351
            2720     1.63583E+03     1.63583E+03         3.97408         3.97408        -2.49436        -2.49436
            2721     1.62570E+03     1.62570E+03         1.44919         1.44919        -1.41642        -1.41642
            2722     1.72598E+03     1.72598E+03         94.8598         94.8598        -40.8216        -40.8216
            2723     1.70657E+03     1.70657E+03         75.4155         75.4155        -32.0606        -32.0606
            2724     1.69327E+03     1.69327E+03         60.0658         60.0658        -26.0094        -26.0094
            2725     1.68349E+03     1.68349E+03         47.7220         47.7220        -21.6386        -21.6386
            2726     1.67584E+03     1.67584E+03         37.6174         37.6174        -18.3683        -18.3683
            2727     1.66943E+03     1.66943E+03         29.2060         29.2060        -15.8245        -15.8245
            2728     1.66367E+03     1.66367E+03         22.1102         22.1102        -13.7464        -13.7464
            2729     1.65810E+03     1.65810E+03         16.0820         16.0820        -11.9320        -11.9320
            2730     1.65228E+03     1.65228E+03         10.9779         10.9779        -10.2034        -10.2034
            2731     1.64579E+03     1.64579E+03         6.75153         6.75153        -8.37566        -8.37566
            2732     1.63813E+03     1.63813E+03         3.45668         3.45668        -6.22335        -6.22335
            2733     1.62869E+03     1.62869E+03         1.25801         1.25801        -3.46117        -3.46117
            2734     1.74007E+03     1.74007E+03         37.5965         37.5965        -52.2773        -52.2773
            2735     1.71744E+03     1.71744E+03         37.2143         37.2143        -44.1529        -44.1529
            2736     1.70155E+03     1.70155E+03         33.7013         33.7013        -37.2423        -37.2423
            2737     1.68988E+03     1.68988E+03         29.1381         29.1381        -31.6779        -31.6779
            2738     1.68085E+03     1.68085E+03         24.3551         24.3551        -27.2232        -27.2232
            2739     1.67349E+03     1.67349E+03         19.7141         19.7141        -23.6027        -23.6027
            2740     1.66712E+03     1.66712E+03         15.3766         15.3766        -20.5562        -20.5562
            2741     1.66121E+03     1.66121E+03         11.4231         11.4231        -17.8459        -17.8459
            2742     1.65535E+03     1.65535E+03         7.91273         7.91273        -15.2361        -15.2361
            2743     1.64913E+03     1.64913E+03         4.91618         4.91618        -12.4671        -12.4671
            2744     1.64212E+03     1.64212E+03         2.53814         2.53814        -9.21959        -9.21959
            2745     1.63386E+03     1.63386E+03     932.199E-03     932.199E-03        -5.10102        -5.10102
            2746     1.74377E+03     1.74377E+03        -16.3399        -16.3399        -37.3744        -37.3744
            2747     1.72378E+03     1.72378E+03        -3.09203        -3.09203        -38.2361        -38.2361
            2748     1.70797E+03     1.70797E+03         3.96047         3.96047        -36.0893        -36.0893
            2749     1.69563E+03     1.69563E+03         7.21098         7.21098        -33.0113        -33.0113
            2750     1.68584E+03     1.68584E+03         8.21873         8.21873        -29.8190        -29.8190
            2751     1.67784E+03     1.67784E+03         7.92171         7.92171        -26.7704        -26.7704
            2752     1.67102E+03     1.67102E+03         6.89654         6.89654        -23.8935        -23.8935
            2753     1.66492E+03     1.66492E+03         5.50892         5.50892        -21.0953        -21.0953
            2754     1.65916E+03     1.65916E+03         4.00582         4.00582        -18.2075        -18.2075
            2755     1.65339E+03     1.65339E+03         2.57080         2.57080        -14.9889        -14.9889
            2756     1.64732E+03     1.64732E+03         1.35689         1.35689        -11.1094        -11.1094
            2757     1.64063E+03     1.64063E+03     506.690E-03     506.690E-03        -6.14619        -6.14619
            2758     1.73218E+03     1.73218E+03        -47.5167        -47.5167        -11.9686        -11.9686
            2759     1.72031E+03     1.72031E+03        -31.3931        -31.3931        -21.5413        -21.5413
            2760     1.70836E+03     1.70836E+03        -19.7029        -19.7029        -25.7871        -25.7871
            2761     1.69774E+03     1.69774E+03        -11.7488        -11.7488        -27.0246        -27.0246
            2762     1.68865E+03     1.68865E+03        -6.57405        -6.57405        -26.6428        -26.6428
            2763     1.68092E+03     1.68092E+03        -3.34792        -3.34792        -25.3928        -25.3928
            2764     1.67426E+03     1.67426E+03        -1.45120        -1.45120        -23.6300        -23.6300
            2765     1.66838E+03     1.66838E+03    -434.446E-03    -434.446E-03        -21.4785        -21.4785
            2766     1.66302E+03     1.66302E+03     25.1726E-03     25.1726E-03        -18.9052        -18.9052
            2767     1.65798E+03     1.65798E+03     160.290E-03     160.290E-03        -15.7552        -15.7552
            2768     1.65309E+03     1.65309E+03     137.480E-03     137.480E-03        -11.7520        -11.7520
            2769     1.64823E+03     1.64823E+03     67.5217E-03     67.5217E-03        -6.51474        -6.51474
            2770     1.54223E+03     1.54223E+03         449.049         449.049         83.4430         83.4430
            2771     1.55771E+03     1.55771E+03         412.200         412.200         82.9424         82.9424
            2772     1.57286E+03     1.57286E+03         375.329         375.329         80.3616         80.3616
            2773     1.58730E+03     1.58730E+03         339.133         339.133         76.5351         76.5351
            2774     1.60075E+03     1.60075E+03         304.098         304.098         71.6012         71.6012
            2775     1.61300E+03     1.61300E+03         270.661         270.661         65.7267         65.7267
            2776     1.62388E+03     1.62388E+03         239.182         239.182         59.1542         59.1542
            2777     1.63332E+03     1.63332E+03         209.915         209.915         52.1266         52.1266
            2778     1.64128E+03     1.64128E+03         183.024         183.024         44.8973         44.8973
            2779     1.64782E+03     1.64782E+03         158.573         158.573         37.6915         37.6915
            2780     1.65300E+03     1.65300E+03         136.553         136.553         30.6973         30.6973
            2781     1.65693E+03     1.65693E+03         116.889         116.889         24.0662         24.0662
            2782     1.65975E+03     1.65975E+03         99.4658         99.4658         17.8975         17.8975
            2783     1.66159E+03     1.66159E+03         84.1386         84.1386         12.2610         12.2610
            2784     1.66257E+03     1.66257E+03         70.7433         70.7433         7.18212         7.18212
            2785     1.66282E+03     1.66282E+03         59.1138         59.1138         2.66803         2.66803
            2786     1.66245E+03     1.66245E+03         49.0784         49.0784        -1.30299        -1.30299
            2787     1.66156E+03     1.66156E+03         40.4746         40.4746        -4.76114        -4.76114
            2788     1.66024E+03     1.66024E+03         33.1427         33.1427        -7.75221        -7.75221
            2789     1.65856E+03     1.65856E+03         26.9350         26.9350        -10.3240        -10.3240
            2790     1.65660E+03     1.65660E+03         21.7100         21.7100        -12.5313        -12.5313
            2791     1.65440E+03     1.65440E+03         17.3377         17.3377        -14.4277        -14.4277
            2792     1.65201E+03     1.65201E+03         13.6951         13.6951        -16.0689        -16.0689
            2793     1.64948E+03     1.64948E+03         10.6687         10.6687        -17.5089        -17.5089
            2794     1.64684E+03     1.64684E+03         8.15098         8.15098        -18.8025        -18.8025
            2795     1.64411E+03     1.64411E+03         6.04158         6.04158        -20.0037        -20.0037
            2796     1.64133E+03     1.64133E+03         4.24433         4.24433        -21.1676        -21.1676
            2797     1.63851E+03     1.63851E+03         2.66712         2.66712        -22.3511        -22.3511
            2798     1.63569E+03     1.63569E+03         1.21924         1.21924        -23.6143        -23.6143
            2799     1.63289E+03     1.63289E+03    -190.063E-03    -190.063E-03        -25.0221        -25.0221
            2800     1.63014E+03     1.63014E+03        -1.65486        -1.65486        -26.6461        -26.6461
            2801     1.62750E+03     1.62750E+03        -3.27602        -3.27602        -28.5661        -28.5661
            2802     1.62503E+03     1.62503E+03        -5.16638        -5.16638        -30.8714        -30.8714
            2803     1.62283E+03     1.62283E+03        -7.45817        -7.45817        -33.6614        -33.6614
            2804     1.62104E+03     1.62104E+03        -10.3122        -10.3122        -37.0436        -37.0436
            2805     1.61989E+03     1.61989E+03        -13.9329        -13.9329        -41.1266        -41.1266
            2806     1.61972E+03     1.61972E+03        -18.5824        -18.5824        -46.0032        -46.0032
            2807     1.62105E+03     1.62105E+03        -24.6047        -24.6047        -51.7132        -51.7132
            2808     1.62466E+03     1.62466E+03        -32.4282        -32.4282        -58.1647        -58.1647
            2809     1.63170E+03     1.63170E+03        -42.5547        -42.5547        -64.9727        -64.9727
            2810     1.64375E+03     1.64375E+03        -55.3268        -55.3268        -71.1519        -71.1519
            2811     1.66261E+03     1.66261E+03        -70.4893        -70.4893        -74.7601        -74.7601
            2812     1.53972E+03     1.53972E+03         449.745         449.745         64.1095         64.1095
            2813     1.55470E+03     1.55470E+03         414.272         414.272         63.7061         63.7061
            2814     1.56939E+03     1.56939E+03         378.808         378.808         61.7548         61.7548
            2815     1.58348E+03     1.58348E+03         343.941         343.941         58.9116         58.9116
            2816     1.59673E+03     1.59673E+03         310.081         310.081         55.2482         55.2482
            2817     1.60894E+03     1.60894E+03         277.601         277.601         50.8975         50.8975
            2818     1.61997E+03     1.61997E+03         246.813         246.813         46.0051         46.0051
            2819     1.62972E+03     1.62972E+03         217.964         217.964         40.7514         40.7514
            2820     1.63813E+03     1.63813E+03         191.222         191.222         35.3077         35.3077
            2821     1.64520E+03     1.64520E+03         166.686         166.686         29.8400         29.8400
            2822     1.65099E+03     1.65099E+03         144.383         144.383         24.4920         24.4920
            2823     1.65554E+03     1.65554E+03         124.287         124.287         19.3770         19.3770
            2824     1.65896E+03     1.65896E+03         106.328         106.328         14.5846         14.5846
            2825     1.66135E+03     1.66135E+03         90.4020         90.4020         10.1685         10.1685
            2826     1.66283E+03     1.66283E+03         76.3827         76.3827         6.16426         6.16426
            2827     1.66349E+03     1.66349E+03         64.1286         64.1286         2.57849         2.57849
            2828     1.66344E+03     1.66344E+03         53.4941         53.4941    -593.203E-03    -593.203E-03
            2829     1.66278E+03     1.66278E+03         44.3285         44.3285        -3.37376        -3.37376
            2830     1.66159E+03     1.66159E+03         36.4863         36.4863        -5.79117        -5.79117
            2831     1.65997E+03     1.65997E+03         29.8239         29.8239        -7.88341        -7.88341
            2832     1.65796E+03     1.65796E+03         24.2060         24.2060        -9.68966        -9.68966
            2833     1.65564E+03     1.65564E+03         19.5030         19.5030        -11.2538        -11.2538
            2834     1.65305E+03     1.65305E+03         15.5944         15.5944        -12.6191        -12.6191
            2835     1.65024E+03     1.65024E+03         12.3661         12.3661        -13.8313        -13.8313
            2836     1.64723E+03     1.64723E+03         9.71244         9.71244        -14.9356        -14.9356
            2837     1.64405E+03     1.64405E+03         7.53410         7.53410        -15.9797        -15.9797
            2838     1.64072E+03     1.64072E+03         5.73850         5.73850        -17.0125        -17.0125
            2839     1.63726E+03     1.63726E+03         4.23808         4.23808        -18.0870        -18.0870
            2840     1.63366E+03     1.63366E+03         2.94973         2.94973        -19.2611        -19.2611
            2841     1.62993E+03     1.62993E+03         1.79274         1.79274        -20.6008        -20.6008
            2842     1.62607E+03     1.62607E+03     686.853E-03     686.853E-03        -22.1822        -22.1822
            2843     1.62208E+03     1.62208E+03    -451.048E-03    -451.048E-03        -24.0964        -24.0964
            2844     1.61796E+03     1.61796E+03        -1.71179        -1.71179        -26.4536        -26.4536
            2845     1.61373E+03     1.61373E+03        -3.20073        -3.20073        -29.3895        -29.3895
            2846     1.60941E+03     1.60941E+03        -5.04969        -5.04969        -33.0729        -33.0729
            2847     1.60509E+03     1.60509E+03        -7.43275        -7.43275        -37.7145        -37.7145
            2848     1.60092E+03     1.60092E+03        -10.5963        -10.5963        -43.5754        -43.5754
            2849     1.59720E+03     1.59720E+03        -14.8971        -14.8971        -50.9726        -50.9726
            2850     1.59450E+03     1.59450E+03        -20.8781        -20.8781        -60.2655        -60.2655
            2851     1.59386E+03     1.59386E+03        -29.3529        -29.3529        -71.7980        -71.7980
            2852     1.59720E+03     1.59720E+03        -41.5632        -41.5632        -85.6506        -85.6506
            2853     1.60784E+03     1.60784E+03        -59.0133        -59.0133        -101.068        -101.068
            2854     1.53800E+03     1.53800E+03         450.260         450.260         45.3466         45.3466
            2855     1.55261E+03     1.55261E+03         415.758         415.758         45.0060         45.0060
            2856     1.56697E+03     1.56697E+03         381.280         381.280         43.6065         43.6065
            2857     1.58080E+03     1.58080E+03         347.352         347.352         41.6000         41.6000
            2858     1.59388E+03     1.59388E+03         314.332         314.332         39.0487         39.0487
            2859     1.60604E+03     1.60604E+03         282.545         282.545         36.0229         36.0229
            2860     1.61714E+03     1.61714E+03         252.278         252.278         32.6309         32.6309
            2861     1.62707E+03     1.62707E+03         223.761         223.761         28.9799         28.9799
            2862     1.63575E+03     1.63575E+03         197.168         197.168         25.1900         25.1900
            2863     1.64318E+03     1.64318E+03         172.610         172.610         21.3701         21.3701
            2864     1.64936E+03     1.64936E+03         150.143         150.143         17.6182         17.6182
            2865     1.65434E+03     1.65434E+03         129.769         129.769         14.0171         14.0171
            2866     1.65819E+03     1.65819E+03         111.447         111.447         10.6268         10.6268
            2867     1.66098E+03     1.66098E+03         95.1057         95.1057         7.49319         7.49319
            2868     1.66281E+03     1.66281E+03         80.6422         80.6422         4.63911         4.63911
            2869     1.66377E+03     1.66377E+03         67.9396         67.9396         2.07732         2.07732
            2870     1.66397E+03     1.66397E+03         56.8668         56.8668    -197.062E-03    -197.062E-03
            2871     1.66349E+03     1.66349E+03         47.2890         47.2890        -2.19440        -2.19440
            2872     1.66242E+03     1.66242E+03         39.0677         39.0677        -3.93614        -3.93614
            2873     1.66084E+03     1.66084E+03         32.0677         32.0677        -5.44585        -5.44585
            2874     1.65881E+03     1.65881E+03         26.1567         26.1567        -6.75303        -6.75303
            2875     1.65641E+03     1.65641E+03         21.2088         21.2088        -7.88747        -7.88747
            2876     1.65367E+03     1.65367E+03         17.1042         17.1042        -8.88193        -8.88193
            2877     1.65064E+03     1.65064E+03         13.7315         13.7315        -9.76906        -9.76906
            2878     1.64735E+03     1.64735E+03         10.9861         10.9861        -10.5836        -10.5836
            2879     1.64382E+03     1.64382E+03         8.77188         8.77188        -11.3609        -11.3609
            2880     1.64006E+03     1.64006E+03         7.00004         7.00004        -12.1395        -12.1395
            2881     1.63606E+03     1.63606E+03         5.58940         5.58940        -12.9609        -12.9609
            2882     1.63182E+03     1.63182E+03         4.46550         4.46550        -13.8719        -13.8719
            2883     1.62732E+03     1.62732E+03         3.56024         3.56024        -14.9272        -14.9272
            2884     1.62250E+03     1.62250E+03         2.81062         2.81062        -16.1921        -16.1921
            2885     1.61733E+03     1.61733E+03         2.15719         2.15719        -17.7470        -17.7470
            2886     1.61172E+03     1.61172E+03         1.54165         1.54165        -19.6939        -19.6939
            2887     1.60559E+03     1.60559E+03     902.316E-03     902.316E-03        -22.1648        -22.1648
            2888     1.59882E+03     1.59882E+03     168.049E-03     168.049E-03        -25.3346        -25.3346
            2889     1.59129E+03     1.59129E+03    -754.911E-03    -754.911E-03        -29.4394        -29.4394
            2890     1.58284E+03     1.58284E+03        -2.00048        -2.00048        -34.8055        -34.8055
            2891     1.57334E+03     1.57334E+03        -3.78345        -3.78345        -41.8902        -41.8902
            2892     1.56268E+03     1.56268E+03        -6.45815        -6.45815        -51.3502        -51.3502
            2893     1.55096E+03     1.55096E+03        -10.6595        -10.6595        -64.1308        -64.1308
            2894     1.53873E+03     1.53873E+03        -17.5645        -17.5645        -81.6227        -81.6227
            2895     1.52800E+03     1.52800E+03        -29.4548        -29.4548        -105.647        -105.647
            2896     1.53691E+03     1.53691E+03         450.605         450.605         26.9699         26.9699
            2897     1.55129E+03     1.55129E+03         416.719         416.719         26.6800         26.6800
            2898     1.56544E+03     1.56544E+03         382.863         382.863         25.7706         25.7706
            2899     1.57910E+03     1.57910E+03         349.530         349.530         24.5252         24.5252
            2900     1.59207E+03     1.59207E+03         317.042         317.042         22.9687         22.9687
            2901     1.60419E+03     1.60419E+03         285.699         285.699         21.1544         21.1544
            2902     1.61532E+03     1.61532E+03         255.768         255.768         19.1336         19.1336
            2903     1.62534E+03     1.62534E+03         227.474         227.474         16.9761         16.9761
            2904     1.63419E+03     1.63419E+03         200.987         200.987         14.7443         14.7443
            2905     1.64183E+03     1.64183E+03         176.428         176.428         12.5032         12.5032
            2906     1.64825E+03     1.64825E+03         153.867         153.867         10.3083         10.3083
            2907     1.65349E+03     1.65349E+03         133.324         133.324         8.20530         8.20530
            2908     1.65760E+03     1.65760E+03         114.779         114.779         6.23150         6.23150
            2909     1.66064E+03     1.66064E+03         98.1753         98.1753         4.40969         4.40969
            2910     1.66270E+03     1.66270E+03         83.4302         83.4302         2.75665         2.75665
            2911     1.66386E+03     1.66386E+03         70.4392         70.4392         1.27583         1.27583
            2912     1.66422E+03     1.66422E+03         59.0848         59.0848    -32.5460E-03    -32.5460E-03
            2913     1.66386E+03     1.66386E+03         49.2394         49.2394        -1.17787        -1.17787
            2914     1.66286E+03     1.66286E+03         40.7727         40.7727        -2.17059        -2.17059
            2915     1.66131E+03     1.66131E+03         33.5530         33.5530        -3.02696        -3.02696
            2916     1.65928E+03     1.65928E+03         27.4520         27.4520        -3.76300        -3.76300
            2917     1.65682E+03     1.65682E+03         22.3454         22.3454        -4.39783        -4.39783
            2918     1.65399E+03     1.65399E+03         18.1155         18.1155        -4.94991        -4.94991
            2919     1.65082E+03     1.65082E+03         14.6516         14.6516        -5.43942        -5.43942
            2920     1.64734E+03     1.64734E+03         11.8513         11.8513        -5.88621        -5.88621
            2921     1.64358E+03     1.64358E+03         9.62033         9.62033        -6.31167        -6.31167
            2922     1.63953E+03     1.63953E+03         7.87352         7.87352        -6.73794        -6.73794
            2923     1.63518E+03     1.63518E+03         6.53444         6.53444        -7.18963        -7.18963
            2924     1.63051E+03     1.63051E+03         5.53585         5.53585        -7.69413        -7.69413
            2925     1.62547E+03     1.62547E+03         4.81979         4.81979        -8.28372        -8.28372
            2926     1.61999E+03     1.61999E+03         4.33763         4.33763        -8.99714        -8.99714
            2927     1.61398E+03     1.61398E+03         4.05032         4.05032        -9.88295        -9.88295
            2928     1.60730E+03     1.60730E+03         3.92810         3.92810        -11.0034        -11.0034
            2929     1.59979E+03     1.59979E+03         3.95075         3.95075        -12.4413        -12.4413
            2930     1.59120E+03     1.59120E+03         4.10595         4.10595        -14.3086        -14.3086
            2931     1.58122E+03     1.58122E+03         4.38882         4.38882        -16.7631        -16.7631
            2932     1.56940E+03     1.56940E+03         4.79514         4.79514        -20.0304        -20.0304
            2933     1.55514E+03     1.55514E+03         5.31627         5.31627        -24.4481        -24.4481
            2934     1.53759E+03     1.53759E+03         5.91188         5.91188        -30.5321        -30.5321
            2935     1.51554E+03     1.51554E+03         6.47256         6.47256        -39.1179        -39.1179
            2936     1.48722E+03     1.48722E+03         6.70308         6.70308        -51.6189        -51.6189
            2937     1.45002E+03     1.45002E+03         5.77693         5.77693        -70.6984        -70.6984
            2938     1.53639E+03     1.53639E+03         450.773         450.773         8.83917         8.83917
            2939     1.55066E+03     1.55066E+03         417.179         417.179         8.60433         8.60433
            2940     1.56471E+03     1.56471E+03         383.617         383.617         8.18101         8.18101
            2941     1.57829E+03     1.57829E+03         350.562         350.562         7.65822         7.65822
            2942     1.59121E+03     1.59121E+03         318.321         318.321         7.05755         7.05755
            2943     1.60331E+03     1.60331E+03         287.183         287.183         6.39044         6.39044
            2944     1.61445E+03     1.61445E+03         257.406         257.406         5.68378         5.68378
            2945     1.62452E+03     1.62452E+03         229.209         229.209         4.95463         4.95463
            2946     1.63344E+03     1.63344E+03         202.767         202.767         4.22758         4.22758
            2947     1.64118E+03     1.64118E+03         178.203         178.203         3.51964         3.51964
            2948     1.64771E+03     1.64771E+03         155.593         155.593         2.84740         2.84740
            2949     1.65308E+03     1.65308E+03         134.967         134.967         2.22351         2.22351
            2950     1.65730E+03     1.65730E+03         116.314         116.314         1.65515         1.65515
            2951     1.66046E+03     1.66046E+03         99.5848         99.5848         1.14888         1.14888
            2952     1.66262E+03     1.66262E+03         84.7056         84.7056     704.322E-03     704.322E-03
            2953     1.66387E+03     1.66387E+03         71.5789         71.5789     322.467E-03     322.467E-03
            2954     1.66430E+03     1.66430E+03         60.0919         60.0919    -1.57590E-03    -1.57590E-03
            2955     1.66399E+03     1.66399E+03         50.1219         50.1219    -270.607E-03    -270.607E-03
            2956     1.66303E+03     1.66303E+03         41.5411         41.5411    -491.413E-03    -491.413E-03
            2957     1.66149E+03     1.66149E+03         34.2203         34.2203    -668.679E-03    -668.679E-03
            2958     1.65945E+03     1.65945E+03         28.0321         28.0321    -809.372E-03    -809.372E-03
            2959     1.65697E+03     1.65697E+03         22.8531         22.8531    -918.667E-03    -918.667E-03
            2960     1.65410E+03     1.65410E+03         18.5664         18.5664        -1.00285        -1.00285
            2961     1.65087E+03     1.65087E+03         15.0615         15.0615        -1.06683        -1.06683
            2962     1.64731E+03     1.64731E+03         12.2366         12.2366        -1.11594        -1.11594
            2963     1.64345E+03     1.64345E+03         9.99821         9.99821        -1.15457        -1.15457
            2964     1.63927E+03     1.63927E+03         8.26249         8.26249        -1.18723        -1.18723
            2965     1.63477E+03     1.63477E+03         6.95486         6.95486        -1.21781        -1.21781
            2966     1.62991E+03     1.62991E+03         6.01120         6.01120        -1.25034        -1.25034
            2967     1.62464E+03     1.62464E+03         5.37765         5.37765        -1.28848        -1.28848
            2968     1.61888E+03     1.61888E+03         5.01200         5.01200        -1.33620        -1.33620
            2969     1.61252E+03     1.61252E+03         4.88375         4.88375        -1.39741        -1.39741
            2970     1.60540E+03     1.60540E+03         4.97638         4.97638        -1.47664        -1.47664
            2971     1.59730E+03     1.59730E+03         5.28757         5.28757        -1.57866        -1.57866
            2972     1.58794E+03     1.58794E+03         5.83368         5.83368        -1.70967        -1.70967
            2973     1.57690E+03     1.57690E+03         6.64969         6.64969        -1.87633        -1.87633
            2974     1.56362E+03     1.56362E+03         7.79915         7.79915        -2.08842        -2.08842
            2975     1.54728E+03     1.54728E+03         9.37215         9.37215        -2.35588        -2.35588
            2976     1.52666E+03     1.52666E+03         11.5083         11.5083        -2.69467        -2.69467
            2977     1.49990E+03     1.49990E+03         14.3906         14.3906        -3.11615        -3.11615
            2978     1.46397E+03     1.46397E+03         18.3036         18.3036        -3.63007        -3.63007
            2979     1.41344E+03     1.41344E+03         23.6552         23.6552        -4.12954        -4.12954
            2980     1.53639E+03     1.53639E+03         450.774         450.774        -9.18472        -9.18472
            2981     1.55067E+03     1.55067E+03         417.165         417.165        -9.32179        -9.32179
            2982     1.56473E+03     1.56473E+03         383.588         383.588        -9.24007        -9.24007
            2983     1.57832E+03     1.57832E+03         350.515         350.515        -9.01631        -9.01631
            2984     1.59124E+03     1.59124E+03         318.252         318.252        -8.66076        -8.66076
            2985     1.60335E+03     1.60335E+03         287.090         287.090        -8.17541        -8.17541
            2986     1.61450E+03     1.61450E+03         257.288         257.288        -7.58110        -7.58110
            2987     1.62457E+03     1.62457E+03         229.068         229.068        -6.89222        -6.89222
            2988     1.63350E+03     1.63350E+03         202.605         202.605        -6.13466        -6.13466
            2989     1.64123E+03     1.64123E+03         178.023         178.023        -5.32984        -5.32984
            2990     1.64776E+03     1.64776E+03         155.401         155.401        -4.50154        -4.50154
            2991     1.65312E+03     1.65312E+03         134.767         134.767        -3.67137        -3.67137
            2992     1.65733E+03     1.65733E+03         116.110         116.110        -2.85638        -2.85638
            2993     1.66048E+03     1.66048E+03         99.3832         99.3832        -2.07322        -2.07322
            2994     1.66262E+03     1.66262E+03         84.5095         84.5095        -1.33099        -1.33099
            2995     1.66386E+03     1.66386E+03         71.3913         71.3913    -639.289E-03    -639.289E-03
            2996     1.66427E+03     1.66427E+03         59.9151         59.9151    -345.990E-06    -345.990E-06
            2997     1.66395E+03     1.66395E+03         49.9574         49.9574     582.857E-03     582.857E-03
            2998     1.66298E+03     1.66298E+03         41.3895         41.3895         1.11306         1.11306
            2999     1.66144E+03     1.66144E+03         34.0814         34.0814         1.59235         1.59235
            3000     1.65940E+03     1.65940E+03         27.9050         27.9050         2.02671         2.02671
            3001     1.65692E+03     1.65692E+03         22.7366         22.7366         2.42179         2.42179
            3002     1.65405E+03     1.65405E+03         18.4581         18.4581         2.78583         2.78583
            3003     1.65084E+03     1.65084E+03         14.9588         14.9588         3.12717         3.12717
            3004     1.64731E+03     1.64731E+03         12.1358         12.1358         3.45622         3.45622
            3005     1.64347E+03     1.64347E+03         9.89505         9.89505         3.78423         3.78423
            3006     1.63933E+03     1.63933E+03         8.15143         8.15143         4.12476         4.12476
            3007     1.63488E+03     1.63488E+03         6.82916         6.82916         4.49344         4.49344
            3008     1.63009E+03     1.63009E+03         5.86206         5.86206         4.90955         4.90955
            3009     1.62490E+03     1.62490E+03         5.19396         5.19396         5.39670         5.39670
            3010     1.61926E+03     1.61926E+03         4.77888         4.77888         5.98515         5.98515
            3011     1.61304E+03     1.61304E+03         4.58163         4.58163         6.71392         6.71392
            3012     1.60611E+03     1.60611E+03         4.57808         4.57808         7.63538         7.63538
            3013     1.59828E+03     1.59828E+03         4.75594         4.75594         8.82011         8.82011
            3014     1.58928E+03     1.58928E+03         5.11468         5.11468         10.3676         10.3676
            3015     1.57876E+03     1.57876E+03         5.66606         5.66606         12.4181         12.4181
            3016     1.56622E+03     1.56622E+03         6.43186         6.43186         15.1814         15.1814
            3017     1.55098E+03     1.55098E+03         7.44041         7.44041         18.9703         18.9703
            3018     1.53205E+03     1.53205E+03         8.71184         8.71184         24.2866         24.2866
            3019     1.50801E+03     1.50801E+03         10.2260         10.2260         31.9475         31.9475
            3020     1.47672E+03     1.47672E+03         11.8250         11.8250         43.4112         43.4112
            3021     1.43512E+03     1.43512E+03         12.8489         12.8489         61.4687         61.4687
            3022     1.53691E+03     1.53691E+03         450.611         450.611        -27.2647        -27.2647
            3023     1.55132E+03     1.55132E+03         416.693         416.693        -27.2869        -27.2869
            3024     1.56549E+03     1.56549E+03         382.798         382.798        -26.6661        -26.6661
            3025     1.57917E+03     1.57917E+03         349.414         349.414        -25.6723        -25.6723
            3026     1.59217E+03     1.59217E+03         316.868         316.868        -24.3205        -24.3205
            3027     1.60431E+03     1.60431E+03         285.461         285.461        -22.6561        -22.6561
            3028     1.61546E+03     1.61546E+03         255.466         255.466        -20.7252        -20.7252
            3029     1.62549E+03     1.62549E+03         227.109         227.109        -18.5960        -18.5960
            3030     1.63434E+03     1.63434E+03         200.567         200.567        -16.3325        -16.3325
            3031     1.64198E+03     1.64198E+03         175.963         175.963        -14.0041        -14.0041
            3032     1.64839E+03     1.64839E+03         153.369         153.369        -11.6728        -11.6728
            3033     1.65360E+03     1.65360E+03         132.806         132.806        -9.39246        -9.39246
            3034     1.65768E+03     1.65768E+03         114.253         114.253        -7.20894        -7.20894
            3035     1.66069E+03     1.66069E+03         97.6540         97.6540        -5.15360        -5.15360
            3036     1.66271E+03     1.66271E+03         82.9232         82.9232        -3.25132        -3.25132
            3037     1.66383E+03     1.66383E+03         69.9546         69.9546        -1.51252        -1.51252
            3038     1.66415E+03     1.66415E+03         58.6282         58.6282     56.5939E-03     56.5939E-03
            3039     1.66376E+03     1.66376E+03         48.8146         48.8146         1.46093         1.46093
            3040     1.66274E+03     1.66274E+03         40.3813         40.3813         2.70757         2.70757
            3041     1.66118E+03     1.66118E+03         33.1946         33.1946         3.81085         3.81085
            3042     1.65914E+03     1.65914E+03         27.1245         27.1245         4.78598         4.78598
            3043     1.65669E+03     1.65669E+03         22.0449         22.0449         5.65250         5.65250
            3044     1.65388E+03     1.65388E+03         17.8367         17.8367         6.43041         6.43041
            3045     1.65075E+03     1.65075E+03         14.3873         14.3873         7.14254         7.14254
            3046     1.64733E+03     1.64733E+03         11.5927         11.5927         7.81262         7.81262
            3047     1.64363E+03     1.64363E+03         9.35628         9.35628         8.46718         8.46718
            3048     1.63968E+03     1.63968E+03         7.59032         7.59032         9.13509         9.13509
            3049     1.63546E+03     1.63546E+03         6.21493         6.21493         9.84957         9.84957
            3050     1.63095E+03     1.63095E+03         5.15836         5.15836         10.6490         10.6490
            3051     1.62613E+03     1.62613E+03         4.35644         4.35644         11.5798         11.5798
            3052     1.62093E+03     1.62093E+03         3.75205         3.75205         12.6990         12.6990
            3053     1.61529E+03     1.61529E+03         3.29412         3.29412         14.0789         14.0789
            3054     1.60911E+03     1.60911E+03         2.93592         2.93592         15.8132         15.8132
            3055     1.60225E+03     1.60225E+03         2.63233         2.63233         18.0265         18.0265
            3056     1.59456E+03     1.59456E+03         2.33451         2.33451         20.8872         20.8872
            3057     1.58583E+03     1.58583E+03         1.98159         1.98159         24.6301         24.6301
            3058     1.57580E+03     1.57580E+03         1.48290         1.48290         29.5857         29.5857
            3059     1.56416E+03     1.56416E+03     689.790E-03     689.790E-03         36.2386         36.2386
            3060     1.55056E+03     1.55056E+03    -669.962E-03    -669.962E-03         45.3014         45.3014
            3061     1.53471E+03     1.53471E+03        -3.10956        -3.10956         57.8694         57.8694
            3062     1.51660E+03     1.51660E+03        -7.68220        -7.68220         75.6252         75.6252
            3063     1.49732E+03     1.49732E+03        -16.5567        -16.5567         101.018         101.018
            3064     1.53800E+03     1.53800E+03         450.272         450.272        -45.5740        -45.5740
            3065     1.55264E+03     1.55264E+03         415.734         415.734        -45.4680        -45.4680
            3066     1.56704E+03     1.56704E+03         381.202         381.202        -44.2852        -44.2852
            3067     1.58089E+03     1.58089E+03         347.209         347.209        -42.4664        -42.4664
            3068     1.59401E+03     1.59401E+03         314.112         314.112        -40.0658        -40.0658
            3069     1.60621E+03     1.60621E+03         282.242         282.242        -37.1470        -37.1470
            3070     1.61733E+03     1.61733E+03         251.890         251.890        -33.8150        -33.8150
            3071     1.62727E+03     1.62727E+03         223.293         223.293        -30.1763        -30.1763
            3072     1.63595E+03     1.63595E+03         196.630         196.630        -26.3533        -26.3533
            3073     1.64337E+03     1.64337E+03         172.015         172.015        -22.4589        -22.4589
            3074     1.64953E+03     1.64953E+03         149.507         149.507        -18.5974        -18.5974
            3075     1.65448E+03     1.65448E+03         129.109         129.109        -14.8579        -14.8579
            3076     1.65828E+03     1.65828E+03         110.780         110.780        -11.3076        -11.3076
            3077     1.66102E+03     1.66102E+03         94.4452         94.4452        -7.99904        -7.99904
            3078     1.66280E+03     1.66280E+03         80.0014         80.0014        -4.96074        -4.96074
            3079     1.66372E+03     1.66372E+03         67.3283         67.3283        -2.21073        -2.21073
            3080     1.66387E+03     1.66387E+03         56.2923         56.2923     251.913E-03     251.913E-03
            3081     1.66335E+03     1.66335E+03         46.7556         46.7556         2.43435         2.43435
            3082     1.66225E+03     1.66225E+03         38.5773         38.5773         4.35598         4.35598
            3083     1.66065E+03     1.66065E+03         31.6198         31.6198         6.03903         6.03903
            3084     1.65863E+03     1.65863E+03         25.7483         25.7483         7.51264         7.51264
            3085     1.65623E+03     1.65623E+03         20.8353         20.8353         8.80686         8.80686
            3086     1.65352E+03     1.65352E+03         16.7589         16.7589         9.95547         9.95547
            3087     1.65053E+03     1.65053E+03         13.4057         13.4057         10.9927         10.9927
            3088     1.64731E+03     1.64731E+03         10.6690         10.6690         11.9557         11.9557
            3089     1.64387E+03     1.64387E+03         8.45023         8.45023         12.8827         12.8827
            3090     1.64023E+03     1.64023E+03         6.65755         6.65755         13.8160         13.8160
            3091     1.63639E+03     1.63639E+03         5.20591         5.20591         14.8016         14.8016
            3092     1.63235E+03     1.63235E+03         4.01578         4.01578         15.8921         15.8921
            3093     1.62810E+03     1.62810E+03         3.01227         3.01227         17.1488         17.1488
            3094     1.62362E+03     1.62362E+03         2.12312         2.12312         18.6453         18.6453
            3095     1.61888E+03     1.61888E+03         1.27621         1.27621         20.4718         20.4718
            3096     1.61384E+03     1.61384E+03     395.628E-03     395.628E-03         22.7419         22.7419
            3097     1.60847E+03     1.60847E+03    -605.154E-03    -605.154E-03         25.6003         25.6003
            3098     1.60272E+03     1.60272E+03        -1.83257        -1.83257         29.2358         29.2358
            3099     1.59658E+03     1.59658E+03        -3.43157        -3.43157         33.8951         33.8951
            3100     1.59008E+03     1.59008E+03        -5.61027        -5.61027         39.9079         39.9079
            3101     1.58333E+03     1.58333E+03        -8.69362        -8.69362         47.7086         47.7086
            3102     1.57667E+03     1.57667E+03        -13.1938        -13.1938         57.8715         57.8715
            3103     1.57085E+03     1.57085E+03        -19.9711        -19.9711         71.1050         71.1050
            3104     1.56751E+03     1.56751E+03        -30.4387        -30.4387         88.1545         88.1545
            3105     1.56990E+03     1.56990E+03        -46.7552        -46.7552         109.359         109.359
            3106     1.53972E+03     1.53972E+03         449.759         449.759        -64.2677        -64.2677
            3107     1.55473E+03     1.55473E+03         414.250         414.250        -64.0224        -64.0224
            3108     1.56945E+03     1.56945E+03         378.735         378.735        -62.2140        -62.2140
            3109     1.58357E+03     1.58357E+03         343.804         343.804        -59.4943        -59.4943
            3110     1.59685E+03     1.59685E+03         309.871         309.871        -55.9278        -55.9278
            3111     1.60910E+03     1.60910E+03         277.311         277.311        -51.6429        -51.6429
            3112     1.62015E+03     1.62015E+03         246.442         246.442        -46.7827        -46.7827
            3113     1.62990E+03     1.62990E+03         217.519         217.519        -41.5283        -41.5283
            3114     1.63832E+03     1.63832E+03         190.713         190.713        -36.0533        -36.0533
            3115     1.64538E+03     1.64538E+03         166.126         166.126        -30.5277        -30.5277
            3116     1.65113E+03     1.65113E+03         143.788         143.788        -25.0999        -25.0999
            3117     1.65565E+03     1.65565E+03         123.673         123.673        -19.8884        -19.8884
            3118     1.65903E+03     1.65903E+03         105.711         105.711        -14.9876        -14.9876
            3119     1.66138E+03     1.66138E+03         89.7941         89.7941        -10.4557        -10.4557
            3120     1.66280E+03     1.66280E+03         75.7958         75.7958        -6.33215        -6.33215
            3121     1.66341E+03     1.66341E+03         63.5714         63.5714        -2.62657        -2.62657
            3122     1.66332E+03     1.66332E+03         52.9728         52.9728     662.962E-03     662.962E-03
            3123     1.66263E+03     1.66263E+03         43.8467         43.8467         3.55779         3.55779
            3124     1.66142E+03     1.66142E+03         36.0452         36.0452         6.08471         6.08471
            3125     1.65978E+03     1.65978E+03         29.4227         29.4227         8.28116         8.28116
            3126     1.65777E+03     1.65777E+03         23.8421         23.8421         10.1861         10.1861
            3127     1.65546E+03     1.65546E+03         19.1721         19.1721         11.8437         11.8437
            3128     1.65289E+03     1.65289E+03         15.2905         15.2905         13.2978         13.2978
            3129     1.65012E+03     1.65012E+03         12.0816         12.0816         14.5947         14.5947
            3130     1.64716E+03     1.64716E+03         9.43809         9.43809         15.7809         15.7809
            3131     1.64407E+03     1.64407E+03         7.25866         7.25866         16.9051         16.9051
            3132     1.64084E+03     1.64084E+03         5.44840         5.44840         18.0177         18.0177
            3133     1.63751E+03     1.63751E+03         3.91678         3.91678         19.1731         19.1731
            3134     1.63408E+03     1.63408E+03         2.57688         2.57688         20.4310         20.4310
            3135     1.63057E+03     1.63057E+03         1.34300         1.34300         21.8585         21.8585
            3136     1.62699E+03     1.62699E+03     128.313E-03     128.313E-03         23.5332         23.5332
            3137     1.62336E+03     1.62336E+03        -1.15898        -1.15898         25.5464         25.5464
            3138     1.61970E+03     1.61970E+03        -2.62130        -2.62130         28.0067         28.0067
            3139     1.61607E+03     1.61607E+03        -4.37913        -4.37913         31.0454         31.0454
            3140     1.61254E+03     1.61254E+03        -6.58452        -6.58452         34.8199         34.8199
            3141     1.60926E+03     1.60926E+03        -9.43674        -9.43674         39.5182         39.5182
            3142     1.60649E+03     1.60649E+03        -13.2141        -13.2141         45.3557         45.3557
            3143     1.60466E+03     1.60466E+03        -18.3052        -18.3052         52.5634         52.5634
            3144     1.60452E+03     1.60452E+03        -25.2764        -25.2764         61.3363         61.3363
            3145     1.60728E+03     1.60728E+03        -34.8976        -34.8976         71.7111         71.7111
            3146     1.61495E+03     1.61495E+03        -48.1618        -48.1618         83.2437         83.2437
            3147     1.63047E+03     1.63047E+03        -65.9376        -65.9376         94.5199         94.5199
            3148     1.54222E+03     1.54222E+03         449.058         449.058        -83.5282        -83.5282
            3149     1.55772E+03     1.55772E+03         412.183         412.183        -83.1037        -83.1037
            3150     1.57290E+03     1.57290E+03         375.279         375.279        -80.5921        -80.5921
            3151     1.58735E+03     1.58735E+03         339.042         339.042        -76.8253        -76.8253
            3152     1.60082E+03     1.60082E+03         303.960         303.960        -71.9374        -71.9374
            3153     1.61309E+03     1.61309E+03         270.473         270.473        -66.0922        -66.0922
            3154     1.62398E+03     1.62398E+03         238.944         238.944        -59.5317        -59.5317
            3155     1.63343E+03     1.63343E+03         209.631         209.631        -52.4989        -52.4989
            3156     1.64139E+03     1.64139E+03         182.702         182.702        -45.2494        -45.2494
            3157     1.64791E+03     1.64791E+03         158.222         158.222        -38.0107        -38.0107
            3158     1.65307E+03     1.65307E+03         136.182         136.182        -30.9736        -30.9736
            3159     1.65699E+03     1.65699E+03         116.510         116.510        -24.2926        -24.2926
            3160     1.65978E+03     1.65978E+03         99.0864         99.0864        -18.0694        -18.0694
            3161     1.66158E+03     1.66158E+03         83.7675         83.7675        -12.3762        -12.3762
            3162     1.66253E+03     1.66253E+03         70.3871         70.3871        -7.24002        -7.24002
            3163     1.66275E+03     1.66275E+03         58.7774         58.7774        -2.66957        -2.66957
            3164     1.66236E+03     1.66236E+03         48.7653         48.7653         1.35608         1.35608
            3165     1.66145E+03     1.66145E+03         40.1867         40.1867         4.86631         4.86631
            3166     1.66011E+03     1.66011E+03         32.8805         32.8805         7.90665         7.90665
            3167     1.65842E+03     1.65842E+03         26.6978         26.6978         10.5247         10.5247
            3168     1.65646E+03     1.65646E+03         21.4961         21.4961         12.7752         12.7752
            3169     1.65426E+03     1.65426E+03         17.1444         17.1444         14.7118         14.7118
            3170     1.65189E+03     1.65189E+03         13.5188         13.5188         16.3905         16.3905
            3171     1.64939E+03     1.64939E+03         10.5049         10.5049         17.8656         17.8656
            3172     1.64678E+03     1.64678E+03         7.99433         7.99433         19.1922         19.1922
            3173     1.64410E+03     1.64410E+03         5.88570         5.88570         20.4242         20.4242
            3174     1.64138E+03     1.64138E+03         4.08156         4.08156         21.6174         21.6174
            3175     1.63864E+03     1.63864E+03         2.48831         2.48831         22.8282         22.8282
            3176     1.63591E+03     1.63591E+03         1.01334         1.01334         24.1170         24.1170
            3177     1.63323E+03     1.63323E+03    -436.539E-03    -436.539E-03         25.5477         25.5477
            3178     1.63064E+03     1.63064E+03        -1.95841        -1.95841         27.1908         27.1908
            3179     1.62819E+03     1.62819E+03        -3.65701        -3.65701         29.1232         29.1232
            3180     1.62597E+03     1.62597E+03        -5.64969        -5.64969         31.4300         31.4300
            3181     1.62408E+03     1.62408E+03        -8.07428        -8.07428         34.2026         34.2026
            3182     1.62270E+03     1.62270E+03        -11.0970        -11.0970         37.5351         37.5351
            3183     1.62206E+03     1.62206E+03        -14.9274        -14.9274         41.5141         41.5141
            3184     1.62255E+03     1.62255E+03        -19.8272        -19.8272         46.1956         46.1956
            3185     1.62469E+03     1.62469E+03        -26.1301        -26.1301         51.5608         51.5608
            3186     1.62929E+03     1.62929E+03        -34.2210        -34.2210         57.4255         57.4255
            3187     1.63744E+03     1.63744E+03        -44.4984        -44.4984         63.2837         63.2837
            3188     1.65054E+03     1.65054E+03        -57.1002        -57.1002         68.0512         68.0512
            3189     1.67002E+03     1.67002E+03        -71.4965        -71.4965         69.7580         69.7580
            3190     1.69816E+03     1.69816E+03        -59.5105        -59.5105        -27.3457        -27.3457
            3191     1.68343E+03     1.68343E+03        -54.3160        -54.3160        -34.6772        -34.6772
            3192     1.67054E+03     1.67054E+03        -47.3266        -47.3266        -38.7650        -38.7650
            3193     1.66003E+03     1.66003E+03        -39.9116        -39.9116        -40.3661        -40.3661
            3194     1.65191E+03     1.65191E+03        -32.9010        -32.9010        -40.3486        -40.3486
            3195     1.64594E+03     1.64594E+03        -26.6670        -26.6670        -39.3902        -39.3902
            3196     1.64174E+03     1.64174E+03        -21.3185        -21.3185        -37.9712        -37.9712
            3197     1.63897E+03     1.63897E+03        -16.8190        -16.8190        -36.3873        -36.3873
            3198     1.63732E+03     1.63732E+03        -13.0755        -13.0755        -34.8092        -34.8092
            3199     1.63654E+03     1.63654E+03        -9.97074        -9.97074        -33.3221        -33.3221
            3200     1.63644E+03     1.63644E+03        -7.38566        -7.38566        -31.9587        -31.9587
            3201     1.63685E+03     1.63685E+03        -5.20435        -5.20435        -30.7188        -30.7188
            3202     1.63766E+03     1.63766E+03        -3.31770        -3.31770        -29.5827        -29.5827
            3203     1.63877E+03     1.63877E+03        -1.62280        -1.62280        -28.5190        -28.5190
            3204     1.64012E+03     1.64012E+03    -21.6131E-03    -21.6131E-03        -27.4892        -27.4892
            3205     1.64165E+03     1.64165E+03         1.58002         1.58002        -26.4503        -26.4503
            3206     1.64332E+03     1.64332E+03         3.27513         3.27513        -25.3554        -25.3554
            3207     1.64509E+03     1.64509E+03         5.15580         5.15580        -24.1546        -24.1546
            3208     1.64692E+03     1.64692E+03         7.31700         7.31700        -22.7944        -22.7944
            3209     1.64879E+03     1.64879E+03         9.85538         9.85538        -21.2175        -21.2175
            3210     1.65067E+03     1.65067E+03         12.8749         12.8749        -19.3622        -19.3622
            3211     1.65253E+03     1.65253E+03         16.4837         16.4837        -17.1631        -17.1631
            3212     1.65434E+03     1.65434E+03         20.8021         20.8021        -14.5494        -14.5494
            3213     1.65604E+03     1.65604E+03         25.9566         25.9566        -11.4478        -11.4478
            3214     1.65760E+03     1.65760E+03         32.0929         32.0929        -7.77997        -7.77997
            3215     1.65895E+03     1.65895E+03         39.3630         39.3630        -3.47006        -3.47006
            3216     1.66001E+03     1.66001E+03         47.9464         47.9464         1.56053         1.56053
            3217     1.66068E+03     1.66068E+03         58.0277         58.0277         7.37652         7.37652
            3218     1.66086E+03     1.66086E+03         69.8260         69.8260         14.0401         14.0401
            3219     1.66039E+03     1.66039E+03         83.5604         83.5604         21.5769         21.5769
            3220     1.65912E+03     1.65912E+03         99.4830         99.4830         30.0001         30.0001
            3221     1.65683E+03     1.65683E+03         117.834         117.834         39.2505         39.2505
            3222     1.65335E+03     1.65335E+03         138.859         138.859         49.2396         49.2396
            3223     1.64842E+03     1.64842E+03         162.768         162.768         59.7685         59.7685
            3224     1.64189E+03     1.64189E+03         189.703         189.703         70.5868         70.5868
            3225     1.63354E+03     1.63354E+03         219.728         219.728         81.3338         81.3338
            3226     1.62333E+03     1.62333E+03         252.735         252.735         91.5853         91.5853
            3227     1.61125E+03     1.61125E+03         288.482         288.482         100.898         100.898
            3228     1.59746E+03     1.59746E+03         326.502         326.502         108.791         108.791
            3229     1.58225E+03     1.58225E+03         366.185         366.185         114.938         114.938
            3230     1.56595E+03     1.56595E+03         406.778         406.778         119.033         119.033
            3231     1.54916E+03     1.54916E+03         447.279         447.279         119.873         119.873
            3232     1.69870E+03     1.69870E+03        -50.1876        -50.1876        -13.8670        -13.8670
            3233     1.68718E+03     1.68718E+03        -48.0574        -48.0574        -22.1583        -22.1583
            3234     1.67642E+03     1.67642E+03        -43.7038        -43.7038        -27.9004        -27.9004
            3235     1.66695E+03     1.66695E+03        -38.2435        -38.2435        -31.4931        -31.4931
            3236     1.65906E+03     1.65906E+03        -32.5303        -32.5303        -33.4286        -33.4286
            3237     1.65277E+03     1.65277E+03        -27.0788        -27.0788        -34.2168        -34.2168
            3238     1.64795E+03     1.64795E+03        -22.1500        -22.1500        -34.2664        -34.2664
            3239     1.64441E+03     1.64441E+03        -17.8407        -17.8407        -33.8807        -33.8807
            3240     1.64192E+03     1.64192E+03        -14.1495        -14.1495        -33.2602        -33.2602
            3241     1.64030E+03     1.64030E+03        -11.0252        -11.0252        -32.5310        -32.5310
            3242     1.63939E+03     1.63939E+03        -8.38980        -8.38980        -31.7636        -31.7636
            3243     1.63903E+03     1.63903E+03        -6.15524        -6.15524        -30.9915        -30.9915
            3244     1.63912E+03     1.63912E+03        -4.22958        -4.22958        -30.2223        -30.2223
            3245     1.63957E+03     1.63957E+03        -2.52109        -2.52109        -29.4467        -29.4467
            3246     1.64030E+03     1.64030E+03    -939.669E-03    -939.669E-03        -28.6436        -28.6436
            3247     1.64126E+03     1.64126E+03     603.659E-03     603.659E-03        -27.7828        -27.7828
            3248     1.64240E+03     1.64240E+03         2.19635         2.19635        -26.8276        -26.8276
            3249     1.64370E+03     1.64370E+03         3.92694         3.92694        -25.7346        -25.7346
            3250     1.64512E+03     1.64512E+03         5.88424         5.88424        -24.4549        -24.4549
            3251     1.64663E+03     1.64663E+03         8.16179         8.16179        -22.9334        -22.9334
            3252     1.64821E+03     1.64821E+03         10.8557         10.8557        -21.1086        -21.1086
            3253     1.64985E+03     1.64985E+03         14.0718         14.0718        -18.9122        -18.9122
            3254     1.65152E+03     1.65152E+03         17.9210         17.9210        -16.2702        -16.2702
            3255     1.65317E+03     1.65317E+03         22.5306         22.5306        -13.1005        -13.1005
            3256     1.65479E+03     1.65479E+03         28.0350         28.0350        -9.31756        -9.31756
            3257     1.65631E+03     1.65631E+03         34.5951         34.5951        -4.82849        -4.82849
            3258     1.65768E+03     1.65768E+03         42.3796         42.3796     456.317E-03     456.317E-03
            3259     1.65880E+03     1.65880E+03         51.5966         51.5966         6.63156         6.63156
            3260     1.65958E+03     1.65958E+03         62.4599         62.4599         13.7715         13.7715
            3261     1.65986E+03     1.65986E+03         75.2365         75.2365         21.9498         21.9498
            3262     1.65947E+03     1.65947E+03         90.1915         90.1915         31.1852         31.1852
            3263     1.65820E+03     1.65820E+03         107.644         107.644         41.4835         41.4835
            3264     1.65579E+03     1.65579E+03         127.893         127.893         52.7385         52.7385
            3265     1.65200E+03     1.65200E+03         151.250         151.250         64.8076         64.8076
            3266     1.64648E+03     1.64648E+03         177.966         177.966         77.3800         77.3800
            3267     1.63905E+03     1.63905E+03         208.181         208.181         90.0736         90.0736
            3268     1.62945E+03     1.62945E+03         241.912         241.912         102.364         102.364
            3269     1.61770E+03     1.61770E+03         278.895         278.895         113.641         113.641
            3270     1.60387E+03     1.60387E+03         318.681         318.681         123.343         123.343
            3271     1.58826E+03     1.58826E+03         360.505         360.505         130.876         130.876
            3272     1.57136E+03     1.57136E+03         403.435         403.435         135.954         135.954
            3273     1.55372E+03     1.55372E+03         446.279         446.279         137.039         137.039
            3274     1.69562E+03     1.69562E+03        -40.8005        -40.8005        -3.94353        -3.94353
            3275     1.68710E+03     1.68710E+03        -40.9493        -40.9493        -12.2487        -12.2487
            3276     1.67851E+03     1.67851E+03        -38.6577        -38.6577        -18.6885        -18.6885
            3277     1.67048E+03     1.67048E+03        -34.9500        -34.9500        -23.4144        -23.4144
            3278     1.66335E+03     1.66335E+03        -30.5716        -30.5716        -26.6789        -26.6789
            3279     1.65730E+03     1.65730E+03        -26.0663        -26.0663        -28.7916        -28.7916
            3280     1.65235E+03     1.65235E+03        -21.7681        -21.7681        -30.0587        -30.0587
            3281     1.64843E+03     1.64843E+03        -17.8573        -17.8573        -30.7323        -30.7323
            3282     1.64543E+03     1.64543E+03        -14.4072        -14.4072        -31.0064        -31.0064
            3283     1.64322E+03     1.64322E+03        -11.4230        -11.4230        -31.0168        -31.0168
            3284     1.64167E+03     1.64167E+03        -8.86943        -8.86943        -30.8540        -30.8540
            3285     1.64067E+03     1.64067E+03        -6.68806        -6.68806        -30.5724        -30.5724
            3286     1.64012E+03     1.64012E+03        -4.80820        -4.80820        -30.2007        -30.2007
            3287     1.63994E+03     1.63994E+03        -3.15328        -3.15328        -29.7477        -29.7477
            3288     1.64008E+03     1.64008E+03        -1.64409        -1.64409        -29.2078        -29.2078
            3289     1.64046E+03     1.64046E+03    -200.978E-03    -200.978E-03        -28.5639        -28.5639
            3290     1.64107E+03     1.64107E+03         1.25672         1.25672        -27.7894        -27.7894
            3291     1.64186E+03     1.64186E+03         2.80949         2.80949        -26.8490        -26.8490
            3292     1.64281E+03     1.64281E+03         4.54066         4.54066        -25.6995        -25.6995
            3293     1.64391E+03     1.64391E+03         6.53475         6.53475        -24.2895        -24.2895
            3294     1.64515E+03     1.64515E+03         8.88308         8.88308        -22.5592        -22.5592
            3295     1.64650E+03     1.64650E+03         11.6804         11.6804        -20.4402        -20.4402
            3296     1.64796E+03     1.64796E+03         15.0344         15.0344        -17.8549        -17.8549
            3297     1.64951E+03     1.64951E+03         19.0586         19.0586        -14.7173        -14.7173
            3298     1.65112E+03     1.65112E+03         23.8895         23.8895        -10.9311        -10.9311
            3299     1.65277E+03     1.65277E+03         29.6710         29.6710        -6.39462        -6.39462
            3300     1.65441E+03     1.65441E+03         36.5850         36.5850    -995.439E-03    -995.439E-03
            3301     1.65597E+03     1.65597E+03         44.8213         44.8213         5.37459         5.37459
            3302     1.65736E+03     1.65736E+03         54.6292         54.6292         12.8329         12.8329
            3303     1.65845E+03     1.65845E+03         66.2627         66.2627         21.4679         21.4679
            3304     1.65907E+03     1.65907E+03         80.0594         80.0594         31.3724         31.3724
            3305     1.65898E+03     1.65898E+03         96.3511         96.3511         42.5554         42.5554
            3306     1.65793E+03     1.65793E+03         115.558         115.558         55.0170         55.0170
            3307     1.65552E+03     1.65552E+03         138.069         138.069         68.5785         68.5785
            3308     1.65146E+03     1.65146E+03         164.283         164.283         83.0169         83.0169
            3309     1.64525E+03     1.64525E+03         194.513         194.513         97.8473         97.8473
            3310     1.63670E+03     1.63670E+03         228.852         228.852         112.481         112.481
            3311     1.62551E+03     1.62551E+03         267.210         267.210         126.164         126.164
            3312     1.61182E+03     1.61182E+03         309.023         309.023         138.025         138.025
            3313     1.59587E+03     1.59587E+03         353.470         353.470         147.410         147.410
            3314     1.57819E+03     1.57819E+03         399.341         399.341         153.645         153.645
            3315     1.55968E+03     1.55968E+03         445.056         445.056         155.150         155.150
            3316     1.69055E+03     1.69055E+03        -32.1775        -32.1775         2.90798         2.90798
            3317     1.68457E+03     1.68457E+03        -33.7550        -33.7550        -4.73870        -4.73870
            3318     1.67803E+03     1.67803E+03        -32.9888        -32.9888        -11.2358        -11.2358
            3319     1.67150E+03     1.67150E+03        -30.6881        -30.6881        -16.4722        -16.4722
            3320     1.66537E+03     1.66537E+03        -27.5152        -27.5152        -20.5246        -20.5246
            3321     1.65988E+03     1.65988E+03        -23.9629        -23.9629        -23.5482        -23.5482
            3322     1.65513E+03     1.65513E+03        -20.3828        -20.3828        -25.7330        -25.7330
            3323     1.65115E+03     1.65115E+03        -16.9934        -16.9934        -27.2655        -27.2655
            3324     1.64789E+03     1.64789E+03        -13.9144        -13.9144        -28.3045        -28.3045
            3325     1.64529E+03     1.64529E+03        -11.1935        -11.1935        -28.9764        -28.9764
            3326     1.64327E+03     1.64327E+03        -8.83054        -8.83054        -29.3740        -29.3740
            3327     1.64174E+03     1.64174E+03        -6.79485        -6.79485        -29.5623        -29.5623
            3328     1.64063E+03     1.64063E+03        -5.03705        -5.03705        -29.5824        -29.5824
            3329     1.63988E+03     1.63988E+03        -3.49692        -3.49692        -29.4569        -29.4569
            3330     1.63943E+03     1.63943E+03        -2.10862        -2.10862        -29.1931        -29.1931
            3331     1.63924E+03     1.63924E+03    -802.870E-03    -802.870E-03        -28.7853        -28.7853
            3332     1.63928E+03     1.63928E+03     490.726E-03     490.726E-03        -28.2168        -28.2168
            3333     1.63953E+03     1.63953E+03         1.84474         1.84474        -27.4609        -27.4609
            3334     1.63998E+03     1.63998E+03         3.33234         3.33234        -26.4806        -26.4806
            3335     1.64060E+03     1.64060E+03         5.03105         5.03105        -25.2298        -25.2298
            3336     1.64141E+03     1.64141E+03         7.02031         7.02031        -23.6518        -23.6518
            3337     1.64240E+03     1.64240E+03         9.38877         9.38877        -21.6797        -21.6797
            3338     1.64357E+03     1.64357E+03         12.2291         12.2291        -19.2354        -19.2354
            3339     1.64492E+03     1.64492E+03         15.6516         15.6516        -16.2289        -16.2289
            3340     1.64644E+03     1.64644E+03         19.7727         19.7727        -12.5591        -12.5591
            3341     1.64814E+03     1.64814E+03         24.7401         24.7401        -8.11125        -8.11125
            3342     1.64998E+03     1.64998E+03         30.7101         30.7101        -2.76204        -2.76204
            3343     1.65193E+03     1.65193E+03         37.8922         37.8922         3.62687         3.62687
            3344     1.65391E+03     1.65391E+03         46.5045         46.5045         11.1901         11.1901
            3345     1.65583E+03     1.65583E+03         56.8540         56.8540         20.0786         20.0786
            3346     1.65752E+03     1.65752E+03         69.2498         69.2498         30.4033         30.4033
            3347     1.65879E+03     1.65879E+03         84.1351         84.1351         42.2903         42.2903
            3348     1.65931E+03     1.65931E+03         101.938         101.938         55.7371         55.7371
            3349     1.65872E+03     1.65872E+03         123.236         123.236         70.7436         70.7436
            3350     1.65647E+03     1.65647E+03         148.555         148.555         87.0145         87.0145
            3351     1.65215E+03     1.65215E+03         178.416         178.416         104.199         104.199
            3352     1.64505E+03     1.64505E+03         213.206         213.206         121.531         121.531
            3353     1.63500E+03     1.63500E+03         252.871         252.871         138.080         138.080
            3354     1.62169E+03     1.62169E+03         297.066         297.066         152.787         152.787
            3355     1.60550E+03     1.60550E+03         344.671         344.671         164.425         164.425
            3356     1.58709E+03     1.58709E+03         394.208         394.208         172.363         172.363
            3357     1.56730E+03     1.56730E+03         443.657         443.657         174.337         174.337
            3358     1.68468E+03     1.68468E+03        -24.7347        -24.7347         7.37176         7.37176
            3359     1.68069E+03     1.68069E+03        -27.0012        -27.0012     676.880E-03     676.880E-03
            3360     1.67591E+03     1.67591E+03        -27.2202        -27.2202        -5.44822        -5.44822
            3361     1.67081E+03     1.67081E+03        -25.9737        -25.9737        -10.7580        -10.7580
            3362     1.66574E+03     1.66574E+03        -23.7909        -23.7909        -15.1777        -15.1777
            3363     1.66096E+03     1.66096E+03        -21.1058        -21.1058        -18.7456        -18.7456
            3364     1.65661E+03     1.65661E+03        -18.2410        -18.2410        -21.5541        -21.5541
            3365     1.65277E+03     1.65277E+03        -15.4224        -15.4224        -23.7190        -23.7190
            3366     1.64945E+03     1.64945E+03        -12.7888        -12.7888        -25.3569        -25.3569
            3367     1.64662E+03     1.64662E+03        -10.4136        -10.4136        -26.5706        -26.5706
            3368     1.64425E+03     1.64425E+03        -8.32150        -8.32150        -27.4453        -27.4453
            3369     1.64229E+03     1.64229E+03        -6.50376        -6.50376        -28.0463        -28.0463
            3370     1.64068E+03     1.64068E+03        -4.92976        -4.92976        -28.4212        -28.4212
            3371     1.63939E+03     1.63939E+03        -3.55521        -3.55521        -28.6011        -28.6011
            3372     1.63837E+03     1.63837E+03        -2.32742        -2.32742        -28.6028        -28.6028
            3373     1.63759E+03     1.63759E+03        -1.18935        -1.18935        -28.4305        -28.4305
            3374     1.63705E+03     1.63705E+03    -80.6952E-03    -80.6952E-03        -28.0764        -28.0764
            3375     1.63671E+03     1.63671E+03         1.05996         1.05996        -27.5217        -27.5217
            3376     1.63658E+03     1.63658E+03         2.29698         2.29698        -26.7371        -26.7371
            3377     1.63666E+03     1.63666E+03         3.69573         3.69573        -25.6817        -25.6817
            3378     1.63695E+03     1.63695E+03         5.32744         5.32744        -24.3040        -24.3040
            3379     1.63748E+03     1.63748E+03         7.26581         7.26581        -22.5401        -22.5401
            3380     1.63825E+03     1.63825E+03         9.59644         9.59644        -20.3137        -20.3137
            3381     1.63929E+03     1.63929E+03         12.4096         12.4096        -17.5343        -17.5343
            3382     1.64061E+03     1.64061E+03         15.8183         15.8183        -14.0972        -14.0972
            3383     1.64223E+03     1.64223E+03         19.9425         19.9425        -9.88171        -9.88171
            3384     1.64416E+03     1.64416E+03         24.9442         24.9442        -4.74981        -4.74981
            3385     1.64638E+03     1.64638E+03         30.9938         30.9938         1.45053         1.45053
            3386     1.64887E+03     1.64887E+03         38.3382         38.3382         8.89310         8.89310
            3387     1.65157E+03     1.65157E+03         47.2303         47.2303         17.7513         17.7513
            3388     1.65437E+03     1.65437E+03         58.0591         58.0591         28.2268         28.2268
            3389     1.65708E+03     1.65708E+03         71.2080         71.2080         40.4687         40.4687
            3390     1.65942E+03     1.65942E+03         87.2807         87.2807         54.6629         54.6629
            3391     1.66096E+03     1.66096E+03         106.847         106.847         70.7941         70.7941
            3392     1.66120E+03     1.66120E+03         130.737         130.737         88.8798         88.8798
            3393     1.65928E+03     1.65928E+03         159.698         159.698         108.423         108.423
            3394     1.65465E+03     1.65465E+03         194.409         194.409         128.854         128.854
            3395     1.64626E+03     1.64626E+03         235.330         235.330         148.934         148.934
            3396     1.63406E+03     1.63406E+03         282.007         282.007         167.141         167.141
            3397     1.61789E+03     1.61789E+03         333.513         333.513         182.066         182.066
            3398     1.59856E+03     1.59856E+03         387.727         387.727         192.060         192.060
            3399     1.57761E+03     1.57761E+03         441.863         441.863         194.989         194.989
            3400     1.67870E+03     1.67870E+03        -18.5377        -18.5377         10.0794         10.0794
            3401     1.67622E+03     1.67622E+03        -20.9608        -20.9608         4.39470         4.39470
            3402     1.67290E+03     1.67290E+03        -21.7069        -21.7069        -1.14351        -1.14351
            3403     1.66907E+03     1.66907E+03        -21.1714        -21.1714        -6.22956        -6.22956
            3404     1.66503E+03     1.66503E+03        -19.7517        -19.7517        -10.7052        -10.7052
            3405     1.66100E+03     1.66100E+03        -17.7979        -17.7979        -14.5165        -14.5165
            3406     1.65715E+03     1.65715E+03        -15.5915        -15.5915        -17.6811        -17.6811
            3407     1.65357E+03     1.65357E+03        -13.3385        -13.3385        -20.2539        -20.2539
            3408     1.65029E+03     1.65029E+03        -11.1785        -11.1785        -22.3083        -22.3083
            3409     1.64735E+03     1.64735E+03        -9.19381        -9.19381        -23.9204        -23.9204
            3410     1.64472E+03     1.64472E+03        -7.42316        -7.42316        -25.1610        -25.1610
            3411     1.64239E+03     1.64239E+03        -5.87276        -5.87276        -26.0903        -26.0903
            3412     1.64033E+03     1.64033E+03        -4.52675        -4.52675        -26.7568        -26.7568
            3413     1.63852E+03     1.63852E+03        -3.35428        -3.35428        -27.1962        -27.1962
            3414     1.63693E+03     1.63693E+03        -2.31553        -2.31553        -27.4318        -27.4318
            3415     1.63555E+03     1.63555E+03        -1.36476        -1.36476        -27.4754        -27.4754
            3416     1.63437E+03     1.63437E+03    -453.413E-03    -453.413E-03        -27.3268        -27.3268
            3417     1.63339E+03     1.63339E+03     469.894E-03     469.894E-03        -26.9751        -26.9751
            3418     1.63262E+03     1.63262E+03         1.45743         1.45743        -26.3975        -26.3975
            3419     1.63207E+03     1.63207E+03         2.56504         2.56504        -25.5604        -25.5604
            3420     1.63176E+03     1.63176E+03         3.84983         3.84983        -24.4178        -24.4178
            3421     1.63171E+03     1.63171E+03         5.37623         5.37623        -22.9113        -22.9113
            3422     1.63196E+03     1.63196E+03         7.21155         7.21155        -20.9681        -20.9681
            3423     1.63254E+03     1.63254E+03         9.43790         9.43790        -18.5014        -18.5014
            3424     1.63350E+03     1.63350E+03         12.1424         12.1424        -15.4061        -15.4061
            3425     1.63488E+03     1.63488E+03         15.4412         15.4412        -11.5600        -11.5600
            3426     1.63671E+03     1.63671E+03         19.4572         19.4572        -6.81846        -6.81846
            3427     1.63904E+03     1.63904E+03         24.3694         24.3694        -1.01465        -1.01465
            3428     1.64188E+03     1.64188E+03         30.3639         30.3639         6.04246         6.04246
            3429     1.64523E+03     1.64523E+03         37.7354         37.7354         14.5746         14.5746
            3430     1.64904E+03     1.64904E+03         46.7789         46.7789         24.8138         24.8138
            3431     1.65319E+03     1.65319E+03         57.9987         57.9987         37.0393         37.0393
            3432     1.65747E+03     1.65747E+03         71.8759         71.8759         51.4677         51.4677
            3433     1.66153E+03     1.66153E+03         89.2649         89.2649         68.3941         68.3941
            3434     1.66472E+03     1.66472E+03         110.946         110.946         87.7953         87.7953
            3435     1.66633E+03     1.66633E+03         138.183         138.183         109.754         109.754
            3436     1.66494E+03     1.66494E+03         172.104         172.104         133.396         133.396
            3437     1.65981E+03     1.65981E+03         213.552         213.552         157.722         157.722
            3438     1.64937E+03     1.64937E+03         262.990         262.990         180.695         180.695
            3439     1.63395E+03     1.63395E+03         318.956         318.956         199.746         199.746
            3440     1.61403E+03     1.61403E+03         379.206         379.206         213.234         213.234
            3441     1.59108E+03     1.59108E+03         439.753         439.753         217.216         217.216
            3442     1.67301E+03     1.67301E+03        -13.4901        -13.4901         11.5007         11.5007
            3443     1.67168E+03     1.67168E+03        -15.7197        -15.7197         6.76492         6.76492
            3444     1.66955E+03     1.66955E+03        -16.6519        -16.6519         1.89829         1.89829
            3445     1.66682E+03     1.66682E+03        -16.5398        -16.5398        -2.78730        -2.78730
            3446     1.66373E+03     1.66373E+03        -15.6667        -15.6667        -7.09100        -7.09100
            3447     1.66044E+03     1.66044E+03        -14.2999        -14.2999        -10.9059        -10.9059
            3448     1.65711E+03     1.65711E+03        -12.6655        -12.6655        -14.1931        -14.1931
            3449     1.65384E+03     1.65384E+03        -10.9394        -10.9394        -16.9617        -16.9617
            3450     1.65068E+03     1.65068E+03        -9.24604        -9.24604        -19.2480        -19.2480
            3451     1.64768E+03     1.64768E+03        -7.66519        -7.66519        -21.1028        -21.1028
            3452     1.64484E+03     1.64484E+03        -6.23933        -6.23933        -22.5809        -22.5809
            3453     1.64218E+03     1.64218E+03        -4.98300        -4.98300        -23.7345        -23.7345
            3454     1.63968E+03     1.63968E+03        -3.89010        -3.89010        -24.6096        -24.6096
            3455     1.63735E+03     1.63735E+03        -2.94078        -2.94078        -25.2433        -25.2433
            3456     1.63517E+03     1.63517E+03        -2.10591        -2.10591        -25.6631        -25.6631
            3457     1.63316E+03     1.63316E+03        -1.35107        -1.35107        -25.8857        -25.8857
            3458     1.63130E+03     1.63130E+03    -638.017E-03    -638.017E-03        -25.9178        -25.9178
            3459     1.62962E+03     1.62962E+03     72.9805E-03     72.9805E-03        -25.7545        -25.7545
            3460     1.62813E+03     1.62813E+03     824.150E-03     824.150E-03        -25.3806        -25.3806
            3461     1.62685E+03     1.62685E+03         1.65838         1.65838        -24.7688        -24.7688
            3462     1.62581E+03     1.62581E+03         2.62268         2.62268        -23.8808        -23.8808
            3463     1.62506E+03     1.62506E+03         3.76549         3.76549        -22.6641        -22.6641
            3464     1.62464E+03     1.62464E+03         5.14387         5.14387        -21.0538        -21.0538
            3465     1.62460E+03     1.62460E+03         6.81800         6.81800        -18.9675        -18.9675
            3466     1.62501E+03     1.62501E+03         8.86557         8.86557        -16.3077        -16.3077
            3467     1.62593E+03     1.62593E+03         11.3695         11.3695        -12.9528        -12.9528
            3468     1.62745E+03     1.62745E+03         14.4478         14.4478        -8.76215        -8.76215
            3469     1.62963E+03     1.62963E+03         18.2254         18.2254        -3.56160        -3.56160
            3470     1.63256E+03     1.63256E+03         22.8991         22.8991         2.84960         2.84960
            3471     1.63631E+03     1.63631E+03         28.6701         28.6701         10.7154         10.7154
            3472     1.64090E+03     1.64090E+03         35.8915         35.8915         20.3211         20.3211
            3473     1.64634E+03     1.64634E+03         44.9053         44.9053         31.9891         31.9891
            3474     1.65251E+03     1.65251E+03         56.3760         56.3760         46.1173         46.1173
            3475     1.65921E+03     1.65921E+03         70.9087         70.9087         63.0461         63.0461
            3476     1.66593E+03     1.66593E+03         89.7613         89.7613         83.2729         83.2729
            3477     1.67180E+03     1.67180E+03         114.028         114.028         106.794         106.794
            3478     1.67565E+03     1.67565E+03         145.785         145.785         133.888         133.888
            3479     1.67494E+03     1.67494E+03         186.875         186.875         162.898         162.898
            3480     1.66883E+03     1.66883E+03         238.149         238.149         191.877         191.877
            3481     1.65499E+03     1.65499E+03         299.694         299.694         217.461         217.461
            3482     1.63470E+03     1.63470E+03         367.651         367.651         235.273         235.273
            3483     1.61045E+03     1.61045E+03         436.663         436.663         241.915         241.915
            3484     1.66781E+03     1.66781E+03        -9.43197        -9.43197         11.9337         11.9337
            3485     1.66742E+03     1.66742E+03        -11.2690        -11.2690         8.04333         8.04333
            3486     1.66629E+03     1.66629E+03        -12.1569        -12.1569         3.86392         3.86392
            3487     1.66453E+03     1.66453E+03        -12.2520        -12.2520    -314.286E-03    -314.286E-03
            3488     1.66229E+03     1.66229E+03        -11.7452        -11.7452        -4.28182        -4.28182
            3489     1.65969E+03     1.65969E+03        -10.8287        -10.8287        -7.90435        -7.90435
            3490     1.65687E+03     1.65687E+03        -9.67315        -9.67315        -11.1111        -11.1111
            3491     1.65391E+03     1.65391E+03        -8.41595        -8.41595        -13.8782        -13.8782
            3492     1.65088E+03     1.65088E+03        -7.15906        -7.15906        -16.2154        -16.2154
            3493     1.64783E+03     1.64783E+03        -5.97029        -5.97029        -18.1524        -18.1524
            3494     1.64480E+03     1.64480E+03        -4.88913        -4.88913        -19.7297        -19.7297
            3495     1.64181E+03     1.64181E+03        -3.93206        -3.93206        -20.9907        -20.9907
            3496     1.63887E+03     1.63887E+03        -3.09891        -3.09891        -21.9772        -21.9772
            3497     1.63599E+03     1.63599E+03        -2.37744        -2.37744        -22.7256        -22.7256
            3498     1.63320E+03     1.63320E+03        -1.74778        -1.74778        -23.2650        -23.2650
            3499     1.63050E+03     1.63050E+03        -1.18486        -1.18486        -23.6157        -23.6157
            3500     1.62791E+03     1.62791E+03    -660.957E-03    -660.957E-03        -23.7885        -23.7885
            3501     1.62545E+03     1.62545E+03    -146.075E-03    -146.075E-03        -23.7848        -23.7848
            3502     1.62314E+03     1.62314E+03     390.459E-03     390.459E-03        -23.5951        -23.5951
            3503     1.62103E+03     1.62103E+03     981.563E-03     981.563E-03        -23.1996        -23.1996
            3504     1.61915E+03     1.61915E+03         1.66072         1.66072        -22.5667        -22.5667
            3505     1.61755E+03     1.61755E+03         2.46586         2.46586        -21.6537        -21.6537
            3506     1.61629E+03     1.61629E+03         3.43649         3.43649        -20.4027        -20.4027
            3507     1.61544E+03     1.61544E+03         4.62146         4.62146        -18.7434        -18.7434
            3508     1.61507E+03     1.61507E+03         6.07292         6.07292        -16.5846        -16.5846
            3509     1.61529E+03     1.61529E+03         7.86229         7.86229        -13.8195        -13.8195
            3510     1.61620E+03     1.61620E+03         10.0663         10.0663        -10.3100        -10.3100
            3511     1.61792E+03     1.61792E+03         12.8021         12.8021        -5.89758        -5.89758
            3512     1.62059E+03     1.62059E+03         16.1932         16.1932    -374.032E-03    -374.032E-03
            3513     1.62434E+03     1.62434E+03         20.4512         20.4512         6.49864         6.49864
            3514     1.62932E+03     1.62932E+03         25.7890         25.7890         15.0350         15.0350
            3515     1.63564E+03     1.63564E+03         32.6234         32.6234         25.6005         25.6005
            3516     1.64341E+03     1.64341E+03         41.3427         41.3427         38.6580         38.6580
            3517     1.65256E+03     1.65256E+03         52.8271         52.8271         54.7807         54.7807
            3518     1.66296E+03     1.66296E+03         67.8270         67.8270         74.5468         74.5468
            3519     1.67392E+03     1.67392E+03         88.2662         88.2662         98.8284         98.8284
            3520     1.68424E+03     1.68424E+03         115.698         115.698         127.752         127.752
            3521     1.69188E+03     1.69188E+03         153.898         153.898         162.166         162.166
            3522     1.69179E+03     1.69179E+03         206.200         206.200         198.598         198.598
            3523     1.68343E+03     1.68343E+03         272.548         272.548         232.707         232.707
            3524     1.66404E+03     1.66404E+03         351.155         351.155         259.255         259.255
            3525     1.63677E+03     1.63677E+03         432.608         432.608         268.777         268.777
            3526     1.66322E+03     1.66322E+03        -6.20677        -6.20677         11.5172         11.5172
            3527     1.66370E+03     1.66370E+03        -7.56332        -7.56332         8.37649         8.37649
            3528     1.66347E+03     1.66347E+03        -8.27432        -8.27432         4.88140         4.88140
            3529     1.66259E+03     1.66259E+03        -8.43057        -8.43057         1.28643         1.28643
            3530     1.66112E+03     1.66112E+03        -8.15392        -8.15392        -2.21112        -2.21112
            3531     1.65916E+03     1.65916E+03        -7.57285        -7.57285        -5.47296        -5.47296
            3532     1.65680E+03     1.65680E+03        -6.80585        -6.80585        -8.41417        -8.41417
            3533     1.65411E+03     1.65411E+03        -5.95156        -5.95156        -10.9942        -10.9942
            3534     1.65119E+03     1.65119E+03        -5.08479        -5.08479        -13.2054        -13.2054
            3535     1.64807E+03     1.64807E+03        -4.25733        -4.25733        -15.0632        -15.0632
            3536     1.64481E+03     1.64481E+03        -3.50029        -3.50029        -16.5965        -16.5965
            3537     1.64145E+03     1.64145E+03        -2.82842        -2.82842        -17.8409        -17.8409
            3538     1.63803E+03     1.63803E+03        -2.24370        -2.24370        -18.8330        -18.8330
            3539     1.63458E+03     1.63458E+03        -1.73934        -1.73934        -19.6067        -19.6067
            3540     1.63111E+03     1.63111E+03        -1.30231        -1.30231        -20.1909        -20.1909
            3541     1.62767E+03     1.62767E+03    -916.030E-03    -916.030E-03        -20.6071        -20.6071
            3542     1.62427E+03     1.62427E+03    -561.308E-03    -561.308E-03        -20.8693        -20.8693
            3543     1.62095E+03     1.62095E+03    -217.993E-03    -217.993E-03        -20.9824        -20.9824
            3544     1.61775E+03     1.61775E+03     135.486E-03     135.486E-03        -20.9427        -20.9427
            3545     1.61469E+03     1.61469E+03     520.912E-03     520.912E-03        -20.7366        -20.7366
            3546     1.61183E+03     1.61183E+03     962.117E-03     962.117E-03        -20.3411        -20.3411
            3547     1.60923E+03     1.60923E+03         1.48351         1.48351        -19.7213        -19.7213
            3548     1.60695E+03     1.60695E+03         2.11380         2.11380        -18.8323        -18.8323
            3549     1.60508E+03     1.60508E+03         2.88347         2.88347        -17.6131        -17.6131
            3550     1.60369E+03     1.60369E+03         3.83192         3.83192        -15.9912        -15.9912
            3551     1.60292E+03     1.60292E+03         5.00234         5.00234        -13.8695        -13.8695
            3552     1.60289E+03     1.60289E+03         6.45644         6.45644        -11.1366        -11.1366
            3553     1.60375E+03     1.60375E+03         8.26263         8.26263        -7.64019        -7.64019
            3554     1.60570E+03     1.60570E+03         10.5298         10.5298        -3.20886        -3.20886
            3555     1.60894E+03     1.60894E+03         13.3759         13.3759         2.40177         2.40177
            3556     1.61370E+03     1.61370E+03         17.0155         17.0155         9.46353         9.46353
            3557     1.62028E+03     1.62028E+03         21.6660         21.6660         18.3811         18.3811
            3558     1.62892E+03     1.62892E+03         27.7973         27.7973         29.6088         29.6088
            3559     1.63995E+03     1.63995E+03         35.8352         35.8352         43.8251         43.8251
            3560     1.65344E+03     1.65344E+03         46.9218         46.9218         61.8432         61.8432
            3561     1.66954E+03     1.66954E+03         61.9546         61.9546         84.7070         84.7070
            3562     1.68742E+03     1.68742E+03         83.9579         83.9579         113.963         113.963
            3563     1.70565E+03     1.70565E+03         115.097         115.097         150.279         150.279
            3564     1.72026E+03     1.72026E+03         163.177         163.177         196.184         196.184
            3565     1.71986E+03     1.71986E+03         234.882         234.882         243.518         243.518
            3566     1.70600E+03     1.70600E+03         325.313         325.313         281.300         281.300
            3567     1.67885E+03     1.67885E+03         425.078         425.078         300.614         300.614
            3568     1.65935E+03     1.65935E+03        -3.69348        -3.69348         10.2515         10.2515
            3569     1.66073E+03     1.66073E+03        -4.56763        -4.56763         7.80292         7.80292
            3570     1.66141E+03     1.66141E+03        -5.04771        -5.04771         5.00907         5.00907
            3571     1.66137E+03     1.66137E+03        -5.18260        -5.18260         2.07932         2.07932
            3572     1.66062E+03     1.66062E+03        -5.04273        -5.04273    -816.846E-03    -816.846E-03
            3573     1.65923E+03     1.65923E+03        -4.70590        -4.70590        -3.55414        -3.55414
            3574     1.65727E+03     1.65727E+03        -4.24548        -4.24548        -6.05053        -6.05053
            3575     1.65480E+03     1.65480E+03        -3.72386        -3.72386        -8.26148        -8.26148
            3576     1.65190E+03     1.65190E+03        -3.18936        -3.18936        -10.1724        -10.1724
            3577     1.64865E+03     1.64865E+03        -2.67588        -2.67588        -11.7900        -11.7900
            3578     1.64510E+03     1.64510E+03        -2.20453        -2.20453        -13.1354        -13.1354
            3579     1.64132E+03     1.64132E+03        -1.78566        -1.78566        -14.2368        -14.2368
            3580     1.63735E+03     1.63735E+03        -1.42160        -1.42160        -15.1253        -15.1253
            3581     1.63325E+03     1.63325E+03        -1.10866        -1.10866        -15.8307        -15.8307
            3582     1.62905E+03     1.62905E+03    -839.390E-03    -839.390E-03        -16.3791        -16.3791
            3583     1.62479E+03     1.62479E+03    -603.591E-03    -603.591E-03        -16.7914        -16.7914
            3584     1.62050E+03     1.62050E+03    -389.843E-03    -389.843E-03        -17.0821        -17.0821
            3585     1.61624E+03     1.61624E+03    -185.571E-03    -185.571E-03        -17.2586        -17.2586
            3586     1.61203E+03     1.61203E+03     21.9620E-03     21.9620E-03        -17.3207        -17.3207
            3587     1.60791E+03     1.60791E+03     246.428E-03     246.428E-03        -17.2611        -17.2611
            3588     1.60395E+03     1.60395E+03     501.570E-03     501.570E-03        -17.0634        -17.0634
            3589     1.60019E+03     1.60019E+03     802.800E-03     802.800E-03        -16.7038        -16.7038
            3590     1.59671E+03     1.59671E+03         1.16627         1.16627        -16.1472        -16.1472
            3591     1.59359E+03     1.59359E+03         1.61144         1.61144        -15.3503        -15.3503
            3592     1.59093E+03     1.59093E+03         2.16010         2.16010        -14.2533        -14.2533
            3593     1.58886E+03     1.58886E+03         2.84043         2.84043        -12.7873        -12.7873
            3594     1.58751E+03     1.58751E+03         3.68622         3.68622        -10.8555        -10.8555
            3595     1.58707E+03     1.58707E+03         4.74406         4.74406        -8.35026        -8.35026
            3596     1.58777E+03     1.58777E+03         6.07237         6.07237        -5.11257        -5.11257
            3597     1.58985E+03     1.58985E+03         7.75881         7.75881    -971.098E-03    -971.098E-03
            3598     1.59365E+03     1.59365E+03         9.91268         9.91268         4.34924         4.34924
            3599     1.59954E+03     1.59954E+03         12.7227         12.7227         11.1358         11.1358
            3600     1.60803E+03     1.60803E+03         16.4055         16.4055         19.8954         19.8954
            3601     1.61960E+03     1.61960E+03         21.4319         21.4319         31.1514         31.1514
            3602     1.63502E+03     1.63502E+03         28.2531         28.2531         45.8939         45.8939
            3603     1.65474E+03     1.65474E+03         38.2449         38.2449         65.1998         65.1998
            3604     1.67975E+03     1.67975E+03         52.4187         52.4187         91.0179         91.0179
            3605     1.70932E+03     1.70932E+03         75.4982         75.4982         125.980         125.980
            3606     1.74290E+03     1.74290E+03         110.246         110.246         172.757         172.757
            3607     1.77204E+03     1.77204E+03         175.233         175.233         238.774         238.774
            3608     1.76815E+03     1.76815E+03         284.303         284.303         302.961         302.961
            3609     1.74040E+03     1.74040E+03         412.043         412.043         332.753         332.753
            3610     1.65637E+03     1.65637E+03        -1.83155        -1.83155         8.00858         8.00858
            3611     1.65881E+03     1.65881E+03        -2.28993        -2.28993         6.26104         6.26104
            3612     1.66047E+03     1.66047E+03        -2.54905        -2.54905         4.23795         4.23795
            3613     1.66127E+03     1.66127E+03        -2.63065        -2.63065         2.09401         2.09401
            3614     1.66122E+03     1.66122E+03        -2.56957        -2.56957    -42.7159E-03    -42.7159E-03
            3615     1.66033E+03     1.66033E+03        -2.40490        -2.40490        -2.07511        -2.07511
            3616     1.65867E+03     1.65867E+03        -2.17424        -2.17424        -3.93779        -3.93779
            3617     1.65631E+03     1.65631E+03        -1.90997        -1.90997        -5.59383        -5.59383
            3618     1.65334E+03     1.65334E+03        -1.63736        -1.63736        -7.02942        -7.02942
            3619     1.64984E+03     1.64984E+03        -1.37446        -1.37446        -8.24798        -8.24798
            3620     1.64590E+03     1.64590E+03        -1.13250        -1.13250        -9.26433        -9.26433
            3621     1.64159E+03     1.64159E+03    -917.301E-03    -917.301E-03        -10.0998        -10.0998
            3622     1.63699E+03     1.63699E+03    -730.266E-03    -730.266E-03        -10.7782        -10.7782
            3623     1.63215E+03     1.63215E+03    -569.847E-03    -569.847E-03        -11.3229        -11.3229
            3624     1.62712E+03     1.62712E+03    -432.247E-03    -432.247E-03        -11.7549        -11.7549
            3625     1.62197E+03     1.62197E+03    -312.538E-03    -312.538E-03        -12.0915        -12.0915
            3626     1.61672E+03     1.61672E+03    -204.809E-03    -204.809E-03        -12.3451        -12.3451
            3627     1.61142E+03     1.61142E+03    -102.979E-03    -102.979E-03        -12.5231        -12.5231
            3628     1.60611E+03     1.60611E+03    -426.579E-06    -426.579E-06        -12.6278        -12.6278
            3629     1.60083E+03     1.60083E+03     109.343E-03     109.343E-03        -12.6555        -12.6555
            3630     1.59563E+03     1.59563E+03     233.441E-03     233.441E-03        -12.5975        -12.5975
            3631     1.59057E+03     1.59057E+03     379.108E-03     379.108E-03        -12.4378        -12.4378
            3632     1.58571E+03     1.58571E+03     554.510E-03     554.510E-03        -12.1555        -12.1555
            3633     1.58114E+03     1.58114E+03     768.968E-03     768.968E-03        -11.7198        -11.7198
            3634     1.57694E+03     1.57694E+03         1.03295         1.03295        -11.0948        -11.0948
            3635     1.57325E+03     1.57325E+03         1.36075         1.36075        -10.2290        -10.2290
            3636     1.57020E+03     1.57020E+03         1.76740         1.76740        -9.06526        -9.06526
            3637     1.56799E+03     1.56799E+03         2.27839         2.27839        -7.51803        -7.51803
            3638     1.56685E+03     1.56685E+03         2.91801         2.91801        -5.49730        -5.49730
            3639     1.56706E+03     1.56706E+03         3.73658         3.73658        -2.85374        -2.85374
            3640     1.56898E+03     1.56898E+03         4.77995         4.77995     559.942E-03     559.942E-03
            3641     1.57309E+03     1.57309E+03         6.15389         6.15389         5.02570         5.02570
            3642     1.57996E+03     1.57996E+03         7.96633         7.96633         10.8011         10.8011
            3643     1.59039E+03     1.59039E+03         10.4481         10.4481         18.4739         18.4739
            3644     1.60531E+03     1.60531E+03         13.9296         13.9296         28.5451         28.5451
            3645     1.62619E+03     1.62619E+03         18.9259         18.9259         42.3834         42.3834
            3646     1.65443E+03     1.65443E+03         26.7405         26.7405         61.1601         61.1601
            3647     1.69303E+03     1.69303E+03         38.5481         38.5481         88.4343         88.4343
            3648     1.74282E+03     1.74282E+03         60.9659         60.9659         127.987         127.987
            3649     1.80906E+03     1.80906E+03         97.0415         97.0415         189.301         189.301
            3650     1.87438E+03     1.87438E+03         196.198         196.198         292.585         292.585
            3651     1.86376E+03     1.86376E+03         379.575         379.575         379.255         379.255
            3652     1.65452E+03     1.65452E+03    -642.747E-03    -642.747E-03         4.56388         4.56388
            3653     1.65828E+03     1.65828E+03    -811.325E-03    -811.325E-03         3.61782         3.61782
            3654     1.66106E+03     1.66106E+03    -908.409E-03    -908.409E-03         2.51575         2.51575
            3655     1.66277E+03     1.66277E+03    -941.195E-03    -941.195E-03         1.34353         1.34353
            3656     1.66338E+03     1.66338E+03    -921.978E-03    -921.978E-03     172.634E-03     172.634E-03
            3657     1.66290E+03     1.66290E+03    -864.643E-03    -864.643E-03    -942.582E-03    -942.582E-03
            3658     1.66142E+03     1.66142E+03    -782.831E-03    -782.831E-03        -1.96521        -1.96521
            3659     1.65902E+03     1.65902E+03    -688.223E-03    -688.223E-03        -2.87431        -2.87431
            3660     1.65581E+03     1.65581E+03    -590.140E-03    -590.140E-03        -3.66204        -3.66204
            3661     1.65191E+03     1.65191E+03    -495.123E-03    -495.123E-03        -4.33032        -4.33032
            3662     1.64743E+03     1.64743E+03    -407.434E-03    -407.434E-03        -4.88761        -4.88761
            3663     1.64246E+03     1.64246E+03    -329.169E-03    -329.169E-03        -5.34611        -5.34611
            3664     1.63710E+03     1.63710E+03    -261.008E-03    -261.008E-03        -5.71949        -5.71949
            3665     1.63142E+03     1.63142E+03    -202.338E-03    -202.338E-03        -6.02129        -6.02129
            3666     1.62548E+03     1.62548E+03    -151.974E-03    -151.974E-03        -6.26366        -6.26366
            3667     1.61934E+03     1.61934E+03    -108.022E-03    -108.022E-03        -6.45676        -6.45676
            3668     1.61304E+03     1.61304E+03    -68.5915E-03    -68.5915E-03        -6.60813        -6.60813
            3669     1.60662E+03     1.60662E+03    -31.3101E-03    -31.3101E-03        -6.72271        -6.72271
            3670     1.60012E+03     1.60012E+03     5.88859E-03     5.88859E-03        -6.80236        -6.80236
            3671     1.59358E+03     1.59358E+03     45.5562E-03     45.5562E-03        -6.84633        -6.84633
            3672     1.58704E+03     1.58704E+03     89.8995E-03     89.8995E-03        -6.85036        -6.85036
            3673     1.58054E+03     1.58054E+03     141.626E-03     141.626E-03        -6.80777        -6.80777
            3674     1.57414E+03     1.57414E+03     203.520E-03     203.520E-03        -6.70746        -6.70746
            3675     1.56791E+03     1.56791E+03     278.446E-03     278.446E-03        -6.53604        -6.53604
            3676     1.56194E+03     1.56194E+03     370.983E-03     370.983E-03        -6.27358        -6.27358
            3677     1.55633E+03     1.55633E+03     483.806E-03     483.806E-03        -5.89812        -5.89812
            3678     1.55121E+03     1.55121E+03     626.306E-03     626.306E-03        -5.37613        -5.37613
            3679     1.54676E+03     1.54676E+03     799.461E-03     799.461E-03        -4.67324        -4.67324
            3680     1.54320E+03     1.54320E+03         1.02500         1.02500        -3.73139        -3.73139
            3681     1.54080E+03     1.54080E+03         1.29764         1.29764        -2.49635        -2.49635
            3682     1.53992E+03     1.53992E+03         1.67044         1.67044    -859.134E-03    -859.134E-03
            3683     1.54101E+03     1.54101E+03         2.12029         2.12029         1.26834         1.26834
            3684     1.54470E+03     1.54470E+03         2.78003         2.78003         4.11550         4.11550
            3685     1.55179E+03     1.55179E+03         3.58583         3.58583         7.83139         7.83139
            3686     1.56343E+03     1.56343E+03         4.87563         4.87563         12.9712         12.9712
            3687     1.58119E+03     1.58119E+03         6.53444         6.53444         19.8059         19.8059
            3688     1.60755E+03     1.60755E+03         9.43927         9.43927         29.9192         29.9192
            3689     1.64578E+03     1.64578E+03         13.7597         13.7597         43.9222         43.9222
            3690     1.70280E+03     1.70280E+03         21.8678         21.8678         67.4301         67.4301
            3691     1.78579E+03     1.78579E+03         38.9497         38.9497         103.086         103.086
            3692     1.92369E+03     1.92369E+03         72.7087         72.7087         179.807         179.807
            3693     2.09994E+03     2.09994E+03         257.348         257.348         332.672         332.672
            3694         97.6135         97.6135        -725.700        -725.700        -93.5289        -93.5289
            3695         350.998         350.998        -294.614        -294.614        -239.622        -239.622
            3696         679.830         679.830        -91.4346        -91.4346        -258.733        -258.733
            3697         987.552         987.552        -14.9261        -14.9261        -212.887        -212.887
            3698     1.22750E+03     1.22750E+03         5.73006         5.73006        -150.373        -150.373
            3699         309.441         309.441        -535.185        -535.185        -212.470        -212.470
            3700         678.111         678.111        -296.256        -296.256        -417.975        -417.975
            3701     1.00471E+03     1.00471E+03        -174.457        -174.457        -413.085        -413.085
            3702     1.24756E+03     1.24756E+03        -108.187        -108.187        -320.325        -320.325
            3703     1.40976E+03     1.40976E+03        -68.2734        -68.2734        -217.393        -217.393
            3704         659.668         659.668        -303.875        -303.875        -349.712        -349.712
            3705     1.11547E+03     1.11547E+03        -298.808        -298.808        -489.480        -489.480
            3706     1.38181E+03     1.38181E+03        -250.561        -250.561        -423.954        -423.954
            3707     1.51997E+03     1.51997E+03        -183.860        -183.860        -303.512        -303.512
            3708     1.58743E+03     1.58743E+03        -123.545        -123.545        -194.928        -194.928
            3709     1.11834E+03     1.11834E+03        -98.2476        -98.2476        -465.851        -465.851
            3710     1.54434E+03     1.54434E+03        -286.663        -286.663        -444.431        -444.431
            3711     1.68785E+03     1.68785E+03        -276.326        -276.326        -328.818        -328.818
            3712     1.71390E+03     1.71390E+03        -206.590        -206.590        -215.337        -215.337
            3713     1.70192E+03     1.70192E+03        -137.111        -137.111        -129.874        -129.874
            3714     1.84085E+03     1.84085E+03         205.488         205.488         72.7853         72.7853
            3715     1.99335E+03     1.99335E+03         315.639         315.639         84.0991         84.0991
            3716     2.26626E+03     2.26626E+03         428.085         428.085         57.0652         57.0652
            3717     2.73866E+03     2.73866E+03         485.240         485.240        -54.6707        -54.6707
            3718     3.50206E+03     3.50206E+03         397.911         397.911        -301.158        -301.158
            3719     1.86094E+03     1.86094E+03         75.9676         75.9676         86.6455         86.6455
            3720     2.00184E+03     2.00184E+03         139.261         139.261         101.499         101.499
            3721     2.22367E+03     2.22367E+03         229.892         229.892         64.2499         64.2499
            3722     2.57190E+03     2.57190E+03         332.439         332.439        -105.551        -105.551
            3723     3.11406E+03     3.11406E+03         396.623         396.623        -514.808        -514.808
            3724     1.85387E+03     1.85387E+03        -40.5158        -40.5158         45.1435         45.1435
            3725     1.97773E+03     1.97773E+03        -34.8586        -34.8586         47.6522         47.6522
            3726     2.14633E+03     2.14633E+03         6.12386         6.12386         6.42245         6.42245
            3727     2.35420E+03     2.35420E+03         121.696         121.696        -162.190        -162.190
            3728     2.60077E+03     2.60077E+03         344.741         344.741        -606.495        -606.495
            3729     1.81466E+03     1.81466E+03        -102.886        -102.886        -12.9437        -12.9437
            3730     1.91290E+03     1.91290E+03        -142.512        -142.512        -35.7592        -35.7592
            3731     2.03162E+03     2.03162E+03        -160.832        -160.832        -92.8392        -92.8392
            3732     2.12270E+03     2.12270E+03        -85.6326        -85.6326        -238.332        -238.332
            3733     2.07731E+03     2.07731E+03         222.367         222.367        -599.714        -599.714
            3734     1.19501E+03     1.19501E+03        -66.8618        -66.8618         483.272         483.272
            3735     1.60976E+03     1.60976E+03        -283.703        -283.703         432.679         432.679
            3736     1.73164E+03     1.73164E+03        -277.881        -277.881         310.308         310.308
            3737     1.74016E+03     1.74016E+03        -207.692        -207.692         199.267         199.267
            3738     1.71669E+03     1.71669E+03        -137.337        -137.337         118.389         118.389
            3739         796.661         796.661        -229.787        -229.787         393.462         393.462
            3740     1.26338E+03     1.26338E+03        -298.846        -298.846         491.760         491.760
            3741     1.49768E+03     1.49768E+03        -268.523        -268.523         405.847         405.847
            3742     1.59828E+03     1.59828E+03        -200.263        -200.263         281.901         281.901
            3743     1.63599E+03     1.63599E+03        -134.637        -134.637         177.054         177.054
            3744         462.223         462.223        -423.119        -423.119         279.453         279.453
            3745         885.831         885.831        -299.492        -299.492         472.958         472.958
            3746     1.19414E+03     1.19414E+03        -218.038        -218.038         441.717         441.717
            3747     1.39018E+03     1.39018E+03        -153.366        -153.366         330.421         330.421
            3748     1.50556E+03     1.50556E+03        -102.389        -102.389         218.567         218.567
            3749         217.993         217.993        -615.131        -615.131         167.856         167.856
            3750         545.002         545.002        -297.547        -297.547         371.813         371.813
            3751         877.208         877.208        -144.642        -144.642         382.955         382.955
            3752     1.14864E+03     1.14864E+03        -75.4606        -75.4606         305.538         305.538
            3753     1.34199E+03     1.34199E+03        -42.9975        -42.9975         211.344         211.344
            3754         73.2685         73.2685        -759.885        -759.885         75.3440         75.3440
            3755         308.218         308.218        -297.959        -297.959         204.343         204.343
            3756         632.735         632.735        -80.0786        -80.0786         224.170         224.170
            3757         946.643         946.643     329.729E-03     329.729E-03         186.727         186.727
            3758     1.19718E+03     1.19718E+03         18.8445         18.8445         133.231         133.231
            3759     1.81660E+03     1.81660E+03        -105.621        -105.621         16.6586         16.6586
            3760     1.91468E+03     1.91468E+03        -144.856        -144.856         38.5740         38.5740
            3761     2.03324E+03     2.03324E+03        -162.737        -162.737         94.9499         94.9499
            3762     2.12453E+03     2.12453E+03        -87.1114        -87.1114         239.982         239.982
            3763     2.07966E+03     2.07966E+03         221.381         221.381         601.128         601.128
            3764     1.85532E+03     1.85532E+03        -42.5903        -42.5903        -41.6294        -41.6294
            3765     1.97907E+03     1.97907E+03        -36.5238        -36.5238        -44.9594        -44.9594
            3766     2.14759E+03     2.14759E+03         4.96807         4.96807        -4.39251        -4.39251
            3767     2.35567E+03     2.35567E+03         121.098         121.098         163.671         163.671
            3768     2.60302E+03     2.60302E+03         344.922         344.922         607.824         607.824
            3769     1.86187E+03     1.86187E+03         74.6437         74.6437        -83.2592        -83.2592
            3770     2.00268E+03     2.00268E+03         138.326         138.326        -98.7949        -98.7949
            3771     2.22444E+03     2.22444E+03         229.448         229.448        -62.1267        -62.1267
            3772     2.57286E+03     2.57286E+03         332.592         332.592         107.231         107.231
            3773     3.11590E+03     3.11590E+03         397.166         397.166         516.222         516.222
            3774     1.84128E+03     1.84128E+03         204.874         204.874        -69.4154        -69.4154
            3775     1.99372E+03     1.99372E+03         315.275         315.275        -81.2789        -81.2789
            3776     2.26658E+03     2.26658E+03         428.058         428.058        -54.6821        -54.6821
            3777     2.73913E+03     2.73913E+03         485.534         485.534         56.6732         56.6732
            3778     3.50313E+03     3.50313E+03         398.288         398.288         302.583         302.583
            3779     1.99429E+03     1.99429E+03         201.069         201.069        -595.593        -595.593
            3780     2.08598E+03     2.08598E+03        -117.579        -117.579        -252.516        -252.516
            3781     2.01283E+03     2.01283E+03        -185.275        -185.275        -111.667        -111.667
            3782     1.90244E+03     1.90244E+03        -158.186        -158.186        -52.3192        -52.3192
            3783     1.80902E+03     1.80902E+03        -112.801        -112.801        -26.0539        -26.0539
            3784     2.42526E+03     2.42526E+03         316.654         316.654        -618.729        -618.729
            3785     2.27966E+03     2.27966E+03         49.8887         49.8887        -185.637        -185.637
            3786     2.11513E+03     2.11513E+03        -61.4444        -61.4444        -23.9049        -23.9049
            3787     1.96363E+03     1.96363E+03        -83.8471        -83.8471         19.2575         19.2575
            3788     1.84696E+03     1.84696E+03        -72.2479        -72.2479         22.6314         22.6314
            3789     2.87182E+03     2.87182E+03         382.870         382.870        -582.664        -582.664
            3790     2.46968E+03     2.46968E+03         233.463         233.463        -134.054        -134.054
            3791     2.19225E+03     2.19225E+03         115.365         115.365         43.1117         43.1117
            3792     1.99813E+03     1.99813E+03         44.2218         44.2218         81.5141         81.5141
            3793     1.86491E+03     1.86491E+03         8.93016         8.93016         69.1857         69.1857
            3794     3.27471E+03     3.27471E+03         401.816         401.816        -464.001        -464.001
            3795     2.64093E+03     2.64093E+03         395.502         395.502        -91.8057        -91.8057
            3796     2.24400E+03     2.24400E+03         306.593         306.593         68.6760         68.6760
            3797     2.00309E+03     2.00309E+03         204.259         204.259         105.233         105.233
            3798     1.85769E+03     1.85769E+03         121.531         121.531         89.3503         89.3503
            3799     3.56047E+03     3.56047E+03         394.430         394.430        -259.957        -259.957
            3800     2.76517E+03     2.76517E+03         503.730         503.730        -48.6826        -48.6826
            3801     2.27355E+03     2.27355E+03         455.948         455.948         48.7744         48.7744
            3802     1.99167E+03     1.99167E+03         342.642         342.642         73.0690         73.0690
            3803     1.83686E+03     1.83686E+03         226.436         226.436         63.0978         63.0978
            3804     1.81435E+03     1.81435E+03        -103.204        -103.204         13.2687         13.2687
            3805     1.91245E+03     1.91245E+03        -142.969        -142.969         36.2468         36.2468
            3806     2.03099E+03     2.03099E+03        -161.376        -161.376         93.4803         93.4803
            3807     2.12201E+03     2.12201E+03        -86.3581        -86.3581         239.003         239.003
            3808     2.07665E+03     2.07665E+03         221.151         221.151         599.892         599.892
            3809     1.85370E+03     1.85370E+03        -40.9954        -40.9954        -44.8221        -44.8221
            3810     1.97744E+03     1.97744E+03        -35.4435        -35.4435        -47.1603        -47.1603
            3811     2.14584E+03     2.14584E+03         5.51096         5.51096        -5.77548        -5.77548
            3812     2.35338E+03     2.35338E+03         121.041         121.041         162.717         162.717
            3813     2.59962E+03     2.59962E+03         344.304         344.304         606.531         606.531
            3814     1.86094E+03     1.86094E+03         75.3483         75.3483        -86.3424        -86.3424
            3815     2.00170E+03     2.00170E+03         138.631         138.631        -100.972        -100.972
            3816     2.22326E+03     2.22326E+03         229.312         229.312        -63.6213        -63.6213
            3817     2.57096E+03     2.57096E+03         332.018         332.018         106.153         106.153
            3818     3.11228E+03     3.11228E+03         396.336         396.336         515.081         515.081
            3819     1.84105E+03     1.84105E+03         204.787         204.787        -72.5999        -72.5999
            3820     1.99343E+03     1.99343E+03         314.902         314.902        -83.6599        -83.6599
            3821     2.26591E+03     2.26591E+03         427.610         427.610        -56.3845        -56.3845
            3822     2.73767E+03     2.73767E+03         485.277         485.277         55.3236         55.3236
            3823     3.49973E+03     3.49973E+03         398.239         398.239         301.386         301.386
            3824     1.19711E+03     1.19711E+03        -67.8362        -67.8362         484.234         484.234
            3825     1.61237E+03     1.61237E+03        -285.685        -285.685         433.880         433.880
            3826     1.73437E+03     1.73437E+03        -280.291        -280.291         311.906         311.906
            3827     1.74308E+03     1.74308E+03        -210.523        -210.523         201.508         201.508
            3828     1.71991E+03     1.71991E+03        -140.734        -140.734         121.578         121.578
            3829         798.179         798.179        -231.469        -231.469         394.252         394.252
            3830     1.26569E+03     1.26569E+03        -301.178        -301.178         493.033         493.033
            3831     1.50037E+03     1.50037E+03        -271.192        -271.192         407.412         407.412
            3832     1.60132E+03     1.60132E+03        -203.310        -203.310         283.892         283.892
            3833     1.63953E+03     1.63953E+03        -138.263        -138.263         179.773         179.773
            3834         463.150         463.150        -425.584        -425.584         280.020         280.020
            3835         887.607         887.607        -302.101        -302.101         474.205         474.205
            3836     1.19654E+03     1.19654E+03        -220.847        -220.847         443.203         443.203
            3837     1.39316E+03     1.39316E+03        -156.540        -156.540         332.148         332.148
            3838     1.50928E+03     1.50928E+03        -106.175        -106.175         220.776         220.776
            3839         218.401         218.401        -618.370        -618.370         168.223         168.223
            3840         546.137         546.137        -300.352        -300.352         372.860         372.860
            3841         879.123         879.123        -147.470        -147.470         384.207         384.207
            3842     1.15138E+03     1.15138E+03        -78.6481        -78.6481         306.900         306.900
            3843     1.34573E+03     1.34573E+03        -46.8509        -46.8509         212.966         212.966
            3844         73.3174         73.3174        -763.720        -763.720         75.5592         75.5592
            3845         308.808         308.808        -300.886        -300.886         205.009         205.009
            3846         634.178         634.178        -82.8577        -82.8577         224.962         224.962
            3847         949.093         949.093        -2.79607        -2.79607         187.547         187.547
            3848     1.20082E+03     1.20082E+03         14.9998         14.9998         134.142         134.142
            3849     1.70508E+03     1.70508E+03        -140.491        -140.491        -132.966        -132.966
            3850     1.71662E+03     1.71662E+03        -209.346        -209.346        -217.533        -217.533
            3851     1.69013E+03     1.69013E+03        -278.600        -278.600        -330.373        -330.373
            3852     1.54628E+03     1.54628E+03        -288.606        -288.606        -445.376        -445.376
            3853     1.11981E+03     1.11981E+03        -99.6768        -99.6768        -466.240        -466.240
            3854     1.59091E+03     1.59091E+03        -127.173        -127.173        -197.409        -197.409
            3855     1.52274E+03     1.52274E+03        -186.853        -186.853        -305.346        -305.346
            3856     1.38399E+03     1.38399E+03        -253.181        -253.181        -425.345        -425.345
            3857     1.11713E+03     1.11713E+03        -301.288        -301.288        -490.476        -490.476
            3858         660.533         660.533        -306.244        -306.244        -350.032        -350.032
            3859     1.41335E+03     1.41335E+03        -72.0258        -72.0258        -219.166        -219.166
            3860     1.25016E+03     1.25016E+03        -111.271        -111.271        -321.693        -321.693
            3861     1.00650E+03     1.00650E+03        -177.207        -177.207        -414.212        -414.212
            3862         679.148         679.148        -299.029        -299.029        -418.813        -418.813
            3863         309.761         309.761        -538.415        -538.415        -212.604        -212.604
            3864     1.23106E+03     1.23106E+03         1.94081         1.94081        -151.280        -151.280
            3865         989.909         989.909        -17.9987        -17.9987        -213.599        -213.599
            3866         681.175         681.175        -94.1779        -94.1779        -259.329        -259.329
            3867         351.498         351.498        -297.542        -297.542        -240.043        -240.043
            3868         97.5924         97.5924        -729.573        -729.573        -93.5164        -93.5164


  Minimum               -27.3245        -27.3245    -1.14958E+03    -1.14958E+03        -927.266        -927.266
         At Node              28              28              28              28             590             590

  Maximum            4.17146E+03     4.17146E+03         540.912         540.912         921.566         921.566
         At Node              27              27             585             585             574             574

           Total     6.34911E+06     6.34911E+06     102.816E+03     102.816E+03     3.04107E+03     3.04107E+03


