********************************************************************************
Field Output Report, written Thu Feb 22 21:47:42 2024

Source 1
---------

   ODB: C:/Users/Isabel Haycock/OneDrive - Imperial College London/Fourth Year/FYP/Isabel Haycock/06 - FE models/Specimen_2/Plate_hole_1.odb
   Step: load
   Frame: Increment      8: Step Time =   0.8000

Loc 1 : Nodal values at shell < composite > < elset = ASSEMBLY_PLATE_1-1_COMPOSITELAYUP-1-1 > from source 1 : SNEG, (fraction = -1.0), Layer = 1
Loc 2 : Nodal values at shell < composite > < elset = ASSEMBLY_PLATE_1-1_COMPOSITELAYUP-1-1 > from source 1 : SPOS, (fraction = 1.0), Layer = 8

Output sorted by column "Node Label".

Field Output reported at nodes for part: PLATE_1-1
   Computation algorithm: EXTRAPOLATE_COMPUTE_AVERAGE
   Averaged at nodes
   Averaging regions: ODB_REGIONS

      Node Label           S.S11           S.S11           S.S22           S.S22           S.S12           S.S12
                          @Loc 1          @Loc 2          @Loc 1          @Loc 2          @Loc 1          @Loc 2
-----------------------------------------------------------------------------------------------------------------
               1     1.37612E+03     1.37612E+03        -63.7401        -63.7401        -28.6668        -28.6668
               2     1.30930E+03     1.30930E+03         1.75320         1.75320    -80.5693E-03    -80.5693E-03
               3     1.30952E+03     1.30952E+03     8.93242E-03     8.93242E-03    -9.04766E-03    -9.04766E-03
               4     1.32419E+03     1.32419E+03    -81.1918E-03    -81.1918E-03         2.75270         2.75270
               5     1.37668E+03     1.37668E+03        -63.5173        -63.5173         27.6463         27.6463
               6     1.30930E+03     1.30930E+03         1.75345         1.75345     80.5617E-03     80.5617E-03
               7     1.05543E+03     1.05543E+03         29.1510         29.1510        -4.04239        -4.04239
               8     1.31943E+03     1.31943E+03    -99.2404E-03    -99.2404E-03        -2.31936        -2.31936
               9     1.37891E+03     1.37891E+03        -66.3730        -66.3730         31.3754         31.3754
              10     1.40123E+03     1.40123E+03         137.384         137.384         1.55411         1.55411
              11     1.32445E+03     1.32445E+03    -84.6476E-03    -84.6476E-03        -2.75228        -2.75228
              12     1.30952E+03     1.30952E+03     8.93444E-03     8.93444E-03     9.04971E-03     9.04971E-03
              13     1.23109E+03     1.23109E+03         374.321         374.321        -81.5324        -81.5324
              14     2.00024E+03     2.00024E+03         276.167         276.167        -322.971        -322.971
              15     1.37741E+03     1.37741E+03        -66.7875        -66.7875        -33.2011        -33.2011
              16     1.31959E+03     1.31959E+03    -103.628E-03    -103.628E-03         2.32150         2.32150
              17     1.40071E+03     1.40071E+03         139.117         139.117        -3.95935        -3.95935
              18     1.23110E+03     1.23110E+03         374.310         374.310         81.5135         81.5135
              19     1.05932E+03     1.05932E+03         25.3885         25.3885        -4.03691        -4.03691
              20     2.00024E+03     2.00024E+03         276.167         276.167         322.970         322.970
              21        -21.6485        -21.6485        -919.556        -919.556     747.688E-03     747.688E-03
              22     1.08731E+03     1.08731E+03         252.123         252.123        -534.912        -534.912
              23     3.33614E+03     3.33614E+03         209.701         209.701     370.689E-03     370.689E-03
              24     1.10409E+03     1.10409E+03         259.371         259.371         542.338         542.338
              25     1.10606E+03     1.10606E+03         259.678         259.678         543.401         543.401
              26     1.06763E+03     1.06763E+03         248.726         248.726        -529.282        -529.282
              27     3.34266E+03     3.34266E+03         207.390         207.390         15.6255         15.6255
              28        -21.8013        -21.8013        -923.523        -923.523     815.865E-03     815.865E-03
              29     1.35051E+03     1.35051E+03        -51.1056        -51.1056        -33.3592        -33.3592
              30     1.33564E+03     1.33564E+03        -42.9592        -42.9592        -36.4682        -36.4682
              31     1.32387E+03     1.32387E+03        -34.4207        -34.4207        -36.5329        -36.5329
              32     1.31513E+03     1.31513E+03        -26.5992        -26.5992        -34.7919        -34.7919
              33     1.30892E+03     1.30892E+03        -19.8700        -19.8700        -32.1656        -32.1656
              34     1.30467E+03     1.30467E+03        -14.2746        -14.2746        -29.2419        -29.2419
              35     1.30189E+03     1.30189E+03        -9.69767        -9.69767        -26.3480        -26.3480
              36     1.30017E+03     1.30017E+03        -5.99378        -5.99378        -23.6453        -23.6453
              37     1.29921E+03     1.29921E+03        -3.01865        -3.01865        -21.2010        -21.2010
              38     1.29879E+03     1.29879E+03    -647.705E-03    -647.705E-03        -19.0285        -19.0285
              39     1.29876E+03     1.29876E+03         1.22411         1.22411        -17.1152        -17.1152
              40     1.29898E+03     1.29898E+03         2.68311         2.68311        -15.4356        -15.4356
              41     1.29939E+03     1.29939E+03         3.80046         3.80046        -13.9604        -13.9604
              42     1.29992E+03     1.29992E+03         4.63483         4.63483        -12.6603        -12.6603
              43     1.30051E+03     1.30051E+03         5.23505         5.23505        -11.5090        -11.5090
              44     1.30115E+03     1.30115E+03         5.64199         5.64199        -10.4830        -10.4830
              45     1.30180E+03     1.30180E+03         5.89008         5.89008        -9.56273        -9.56273
              46     1.30244E+03     1.30244E+03         6.00852         6.00852        -8.73189        -8.73189
              47     1.30308E+03     1.30308E+03         6.02210         6.02210        -7.97716        -7.97716
              48     1.30368E+03     1.30368E+03         5.95196         5.95196        -7.28779        -7.28779
              49     1.30426E+03     1.30426E+03         5.81606         5.81606        -6.65518        -6.65518
              50     1.30480E+03     1.30480E+03         5.62972         5.62972        -6.07246        -6.07246
              51     1.30531E+03     1.30531E+03         5.40591         5.40591        -5.53412        -5.53412
              52     1.30578E+03     1.30578E+03         5.15558         5.15558        -5.03572        -5.03572
              53     1.30622E+03     1.30622E+03         4.88797         4.88797        -4.57363        -4.57363
              54     1.30661E+03     1.30661E+03         4.61080         4.61080        -4.14482        -4.14482
              55     1.30698E+03     1.30698E+03         4.33046         4.33046        -3.74672        -3.74672
              56     1.30730E+03     1.30730E+03         4.05227         4.05227        -3.37704        -3.37704
              57     1.30760E+03     1.30760E+03         3.78055         3.78055        -3.03374        -3.03374
              58     1.30787E+03     1.30787E+03         3.51882         3.51882        -2.71490        -2.71490
              59     1.30810E+03     1.30810E+03         3.26991         3.26991        -2.41873        -2.41873
              60     1.30831E+03     1.30831E+03         3.03605         3.03605        -2.14345        -2.14345
              61     1.30850E+03     1.30850E+03         2.81901         2.81901        -1.88733        -1.88733
              62     1.30866E+03     1.30866E+03         2.62014         2.62014        -1.64865        -1.64865
              63     1.30880E+03     1.30880E+03         2.44048         2.44048        -1.42570        -1.42570
              64     1.30893E+03     1.30893E+03         2.28079         2.28079        -1.21676        -1.21676
              65     1.30903E+03     1.30903E+03         2.14163         2.14163        -1.02008        -1.02008
              66     1.30911E+03     1.30911E+03         2.02341         2.02341    -833.948E-03    -833.948E-03
              67     1.30918E+03     1.30918E+03         1.92640         1.92640    -656.602E-03    -656.602E-03
              68     1.30923E+03     1.30923E+03         1.85078         1.85078    -486.295E-03    -486.295E-03
              69     1.30927E+03     1.30927E+03         1.79667         1.79667    -321.273E-03    -321.273E-03
              70     1.30929E+03     1.30929E+03         1.76410         1.76410    -160.217E-03    -160.217E-03
              71     1.30945E+03     1.30945E+03         1.57852         1.57852    -87.3174E-03    -87.3174E-03
              72     1.30959E+03     1.30959E+03         1.40339         1.40339    -91.4272E-03    -91.4272E-03
              73     1.30973E+03     1.30973E+03         1.22228         1.22228    -93.4164E-03    -93.4164E-03
              74     1.30986E+03     1.30986E+03         1.03946         1.03946    -93.1780E-03    -93.1780E-03
              75     1.30996E+03     1.30996E+03     859.316E-03     859.316E-03    -90.6718E-03    -90.6718E-03
              76     1.31004E+03     1.31004E+03     686.303E-03     686.303E-03    -85.8949E-03    -85.8949E-03
              77     1.31009E+03     1.31009E+03     524.806E-03     524.806E-03    -78.9098E-03    -78.9098E-03
              78     1.31010E+03     1.31010E+03     379.053E-03     379.053E-03    -69.8171E-03    -69.8171E-03
              79     1.31007E+03     1.31007E+03     252.985E-03     252.985E-03    -58.8091E-03    -58.8091E-03
              80     1.30998E+03     1.30998E+03     150.158E-03     150.158E-03    -46.0840E-03    -46.0840E-03
              81     1.30984E+03     1.30984E+03     73.5578E-03     73.5578E-03    -32.0285E-03    -32.0285E-03
              82     1.30964E+03     1.30964E+03     25.5369E-03     25.5369E-03    -16.9000E-03    -16.9000E-03
              83     1.30954E+03     1.30954E+03     9.11510E-03     9.11510E-03    -16.5916E-03    -16.5916E-03
              84     1.30959E+03     1.30959E+03     9.37543E-03     9.37543E-03    -32.5051E-03    -32.5051E-03
              85     1.30967E+03     1.30967E+03     9.63642E-03     9.63642E-03    -49.5122E-03    -49.5122E-03
              86     1.30978E+03     1.30978E+03     10.0789E-03     10.0789E-03    -67.2477E-03    -67.2477E-03
              87     1.30994E+03     1.30994E+03     10.6484E-03     10.6484E-03    -86.0294E-03    -86.0294E-03
              88     1.31013E+03     1.31013E+03     11.3422E-03     11.3422E-03    -106.118E-03    -106.118E-03
              89     1.31036E+03     1.31036E+03     12.1630E-03     12.1630E-03    -127.782E-03    -127.782E-03
              90     1.31063E+03     1.31063E+03     13.1029E-03     13.1029E-03    -151.286E-03    -151.286E-03
              91     1.31096E+03     1.31096E+03     14.1620E-03     14.1620E-03    -176.891E-03    -176.891E-03
              92     1.31134E+03     1.31134E+03     15.3310E-03     15.3310E-03    -204.856E-03    -204.856E-03
              93     1.31177E+03     1.31177E+03     16.6032E-03     16.6032E-03    -235.429E-03    -235.429E-03
              94     1.31227E+03     1.31227E+03     17.9646E-03     17.9646E-03    -268.842E-03    -268.842E-03
              95     1.31284E+03     1.31284E+03     19.3987E-03     19.3987E-03    -305.310E-03    -305.310E-03
              96     1.31349E+03     1.31349E+03     20.8817E-03     20.8817E-03    -345.011E-03    -345.011E-03
              97     1.31421E+03     1.31421E+03     22.3821E-03     22.3821E-03    -388.082E-03    -388.082E-03
              98     1.31503E+03     1.31503E+03     23.8590E-03     23.8590E-03    -434.597E-03    -434.597E-03
              99     1.31594E+03     1.31594E+03     25.2571E-03     25.2571E-03    -484.547E-03    -484.547E-03
             100     1.31695E+03     1.31695E+03     26.5091E-03     26.5091E-03    -537.815E-03    -537.815E-03
             101     1.31807E+03     1.31807E+03     27.5229E-03     27.5229E-03    -594.140E-03    -594.140E-03
             102     1.31931E+03     1.31931E+03     28.1918E-03     28.1918E-03    -653.076E-03    -653.076E-03
             103     1.32067E+03     1.32067E+03     28.3690E-03     28.3690E-03    -713.942E-03    -713.942E-03
             104     1.32214E+03     1.32214E+03     27.8934E-03     27.8934E-03    -775.766E-03    -775.766E-03
             105     1.32374E+03     1.32374E+03     26.5419E-03     26.5419E-03    -837.208E-03    -837.208E-03
             106     1.32546E+03     1.32546E+03     24.0860E-03     24.0860E-03    -896.487E-03    -896.487E-03
             107     1.32729E+03     1.32729E+03     20.2069E-03     20.2069E-03    -951.294E-03    -951.294E-03
             108     1.32923E+03     1.32923E+03     14.6090E-03     14.6090E-03    -998.701E-03    -998.701E-03
             109     1.33124E+03     1.33124E+03     6.87918E-03     6.87918E-03        -1.03508        -1.03508
             110     1.33332E+03     1.33332E+03    -3.30987E-03    -3.30987E-03        -1.05604        -1.05604
             111     1.33541E+03     1.33541E+03    -16.4046E-03    -16.4046E-03        -1.05639        -1.05639
             112     1.33748E+03     1.33748E+03    -32.6542E-03    -32.6542E-03        -1.03018        -1.03018
             113     1.33947E+03     1.33947E+03    -52.3535E-03    -52.3535E-03    -970.876E-03    -970.876E-03
             114     1.34129E+03     1.34129E+03    -75.4421E-03    -75.4421E-03    -871.544E-03    -871.544E-03
             115     1.34288E+03     1.34288E+03    -101.683E-03    -101.683E-03    -725.449E-03    -725.449E-03
             116     1.34412E+03     1.34412E+03    -130.328E-03    -130.328E-03    -526.605E-03    -526.605E-03
             117     1.34491E+03     1.34491E+03    -160.045E-03    -160.045E-03    -270.914E-03    -270.914E-03
             118     1.34514E+03     1.34514E+03    -188.952E-03    -188.952E-03     42.8244E-03     42.8244E-03
             119     1.34468E+03     1.34468E+03    -214.138E-03    -214.138E-03     411.290E-03     411.290E-03
             120     1.34346E+03     1.34346E+03    -232.411E-03    -232.411E-03     825.378E-03     825.378E-03
             121     1.34138E+03     1.34138E+03    -239.550E-03    -239.550E-03         1.26887         1.26887
             122     1.33841E+03     1.33841E+03    -231.794E-03    -231.794E-03         1.71773         1.71773
             123     1.33458E+03     1.33458E+03    -205.673E-03    -205.673E-03         2.14086         2.14086
             124     1.32997E+03     1.32997E+03    -158.818E-03    -158.818E-03         2.49903         2.49903
             125     1.32532E+03     1.32532E+03    -237.521E-03    -237.521E-03         5.07654         5.07654
             126     1.32783E+03     1.32783E+03    -695.056E-03    -695.056E-03         9.12963         9.12963
             127     1.33078E+03     1.33078E+03        -1.44985        -1.44985         12.1318         12.1318
             128     1.33412E+03     1.33412E+03        -2.55052        -2.55052         14.3273         14.3273
             129     1.33788E+03     1.33788E+03        -4.10889        -4.10889         15.8732         15.8732
             130     1.34209E+03     1.34209E+03        -6.29479        -6.29479         16.8187         16.8187
             131     1.34683E+03     1.34683E+03        -9.33599        -9.33599         17.0924         17.0924
             132     1.35213E+03     1.35213E+03        -13.5136        -13.5136         16.4764         16.4764
             133     1.35792E+03     1.35792E+03        -19.1423        -19.1423         14.5500         14.5500
             134     1.36389E+03     1.36389E+03        -26.4869        -26.4869         10.6420         10.6420
             135     1.36921E+03     1.36921E+03        -35.5982        -35.5982         3.80003         3.80003
             136     1.37225E+03     1.37225E+03        -45.9331        -45.9331        -6.98027        -6.98027
             137     1.35121E+03     1.35121E+03        -50.9712        -50.9712         32.3368         32.3368
             138     1.33645E+03     1.33645E+03        -43.0062        -43.0062         35.6319         35.6319
             139     1.32470E+03     1.32470E+03        -34.6005        -34.6005         35.9097         35.9097
             140     1.31591E+03     1.31591E+03        -26.8456        -26.8456         34.3706         34.3706
             141     1.30961E+03     1.30961E+03        -20.1293        -20.1293         31.9057         31.9057
             142     1.30526E+03     1.30526E+03        -14.5148        -14.5148         29.0982         29.0982
             143     1.30237E+03     1.30237E+03        -9.90600        -9.90600         26.2815         26.2815
             144     1.30056E+03     1.30056E+03        -6.16806        -6.16806         23.6285         23.6285
             145     1.29952E+03     1.29952E+03        -3.16128        -3.16128         21.2145         21.2145
             146     1.29905E+03     1.29905E+03    -763.170E-03    -763.170E-03         19.0599         19.0599
             147     1.29896E+03     1.29896E+03         1.13119         1.13119         17.1562         17.1562
             148     1.29915E+03     1.29915E+03         2.60839         2.60839         15.4809         15.4809
             149     1.29953E+03     1.29953E+03         3.74024         3.74024         14.0067         14.0067
             150     1.30003E+03     1.30003E+03         4.58608         4.58608         12.7057         12.7057
             151     1.30061E+03     1.30061E+03         5.19532         5.19532         11.5522         11.5522
             152     1.30123E+03     1.30123E+03         5.60935         5.60935         10.5234         10.5234
             153     1.30186E+03     1.30186E+03         5.86304         5.86304         9.59990         9.59990
             154     1.30250E+03     1.30250E+03         5.98592         5.98592         8.76573         8.76573
             155     1.30312E+03     1.30312E+03         6.00305         6.00305         8.00770         8.00770
             156     1.30372E+03     1.30372E+03         5.93577         5.93577         7.31513         7.31513
             157     1.30429E+03     1.30429E+03         5.80222         5.80222         6.67950         6.67950
             158     1.30483E+03     1.30483E+03         5.61782         5.61782         6.09394         6.09394
             159     1.30534E+03     1.30534E+03         5.39563         5.39563         5.55298         5.55298
             160     1.30580E+03     1.30580E+03         5.14670         5.14670         5.05218         5.05218
             161     1.30623E+03     1.30623E+03         4.88028         4.88028         4.58791         4.58791
             162     1.30663E+03     1.30663E+03         4.60414         4.60414         4.15713         4.15713
             163     1.30699E+03     1.30699E+03         4.32472         4.32472         3.75725         3.75725
             164     1.30731E+03     1.30731E+03         4.04733         4.04733         3.38600         3.38600
             165     1.30761E+03     1.30761E+03         3.77632         3.77632         3.04130         3.04130
             166     1.30787E+03     1.30787E+03         3.51521         3.51521         2.72124         2.72124
             167     1.30811E+03     1.30811E+03         3.26686         3.26686         2.42398         2.42398
             168     1.30832E+03     1.30832E+03         3.03349         3.03349         2.14776         2.14776
             169     1.30850E+03     1.30850E+03         2.81688         2.81688         1.89083         1.89083
             170     1.30867E+03     1.30867E+03         2.61840         2.61840         1.65145         1.65145
             171     1.30881E+03     1.30881E+03         2.43908         2.43908         1.42791         1.42791
             172     1.30893E+03     1.30893E+03         2.27970         2.27970         1.21846         1.21846
             173     1.30903E+03     1.30903E+03         2.14081         2.14081         1.02137         1.02137
             174     1.30911E+03     1.30911E+03         2.02284         2.02284     834.885E-03     834.885E-03
             175     1.30918E+03     1.30918E+03         1.92605         1.92605     657.254E-03     657.254E-03
             176     1.30923E+03     1.30923E+03         1.85064         1.85064     486.716E-03     486.716E-03
             177     1.30927E+03     1.30927E+03         1.79672         1.79672     321.505E-03     321.505E-03
             178     1.30929E+03     1.30929E+03         1.76430         1.76430     160.286E-03     160.286E-03
             179     1.30914E+03     1.30914E+03         1.93052         1.93052     70.5295E-03     70.5295E-03
             180     1.30899E+03     1.30899E+03         2.09029         2.09029     57.6328E-03     57.6328E-03
             181     1.30887E+03     1.30887E+03         2.21532         2.21532     42.7085E-03     42.7085E-03
             182     1.30878E+03     1.30878E+03         2.30120         2.30120     26.2807E-03     26.2807E-03
             183     1.30874E+03     1.30874E+03         2.34490         2.34490     8.92321E-03     8.92321E-03
             184     1.30874E+03     1.30874E+03         2.34486         2.34486    -8.75711E-03    -8.75711E-03
             185     1.30878E+03     1.30878E+03         2.30111         2.30111    -26.1390E-03    -26.1390E-03
             186     1.30887E+03     1.30887E+03         2.21519         2.21519    -42.6190E-03    -42.6190E-03
             187     1.30899E+03     1.30899E+03         2.09010         2.09010    -57.6005E-03    -57.6005E-03
             188     1.30914E+03     1.30914E+03         1.93028         1.93028    -70.5161E-03    -70.5161E-03
             189     1.08429E+03     1.08429E+03         15.1906         15.1906         71.4814         71.4814
             190     1.16187E+03     1.16187E+03        -20.0864        -20.0864         112.469         112.469
             191     1.24768E+03     1.24768E+03        -53.3950        -53.3950         114.690         114.690
             192     1.31421E+03     1.31421E+03        -71.1190        -71.1190         91.4536         91.4536
             193     1.35383E+03     1.35383E+03        -72.6851        -72.6851         60.2815         60.2815
             194     1.34659E+03     1.34659E+03        -72.5493        -72.5493        -66.4733        -66.4733
             195     1.28954E+03     1.28954E+03        -65.0170        -65.0170        -101.404        -101.404
             196     1.19773E+03     1.19773E+03        -34.3343        -34.3343        -114.991        -114.991
             197     1.10136E+03     1.10136E+03         7.33146         7.33146        -80.5879        -80.5879
             198     1.32066E+03     1.32066E+03    -290.225E-03    -290.225E-03        -4.23446        -4.23446
             199     1.32344E+03     1.32344E+03    -847.708E-03    -847.708E-03        -7.49732        -7.49732
             200     1.32677E+03     1.32677E+03        -1.75898        -1.75898        -9.77547        -9.77547
             201     1.33060E+03     1.33060E+03        -3.06277        -3.06277        -11.3313        -11.3313
             202     1.33490E+03     1.33490E+03        -4.86120        -4.86120        -12.3332        -12.3332
             203     1.33972E+03     1.33972E+03        -7.31468        -7.31468        -12.8385        -12.8385
             204     1.34511E+03     1.34511E+03        -10.6422        -10.6422        -12.7809        -12.7809
             205     1.35107E+03     1.35107E+03        -15.1165        -15.1165        -11.9447        -11.9447
             206     1.35751E+03     1.35751E+03        -21.0444        -21.0444        -9.90890        -9.90890
             207     1.36412E+03     1.36412E+03        -28.6837        -28.6837        -5.99774        -5.99774
             208     1.37005E+03     1.37005E+03        -38.0777        -38.0777     748.304E-03     748.304E-03
             209     1.37365E+03     1.37365E+03        -48.6844        -48.6844         11.3566         11.3566
             210     1.40748E+03     1.40748E+03        -58.1750        -58.1750         3.38982         3.38982
             211     1.42571E+03     1.42571E+03        -26.9163        -26.9163        -27.2832        -27.2832
             212     1.42580E+03     1.42580E+03         34.5565         34.5565        -49.3395        -49.3395
             213     1.41083E+03     1.41083E+03         104.860         104.860        -40.3218        -40.3218
             214     1.41048E+03     1.41048E+03         105.460         105.460         43.4575         43.4575
             215     1.42509E+03     1.42509E+03         35.7733         35.7733         52.5712         52.5712
             216     1.42462E+03     1.42462E+03        -25.0910        -25.0910         30.6977         30.6977
             217     1.40599E+03     1.40599E+03        -55.7823        -55.7823     281.353E-03     281.353E-03
             218     1.31697E+03     1.31697E+03     35.0805E-03     35.0805E-03         2.82373         2.82373
             219     1.30944E+03     1.30944E+03     171.764E-03     171.764E-03         2.59499         2.59499
             220     1.30302E+03     1.30302E+03     298.288E-03     298.288E-03         2.02237         2.02237
             221     1.29859E+03     1.29859E+03     387.645E-03     387.645E-03         1.16672         1.16672
             222     1.29676E+03     1.29676E+03     418.854E-03     418.854E-03     152.730E-03     152.730E-03
             223     1.29774E+03     1.29774E+03     383.895E-03     383.895E-03    -855.971E-03    -855.971E-03
             224     1.30128E+03     1.30128E+03     290.805E-03     290.805E-03        -1.69574        -1.69574
             225     1.30676E+03     1.30676E+03     160.629E-03     160.629E-03        -2.24194        -2.24194
             226     1.31326E+03     1.31326E+03     20.3159E-03     20.3159E-03        -2.43363        -2.43363
             227     1.37203E+03     1.37203E+03        -46.0278        -46.0278         7.12873         7.12873
             228     1.36905E+03     1.36905E+03        -35.6967        -35.6967        -3.69255        -3.69255
             229     1.36376E+03     1.36376E+03        -26.5925        -26.5925        -10.5498        -10.5498
             230     1.35784E+03     1.35784E+03        -19.2554        -19.2554        -14.4681        -14.4681
             231     1.35208E+03     1.35208E+03        -13.6299        -13.6299        -16.4066        -16.4066
             232     1.34681E+03     1.34681E+03        -9.44762        -9.44762        -17.0372        -17.0372
             233     1.34210E+03     1.34210E+03        -6.39377        -6.39377        -16.7778        -16.7778
             234     1.33791E+03     1.33791E+03        -4.18914        -4.18914        -15.8440        -15.8440
             235     1.33419E+03     1.33419E+03        -2.60926        -2.60926        -14.3062        -14.3062
             236     1.33088E+03     1.33088E+03        -1.48720        -1.48720        -12.1158        -12.1158
             237     1.32799E+03     1.32799E+03    -714.746E-03    -714.746E-03        -9.11762        -9.11762
             238     1.32554E+03     1.32554E+03    -245.363E-03    -245.363E-03        -5.07141        -5.07141
             239     1.33005E+03     1.33005E+03    -158.619E-03    -158.619E-03        -2.49625        -2.49625
             240     1.33465E+03     1.33465E+03    -205.860E-03    -205.860E-03        -2.13737        -2.13737
             241     1.33847E+03     1.33847E+03    -231.823E-03    -231.823E-03        -1.71416        -1.71416
             242     1.34143E+03     1.34143E+03    -239.623E-03    -239.623E-03        -1.26529        -1.26529
             243     1.34350E+03     1.34350E+03    -232.343E-03    -232.343E-03    -821.888E-03    -821.888E-03
             244     1.34472E+03     1.34472E+03    -214.061E-03    -214.061E-03    -408.023E-03    -408.023E-03
             245     1.34517E+03     1.34517E+03    -188.810E-03    -188.810E-03    -39.8406E-03    -39.8406E-03
             246     1.34494E+03     1.34494E+03    -159.891E-03    -159.891E-03     273.548E-03     273.548E-03
             247     1.34414E+03     1.34414E+03    -130.166E-03    -130.166E-03     528.884E-03     528.884E-03
             248     1.34290E+03     1.34290E+03    -101.523E-03    -101.523E-03     727.371E-03     727.371E-03
             249     1.34131E+03     1.34131E+03    -75.3024E-03    -75.3024E-03     873.143E-03     873.143E-03
             250     1.33948E+03     1.33948E+03    -52.2254E-03    -52.2254E-03     972.187E-03     972.187E-03
             251     1.33749E+03     1.33749E+03    -32.5538E-03    -32.5538E-03         1.03125         1.03125
             252     1.33542E+03     1.33542E+03    -16.3164E-03    -16.3164E-03         1.05726         1.05726
             253     1.33332E+03     1.33332E+03    -3.24490E-03    -3.24490E-03         1.05675         1.05675
             254     1.33125E+03     1.33125E+03     6.93569E-03     6.93569E-03         1.03566         1.03566
             255     1.32923E+03     1.32923E+03     14.6493E-03     14.6493E-03     999.185E-03     999.185E-03
             256     1.32730E+03     1.32730E+03     20.2427E-03     20.2427E-03     951.698E-03     951.698E-03
             257     1.32546E+03     1.32546E+03     24.1114E-03     24.1114E-03     896.828E-03     896.828E-03
             258     1.32374E+03     1.32374E+03     26.5653E-03     26.5653E-03     837.497E-03     837.497E-03
             259     1.32215E+03     1.32215E+03     27.9104E-03     27.9104E-03     776.014E-03     776.014E-03
             260     1.32067E+03     1.32067E+03     28.3852E-03     28.3852E-03     714.156E-03     714.156E-03
             261     1.31931E+03     1.31931E+03     28.2039E-03     28.2039E-03     653.261E-03     653.261E-03
             262     1.31808E+03     1.31808E+03     27.5347E-03     27.5347E-03     594.300E-03     594.300E-03
             263     1.31695E+03     1.31695E+03     26.5182E-03     26.5182E-03     537.955E-03     537.955E-03
             264     1.31594E+03     1.31594E+03     25.2660E-03     25.2660E-03     484.669E-03     484.669E-03
             265     1.31503E+03     1.31503E+03     23.8660E-03     23.8660E-03     434.703E-03     434.703E-03
             266     1.31421E+03     1.31421E+03     22.3890E-03     22.3890E-03     388.174E-03     388.174E-03
             267     1.31349E+03     1.31349E+03     20.8873E-03     20.8873E-03     345.091E-03     345.091E-03
             268     1.31284E+03     1.31284E+03     19.4041E-03     19.4041E-03     305.379E-03     305.379E-03
             269     1.31227E+03     1.31227E+03     17.9690E-03     17.9690E-03     268.903E-03     268.903E-03
             270     1.31177E+03     1.31177E+03     16.6074E-03     16.6074E-03     235.481E-03     235.481E-03
             271     1.31134E+03     1.31134E+03     15.3346E-03     15.3346E-03     204.901E-03     204.901E-03
             272     1.31096E+03     1.31096E+03     14.1654E-03     14.1654E-03     176.930E-03     176.930E-03
             273     1.31063E+03     1.31063E+03     13.1060E-03     13.1060E-03     151.318E-03     151.318E-03
             274     1.31036E+03     1.31036E+03     12.1659E-03     12.1659E-03     127.809E-03     127.809E-03
             275     1.31012E+03     1.31012E+03     11.3448E-03     11.3448E-03     106.141E-03     106.141E-03
             276     1.30993E+03     1.30993E+03     10.6509E-03     10.6509E-03     86.0476E-03     86.0476E-03
             277     1.30978E+03     1.30978E+03     10.0812E-03     10.0812E-03     67.2620E-03     67.2620E-03
             278     1.30967E+03     1.30967E+03     9.63865E-03     9.63865E-03     49.5227E-03     49.5227E-03
             279     1.30958E+03     1.30958E+03     9.37757E-03     9.37757E-03     32.5120E-03     32.5120E-03
             280     1.30954E+03     1.30954E+03     9.11721E-03     9.11721E-03     16.5952E-03     16.5952E-03
             281     1.30964E+03     1.30964E+03     25.5426E-03     25.5426E-03     16.9037E-03     16.9037E-03
             282     1.30984E+03     1.30984E+03     73.5740E-03     73.5740E-03     32.0354E-03     32.0354E-03
             283     1.30998E+03     1.30998E+03     150.190E-03     150.190E-03     46.0938E-03     46.0938E-03
             284     1.31006E+03     1.31006E+03     253.039E-03     253.039E-03     58.8214E-03     58.8214E-03
             285     1.31010E+03     1.31010E+03     379.134E-03     379.134E-03     69.8316E-03     69.8316E-03
             286     1.31009E+03     1.31009E+03     524.916E-03     524.916E-03     78.9258E-03     78.9258E-03
             287     1.31004E+03     1.31004E+03     686.445E-03     686.445E-03     85.9121E-03     85.9121E-03
             288     1.30996E+03     1.30996E+03     859.492E-03     859.492E-03     90.6891E-03     90.6891E-03
             289     1.30985E+03     1.30985E+03         1.03967         1.03967     93.1953E-03     93.1953E-03
             290     1.30973E+03     1.30973E+03         1.22253         1.22253     93.4309E-03     93.4309E-03
             291     1.30959E+03     1.30959E+03         1.40366         1.40366     91.4402E-03     91.4402E-03
             292     1.30945E+03     1.30945E+03         1.57879         1.57879     87.3042E-03     87.3042E-03
             293     1.23755E+03     1.23755E+03         358.993         358.993        -82.0508        -82.0508
             294     1.25046E+03     1.25046E+03         328.133         328.133        -81.5770        -81.5770
             295     1.26301E+03     1.26301E+03         297.237         297.237        -78.9491        -78.9491
             296     1.27489E+03     1.27489E+03         266.945         266.945        -75.0447        -75.0447
             297     1.28582E+03     1.28582E+03         237.747         237.747        -69.9635        -69.9635
             298     1.29560E+03     1.29560E+03         210.068         210.068        -63.9509        -63.9509
             299     1.30412E+03     1.30412E+03         184.222         184.222        -57.2393        -57.2393
             300     1.31131E+03     1.31131E+03         160.437         160.437        -50.1256        -50.1256
             301     1.31720E+03     1.31720E+03         138.812         138.812        -42.8682        -42.8682
             302     1.32184E+03     1.32184E+03         119.374         119.374        -35.7009        -35.7009
             303     1.32538E+03     1.32538E+03         102.062         102.062        -28.8182        -28.8182
             304     1.32790E+03     1.32790E+03         86.7688         86.7688        -22.3484        -22.3484
             305     1.32957E+03     1.32957E+03         73.3585         73.3585        -16.3945        -16.3945
             306     1.33050E+03     1.33050E+03         61.6695         61.6695        -10.9947        -10.9947
             307     1.33083E+03     1.33083E+03         51.5457         51.5457        -6.17604        -6.17604
             308     1.33065E+03     1.33065E+03         42.8204         42.8204        -1.92073        -1.92073
             309     1.33007E+03     1.33007E+03         35.3464         35.3464         1.79122         1.79122
             310     1.32916E+03     1.32916E+03         28.9732         28.9732         5.00491         5.00491
             311     1.32799E+03     1.32799E+03         23.5718         23.5718         7.76303         7.76303
             312     1.32662E+03     1.32662E+03         19.0133         19.0133         10.1199         10.1199
             313     1.32510E+03     1.32510E+03         15.1873         15.1873         12.1255         12.1255
             314     1.32346E+03     1.32346E+03         11.9850         11.9850         13.8341         13.8341
             315     1.32175E+03     1.32175E+03         9.31149         9.31149         15.2954         15.2954
             316     1.31999E+03     1.31999E+03         7.07386         7.07386         16.5596         16.5596
             317     1.31820E+03     1.31820E+03         5.18848         5.18848         17.6736         17.6736
             318     1.31642E+03     1.31642E+03         3.57329         3.57329         18.6840         18.6840
             319     1.31467E+03     1.31467E+03         2.15151         2.15151         19.6349         19.6349
             320     1.31297E+03     1.31297E+03     846.392E-03     846.392E-03         20.5710         20.5710
             321     1.31136E+03     1.31136E+03    -417.287E-03    -417.287E-03         21.5357         21.5357
             322     1.30988E+03     1.30988E+03        -1.71727        -1.71727         22.5735         22.5735
             323     1.30857E+03     1.30857E+03        -3.13408        -3.13408         23.7286         23.7286
             324     1.30750E+03     1.30750E+03        -4.75467        -4.75467         25.0448         25.0448
             325     1.30677E+03     1.30677E+03        -6.67451        -6.67451         26.5631         26.5631
             326     1.30648E+03     1.30648E+03        -9.00086        -9.00086         28.3175         28.3175
             327     1.30681E+03     1.30681E+03        -11.8563        -11.8563         30.3261         30.3261
             328     1.30796E+03     1.30796E+03        -15.3784        -15.3784         32.5766         32.5766
             329     1.31024E+03     1.31024E+03        -19.7197        -19.7197         35.0002         35.0002
             330     1.31403E+03     1.31403E+03        -25.0256        -25.0256         37.4290         37.4290
             331     1.31982E+03     1.31982E+03        -31.4010        -31.4010         39.5338         39.5338
             332     1.32814E+03     1.32814E+03        -38.7888        -38.7888         40.7341         40.7341
             333     1.33944E+03     1.33944E+03        -46.8058        -46.8058         40.1404         40.1404
             334     1.35380E+03     1.35380E+03        -54.3570        -54.3570         36.5522         36.5522
             335     1.32422E+03     1.32422E+03    -179.620E-03    -179.620E-03        -2.02209        -2.02209
             336     1.32784E+03     1.32784E+03    -228.845E-03    -228.845E-03        -1.61807        -1.61807
             337     1.33058E+03     1.33058E+03    -257.462E-03    -257.462E-03        -1.14356        -1.14356
             338     1.33235E+03     1.33235E+03    -267.444E-03    -267.444E-03    -637.799E-03    -637.799E-03
             339     1.33312E+03     1.33312E+03    -262.763E-03    -262.763E-03    -131.858E-03    -131.858E-03
             340     1.33291E+03     1.33291E+03    -246.535E-03    -246.535E-03     350.282E-03     350.282E-03
             341     1.33178E+03     1.33178E+03    -223.699E-03    -223.699E-03     792.366E-03     792.366E-03
             342     1.32982E+03     1.32982E+03    -196.486E-03    -196.486E-03         1.18525         1.18525
             343     1.32713E+03     1.32713E+03    -168.896E-03    -168.896E-03         1.52544         1.52544
             344     1.32382E+03     1.32382E+03    -141.288E-03    -141.288E-03         1.81391         1.81391
             345     1.31998E+03     1.31998E+03    -116.782E-03    -116.782E-03         2.05436         2.05436
             346     1.31571E+03     1.31571E+03    -93.6108E-03    -93.6108E-03         2.25228         2.25228
             347     1.31108E+03     1.31108E+03    -75.0511E-03    -75.0511E-03         2.41369         2.41369
             348     1.30617E+03     1.30617E+03    -56.9337E-03    -56.9337E-03         2.54464         2.54464
             349     1.30102E+03     1.30102E+03    -44.1679E-03    -44.1679E-03         2.65053         2.65053
             350     1.29567E+03     1.29567E+03    -29.3625E-03    -29.3625E-03         2.73592         2.73592
             351     1.29018E+03     1.29018E+03    -20.9639E-03    -20.9639E-03         2.80424         2.80424
             352     1.28457E+03     1.28457E+03    -6.57239E-03    -6.57239E-03         2.85780         2.85780
             353     1.27886E+03     1.27886E+03    -941.079E-06    -941.079E-06         2.89768         2.89768
             354     1.27308E+03     1.27308E+03     16.6587E-03     16.6587E-03         2.92368         2.92368
             355     1.26727E+03     1.26727E+03     20.6998E-03     20.6998E-03         2.93447         2.93447
             356     1.26146E+03     1.26146E+03     46.0683E-03     46.0683E-03         2.92721         2.92721
             357     1.25568E+03     1.25568E+03     48.9135E-03     48.9135E-03         2.89802         2.89802
             358     1.24999E+03     1.24999E+03     88.3788E-03     88.3788E-03         2.84093         2.84093
             359     1.24444E+03     1.24444E+03     89.2709E-03     89.2709E-03         2.74911         2.74911
             360     1.23912E+03     1.23912E+03     152.627E-03     152.627E-03         2.61213         2.61213
             361     1.23412E+03     1.23412E+03     149.036E-03     149.036E-03         2.41939         2.41939
             362     1.22958E+03     1.22958E+03     252.966E-03     252.966E-03         2.15260         2.15260
             363     1.22565E+03     1.22565E+03     239.292E-03     239.292E-03         1.79615         1.79615
             364     1.22255E+03     1.22255E+03     414.914E-03     414.914E-03         1.31538         1.31538
             365     1.22055E+03     1.22055E+03     379.359E-03     379.359E-03     688.580E-03     688.580E-03
             366     1.21999E+03     1.21999E+03     691.085E-03     691.085E-03    -158.423E-03    -158.423E-03
             367     1.22137E+03     1.22137E+03     606.683E-03     606.683E-03        -1.25105        -1.25105
             368     1.22531E+03     1.22531E+03         1.20664         1.20664        -2.77231        -2.77231
             369     1.23272E+03     1.23272E+03         1.00172         1.00172        -4.73073        -4.73073
             370     1.24491E+03     1.24491E+03         2.31518         2.31518        -7.65427        -7.65427
             371     1.26383E+03     1.26383E+03         1.76344         1.76344        -11.4343        -11.4343
             372     1.29275E+03     1.29275E+03         5.27732         5.27732        -17.9135        -17.9135
             373     1.33681E+03     1.33681E+03         3.52714         3.52714        -26.4088        -26.4088
             374     1.40800E+03     1.40800E+03         16.6897         16.6897        -45.7316        -45.7316
             375     1.52604E+03     1.52604E+03         9.78611         9.78611        -72.5209        -72.5209
             376     1.79984E+03     1.79984E+03         128.535         128.535        -203.430        -203.430
             377     1.75148E+03     1.75148E+03         336.354         336.354        -343.638        -343.638
             378     1.46280E+03     1.46280E+03         388.323         388.323        -321.456        -321.456
             379     1.38340E+03     1.38340E+03         381.457         381.457        -270.438        -270.438
             380     1.32904E+03     1.32904E+03         381.091         381.091        -243.133        -243.133
             381     1.29997E+03     1.29997E+03         378.442         378.442        -214.962        -214.962
             382     1.27870E+03     1.27870E+03         377.125         377.125        -193.687        -193.687
             383     1.26498E+03     1.26498E+03         376.046         376.046        -173.191        -173.191
             384     1.25452E+03     1.25452E+03         375.316         375.316        -155.633        -155.633
             385     1.24716E+03     1.24716E+03         374.894         374.894        -138.888        -138.888
             386     1.24140E+03     1.24140E+03         374.568         374.568        -123.690        -123.690
             387     1.23714E+03     1.23714E+03         374.433         374.433        -109.146        -109.146
             388     1.23376E+03     1.23376E+03         374.315         374.315        -95.5182        -95.5182
             389     1.37310E+03     1.37310E+03        -48.9022        -48.9022        -12.0555        -12.0555
             390     1.36972E+03     1.36972E+03        -38.4537        -38.4537        -1.40911        -1.40911
             391     1.36398E+03     1.36398E+03        -29.1463        -29.1463         5.45563         5.45563
             392     1.35751E+03     1.35751E+03        -21.5149        -21.5149         9.51243         9.51243
             393     1.35114E+03     1.35114E+03        -15.5398        -15.5398         11.6812         11.6812
             394     1.34520E+03     1.34520E+03        -10.9918        -10.9918         12.6207         12.6207
             395     1.33983E+03     1.33983E+03        -7.58544        -7.58544         12.7511         12.7511
             396     1.33500E+03     1.33500E+03        -5.05868        -5.05868         12.2940         12.2940
             397     1.33069E+03     1.33069E+03        -3.19692        -3.19692         11.3217         11.3217
             398     1.32687E+03     1.32687E+03        -1.84079        -1.84079         9.78176         9.78176
             399     1.32355E+03     1.32355E+03    -888.628E-03    -888.628E-03         7.50836         7.50836
             400     1.32081E+03     1.32081E+03    -304.090E-03    -304.090E-03         4.24100         4.24100
             401     1.31385E+03     1.31385E+03     5.55112E-03     5.55112E-03         2.45496         2.45496
             402     1.30781E+03     1.30781E+03     132.744E-03     132.744E-03         2.32986         2.32986
             403     1.30247E+03     1.30247E+03     257.576E-03     257.576E-03         1.90376         1.90376
             404     1.29855E+03     1.29855E+03     356.556E-03     356.556E-03         1.20975         1.20975
             405     1.29664E+03     1.29664E+03     417.947E-03     417.947E-03     323.832E-03     323.832E-03
             406     1.29706E+03     1.29706E+03     416.382E-03     416.382E-03    -631.666E-03    -631.666E-03
             407     1.29980E+03     1.29980E+03     360.608E-03     360.608E-03        -1.51674        -1.51674
             408     1.30455E+03     1.30455E+03     269.606E-03     269.606E-03        -2.22581        -2.22581
             409     1.31076E+03     1.31076E+03     147.456E-03     147.456E-03        -2.68080        -2.68080
             410     1.31774E+03     1.31774E+03     22.2142E-03     22.2142E-03        -2.84313        -2.84313
             411     1.40753E+03     1.40753E+03         117.302         117.302         36.5363         36.5363
             412     1.42222E+03     1.42222E+03         59.8691         59.8691         52.5683         52.5683
             413     1.42941E+03     1.42941E+03    -293.133E-03    -293.133E-03         42.0718         42.0718
             414     1.42224E+03     1.42224E+03        -42.1064        -42.1064         17.1555         17.1555
             415     1.40380E+03     1.40380E+03        -61.6141        -61.6141        -8.35044        -8.35044
             416     1.40580E+03     1.40580E+03        -56.0070        -56.0070    -69.1160E-03    -69.1160E-03
             417     1.42454E+03     1.42454E+03        -25.5200        -25.5200        -30.4758        -30.4758
             418     1.42517E+03     1.42517E+03         35.1076         35.1076        -52.4606        -52.4606
             419     1.41074E+03     1.41074E+03         104.655         104.655        -43.6388        -43.6388
             420     1.23755E+03     1.23755E+03         358.986         358.986         82.0276         82.0276
             421     1.25046E+03     1.25046E+03         328.132         328.132         81.5434         81.5434
             422     1.26301E+03     1.26301E+03         297.245         297.245         78.9040         78.9040
             423     1.27488E+03     1.27488E+03         266.963         266.963         74.9893         74.9893
             424     1.28581E+03     1.28581E+03         237.778         237.778         69.8998         69.8998
             425     1.29558E+03     1.29558E+03         210.111         210.111         63.8824         63.8824
             426     1.30410E+03     1.30410E+03         184.276         184.276         57.1691         57.1691
             427     1.31128E+03     1.31128E+03         160.503         160.503         50.0574         50.0574
             428     1.31718E+03     1.31718E+03         138.886         138.886         42.8046         42.8046
             429     1.32183E+03     1.32183E+03         119.455         119.455         35.6444         35.6444
             430     1.32536E+03     1.32536E+03         102.146         102.146         28.7706         28.7706
             431     1.32789E+03     1.32789E+03         86.8552         86.8552         22.3109         22.3109
             432     1.32957E+03     1.32957E+03         73.4445         73.4445         16.3678         16.3678
             433     1.33051E+03     1.33051E+03         61.7533         61.7533         10.9789         10.9789
             434     1.33084E+03     1.33084E+03         51.6260         51.6260         6.17124         6.17124
             435     1.33067E+03     1.33067E+03         42.8958         42.8958         1.92642         1.92642
             436     1.33009E+03     1.33009E+03         35.4165         35.4165        -1.77526        -1.77526
             437     1.32919E+03     1.32919E+03         29.0374         29.0374        -4.97948        -4.97948
             438     1.32802E+03     1.32802E+03         23.6301         23.6301        -7.72853        -7.72853
             439     1.32665E+03     1.32665E+03         19.0658         19.0658        -10.0771        -10.0771
             440     1.32513E+03     1.32513E+03         15.2346         15.2346        -12.0750        -12.0750
             441     1.32350E+03     1.32350E+03         12.0276         12.0276        -13.7765        -13.7765
             442     1.32178E+03     1.32178E+03         9.35037         9.35037        -15.2311        -15.2311
             443     1.32001E+03     1.32001E+03         7.10999         7.10999        -16.4893        -16.4893
             444     1.31822E+03     1.31822E+03         5.22327         5.22327        -17.5978        -17.5978
             445     1.31643E+03     1.31643E+03         3.60820         3.60820        -18.6032        -18.6032
             446     1.31466E+03     1.31466E+03         2.18846         2.18846        -19.5498        -19.5498
             447     1.31295E+03     1.31295E+03     887.505E-03     887.505E-03        -20.4822        -20.4822
             448     1.31132E+03     1.31132E+03    -369.316E-03    -369.316E-03        -21.4444        -21.4444
             449     1.30981E+03     1.30981E+03        -1.65937        -1.65937        -22.4812        -22.4812
             450     1.30846E+03     1.30846E+03        -3.06244        -3.06244        -23.6375        -23.6375
             451     1.30736E+03     1.30736E+03        -4.66501        -4.66501        -24.9584        -24.9584
             452     1.30657E+03     1.30657E+03        -6.56172        -6.56172        -26.4867        -26.4867
             453     1.30622E+03     1.30622E+03        -8.85972        -8.85972        -28.2593        -28.2593
             454     1.30646E+03     1.30646E+03        -11.6815        -11.6815        -30.2987        -30.2987
             455     1.30752E+03     1.30752E+03        -15.1670        -15.1670        -32.5992        -32.5992
             456     1.30969E+03     1.30969E+03        -19.4729        -19.4729        -35.1002        -35.1002
             457     1.31336E+03     1.31336E+03        -24.7557        -24.7557        -37.6454        -37.6454
             458     1.31905E+03     1.31905E+03        -31.1385        -31.1385        -39.9111        -39.9111
             459     1.32731E+03     1.32731E+03        -38.5869        -38.5869        -41.3114        -41.3114
             460     1.33865E+03     1.33865E+03        -46.7291        -46.7291        -40.9247        -40.9247
             461     1.35312E+03     1.35312E+03        -54.4551        -54.4551        -37.5085        -37.5085
             462     1.34950E+03     1.34950E+03        -75.7966        -75.7966        -69.6748        -69.6748
             463     1.29294E+03     1.29294E+03        -68.5066        -68.5066        -103.948        -103.948
             464     1.20142E+03     1.20142E+03        -37.9851        -37.9851        -116.773        -116.773
             465     1.10520E+03     1.10520E+03         3.60179         3.60179        -81.4976        -81.4976
             466     1.08819E+03     1.08819E+03         11.4216         11.4216         72.3217         72.3217
             467     1.16570E+03     1.16570E+03        -23.8174        -23.8174         114.038         114.038
             468     1.25133E+03     1.25133E+03        -57.0233        -57.0233         116.909         116.909
             469     1.31753E+03     1.31753E+03        -74.5745        -74.5745         94.2549         94.2549
             470     1.35670E+03     1.35670E+03        -75.9128        -75.9128         63.6014         63.6014
             471     1.22877E+03     1.22877E+03         374.311         374.311        -66.5177        -66.5177
             472     1.22699E+03     1.22699E+03         374.337         374.337        -51.1466        -51.1466
             473     1.22576E+03     1.22576E+03         374.362         374.362        -36.2570        -36.2570
             474     1.22499E+03     1.22499E+03         374.391         374.391        -21.6507        -21.6507
             475     1.22462E+03     1.22462E+03         374.401         374.401        -7.24720        -7.24720
             476     1.22462E+03     1.22462E+03         374.395         374.395         7.12414         7.12414
             477     1.22500E+03     1.22500E+03         374.376         374.376         21.5426         21.5426
             478     1.22577E+03     1.22577E+03         374.342         374.342         36.1711         36.1711
             479     1.22700E+03     1.22700E+03         374.315         374.315         51.0863         51.0863
             480     1.22878E+03     1.22878E+03         374.293         374.293         66.4815         66.4815
             481     1.23376E+03     1.23376E+03         374.309         374.309         95.5071         95.5071
             482     1.23714E+03     1.23714E+03         374.431         374.431         109.138         109.138
             483     1.24140E+03     1.24140E+03         374.566         374.566         123.684         123.684
             484     1.24716E+03     1.24716E+03         374.893         374.893         138.884         138.884
             485     1.25452E+03     1.25452E+03         375.315         375.315         155.629         155.629
             486     1.26498E+03     1.26498E+03         376.046         376.046         173.188         173.188
             487     1.27870E+03     1.27870E+03         377.125         377.125         193.685         193.685
             488     1.29997E+03     1.29997E+03         378.442         378.442         214.960         214.960
             489     1.32904E+03     1.32904E+03         381.091         381.091         243.131         243.131
             490     1.38340E+03     1.38340E+03         381.457         381.457         270.436         270.436
             491     1.46280E+03     1.46280E+03         388.323         388.323         321.455         321.455
             492     1.75148E+03     1.75148E+03         336.354         336.354         343.637         343.637
             493     1.79984E+03     1.79984E+03         128.535         128.535         203.429         203.429
             494     1.52604E+03     1.52604E+03         9.78606         9.78606         72.5204         72.5204
             495     1.40801E+03     1.40801E+03         16.6897         16.6897         45.7312         45.7312
             496     1.33681E+03     1.33681E+03         3.52709         3.52709         26.4085         26.4085
             497     1.29276E+03     1.29276E+03         5.27727         5.27727         17.9133         17.9133
             498     1.26383E+03     1.26383E+03         1.76339         1.76339         11.4342         11.4342
             499     1.24491E+03     1.24491E+03         2.31514         2.31514         7.65425         7.65425
             500     1.23272E+03     1.23272E+03         1.00168         1.00168         4.73079         4.73079
             501     1.22531E+03     1.22531E+03         1.20661         1.20661         2.77243         2.77243
             502     1.22137E+03     1.22137E+03     606.660E-03     606.660E-03         1.25122         1.25122
             503     1.21999E+03     1.21999E+03     691.066E-03     691.066E-03     158.638E-03     158.638E-03
             504     1.22055E+03     1.22055E+03     379.346E-03     379.346E-03    -688.337E-03    -688.337E-03
             505     1.22255E+03     1.22255E+03     414.905E-03     414.905E-03        -1.31512        -1.31512
             506     1.22565E+03     1.22565E+03     239.288E-03     239.288E-03        -1.79588        -1.79588
             507     1.22958E+03     1.22958E+03     252.963E-03     252.963E-03        -2.15231        -2.15231
             508     1.23412E+03     1.23412E+03     149.035E-03     149.035E-03        -2.41911        -2.41911
             509     1.23912E+03     1.23912E+03     152.628E-03     152.628E-03        -2.61185        -2.61185
             510     1.24444E+03     1.24444E+03     89.2724E-03     89.2724E-03        -2.74883        -2.74883
             511     1.24999E+03     1.24999E+03     88.3821E-03     88.3821E-03        -2.84065        -2.84065
             512     1.25568E+03     1.25568E+03     48.9152E-03     48.9152E-03        -2.89774        -2.89774
             513     1.26146E+03     1.26146E+03     46.0731E-03     46.0731E-03        -2.92694        -2.92694
             514     1.26727E+03     1.26727E+03     20.7005E-03     20.7005E-03        -2.93419        -2.93419
             515     1.27308E+03     1.27308E+03     16.6647E-03     16.6647E-03        -2.92341        -2.92341
             516     1.27885E+03     1.27885E+03    -942.003E-06    -942.003E-06        -2.89740        -2.89740
             517     1.28456E+03     1.28456E+03    -6.56502E-03    -6.56502E-03        -2.85752        -2.85752
             518     1.29017E+03     1.29017E+03    -20.9669E-03    -20.9669E-03        -2.80397        -2.80397
             519     1.29567E+03     1.29567E+03    -29.3531E-03    -29.3531E-03        -2.73563        -2.73563
             520     1.30101E+03     1.30101E+03    -44.1718E-03    -44.1718E-03        -2.65025        -2.65025
             521     1.30616E+03     1.30616E+03    -56.9191E-03    -56.9191E-03        -2.54435        -2.54435
             522     1.31108E+03     1.31108E+03    -75.0479E-03    -75.0479E-03        -2.41340        -2.41340
             523     1.31570E+03     1.31570E+03    -93.5789E-03    -93.5789E-03        -2.25200        -2.25200
             524     1.31997E+03     1.31997E+03    -116.746E-03    -116.746E-03        -2.05413        -2.05413
             525     1.32381E+03     1.32381E+03    -141.208E-03    -141.208E-03        -1.81376        -1.81376
             526     1.32712E+03     1.32712E+03    -168.773E-03    -168.773E-03        -1.52547        -1.52547
             527     1.32981E+03     1.32981E+03    -196.310E-03    -196.310E-03        -1.18554        -1.18554
             528     1.33177E+03     1.33177E+03    -223.434E-03    -223.434E-03    -793.061E-03    -793.061E-03
             529     1.33290E+03     1.33290E+03    -246.256E-03    -246.256E-03    -351.480E-03    -351.480E-03
             530     1.33312E+03     1.33312E+03    -262.409E-03    -262.409E-03     130.056E-03     130.056E-03
             531     1.33235E+03     1.33235E+03    -267.230E-03    -267.230E-03     635.448E-03     635.448E-03
             532     1.33059E+03     1.33059E+03    -257.345E-03    -257.345E-03         1.14088         1.14088
             533     1.32785E+03     1.32785E+03    -229.035E-03    -229.035E-03         1.61545         1.61545
             534     1.32424E+03     1.32424E+03    -180.311E-03    -180.311E-03         2.02104         2.02104
             535         21.2888         21.2888        -649.150        -649.150        -3.09627        -3.09627
             536         180.800         180.800        -239.519        -239.519        -8.23761        -8.23761
             537         435.620         435.620        -44.7745        -44.7745        -9.34760        -9.34760
             538         697.483         697.483         24.0440         24.0440        -8.12411        -8.12411
             539         914.358         914.358         35.0408         35.0408        -5.84413        -5.84413
             540     1.41355E+03     1.41355E+03        -101.669        -101.669        -53.3876        -53.3876
             541     1.46486E+03     1.46486E+03        -152.787        -152.787        -95.5927        -95.5927
             542     1.51324E+03     1.51324E+03        -199.608        -199.608        -163.654        -163.654
             543     1.50164E+03     1.50164E+03        -183.853        -183.853        -269.916        -269.916
             544     1.27863E+03     1.27863E+03         51.4148         51.4148        -434.625        -434.625
             545         645.362         645.362         51.8037         51.8037        -345.578        -345.578
             546         301.374         301.374        -238.891        -238.891        -161.001        -161.001
             547         98.2093         98.2093        -559.122        -559.122        -30.3223        -30.3223
             548         3.66633         3.66633        -813.649        -813.649         16.3395         16.3395
             549     1.46234E+03     1.46234E+03         212.091         212.091         1.36654         1.36654
             550     1.58781E+03     1.58781E+03         314.946         314.946         1.17107         1.17107
             551     1.82370E+03     1.82370E+03         409.096         409.096         1.02286         1.02286
             552     2.24246E+03     2.24246E+03         436.182         436.182     866.192E-03     866.192E-03
             553     2.92196E+03     2.92196E+03         316.681         316.681     572.132E-03     572.132E-03
             554     3.17939E+03     3.17939E+03         246.571         246.571        -370.471        -370.471
             555     2.75867E+03     2.75867E+03         329.302         329.302        -633.446        -633.446
             556     2.19044E+03     2.19044E+03         387.956         387.956        -734.513        -734.513
             557     1.60335E+03     1.60335E+03         363.034         363.034        -683.566        -683.566
             558     1.29337E+03     1.29337E+03         55.7231         55.7231         437.235         437.235
             559     1.51168E+03     1.51168E+03        -182.852        -182.852         266.722         266.722
             560     1.51891E+03     1.51891E+03        -199.041        -199.041         159.820         159.820
             561     1.46775E+03     1.46775E+03        -152.271        -152.271         92.6299         92.6299
             562     1.41493E+03     1.41493E+03        -101.209        -101.209         51.3976         51.3976
             563        -5.28799        -5.28799        -857.231        -857.231        -19.2454        -19.2454
             564         53.5247         53.5247        -665.748        -665.748         1.27110         1.27110
             565         178.621         178.621        -404.560        -404.560         81.9710         81.9710
             566         392.749         392.749        -133.803        -133.803         216.421         216.421
             567         706.761         706.761         96.1687         96.1687         377.274         377.274
             568     1.41719E+03     1.41719E+03        -103.665        -103.665         54.1948         54.1948
             569     1.46990E+03     1.46990E+03        -154.279        -154.279         94.5573         94.5573
             570     1.52099E+03     1.52099E+03        -200.669        -200.669         161.102         161.102
             571     1.51383E+03     1.51383E+03        -184.050        -184.050         267.590         267.590
             572     1.29546E+03     1.29546E+03         55.4109         55.4109         438.128         438.128
             573     1.60545E+03     1.60545E+03         362.501         362.501         684.639         684.639
             574     2.19275E+03     2.19275E+03         388.494         388.494         735.676         735.676
             575     2.76072E+03     2.76072E+03         329.791         329.791         634.510         634.510
             576     3.18061E+03     3.18061E+03         246.842         246.842         371.317         371.317
             577     1.26468E+03     1.26468E+03         46.4031         46.4031        -432.958        -432.958
             578     1.49556E+03     1.49556E+03        -189.601        -189.601        -273.375        -273.375
             579     1.51042E+03     1.51042E+03        -203.778        -203.778        -168.227        -168.227
             580     1.46393E+03     1.46393E+03        -155.986        -155.986        -99.9945        -99.9945
             581     1.41391E+03     1.41391E+03        -104.605        -104.605        -57.7641        -57.7641
             582     1.46192E+03     1.46192E+03         214.222         214.222        -4.27347        -4.27347
             583     1.58789E+03     1.58789E+03         317.175         317.175        -4.50391        -4.50391
             584     1.82488E+03     1.82488E+03         410.768         410.768        -3.09586        -3.09586
             585     2.24529E+03     2.24529E+03         436.761         436.761         1.22215         1.22215
             586     2.92710E+03     2.92710E+03         315.516         315.516         9.94212         9.94212
             587     3.24184E+03     3.24184E+03         232.649         232.649        -318.401        -318.401
             588     2.93388E+03     2.93388E+03         300.196         300.196        -570.282        -570.282
             589     2.49197E+03     2.49197E+03         369.109         369.109        -713.396        -713.396
             590     1.99372E+03     1.99372E+03         396.375         396.375        -740.157        -740.157
             591     1.50977E+03     1.50977E+03         356.170         356.170        -669.643        -669.643
             592     1.60278E+03     1.60278E+03         361.805         361.805         683.349         683.349
             593     2.18941E+03     2.18941E+03         387.812         387.812         734.293         734.293
             594     2.75684E+03     2.75684E+03         329.050         329.050         633.427         633.427
             595     3.17668E+03     3.17668E+03         246.879         246.879         370.413         370.413
             596         917.227         917.227         31.9642         31.9642        -5.80917        -5.80917
             597         699.317         699.317         21.5664         21.5664        -8.05400        -8.05400
             598         436.586         436.586        -46.9838        -46.9838        -9.24645        -9.24645
             599         181.070         181.070        -241.921        -241.921        -8.12610        -8.12610
             600         21.1998         21.1998        -652.453        -652.453        -3.00744        -3.00744
             601        -5.37571        -5.37571        -860.886        -860.886        -19.3486        -19.3486
             602         53.5767         53.5767        -668.655        -668.655         1.14753         1.14753
             603         178.961         178.961        -406.502        -406.502         82.0014         82.0014
             604         393.500         393.500        -134.801        -134.801         216.773         216.773
             605         708.107         708.107         95.9770         95.9770         377.960         377.960
             606         646.286         646.286         50.9625         50.9625        -345.706        -345.706
             607         301.648         301.648        -240.742        -240.742        -160.870        -160.870
             608         98.1946         98.1946        -562.016        -562.016        -30.0148        -30.0148
             609         3.52960         3.52960        -817.343        -817.343         16.6032         16.6032
             610     1.35816E+03     1.35816E+03        -44.8389        -44.8389        -17.1628        -17.1628
             611     1.34606E+03     1.34606E+03        -40.2732        -40.2732        -22.7524        -22.7524
             612     1.33540E+03     1.33540E+03        -34.3053        -34.3053        -25.7184        -25.7184
             613     1.32660E+03     1.32660E+03        -28.0120        -28.0120        -26.6629        -26.6629
             614     1.31969E+03     1.31969E+03        -22.0616        -22.0616        -26.2787        -26.2787
             615     1.31444E+03     1.31444E+03        -16.7595        -16.7595        -25.1116        -25.1116
             616     1.31058E+03     1.31058E+03        -12.2023        -12.2023        -23.5516        -23.5516
             617     1.30783E+03     1.30783E+03        -8.37118        -8.37118        -21.8422        -21.8422
             618     1.30592E+03     1.30592E+03        -5.20353        -5.20353        -20.1283        -20.1283
             619     1.30467E+03     1.30467E+03        -2.61914        -2.61914        -18.4875        -18.4875
             620     1.30390E+03     1.30390E+03    -538.515E-03    -538.515E-03        -16.9568        -16.9568
             621     1.30350E+03     1.30350E+03         1.11286         1.11286        -15.5486        -15.5486
             622     1.30337E+03     1.30337E+03         2.40101         2.40101        -14.2620        -14.2620
             623     1.30343E+03     1.30343E+03         3.38400         3.38400        -13.0890        -13.0890
             624     1.30362E+03     1.30362E+03         4.11193         4.11193        -12.0187        -12.0187
             625     1.30391E+03     1.30391E+03         4.62810         4.62810        -11.0396        -11.0396
             626     1.30425E+03     1.30425E+03         4.96963         4.96963        -10.1411        -10.1411
             627     1.30463E+03     1.30463E+03         5.16836         5.16836        -9.31350        -9.31350
             628     1.30503E+03     1.30503E+03         5.25147         5.25147        -8.54858        -8.54858
             629     1.30543E+03     1.30543E+03         5.24215         5.24215        -7.83954        -7.83954
             630     1.30582E+03     1.30582E+03         5.16009         5.16009        -7.18074        -7.18074
             631     1.30620E+03     1.30620E+03         5.02196         5.02196        -6.56758        -6.56758
             632     1.30656E+03     1.30656E+03         4.84181         4.84181        -5.99630        -5.99630
             633     1.30689E+03     1.30689E+03         4.63144         4.63144        -5.46375        -5.46375
             634     1.30721E+03     1.30721E+03         4.40067         4.40067        -4.96729        -4.96729
             635     1.30750E+03     1.30750E+03         4.15767         4.15767        -4.50461        -4.50461
             636     1.30776E+03     1.30776E+03         3.90917         3.90917        -4.07364        -4.07364
             637     1.30800E+03     1.30800E+03         3.66067         3.66067        -3.67247        -3.67247
             638     1.30822E+03     1.30822E+03         3.41665         3.41665        -3.29927        -3.29927
             639     1.30841E+03     1.30841E+03         3.18069         3.18069        -2.95227        -2.95227
             640     1.30859E+03     1.30859E+03         2.95568         2.95568        -2.62969        -2.62969
             641     1.30874E+03     1.30874E+03         2.74386         2.74386        -2.32978        -2.32978
             642     1.30887E+03     1.30887E+03         2.54700         2.54700        -2.05074        -2.05074
             643     1.30899E+03     1.30899E+03         2.36645         2.36645        -1.79077        -1.79077
             644     1.30909E+03     1.30909E+03         2.20322         2.20322        -1.54804        -1.54804
             645     1.30918E+03     1.30918E+03         2.05808         2.05808        -1.32068        -1.32068
             646     1.30926E+03     1.30926E+03         1.93157         1.93157        -1.10682        -1.10682
             647     1.30932E+03     1.30932E+03         1.82407         1.82407    -904.563E-03    -904.563E-03
             648     1.30936E+03     1.30936E+03         1.73586         1.73586    -711.996E-03    -711.996E-03
             649     1.30940E+03     1.30940E+03         1.66712         1.66712    -527.196E-03    -527.196E-03
             650     1.30943E+03     1.30943E+03         1.61795         1.61795    -348.234E-03    -348.234E-03
             651     1.30944E+03     1.30944E+03         1.58840         1.58840    -173.645E-03    -173.645E-03
             652     1.35931E+03     1.35931E+03        -37.6377        -37.6377        -6.08474        -6.08474
             653     1.34986E+03     1.34986E+03        -35.5626        -35.5626        -12.4394        -12.4394
             654     1.34102E+03     1.34102E+03        -31.7385        -31.7385        -16.7010        -16.7010
             655     1.33318E+03     1.33318E+03        -27.0460        -27.0460        -19.2088        -19.2088
             656     1.32658E+03     1.32658E+03        -22.1669        -22.1669        -20.3563        -20.3563
             657     1.32122E+03     1.32122E+03        -17.5186        -17.5186        -20.5545        -20.5545
             658     1.31701E+03     1.31701E+03        -13.3179        -13.3179        -20.1352        -20.1352
             659     1.31378E+03     1.31378E+03        -9.65188        -9.65188        -19.3475        -19.3475
             660     1.31137E+03     1.31137E+03        -6.53010        -6.53010        -18.3598        -18.3598
             661     1.30960E+03     1.30960E+03        -3.92387        -3.92387        -17.2822        -17.2822
             662     1.30835E+03     1.30835E+03        -1.78502        -1.78502        -16.1822        -16.1822
             663     1.30751E+03     1.30751E+03    -59.4414E-03    -59.4414E-03        -15.0993        -15.0993
             664     1.30697E+03     1.30697E+03         1.30764         1.30764        -14.0550        -14.0550
             665     1.30666E+03     1.30666E+03         2.36770         2.36770        -13.0593        -13.0593
             666     1.30653E+03     1.30653E+03         3.16794         3.16794        -12.1161        -12.1161
             667     1.30652E+03     1.30652E+03         3.75040         3.75040        -11.2253        -11.2253
             668     1.30661E+03     1.30661E+03         4.15221         4.15221        -10.3852        -10.3852
             669     1.30675E+03     1.30675E+03         4.40565         4.40565        -9.59347        -9.59347
             670     1.30693E+03     1.30693E+03         4.53864         4.53864        -8.84738        -8.84738
             671     1.30714E+03     1.30714E+03         4.57511         4.57511        -8.14453        -8.14453
             672     1.30736E+03     1.30736E+03         4.53542         4.53542        -7.48270        -7.48270
             673     1.30758E+03     1.30758E+03         4.43683         4.43683        -6.85997        -6.85997
             674     1.30779E+03     1.30779E+03         4.29383         4.29383        -6.27462        -6.27462
             675       1.308E+03       1.308E+03         4.11853         4.11853        -5.72511        -5.72511
             676     1.30819E+03     1.30819E+03         3.92102         3.92102        -5.20998        -5.20998
             677     1.30838E+03     1.30838E+03         3.70958         3.70958        -4.72783        -4.72783
             678     1.30854E+03     1.30854E+03         3.49103         3.49103        -4.27726        -4.27726
             679     1.30869E+03     1.30869E+03         3.27090         3.27090        -3.85683        -3.85683
             680     1.30883E+03     1.30883E+03         3.05365         3.05365        -3.46503        -3.46503
             681     1.30895E+03     1.30895E+03         2.84286         2.84286        -3.10032        -3.10032
             682     1.30906E+03     1.30906E+03         2.64136         2.64136        -2.76106        -2.76106
             683     1.30916E+03     1.30916E+03         2.45135         2.45135        -2.44554        -2.44554
             684     1.30924E+03     1.30924E+03         2.27456         2.27456        -2.15198        -2.15198
             685     1.30932E+03     1.30932E+03         2.11228         2.11228        -1.87855        -1.87855
             686     1.30938E+03     1.30938E+03         1.96550         1.96550        -1.62336        -1.62336
             687     1.30943E+03     1.30943E+03         1.83493         1.83493        -1.38447        -1.38447
             688     1.30948E+03     1.30948E+03         1.72111         1.72111        -1.15991        -1.15991
             689     1.30951E+03     1.30951E+03         1.62438         1.62438    -947.673E-03    -947.673E-03
             690     1.30954E+03     1.30954E+03         1.54500         1.54500    -745.740E-03    -745.740E-03
             691     1.30956E+03     1.30956E+03         1.48314         1.48314    -552.066E-03    -552.066E-03
             692     1.30958E+03     1.30958E+03         1.43890         1.43890    -364.599E-03    -364.599E-03
             693     1.30959E+03     1.30959E+03         1.41229         1.41229    -181.794E-03    -181.794E-03
             694     1.35756E+03     1.35756E+03        -30.3605        -30.3605         2.03362         2.03362
             695     1.35064E+03     1.35064E+03        -30.1823        -30.1823        -4.33051        -4.33051
             696     1.34366E+03     1.34366E+03        -28.0517        -28.0517        -9.13595        -9.13595
             697     1.33711E+03     1.33711E+03        -24.8002        -24.8002        -12.5273        -12.5273
             698     1.33126E+03     1.33126E+03        -21.0240        -21.0240        -14.7131        -14.7131
             699     1.32624E+03     1.32624E+03        -17.1628        -17.1628        -15.9445        -15.9445
             700     1.32209E+03     1.32209E+03        -13.4905        -13.4905        -16.4709        -16.4709
             701     1.31873E+03     1.31873E+03        -10.1596        -10.1596        -16.5000        -16.5000
             702     1.31607E+03     1.31607E+03        -7.23835        -7.23835        -16.1943        -16.1943
             703     1.31402E+03     1.31402E+03        -4.74165        -4.74165        -15.6714        -15.6714
             704     1.31245E+03     1.31245E+03        -2.65391        -2.65391        -15.0142        -15.0142
             705     1.31128E+03     1.31128E+03    -942.523E-03    -942.523E-03        -14.2792        -14.2792
             706     1.31043E+03     1.31043E+03     432.481E-03     432.481E-03        -13.5043        -13.5043
             707     1.30983E+03     1.30983E+03         1.51349         1.51349        -12.7142        -12.7142
             708     1.30941E+03     1.30941E+03         2.34182         2.34182        -11.9253        -11.9253
             709     1.30915E+03     1.30915E+03         2.95616         2.95616        -11.1483        -11.1483
             710     1.30899E+03     1.30899E+03         3.39160         3.39160        -10.3901        -10.3901
             711     1.30891E+03     1.30891E+03         3.67938         3.67938        -9.65538        -9.65538
             712     1.30889E+03     1.30889E+03         3.84681         3.84681        -8.94730        -8.94730
             713     1.30891E+03     1.30891E+03         3.91755         3.91755        -8.26800        -8.26800
             714     1.30895E+03     1.30895E+03         3.91181         3.91181        -7.61891        -7.61891
             715     1.30901E+03     1.30901E+03         3.84672         3.84672        -7.00098        -7.00098
             716     1.30908E+03     1.30908E+03         3.73670         3.73670        -6.41473        -6.41473
             717     1.30915E+03     1.30915E+03         3.59375         3.59375        -5.86036        -5.86036
             718     1.30922E+03     1.30922E+03         3.42783         3.42783        -5.33776        -5.33776
             719     1.30929E+03     1.30929E+03         3.24712         3.24712        -4.84651        -4.84651
             720     1.30935E+03     1.30935E+03         3.05828         3.05828        -4.38597        -4.38597
             721     1.30941E+03     1.30941E+03         2.86670         2.86670        -3.95524        -3.95524
             722     1.30947E+03     1.30947E+03         2.67671         2.67671        -3.55323        -3.55323
             723     1.30951E+03     1.30951E+03         2.49176         2.49176        -3.17863        -3.17863
             724     1.30955E+03     1.30955E+03         2.31456         2.31456        -2.83000        -2.83000
             725     1.30959E+03     1.30959E+03         2.14721         2.14721        -2.50571        -2.50571
             726     1.30962E+03     1.30962E+03         1.99133         1.99133        -2.20406        -2.20406
             727     1.30964E+03     1.30964E+03         1.84816         1.84816        -1.92321        -1.92321
             728     1.30966E+03     1.30966E+03         1.71860         1.71860        -1.66125        -1.66125
             729     1.30968E+03     1.30968E+03         1.60333         1.60333        -1.41620        -1.41620
             730     1.30970E+03     1.30970E+03         1.50283         1.50283        -1.18603        -1.18603
             731     1.30971E+03     1.30971E+03         1.41741         1.41741    -968.677E-03    -968.677E-03
             732     1.30972E+03     1.30972E+03         1.34732         1.34732    -762.038E-03    -762.038E-03
             733     1.30972E+03     1.30972E+03         1.29270         1.29270    -563.991E-03    -563.991E-03
             734     1.30973E+03     1.30973E+03         1.25363         1.25363    -372.405E-03    -372.405E-03
             735     1.30973E+03     1.30973E+03         1.23014         1.23014    -185.688E-03    -185.688E-03
             736     1.35422E+03     1.35422E+03        -23.7023        -23.7023         7.54115         7.54115
             737     1.34949E+03     1.34949E+03        -24.7367        -24.7367         1.72481         1.72481
             738     1.34428E+03     1.34428E+03        -23.8798        -23.8798        -3.11553        -3.11553
             739     1.33908E+03     1.33908E+03        -21.7952        -21.7952        -6.90055        -6.90055
             740     1.33418E+03     1.33418E+03        -19.0202        -19.0202        -9.69939        -9.69939
             741     1.32978E+03     1.32978E+03        -15.9533        -15.9533        -11.6408        -11.6408
             742     1.32595E+03     1.32595E+03        -12.8817        -12.8817        -12.8810        -12.8810
             743     1.32272E+03     1.32272E+03        -9.98735        -9.98735        -13.5746        -13.5746
             744     1.32006E+03     1.32006E+03        -7.37410        -7.37410        -13.8554        -13.8554
             745     1.31789E+03     1.31789E+03        -5.08950        -5.08950        -13.8326        -13.8326
             746     1.31615E+03     1.31615E+03        -3.14407        -3.14407        -13.5906        -13.5906
             747     1.31478E+03     1.31478E+03        -1.52547        -1.52547        -13.1935        -13.1935
             748     1.31371E+03     1.31371E+03    -208.133E-03    -208.133E-03        -12.6887        -12.6887
             749     1.31288E+03     1.31288E+03     839.846E-03     839.846E-03        -12.1115        -12.1115
             750     1.31223E+03     1.31223E+03         1.65268         1.65268        -11.4881        -11.4881
             751     1.31174E+03     1.31174E+03         2.26404         2.26404        -10.8378        -10.8378
             752     1.31137E+03     1.31137E+03         2.70565         2.70565        -10.1753        -10.1753
             753     1.31108E+03     1.31108E+03         3.00631         3.00631        -9.51171        -9.51171
             754     1.31087E+03     1.31087E+03         3.19167         3.19167        -8.85553        -8.85553
             755     1.31070E+03     1.31070E+03         3.28411         3.28411        -8.21329        -8.21329
             756     1.31057E+03     1.31057E+03         3.30289         3.30289        -7.58996        -7.58996
             757     1.31047E+03     1.31047E+03         3.26437         3.26437        -6.98931        -6.98931
             758     1.31039E+03     1.31039E+03         3.18232         3.18232        -6.41409        -6.41409
             759     1.31033E+03     1.31033E+03         3.06822         3.06822        -5.86622        -5.86622
             760     1.31027E+03     1.31027E+03         2.93155         2.93155        -5.34691        -5.34691
             761     1.31022E+03     1.31022E+03         2.78007         2.78007        -4.85678        -4.85678
             762     1.31018E+03     1.31018E+03         2.62009         2.62009        -4.39594        -4.39594
             763     1.31014E+03     1.31014E+03         2.45668         2.45668        -3.96405        -3.96405
             764     1.31011E+03     1.31011E+03         2.29390         2.29390        -3.56042        -3.56042
             765     1.31007E+03     1.31007E+03         2.13497         2.13497        -3.18404        -3.18404
             766     1.31004E+03     1.31004E+03         1.98238         1.98238        -2.83365        -2.83365
             767     1.31002E+03     1.31002E+03         1.83810         1.83810        -2.50777        -2.50777
             768     1.30999E+03     1.30999E+03         1.70359         1.70359        -2.20475        -2.20475
             769     1.30996E+03     1.30996E+03         1.57998         1.57998        -1.92281        -1.92281
             770     1.30994E+03     1.30994E+03         1.46810         1.46810        -1.66004        -1.66004
             771     1.30992E+03     1.30992E+03         1.36854         1.36854        -1.41446        -1.41446
             772     1.30991E+03     1.30991E+03         1.28173         1.28173        -1.18402        -1.18402
             773     1.30989E+03     1.30989E+03         1.20797         1.20797    -966.637E-03    -966.637E-03
             774     1.30988E+03     1.30988E+03         1.14743         1.14743    -760.161E-03    -760.161E-03
             775     1.30987E+03     1.30987E+03         1.10026         1.10026    -562.440E-03    -562.440E-03
             776     1.30986E+03     1.30986E+03         1.06652         1.06652    -371.302E-03    -371.302E-03
             777     1.30986E+03     1.30986E+03         1.04624         1.04624    -185.143E-03    -185.143E-03
             778     1.35026E+03     1.35026E+03        -18.0160        -18.0160         10.9895         10.9895
             779     1.34725E+03     1.34725E+03        -19.6544        -19.6544         5.95775         5.95775
             780     1.34361E+03     1.34361E+03        -19.6353        -19.6353         1.42650         1.42650
             781     1.33970E+03     1.33970E+03        -18.4375        -18.4375        -2.40964        -2.40964
             782     1.33581E+03     1.33581E+03        -16.4922        -16.4922        -5.49416        -5.49416
             783     1.33215E+03     1.33215E+03        -14.1522        -14.1522        -7.86195        -7.86195
             784     1.32883E+03     1.32883E+03        -11.6809        -11.6809        -9.59079        -9.59079
             785     1.32591E+03     1.32591E+03        -9.26516        -9.26516        -10.7781        -10.7781
             786     1.32339E+03     1.32339E+03        -7.02279        -7.02279        -11.5230        -11.5230
             787     1.32126E+03     1.32126E+03        -5.02027        -5.02027        -11.9152        -11.9152
             788     1.31948E+03     1.31948E+03        -3.28610        -3.28610        -12.0318        -12.0318
             789     1.31801E+03     1.31801E+03        -1.82345        -1.82345        -11.9365        -11.9365
             790     1.31679E+03     1.31679E+03    -619.384E-03    -619.384E-03        -11.6808        -11.6808
             791     1.31579E+03     1.31579E+03     348.282E-03     348.282E-03        -11.3058        -11.3058
             792     1.31496E+03     1.31496E+03         1.10621         1.10621        -10.8442        -10.8442
             793     1.31428E+03     1.31428E+03         1.68244         1.68244        -10.3222        -10.3222
             794     1.31372E+03     1.31372E+03         2.10432         2.10432        -9.76029        -9.76029
             795     1.31324E+03     1.31324E+03         2.39735         2.39735        -9.17509        -9.17509
             796     1.31284E+03     1.31284E+03         2.58457         2.58457        -8.57963        -8.57963
             797     1.31250E+03     1.31250E+03         2.68630         2.68630        -7.98425        -7.98425
             798     1.31220E+03     1.31220E+03         2.72012         2.72012        -7.39709        -7.39709
             799     1.31194E+03     1.31194E+03         2.70104         2.70104        -6.82440        -6.82440
             800     1.31171E+03     1.31171E+03         2.64168         2.64168        -6.27095        -6.27095
             801     1.31150E+03     1.31150E+03         2.55257         2.55257        -5.74021        -5.74021
             802     1.31132E+03     1.31132E+03         2.44238         2.44238        -5.23462        -5.23462
             803     1.31115E+03     1.31115E+03         2.31819         2.31819        -4.75570        -4.75570
             804     1.31100E+03     1.31100E+03         2.18575         2.18575        -4.30427        -4.30427
             805     1.31086E+03     1.31086E+03         2.04965         2.04965        -3.88050        -3.88050
             806     1.31074E+03     1.31074E+03         1.91355         1.91355        -3.48408        -3.48408
             807     1.31063E+03     1.31063E+03         1.78033         1.78033        -3.11427        -3.11427
             808     1.31052E+03     1.31052E+03         1.65223         1.65223        -2.77001        -2.77001
             809     1.31043E+03     1.31043E+03         1.53097         1.53097        -2.44996        -2.44996
             810     1.31035E+03     1.31035E+03         1.41787         1.41787        -2.15256        -2.15256
             811     1.31027E+03     1.31027E+03         1.31390         1.31390        -1.87609        -1.87609
             812     1.31020E+03     1.31020E+03         1.21979         1.21979        -1.61869        -1.61869
             813     1.31015E+03     1.31015E+03         1.13605         1.13605        -1.37840        -1.37840
             814     1.31010E+03     1.31010E+03         1.06303         1.06303        -1.15321        -1.15321
             815     1.31006E+03     1.31006E+03         1.00099         1.00099    -941.016E-03    -941.016E-03
             816     1.31002E+03     1.31002E+03     950.089E-03     950.089E-03    -739.703E-03    -739.703E-03
             817     1.31000E+03     1.31000E+03     910.426E-03     910.426E-03    -547.119E-03    -547.119E-03
             818     1.30998E+03     1.30998E+03     882.063E-03     882.063E-03    -361.098E-03    -361.098E-03
             819     1.30997E+03     1.30997E+03     865.014E-03     865.014E-03    -180.065E-03    -180.065E-03
             820     1.34622E+03     1.34622E+03        -13.3511        -13.3511         12.8975         12.8975
             821     1.34456E+03     1.34456E+03        -15.1537        -15.1537         8.68783         8.68783
             822     1.34222E+03     1.34222E+03        -15.5990        -15.5990         4.63069         4.63069
             823     1.33949E+03     1.33949E+03        -15.0108        -15.0108     973.563E-03     973.563E-03
             824     1.33659E+03     1.33659E+03        -13.7134        -13.7134        -2.15797        -2.15797
             825     1.33371E+03     1.33371E+03        -11.9921        -11.9921        -4.72302        -4.72302
             826     1.33098E+03     1.33098E+03        -10.0769        -10.0769        -6.73865        -6.73865
             827     1.32847E+03     1.32847E+03        -8.13769        -8.13769        -8.25283        -8.25283
             828     1.32622E+03     1.32622E+03        -6.29171        -6.29171        -9.32906        -9.32906
             829     1.32423E+03     1.32423E+03        -4.61098        -4.61098        -10.0348        -10.0348
             830     1.32249E+03     1.32249E+03        -3.13354        -3.13354        -10.4346        -10.4346
             831     1.32099E+03     1.32099E+03        -1.87240        -1.87240        -10.5867        -10.5867
             832     1.31969E+03     1.31969E+03    -824.000E-03    -824.000E-03        -10.5420        -10.5420
             833     1.31857E+03     1.31857E+03     25.6790E-03     25.6790E-03        -10.3438        -10.3438
             834     1.31760E+03     1.31760E+03     696.410E-03     696.410E-03        -10.0285        -10.0285
             835     1.31675E+03     1.31675E+03         1.21046         1.21046        -9.62641        -9.62641
             836     1.31601E+03     1.31601E+03         1.59046         1.59046        -9.16244        -9.16244
             837     1.31536E+03     1.31536E+03         1.85800         1.85800        -8.65701        -8.65701
             838     1.31478E+03     1.31478E+03         2.03289         2.03289        -8.12670        -8.12670
             839     1.31427E+03     1.31427E+03         2.13276         2.13276        -7.58482        -7.58482
             840     1.31380E+03     1.31380E+03         2.17298         2.17298        -7.04195        -7.04195
             841     1.31338E+03     1.31338E+03         2.16667         2.16667        -6.50639        -6.50639
             842     1.31301E+03     1.31301E+03         2.12492         2.12492        -5.98447        -5.98447
             843     1.31266E+03     1.31266E+03         2.05694         2.05694        -5.48095        -5.48095
             844     1.31235E+03     1.31235E+03         1.97031         1.97031        -4.99920        -4.99920
             845     1.31206E+03     1.31206E+03         1.87122         1.87122        -4.54152        -4.54152
             846     1.31180E+03     1.31180E+03         1.76465         1.76465        -4.10926        -4.10926
             847     1.31156E+03     1.31156E+03         1.65459         1.65459        -3.70304        -3.70304
             848     1.31135E+03     1.31135E+03         1.54419         1.54419        -3.32284        -3.32284
             849     1.31115E+03     1.31115E+03         1.43593         1.43593        -2.96818        -2.96818
             850     1.31097E+03     1.31097E+03         1.33171         1.33171        -2.63814        -2.63814
             851     1.31082E+03     1.31082E+03         1.23301         1.23301        -2.33154        -2.33154
             852     1.31067E+03     1.31067E+03         1.14091         1.14091        -2.04692        -2.04692
             853     1.31055E+03     1.31055E+03         1.05625         1.05625        -1.78264        -1.78264
             854     1.31044E+03     1.31044E+03     979.625E-03     979.625E-03        -1.53691        -1.53691
             855     1.31034E+03     1.31034E+03     911.449E-03     911.449E-03        -1.30784        -1.30784
             856     1.31026E+03     1.31026E+03     852.022E-03     852.022E-03        -1.09347        -1.09347
             857     1.31019E+03     1.31019E+03     801.539E-03     801.539E-03    -891.759E-03    -891.759E-03
             858     1.31014E+03     1.31014E+03     760.126E-03     760.126E-03    -700.643E-03    -700.643E-03
             859     1.31010E+03     1.31010E+03     727.863E-03     727.863E-03    -518.026E-03    -518.026E-03
             860     1.31007E+03     1.31007E+03     704.794E-03     704.794E-03    -341.800E-03    -341.800E-03
             861     1.31005E+03     1.31005E+03     690.932E-03     690.932E-03    -170.459E-03    -170.459E-03
             862     1.34241E+03     1.34241E+03        -9.61626        -9.61626         13.6529         13.6529
             863     1.34180E+03     1.34180E+03        -11.2950        -11.2950         10.2008         10.2008
             864     1.34055E+03     1.34055E+03        -11.9253        -11.9253         6.67417         6.67417
             865     1.33885E+03     1.33885E+03        -11.7129        -11.7129         3.32590         3.32590
             866     1.33688E+03     1.33688E+03        -10.8883        -10.8883     317.518E-03     317.518E-03
             867     1.33478E+03     1.33478E+03        -9.66968        -9.66968        -2.26637        -2.26637
             868     1.33266E+03     1.33266E+03        -8.24186        -8.24186        -4.39655        -4.39655
             869     1.33061E+03     1.33061E+03        -6.74973        -6.74973        -6.08305        -6.08305
             870     1.32868E+03     1.32868E+03        -5.29698        -5.29698        -7.35898        -7.35898
             871     1.32690E+03     1.32690E+03        -3.95232        -3.95232        -8.27015        -8.27015
             872     1.32527E+03     1.32527E+03        -2.75506        -2.75506        -8.86719        -8.86719
             873     1.32379E+03     1.32379E+03        -1.72291        -1.72291        -9.20044        -9.20044
             874     1.32245E+03     1.32245E+03    -857.993E-03    -857.993E-03        -9.31720        -9.31720
             875     1.32124E+03     1.32124E+03    -152.373E-03    -152.373E-03        -9.26009        -9.26009
             876     1.32014E+03     1.32014E+03     407.904E-03     407.904E-03        -9.06659        -9.06659
             877     1.31915E+03     1.31915E+03     839.786E-03     839.786E-03        -8.76892        -8.76892
             878     1.31825E+03     1.31825E+03         1.16114         1.16114        -8.39439        -8.39439
             879     1.31743E+03     1.31743E+03         1.38941         1.38941        -7.96576        -7.96576
             880     1.31668E+03     1.31668E+03         1.54082         1.54082        -7.50180        -7.50180
             881     1.31599E+03     1.31599E+03         1.62991         1.62991        -7.01773        -7.01773
             882     1.31537E+03     1.31537E+03         1.66941         1.66941        -6.52575        -6.52575
             883     1.31479E+03     1.31479E+03         1.67025         1.67025        -6.03547        -6.03547
             884     1.31426E+03     1.31426E+03         1.64163         1.64163        -5.55429        -5.55429
             885     1.31378E+03     1.31378E+03         1.59121         1.59121        -5.08777        -5.08777
             886     1.31333E+03     1.31333E+03         1.52528         1.52528        -4.63995        -4.63995
             887     1.31293E+03     1.31293E+03         1.44894         1.44894        -4.21359        -4.21359
             888     1.31255E+03     1.31255E+03         1.36631         1.36631        -3.81043        -3.81043
             889     1.31222E+03     1.31222E+03         1.28067         1.28067        -3.43135        -3.43135
             890     1.31191E+03     1.31191E+03         1.19458         1.19458        -3.07659        -3.07659
             891     1.31164E+03     1.31164E+03         1.11006         1.11006        -2.74581        -2.74581
             892     1.31139E+03     1.31139E+03         1.02865         1.02865        -2.43826        -2.43826
             893     1.31116E+03     1.31116E+03     951.527E-03     951.527E-03        -2.15287        -2.15287
             894     1.31097E+03     1.31097E+03     879.580E-03     879.580E-03        -1.88828        -1.88828
             895     1.31079E+03     1.31079E+03     813.454E-03     813.454E-03        -1.64297        -1.64297
             896     1.31064E+03     1.31064E+03     753.618E-03     753.618E-03        -1.41525        -1.41525
             897     1.31051E+03     1.31051E+03     700.402E-03     700.402E-03        -1.20332        -1.20332
             898     1.31039E+03     1.31039E+03     654.030E-03     654.030E-03        -1.00532        -1.00532
             899     1.31030E+03     1.31030E+03     614.650E-03     614.650E-03    -819.330E-03    -819.330E-03
             900     1.31022E+03     1.31022E+03     582.355E-03     582.355E-03    -643.376E-03    -643.376E-03
             901     1.31017E+03     1.31017E+03     557.199E-03     557.199E-03    -475.472E-03    -475.472E-03
             902     1.31012E+03     1.31012E+03     539.213E-03     539.213E-03    -313.621E-03    -313.621E-03
             903     1.31010E+03     1.31010E+03     528.411E-03     528.411E-03    -156.434E-03    -156.434E-03
             904     1.33896E+03     1.33896E+03        -6.66642        -6.66642         13.5018         13.5018
             905     1.33922E+03     1.33922E+03        -8.05835        -8.05835         10.7082         10.7082
             906     1.33891E+03     1.33891E+03        -8.68421        -8.68421         7.70981         7.70981
             907     1.33814E+03     1.33814E+03        -8.67016        -8.67016         4.74197         4.74197
             908     1.33701E+03     1.33701E+03        -8.17140        -8.17140         1.97341         1.97341
             909     1.33565E+03     1.33565E+03        -7.34454        -7.34454    -488.137E-03    -488.137E-03
             910     1.33414E+03     1.33414E+03        -6.32909        -6.32909        -2.58692        -2.58692
             911     1.33256E+03     1.33256E+03        -5.23799        -5.23799        -4.30572        -4.30572
             912     1.33098E+03     1.33098E+03        -4.15600        -4.15600        -5.65512        -5.65512
             913     1.32942E+03     1.32942E+03        -3.14080        -3.14080        -6.66299        -6.66299
             914     1.32791E+03     1.32791E+03        -2.22783        -2.22783        -7.36705        -7.36705
             915     1.32647E+03     1.32647E+03        -1.43464        -1.43464        -7.80912        -7.80912
             916     1.32511E+03     1.32511E+03    -766.013E-03    -766.013E-03        -8.03126        -8.03126
             917     1.32382E+03     1.32382E+03    -217.932E-03    -217.932E-03        -8.07340        -8.07340
             918     1.32261E+03     1.32261E+03     218.985E-03     218.985E-03        -7.97187        -7.97187
             919     1.32148E+03     1.32148E+03     557.023E-03     557.023E-03        -7.75881        -7.75881
             920     1.32042E+03     1.32042E+03     809.564E-03     809.564E-03        -7.46192        -7.46192
             921     1.31943E+03     1.31943E+03     989.914E-03     989.914E-03        -7.10469        -7.10469
             922     1.31851E+03     1.31851E+03         1.11057         1.11057        -6.70661        -6.70661
             923     1.31766E+03     1.31766E+03         1.18282         1.18282        -6.28363        -6.28363
             924     1.31686E+03     1.31686E+03         1.21657         1.21657        -5.84855        -5.84855
             925     1.31613E+03     1.31613E+03         1.22032         1.22032        -5.41147        -5.41147
             926     1.31545E+03     1.31545E+03         1.20124         1.20124        -4.98021        -4.98021
             927     1.31482E+03     1.31482E+03         1.16529         1.16529        -4.56065        -4.56065
             928     1.31425E+03     1.31425E+03         1.11734         1.11734        -4.15704        -4.15704
             929     1.31373E+03     1.31373E+03         1.06135         1.06135        -3.77235        -3.77235
             930     1.31325E+03     1.31325E+03         1.00048         1.00048        -3.40847        -3.40847
             931     1.31281E+03     1.31281E+03     937.252E-03     937.252E-03        -3.06640        -3.06640
             932     1.31242E+03     1.31242E+03     873.624E-03     873.624E-03        -2.74648        -2.74648
             933     1.31206E+03     1.31206E+03     811.129E-03     811.129E-03        -2.44850        -2.44850
             934     1.31174E+03     1.31174E+03     750.934E-03     750.934E-03        -2.17180        -2.17180
             935     1.31146E+03     1.31146E+03     693.926E-03     693.926E-03        -1.91543        -1.91543
             936     1.31120E+03     1.31120E+03     640.761E-03     640.761E-03        -1.67816        -1.67816
             937     1.31098E+03     1.31098E+03     591.921E-03     591.921E-03        -1.45857        -1.45857
             938     1.31079E+03     1.31079E+03     547.748E-03     547.748E-03        -1.25512        -1.25512
             939     1.31062E+03     1.31062E+03     508.481E-03     508.481E-03        -1.06615        -1.06615
             940     1.31048E+03     1.31048E+03     474.282E-03     474.282E-03    -889.956E-03    -889.956E-03
             941     1.31036E+03     1.31036E+03     445.251E-03     445.251E-03    -724.754E-03    -724.754E-03
             942     1.31027E+03     1.31027E+03     421.450E-03     421.450E-03    -568.745E-03    -568.745E-03
             943     1.31019E+03     1.31019E+03     402.913E-03     402.913E-03    -420.103E-03    -420.103E-03
             944     1.31014E+03     1.31014E+03     389.659E-03     389.659E-03    -277.000E-03    -277.000E-03
             945     1.31011E+03     1.31011E+03     381.703E-03     381.703E-03    -138.210E-03    -138.210E-03
             946     1.33594E+03     1.33594E+03        -4.36033        -4.36033         12.5615         12.5615
             947     1.33700E+03     1.33700E+03        -5.39231        -5.39231         10.3338         10.3338
             948     1.33755E+03     1.33755E+03        -5.90336        -5.90336         7.84562         7.84562
             949     1.33763E+03     1.33763E+03        -5.96662        -5.96662         5.30271         5.30271
             950     1.33729E+03     1.33729E+03        -5.68108        -5.68108         2.86449         2.86449
             951     1.33661E+03     1.33661E+03        -5.15142        -5.15142     642.362E-03     642.362E-03
             952     1.33567E+03     1.33567E+03        -4.47436        -4.47436        -1.29570        -1.29570
             953     1.33454E+03     1.33454E+03        -3.73087        -3.73087        -2.91824        -2.91824
             954     1.33328E+03     1.33328E+03        -2.98289        -2.98289        -4.22101        -4.22101
             955     1.33193E+03     1.33193E+03        -2.27418        -2.27418        -5.21917        -5.21917
             956     1.33054E+03     1.33054E+03        -1.63214        -1.63214        -5.93990        -5.93990
             957     1.32914E+03     1.32914E+03        -1.07141        -1.07141        -6.41697        -6.41697
             958     1.32774E+03     1.32774E+03    -596.865E-03    -596.865E-03        -6.68650        -6.68650
             959     1.32637E+03     1.32637E+03    -206.758E-03    -206.758E-03        -6.78415        -6.78415
             960     1.32503E+03     1.32503E+03     104.926E-03     104.926E-03        -6.74328        -6.74328
             961     1.32375E+03     1.32375E+03     346.525E-03     346.525E-03        -6.59393        -6.59393
             962     1.32253E+03     1.32253E+03     527.372E-03     527.372E-03        -6.36238        -6.36238
             963     1.32137E+03     1.32137E+03     656.859E-03     656.859E-03        -6.07102        -6.07102
             964     1.32027E+03     1.32027E+03     743.873E-03     743.873E-03        -5.73860        -5.73860
             965     1.31924E+03     1.31924E+03     796.470E-03     796.470E-03        -5.38043        -5.38043
             966     1.31827E+03     1.31827E+03     821.725E-03     821.725E-03        -5.00885        -5.00885
             967     1.31738E+03     1.31738E+03     825.715E-03     825.715E-03        -4.63358        -4.63358
             968     1.31655E+03     1.31655E+03     813.554E-03     813.554E-03        -4.26213        -4.26213
             969     1.31579E+03     1.31579E+03     789.480E-03     789.480E-03        -3.90011        -3.90011
             970     1.31508E+03     1.31508E+03     756.959E-03     756.959E-03        -3.55161        -3.55161
             971     1.31444E+03     1.31444E+03     718.787E-03     718.787E-03        -3.21945        -3.21945
             972     1.31386E+03     1.31386E+03     677.198E-03     677.198E-03        -2.90543        -2.90543
             973     1.31332E+03     1.31332E+03     633.953E-03     633.953E-03        -2.61054        -2.61054
             974     1.31284E+03     1.31284E+03     590.430E-03     590.430E-03        -2.33511        -2.33511
             975     1.31241E+03     1.31241E+03     547.690E-03     547.690E-03        -2.07897        -2.07897
             976     1.31203E+03     1.31203E+03     506.543E-03     506.543E-03        -1.84156        -1.84156
             977     1.31168E+03     1.31168E+03     467.595E-03     467.595E-03        -1.62201        -1.62201
             978     1.31138E+03     1.31138E+03     431.296E-03     431.296E-03        -1.41924        -1.41924
             979     1.31111E+03     1.31111E+03     397.972E-03     397.972E-03        -1.23200        -1.23200
             980     1.31088E+03     1.31088E+03     367.851E-03     367.851E-03        -1.05890        -1.05890
             981     1.31068E+03     1.31068E+03     341.092E-03     341.092E-03    -898.501E-03    -898.501E-03
             982     1.31051E+03     1.31051E+03     317.799E-03     317.799E-03    -749.269E-03    -749.269E-03
             983     1.31037E+03     1.31037E+03     298.038E-03     298.038E-03    -609.651E-03    -609.651E-03
             984     1.31026E+03     1.31026E+03     281.843E-03     281.843E-03    -478.072E-03    -478.072E-03
             985     1.31017E+03     1.31017E+03     269.225E-03     269.225E-03    -352.926E-03    -352.926E-03
             986     1.31011E+03     1.31011E+03     260.202E-03     260.202E-03    -232.609E-03    -232.609E-03
             987     1.31008E+03     1.31008E+03     254.788E-03     254.788E-03    -116.134E-03    -116.134E-03
             988     1.33341E+03     1.33341E+03        -2.58653        -2.58653         10.8392         10.8392
             989     1.33531E+03     1.33531E+03        -3.25351        -3.25351         9.11625         9.11625
             990     1.33671E+03     1.33671E+03        -3.60194        -3.60194         7.13514         7.13514
             991     1.33759E+03     1.33759E+03        -3.67181        -3.67181         5.06556         5.06556
             992     1.33798E+03     1.33798E+03        -3.52055        -3.52055         3.04476         3.04476
             993     1.33794E+03     1.33794E+03        -3.21134        -3.21134         1.17418         1.17418
             994     1.33752E+03     1.33752E+03        -2.80404        -2.80404    -480.184E-03    -480.184E-03
             995     1.33678E+03     1.33678E+03        -2.34969        -2.34969        -1.88290        -1.88290
             996     1.33579E+03     1.33579E+03        -1.88823        -1.88823        -3.02335        -3.02335
             997     1.33460E+03     1.33460E+03        -1.44806        -1.44806        -3.90880        -3.90880
             998     1.33328E+03     1.33328E+03        -1.04758        -1.04758        -4.55871        -4.55871
             999     1.33186E+03     1.33186E+03    -696.700E-03    -696.700E-03        -4.99952        -4.99952
            1000     1.33039E+03     1.33039E+03    -399.161E-03    -399.161E-03        -5.26085        -5.26085
            1001     1.32891E+03     1.32891E+03    -154.225E-03    -154.225E-03        -5.37274        -5.37274
            1002     1.32742E+03     1.32742E+03     41.6280E-03     41.6280E-03        -5.36373        -5.36373
            1003     1.32597E+03     1.32597E+03     193.531E-03     193.531E-03        -5.25980        -5.25980
            1004     1.32456E+03     1.32456E+03     307.301E-03     307.301E-03        -5.08381        -5.08381
            1005     1.32321E+03     1.32321E+03     388.839E-03     388.839E-03        -4.85530        -4.85530
            1006     1.32192E+03     1.32192E+03     443.747E-03     443.747E-03        -4.59063        -4.59063
            1007     1.32071E+03     1.32071E+03     477.104E-03     477.104E-03        -4.30316        -4.30316
            1008     1.31957E+03     1.31957E+03     493.376E-03     493.376E-03        -4.00364        -4.00364
            1009     1.31851E+03     1.31851E+03     496.386E-03     496.386E-03        -3.70047        -3.70047
            1010     1.31753E+03     1.31753E+03     489.351E-03     489.351E-03        -3.40014        -3.40014
            1011     1.31663E+03     1.31663E+03     474.925E-03     474.925E-03        -3.10746        -3.10746
            1012     1.31580E+03     1.31580E+03     455.274E-03     455.274E-03        -2.82592        -2.82592
            1013     1.31505E+03     1.31505E+03     432.139E-03     432.139E-03        -2.55790        -2.55790
            1014     1.31436E+03     1.31436E+03     406.907E-03     406.907E-03        -2.30491        -2.30491
            1015     1.31374E+03     1.31374E+03     380.665E-03     380.665E-03        -2.06774        -2.06774
            1016     1.31318E+03     1.31318E+03     354.261E-03     354.261E-03        -1.84667        -1.84667
            1017     1.31268E+03     1.31268E+03     328.345E-03     328.345E-03        -1.64151        -1.64151
            1018     1.31223E+03     1.31223E+03     303.410E-03     303.410E-03        -1.45179        -1.45179
            1019     1.31183E+03     1.31183E+03     279.825E-03     279.825E-03        -1.27676        -1.27676
            1020     1.31148E+03     1.31148E+03     257.858E-03     257.858E-03        -1.11550        -1.11550
            1021     1.31117E+03     1.31117E+03     237.704E-03     237.704E-03    -966.965E-03    -966.965E-03
            1022     1.31091E+03     1.31091E+03     219.499E-03     219.499E-03    -830.006E-03    -830.006E-03
            1023     1.31068E+03     1.31068E+03     203.336E-03     203.336E-03    -703.412E-03    -703.412E-03
            1024     1.31049E+03     1.31049E+03     189.274E-03     189.274E-03    -585.932E-03    -585.932E-03
            1025     1.31033E+03     1.31033E+03     177.350E-03     177.350E-03    -476.284E-03    -476.284E-03
            1026     1.31020E+03     1.31020E+03     167.589E-03     167.589E-03    -373.175E-03    -373.175E-03
            1027     1.31010E+03     1.31010E+03     159.985E-03     159.985E-03    -275.317E-03    -275.317E-03
            1028     1.31003E+03     1.31003E+03     154.520E-03     154.520E-03    -181.390E-03    -181.390E-03
            1029     1.30999E+03     1.30999E+03     151.241E-03     151.241E-03    -90.6616E-03    -90.6616E-03
            1030     1.33149E+03     1.33149E+03        -1.28250        -1.28250         8.24163         8.24163
            1031     1.33433E+03     1.33433E+03        -1.63269        -1.63269         7.01489         7.01489
            1032     1.33662E+03     1.33662E+03        -1.82127        -1.82127         5.57966         5.57966
            1033     1.33831E+03     1.33831E+03        -1.86708        -1.86708         4.06236         4.06236
            1034     1.33941E+03     1.33941E+03        -1.79838        -1.79838         2.56701         2.56701
            1035     1.33994E+03     1.33994E+03        -1.64684        -1.64684         1.17227         1.17227
            1036     1.33995E+03     1.33995E+03        -1.44304        -1.44304    -68.8907E-03    -68.8907E-03
            1037     1.33951E+03     1.33951E+03        -1.21342        -1.21342        -1.12686        -1.12686
            1038     1.33870E+03     1.33870E+03    -978.755E-03    -978.755E-03        -1.99097        -1.99097
            1039     1.33759E+03     1.33759E+03    -754.116E-03    -754.116E-03        -2.66496        -2.66496
            1040     1.33625E+03     1.33625E+03    -549.182E-03    -549.182E-03        -3.16223        -3.16223
            1041     1.33475E+03     1.33475E+03    -369.372E-03    -369.372E-03        -3.50215        -3.50215
            1042     1.33314E+03     1.33314E+03    -216.728E-03    -216.728E-03        -3.70677        -3.70677
            1043     1.33147E+03     1.33147E+03    -91.0043E-03    -91.0043E-03        -3.79873        -3.79873
            1044     1.32979E+03     1.32979E+03     9.57099E-03     9.57099E-03        -3.79967        -3.79967
            1045     1.32813E+03     1.32813E+03     87.6074E-03     87.6074E-03        -3.72932        -3.72932
            1046     1.32650E+03     1.32650E+03     146.094E-03     146.094E-03        -3.60502        -3.60502
            1047     1.32494E+03     1.32494E+03     188.071E-03     188.071E-03        -3.44159        -3.44159
            1048     1.32345E+03     1.32345E+03     216.420E-03     216.420E-03        -3.25138        -3.25138
            1049     1.32204E+03     1.32204E+03     233.760E-03     233.760E-03        -3.04445        -3.04445
            1050     1.32073E+03     1.32073E+03     242.384E-03     242.384E-03        -2.82883        -2.82883
            1051     1.31950E+03     1.31950E+03     244.255E-03     244.255E-03        -2.61079        -2.61079
            1052     1.31837E+03     1.31837E+03     241.019E-03     241.019E-03        -2.39509        -2.39509
            1053     1.31733E+03     1.31733E+03     234.032E-03     234.032E-03        -2.18527        -2.18527
            1054     1.31638E+03     1.31638E+03     224.396E-03     224.396E-03        -1.98385        -1.98385
            1055     1.31552E+03     1.31552E+03     212.998E-03     212.998E-03        -1.79252        -1.79252
            1056     1.31473E+03     1.31473E+03     200.536E-03     200.536E-03        -1.61234        -1.61234
            1057     1.31403E+03     1.31403E+03     187.563E-03     187.563E-03        -1.44385        -1.44385
            1058     1.31339E+03     1.31339E+03     174.503E-03     174.503E-03        -1.28719        -1.28719
            1059     1.31283E+03     1.31283E+03     161.683E-03     161.683E-03        -1.14218        -1.14218
            1060     1.31233E+03     1.31233E+03     149.350E-03     149.350E-03        -1.00843        -1.00843
            1061     1.31188E+03     1.31188E+03     137.685E-03     137.685E-03    -885.363E-03    -885.363E-03
            1062     1.31149E+03     1.31149E+03     126.824E-03     126.824E-03    -772.293E-03    -772.293E-03
            1063     1.31115E+03     1.31115E+03     116.863E-03     116.863E-03    -668.431E-03    -668.431E-03
            1064     1.31086E+03     1.31086E+03     107.867E-03     107.867E-03    -572.931E-03    -572.931E-03
            1065     1.31061E+03     1.31061E+03     99.8824E-03     99.8824E-03    -484.902E-03    -484.902E-03
            1066     1.31039E+03     1.31039E+03     92.9385E-03     92.9385E-03    -403.431E-03    -403.431E-03
            1067     1.31022E+03     1.31022E+03     87.0521E-03     87.0521E-03    -327.589E-03    -327.589E-03
            1068     1.31008E+03     1.31008E+03     82.2352E-03     82.2352E-03    -256.434E-03    -256.434E-03
            1069     1.30997E+03     1.30997E+03     78.5051E-03     78.5051E-03    -189.035E-03    -189.035E-03
            1070     1.30990E+03     1.30990E+03     75.8080E-03     75.8080E-03    -124.498E-03    -124.498E-03
            1071     1.30985E+03     1.30985E+03     74.1302E-03     74.1302E-03    -62.4319E-03    -62.4319E-03
            1072     1.33033E+03     1.33033E+03    -451.215E-03    -451.215E-03         4.60273         4.60273
            1073     1.33431E+03     1.33431E+03    -579.648E-03    -579.648E-03         3.93712         3.93712
            1074     1.33760E+03     1.33760E+03    -650.113E-03    -650.113E-03         3.15274         3.15274
            1075     1.34014E+03     1.34014E+03    -669.280E-03    -669.280E-03         2.32032         2.32032
            1076     1.34190E+03     1.34190E+03    -646.913E-03    -646.913E-03         1.49778         1.49778
            1077     1.34291E+03     1.34291E+03    -594.245E-03    -594.245E-03     729.239E-03     729.239E-03
            1078     1.34324E+03     1.34324E+03    -522.331E-03    -522.331E-03     44.6352E-03     44.6352E-03
            1079     1.34297E+03     1.34297E+03    -440.678E-03    -440.678E-03    -539.061E-03    -539.061E-03
            1080     1.34220E+03     1.34220E+03    -356.915E-03    -356.915E-03        -1.01570        -1.01570
            1081     1.34103E+03     1.34103E+03    -276.485E-03    -276.485E-03        -1.38716        -1.38716
            1082     1.33955E+03     1.33955E+03    -202.992E-03    -202.992E-03        -1.66094        -1.66094
            1083     1.33785E+03     1.33785E+03    -138.406E-03    -138.406E-03        -1.84779        -1.84779
            1084     1.33601E+03     1.33601E+03    -83.5186E-03    -83.5186E-03        -1.96012        -1.96012
            1085     1.33409E+03     1.33409E+03    -38.2559E-03    -38.2559E-03        -2.01055        -2.01055
            1086     1.33215E+03     1.33215E+03    -1.99659E-03    -1.99659E-03        -2.01117        -2.01117
            1087     1.33022E+03     1.33022E+03     26.1889E-03     26.1889E-03        -1.97296        -1.97296
            1088     1.32834E+03     1.32834E+03     47.3742E-03     47.3742E-03        -1.90553        -1.90553
            1089     1.32653E+03     1.32653E+03     62.6458E-03     62.6458E-03        -1.81708        -1.81708
            1090     1.32482E+03     1.32482E+03     73.0410E-03     73.0410E-03        -1.71439        -1.71439
            1091     1.32321E+03     1.32321E+03     79.4949E-03     79.4949E-03        -1.60295        -1.60295
            1092     1.32170E+03     1.32170E+03     82.8308E-03     82.8308E-03        -1.48713        -1.48713
            1093     1.32031E+03     1.32031E+03     83.7495E-03     83.7495E-03        -1.37030        -1.37030
            1094     1.31903E+03     1.31903E+03     82.8394E-03     82.8394E-03        -1.25502        -1.25502
            1095     1.31786E+03     1.31786E+03     80.5837E-03     80.5837E-03        -1.14317        -1.14317
            1096     1.31679E+03     1.31679E+03     77.3754E-03     77.3754E-03        -1.03606        -1.03606
            1097     1.31583E+03     1.31583E+03     73.5290E-03     73.5290E-03    -934.573E-03    -934.573E-03
            1098     1.31496E+03     1.31496E+03     69.2938E-03     69.2938E-03    -839.232E-03    -839.232E-03
            1099     1.31418E+03     1.31418E+03     64.8650E-03     64.8650E-03    -750.290E-03    -750.290E-03
            1100     1.31348E+03     1.31348E+03     60.3937E-03     60.3937E-03    -667.789E-03    -667.789E-03
            1101     1.31286E+03     1.31286E+03     55.9957E-03     55.9957E-03    -591.612E-03    -591.612E-03
            1102     1.31231E+03     1.31231E+03     51.7582E-03     51.7582E-03    -521.519E-03    -521.519E-03
            1103     1.31183E+03     1.31183E+03     47.7464E-03     47.7464E-03    -457.185E-03    -457.185E-03
            1104     1.31141E+03     1.31141E+03     44.0076E-03     44.0076E-03    -398.220E-03    -398.220E-03
            1105     1.31104E+03     1.31104E+03     40.5764E-03     40.5764E-03    -344.191E-03    -344.191E-03
            1106     1.31072E+03     1.31072E+03     37.4758E-03     37.4758E-03    -294.635E-03    -294.635E-03
            1107     1.31045E+03     1.31045E+03     34.7235E-03     34.7235E-03    -249.069E-03    -249.069E-03
            1108     1.31023E+03     1.31023E+03     32.3275E-03     32.3275E-03    -206.999E-03    -206.999E-03
            1109     1.31004E+03     1.31004E+03     30.2991E-03     30.2991E-03    -167.924E-03    -167.924E-03
            1110     1.30989E+03     1.30989E+03     28.6351E-03     28.6351E-03    -131.343E-03    -131.343E-03
            1111     1.30978E+03     1.30978E+03     27.3568E-03     27.3568E-03    -96.7432E-03    -96.7432E-03
            1112     1.30970E+03     1.30970E+03     26.4686E-03     26.4686E-03    -63.6447E-03    -63.6447E-03
            1113     1.30965E+03     1.30965E+03     25.8252E-03     25.8252E-03    -32.1589E-03    -32.1589E-03
            1114     1.33433E+03     1.33433E+03        -53.8828        -53.8828         52.0199         52.0199
            1115     1.31820E+03     1.31820E+03        -41.8971        -41.8971         50.4735         50.4735
            1116     1.30714E+03     1.30714E+03        -31.3604        -31.3604         46.4361         46.4361
            1117     1.29999E+03     1.29999E+03        -22.7076        -22.7076         41.4874         41.4874
            1118     1.29565E+03     1.29565E+03        -15.8366        -15.8366         36.5025         36.5025
            1119     1.29323E+03     1.29323E+03        -10.4374        -10.4374         31.8937         31.8937
            1120     1.29209E+03     1.29209E+03        -6.21188        -6.21188         27.8154         27.8154
            1121     1.29179E+03     1.29179E+03        -2.90423        -2.90423         24.2895         24.2895
            1122     1.29205E+03     1.29205E+03    -318.576E-03    -318.576E-03         21.2785         21.2785
            1123     1.29265E+03     1.29265E+03         1.69663         1.69663         18.7211         18.7211
            1124     1.29347E+03     1.29347E+03         3.25543         3.25543         16.5512         16.5512
            1125     1.29441E+03     1.29441E+03         4.44592         4.44592         14.7061         14.7061
            1126     1.29542E+03     1.29542E+03         5.33619         5.33619         13.1300         13.1300
            1127     1.29645E+03     1.29645E+03         5.98038         5.98038         11.7753         11.7753
            1128     1.29747E+03     1.29747E+03         6.42199         6.42199         10.6022         10.6022
            1129     1.29846E+03     1.29846E+03         6.69679         6.69679         9.57808         9.57808
            1130     1.29942E+03     1.29942E+03         6.83453         6.83453         8.67635         8.67635
            1131     1.30033E+03     1.30033E+03         6.86031         6.86031         7.87573         7.87573
            1132     1.30120E+03     1.30120E+03         6.79546         6.79546         7.15920         7.15920
            1133     1.30201E+03     1.30201E+03         6.65825         6.65825         6.51328         6.51328
            1134     1.30277E+03     1.30277E+03         6.46433         6.46433         5.92729         5.92729
            1135     1.30347E+03     1.30347E+03         6.22715         6.22715         5.39280         5.39280
            1136     1.30412E+03     1.30412E+03         5.95821         5.95821         4.90313         4.90313
            1137     1.30471E+03     1.30471E+03         5.66737         5.66737         4.45297         4.45297
            1138     1.30526E+03     1.30526E+03         5.36299         5.36299         4.03803         4.03803
            1139     1.30576E+03     1.30576E+03         5.05217         5.05217         3.65482         3.65482
            1140     1.30622E+03     1.30622E+03         4.74085         4.74085         3.30043         3.30043
            1141     1.30663E+03     1.30663E+03         4.43401         4.43401         2.97238         2.97238
            1142     1.30700E+03     1.30700E+03         4.13575         4.13575         2.66850         2.66850
            1143     1.30733E+03     1.30733E+03         3.84944         3.84944         2.38684         2.38684
            1144     1.30763E+03     1.30763E+03         3.57782         3.57782         2.12559         2.12559
            1145     1.30789E+03     1.30789E+03         3.32307         3.32307         1.88306         1.88306
            1146     1.30813E+03     1.30813E+03         3.08693         3.08693         1.65762         1.65762
            1147     1.30833E+03     1.30833E+03         2.87075         2.87075         1.44767         1.44767
            1148     1.30851E+03     1.30851E+03         2.67557         2.67557         1.25165         1.25165
            1149     1.30866E+03     1.30866E+03         2.50217         2.50217         1.06801         1.06801
            1150     1.30879E+03     1.30879E+03         2.35114         2.35114     895.218E-03     895.218E-03
            1151     1.30890E+03     1.30890E+03         2.22288         2.22288     731.726E-03     731.726E-03
            1152     1.30899E+03     1.30899E+03         2.11769         2.11769     575.999E-03     575.999E-03
            1153     1.30905E+03     1.30905E+03         2.03578         2.03578     426.501E-03     426.501E-03
            1154     1.30910E+03     1.30910E+03         1.97728         1.97728     281.694E-03     281.694E-03
            1155     1.30913E+03     1.30913E+03         1.94221         1.94221     140.401E-03     140.401E-03
            1156     1.30209E+03     1.30209E+03        -49.2100        -49.2100         72.5567         72.5567
            1157     1.28901E+03     1.28901E+03        -34.4675        -34.4675         63.3806         63.3806
            1158     1.28220E+03     1.28220E+03        -23.3622        -23.3622         53.9581         53.9581
            1159     1.27926E+03     1.27926E+03        -15.2062        -15.2062         45.4308         45.4308
            1160     1.27862E+03     1.27862E+03        -9.21161        -9.21161         38.1622         38.1622
            1161     1.27928E+03     1.27928E+03        -4.76914        -4.76914         32.1301         32.1301
            1162     1.28065E+03     1.28065E+03        -1.43489        -1.43489         27.1839         27.1839
            1163     1.28236E+03     1.28236E+03         1.09052         1.09052         23.1445         23.1445
            1164     1.28423E+03     1.28423E+03         3.01533         3.01533         19.8453         19.8453
            1165     1.28612E+03     1.28612E+03         4.48172         4.48172         17.1422         17.1422
            1166     1.28797E+03     1.28797E+03         5.59076         5.59076         14.9167         14.9167
            1167     1.28975E+03     1.28975E+03         6.41478         6.41478         13.0727         13.0727
            1168     1.29143E+03     1.29143E+03         7.00784         7.00784         11.5330         11.5330
            1169     1.29302E+03     1.29302E+03         7.41119         7.41119         10.2364         10.2364
            1170     1.29450E+03     1.29450E+03         7.65763         7.65763         9.13425         9.13425
            1171     1.29587E+03     1.29587E+03         7.77382         7.77382         8.18830         8.18830
            1172     1.29715E+03     1.29715E+03         7.78213         7.78213         7.36831         7.36831
            1173     1.29834E+03     1.29834E+03         7.70158         7.70158         6.65053         6.65053
            1174     1.29944E+03     1.29944E+03         7.54866         7.54866         6.01637         6.01637
            1175     1.30045E+03     1.30045E+03         7.33772         7.33772         5.45124         5.45124
            1176     1.30138E+03     1.30138E+03         7.08136         7.08136         4.94375         4.94375
            1177     1.30223E+03     1.30223E+03         6.79059         6.79059         4.48496         4.48496
            1178     1.30302E+03     1.30302E+03         6.47507         6.47507         4.06787         4.06787
            1179     1.30373E+03     1.30373E+03         6.14318         6.14318         3.68693         3.68693
            1180     1.30439E+03     1.30439E+03         5.80223         5.80223         3.33773         3.33773
            1181     1.30498E+03     1.30498E+03         5.45845         5.45845         3.01673         3.01673
            1182     1.30552E+03     1.30552E+03         5.11721         5.11721         2.72101         2.72101
            1183     1.30601E+03     1.30601E+03         4.78303         4.78303         2.44814         2.44814
            1184     1.30645E+03     1.30645E+03         4.45970         4.45970         2.19603         2.19603
            1185     1.30684E+03     1.30684E+03         4.15037         4.15037         1.96285         1.96285
            1186     1.30720E+03     1.30720E+03         3.85763         3.85763         1.74694         1.74694
            1187     1.30751E+03     1.30751E+03         3.58355         3.58355         1.54678         1.54678
            1188     1.30779E+03     1.30779E+03         3.32982         3.32982         1.36093         1.36093
            1189     1.30803E+03     1.30803E+03         3.09775         3.09775         1.18803         1.18803
            1190     1.30824E+03     1.30824E+03         2.88836         2.88836         1.02673         1.02673
            1191     1.30842E+03     1.30842E+03         2.70243         2.70243     875.722E-03     875.722E-03
            1192     1.30858E+03     1.30858E+03         2.54053         2.54053     733.728E-03     733.728E-03
            1193     1.30871E+03     1.30871E+03         2.40309         2.40309     599.467E-03     599.467E-03
            1194     1.30881E+03     1.30881E+03         2.29042         2.29042     471.673E-03     471.673E-03
            1195     1.30889E+03     1.30889E+03         2.20272         2.20272     349.084E-03     349.084E-03
            1196     1.30894E+03     1.30894E+03         2.14014         2.14014     230.444E-03     230.444E-03
            1197     1.30898E+03     1.30898E+03         2.10272         2.10272     114.794E-03     114.794E-03
            1198     1.25305E+03     1.25305E+03        -33.6087        -33.6087         85.2514         85.2514
            1199     1.25042E+03     1.25042E+03        -20.0054        -20.0054         68.1391         68.1391
            1200     1.25234E+03     1.25234E+03        -11.1217        -11.1217         54.3258         54.3258
            1201     1.25622E+03     1.25622E+03        -5.23206        -5.23206         43.5486         43.5486
            1202     1.26073E+03     1.26073E+03        -1.20890        -1.20890         35.2170         35.2170
            1203     1.26526E+03     1.26526E+03         1.62971         1.62971         28.7682         28.7682
            1204     1.26955E+03     1.26955E+03         3.68443         3.68443         23.7458         23.7458
            1205     1.27348E+03     1.27348E+03         5.20273         5.20273         19.8056         19.8056
            1206     1.27704E+03     1.27704E+03         6.33579         6.33579         16.6881         16.6881
            1207     1.28024E+03     1.28024E+03         7.18090         7.18090         14.2002         14.2002
            1208     1.28311E+03     1.28311E+03         7.80124         7.80124         12.1965         12.1965
            1209     1.28569E+03     1.28569E+03         8.24034         8.24034         10.5675         10.5675
            1210     1.28802E+03     1.28802E+03         8.52923         8.52923         9.23012         9.23012
            1211     1.29011E+03     1.29011E+03         8.69155         8.69155         8.12080         8.12080
            1212     1.29201E+03     1.29201E+03         8.74620         8.74620         7.19084         7.19084
            1213     1.29373E+03     1.29373E+03         8.70909         8.70909         6.40278         6.40278
            1214     1.29529E+03     1.29529E+03         8.59412         8.59412         5.72768         5.72768
            1215     1.29671E+03     1.29671E+03         8.41374         8.41374         5.14316         5.14316
            1216     1.29800E+03     1.29800E+03         8.17925         8.17925         4.63188         4.63188
            1217     1.29918E+03     1.29918E+03         7.90100         7.90100         4.18042         4.18042
            1218     1.30026E+03     1.30026E+03         7.58841         7.58841         3.77833         3.77833
            1219     1.30124E+03     1.30124E+03         7.25009         7.25009         3.41752         3.41752
            1220     1.30214E+03     1.30214E+03         6.89380         6.89380         3.09163         3.09163
            1221     1.30295E+03     1.30295E+03         6.52650         6.52650         2.79570         2.79570
            1222     1.30369E+03     1.30369E+03         6.15439         6.15439         2.52579         2.52579
            1223     1.30436E+03     1.30436E+03         5.78290         5.78290         2.27876         2.27876
            1224     1.30497E+03     1.30497E+03         5.41677         5.41677         2.05205         2.05205
            1225     1.30552E+03     1.30552E+03         5.06007         5.06007         1.84354         1.84354
            1226     1.30601E+03     1.30601E+03         4.71626         4.71626         1.65146         1.65146
            1227     1.30646E+03     1.30646E+03         4.38826         4.38826         1.47425         1.47425
            1228     1.30685E+03     1.30685E+03         4.07848         4.07848         1.31053         1.31053
            1229     1.30721E+03     1.30721E+03         3.78889         3.78889         1.15907         1.15907
            1230     1.30752E+03     1.30752E+03         3.52110         3.52110         1.01870         1.01870
            1231     1.30779E+03     1.30779E+03         3.27637         3.27637     888.332E-03     888.332E-03
            1232     1.30803E+03     1.30803E+03         3.05568         3.05568     766.918E-03     766.918E-03
            1233     1.30823E+03     1.30823E+03         2.85979         2.85979     653.444E-03     653.444E-03
            1234     1.30841E+03     1.30841E+03         2.68928         2.68928     546.918E-03     546.918E-03
            1235     1.30855E+03     1.30855E+03         2.54456         2.54456     446.368E-03     446.368E-03
            1236     1.30867E+03     1.30867E+03         2.42593         2.42593     350.835E-03     350.835E-03
            1237     1.30876E+03     1.30876E+03         2.33362         2.33362     259.371E-03     259.371E-03
            1238     1.30882E+03     1.30882E+03         2.26776         2.26776     171.039E-03     171.039E-03
            1239     1.30885E+03     1.30885E+03         2.22839         2.22839     85.1239E-03     85.1239E-03
            1240     1.19443E+03     1.19443E+03        -9.16335        -9.16335         79.4025         79.4025
            1241     1.20913E+03     1.20913E+03        -1.52779        -1.52779         58.9523         58.9523
            1242     1.22287E+03     1.22287E+03         2.62743         2.62743         44.6093         44.6093
            1243     1.23475E+03     1.23475E+03         5.03786         5.03786         34.4154         34.4154
            1244     1.24478E+03     1.24478E+03         6.54218         6.54218         27.0249         27.0249
            1245     1.25319E+03     1.25319E+03         7.54363         7.54363         21.5620         21.5620
            1246     1.26024E+03     1.26024E+03         8.24906         8.24906         17.4574         17.4574
            1247     1.26620E+03     1.26620E+03         8.76381         8.76381         14.3250         14.3250
            1248     1.27126E+03     1.27126E+03         9.14366         9.14366         11.9026         11.9026
            1249     1.27559E+03     1.27559E+03         9.41753         9.41753         10.0050         10.0050
            1250     1.27933E+03     1.27933E+03         9.60124         9.60124         8.50098         8.50098
            1251     1.28258E+03     1.28258E+03         9.70396         9.70396         7.29495         7.29495
            1252     1.28542E+03     1.28542E+03         9.73202         9.73202         6.31691         6.31691
            1253     1.28793E+03     1.28793E+03         9.69081         9.69081         5.51458         5.51458
            1254     1.29015E+03     1.29015E+03         9.58567         9.58567         4.84884         4.84884
            1255     1.29214E+03     1.29214E+03         9.42232         9.42232         4.29000         4.29000
            1256     1.29392E+03     1.29392E+03         9.20692         9.20692         3.81551         3.81551
            1257     1.29552E+03     1.29552E+03         8.94600         8.94600         3.40811         3.40811
            1258     1.29697E+03     1.29697E+03         8.64636         8.64636         3.05456         3.05456
            1259     1.29827E+03     1.29827E+03         8.31483         8.31483         2.74468         2.74468
            1260     1.29946E+03     1.29946E+03         7.95819         7.95819         2.47060         2.47060
            1261     1.30054E+03     1.30054E+03         7.58297         7.58297         2.22622         2.22622
            1262     1.30151E+03     1.30151E+03         7.19537         7.19537         2.00683         2.00683
            1263     1.30240E+03     1.30240E+03         6.80113         6.80113         1.80871         1.80871
            1264     1.30320E+03     1.30320E+03         6.40555         6.40555         1.62895         1.62895
            1265     1.30393E+03     1.30393E+03         6.01336         6.01336         1.46521         1.46521
            1266     1.30458E+03     1.30458E+03         5.62880         5.62880         1.31562         1.31562
            1267     1.30518E+03     1.30518E+03         5.25554         5.25554         1.17863         1.17863
            1268     1.30571E+03     1.30571E+03         4.89678         4.89678         1.05294         1.05294
            1269     1.30619E+03     1.30619E+03         4.55523         4.55523     937.434E-03     937.434E-03
            1270     1.30661E+03     1.30661E+03         4.23314         4.23314     831.129E-03     831.129E-03
            1271     1.30699E+03     1.30699E+03         3.93241         3.93241     733.145E-03     733.145E-03
            1272     1.30733E+03     1.30733E+03         3.65454         3.65454     642.675E-03     642.675E-03
            1273     1.30762E+03     1.30762E+03         3.40076         3.40076     558.966E-03     558.966E-03
            1274     1.30788E+03     1.30788E+03         3.17201         3.17201     481.305E-03     481.305E-03
            1275     1.30810E+03     1.30810E+03         2.96903         2.96903     409.010E-03     409.010E-03
            1276     1.30829E+03     1.30829E+03         2.79238         2.79238     341.424E-03     341.424E-03
            1277     1.30844E+03     1.30844E+03         2.64247         2.64247     277.907E-03     277.907E-03
            1278     1.30857E+03     1.30857E+03         2.51958         2.51958     217.839E-03     217.839E-03
            1279     1.30866E+03     1.30866E+03         2.42392         2.42392     160.612E-03     160.612E-03
            1280     1.30873E+03     1.30873E+03         2.35566         2.35566     105.636E-03     105.636E-03
            1281     1.30877E+03     1.30877E+03         2.31479         2.31479     52.4597E-03     52.4597E-03
            1282     1.14425E+03     1.14425E+03         14.6077         14.6077         48.4985         48.4985
            1283     1.17684E+03     1.17684E+03         14.2834         14.2834         33.9716         33.9716
            1284     1.20114E+03     1.20114E+03         13.4756         13.4756         24.7280         24.7280
            1285     1.21957E+03     1.21957E+03         12.7071         12.7071         18.5317         18.5317
            1286     1.23386E+03     1.23386E+03         12.0967         12.0967         14.2142         14.2142
            1287     1.24513E+03     1.24513E+03         11.6499         11.6499         11.1207         11.1207
            1288     1.25417E+03     1.25417E+03         11.3381         11.3381         8.84968         8.84968
            1289     1.26153E+03     1.26153E+03         11.1235         11.1235         7.15116         7.15116
            1290     1.26762E+03     1.26762E+03         10.9711         10.9711         5.85843         5.85843
            1291     1.27270E+03     1.27270E+03         10.8506         10.8506         4.86031         4.86031
            1292     1.27700E+03     1.27700E+03         10.7386         10.7386         4.07876         4.07876
            1293     1.28068E+03     1.28068E+03         10.6171         10.6171         3.45911         3.45911
            1294     1.28386E+03     1.28386E+03         10.4737         10.4737         2.96158         2.96158
            1295     1.28662E+03     1.28662E+03         10.3002         10.3002         2.55731         2.55731
            1296     1.28906E+03     1.28906E+03         10.0923         10.0923         2.22481         2.22481
            1297     1.29121E+03     1.29121E+03         9.84851         9.84851         1.94810         1.94810
            1298     1.29312E+03     1.29312E+03         9.56962         9.56962         1.71512         1.71512
            1299     1.29483E+03     1.29483E+03         9.25818         9.25818         1.51675         1.51675
            1300     1.29637E+03     1.29637E+03         8.91795         8.91795         1.34604         1.34604
            1301     1.29776E+03     1.29776E+03         8.55348         8.55348         1.19769         1.19769
            1302     1.29901E+03     1.29901E+03         8.16978         8.16978         1.06762         1.06762
            1303     1.30014E+03     1.30014E+03         7.77205         7.77205     952.681E-03     952.681E-03
            1304     1.30116E+03     1.30116E+03         7.36547         7.36547     850.441E-03     850.441E-03
            1305     1.30209E+03     1.30209E+03         6.95503         6.95503     758.989E-03     758.989E-03
            1306     1.30293E+03     1.30293E+03         6.54542         6.54542     676.819E-03     676.819E-03
            1307     1.30368E+03     1.30368E+03         6.14096         6.14096     602.728E-03     602.728E-03
            1308     1.30437E+03     1.30437E+03         5.74553         5.74553     535.742E-03     535.742E-03
            1309     1.30499E+03     1.30499E+03         5.36258         5.36258     475.055E-03     475.055E-03
            1310     1.30554E+03     1.30554E+03         4.99512         4.99512     419.992E-03     419.992E-03
            1311     1.30604E+03     1.30604E+03         4.64572         4.64572     369.975E-03     369.975E-03
            1312     1.30648E+03     1.30648E+03         4.31656         4.31656     324.497E-03     324.497E-03
            1313     1.30688E+03     1.30688E+03         4.00943         4.00943     283.108E-03     283.108E-03
            1314     1.30723E+03     1.30723E+03         3.72581         3.72581     245.402E-03     245.402E-03
            1315     1.30753E+03     1.30753E+03         3.46688         3.46688     211.004E-03     211.004E-03
            1316     1.30780E+03     1.30780E+03         3.23356         3.23356     179.570E-03     179.570E-03
            1317     1.30803E+03     1.30803E+03         3.02655         3.02655     150.779E-03     150.779E-03
            1318     1.30822E+03     1.30822E+03         2.84641         2.84641     124.328E-03     124.328E-03
            1319     1.30838E+03     1.30838E+03         2.69352         2.69352     99.9345E-03     99.9345E-03
            1320     1.30851E+03     1.30851E+03         2.56816         2.56816     77.3337E-03     77.3337E-03
            1321     1.30861E+03     1.30861E+03         2.47054         2.47054     56.2776E-03     56.2776E-03
            1322     1.30868E+03     1.30868E+03         2.40077         2.40077     36.5369E-03     36.5369E-03
            1323     1.30873E+03     1.30873E+03         2.35889         2.35889     17.9456E-03     17.9456E-03
            1324     1.12677E+03     1.12677E+03         23.3339         23.3339        -3.30039        -3.30039
            1325     1.16653E+03     1.16653E+03         19.5279         19.5279        -2.87900        -2.87900
            1326     1.19455E+03     1.19455E+03         16.8579         16.8579        -2.44580        -2.44580
            1327     1.21517E+03     1.21517E+03         14.9888         14.9888        -2.08619        -2.08619
            1328     1.23080E+03     1.23080E+03         13.6827         13.6827        -1.79196        -1.79196
            1329     1.24295E+03     1.24295E+03         12.7818         12.7818        -1.55373        -1.55373
            1330     1.25258E+03     1.25258E+03         12.1609         12.1609        -1.35866        -1.35866
            1331     1.26035E+03     1.26035E+03         11.7326         11.7326        -1.19872        -1.19872
            1332     1.26671E+03     1.26671E+03         11.4279         11.4279        -1.06621        -1.06621
            1333     1.27201E+03     1.27201E+03         11.1980         11.1980    -955.989E-03    -955.989E-03
            1334     1.27646E+03     1.27646E+03         11.0057         11.0057    -863.529E-03    -863.529E-03
            1335     1.28025E+03     1.28025E+03         10.8249         10.8249    -785.520E-03    -785.520E-03
            1336     1.28351E+03     1.28351E+03         10.6370         10.6370    -719.146E-03    -719.146E-03
            1337     1.28635E+03     1.28635E+03         10.4301         10.4301    -662.215E-03    -662.215E-03
            1338     1.28883E+03     1.28883E+03         10.1966         10.1966    -612.890E-03    -612.890E-03
            1339     1.29102E+03     1.29102E+03         9.93322         9.93322    -569.699E-03    -569.699E-03
            1340     1.29297E+03     1.29297E+03         9.63914         9.63914    -531.422E-03    -531.422E-03
            1341     1.29471E+03     1.29471E+03         9.31582         9.31582    -497.075E-03    -497.075E-03
            1342     1.29626E+03     1.29626E+03         8.96620         8.96620    -465.859E-03    -465.859E-03
            1343     1.29767E+03     1.29767E+03         8.59421         8.59421    -437.137E-03    -437.137E-03
            1344     1.29893E+03     1.29893E+03         8.20442         8.20442    -410.401E-03    -410.401E-03
            1345     1.30007E+03     1.30007E+03         7.80170         7.80170    -385.258E-03    -385.258E-03
            1346     1.30111E+03     1.30111E+03         7.39096         7.39096    -361.403E-03    -361.403E-03
            1347     1.30204E+03     1.30204E+03         6.97702         6.97702    -338.610E-03    -338.610E-03
            1348     1.30289E+03     1.30289E+03         6.56443         6.56443    -316.708E-03    -316.708E-03
            1349     1.30365E+03     1.30365E+03         6.15740         6.15740    -295.575E-03    -295.575E-03
            1350     1.30434E+03     1.30434E+03         5.75974         5.75974    -275.124E-03    -275.124E-03
            1351     1.30496E+03     1.30496E+03         5.37485         5.37485    -255.292E-03    -255.292E-03
            1352     1.30552E+03     1.30552E+03         5.00569         5.00569    -236.033E-03    -236.033E-03
            1353     1.30602E+03     1.30602E+03         4.65479         4.65479    -217.314E-03    -217.314E-03
            1354     1.30647E+03     1.30647E+03         4.32430         4.32430    -199.101E-03    -199.101E-03
            1355     1.30687E+03     1.30687E+03         4.01601         4.01601    -181.365E-03    -181.365E-03
            1356     1.30722E+03     1.30722E+03         3.73136         3.73136    -164.068E-03    -164.068E-03
            1357     1.30753E+03     1.30753E+03         3.47153         3.47153    -147.168E-03    -147.168E-03
            1358     1.30780E+03     1.30780E+03         3.23741         3.23741    -130.612E-03    -130.612E-03
            1359     1.30803E+03     1.30803E+03         3.02971         3.02971    -114.336E-03    -114.336E-03
            1360     1.30822E+03     1.30822E+03         2.84895         2.84895    -98.2630E-03    -98.2630E-03
            1361     1.30838E+03     1.30838E+03         2.69551         2.69551    -82.3017E-03    -82.3017E-03
            1362     1.30851E+03     1.30851E+03         2.56966         2.56966    -66.3454E-03    -66.3454E-03
            1363     1.30861E+03     1.30861E+03         2.47158         2.47158    -50.2709E-03    -50.2709E-03
            1364     1.30868E+03     1.30868E+03         2.40139         2.40139    -33.9371E-03    -33.9371E-03
            1365     1.30873E+03     1.30873E+03         2.35907         2.35907    -17.2217E-03    -17.2217E-03
            1366     1.15630E+03     1.15630E+03         8.87098         8.87098        -55.7860        -55.7860
            1367     1.18537E+03     1.18537E+03         10.1181         10.1181        -40.4007        -40.4007
            1368     1.20728E+03     1.20728E+03         10.4123         10.4123        -30.2844        -30.2844
            1369     1.22412E+03     1.22412E+03         10.4112         10.4112        -23.3028        -23.3028
            1370     1.23730E+03     1.23730E+03         10.3441         10.3441        -18.3230        -18.3230
            1371     1.24780E+03     1.24780E+03         10.2889         10.2889        -14.6759        -14.6759
            1372     1.25628E+03     1.25628E+03         10.2658         10.2658        -11.9484        -11.9484
            1373     1.26322E+03     1.26322E+03         10.2671         10.2671        -9.87139        -9.87139
            1374     1.26899E+03     1.26899E+03         10.2790         10.2790        -8.26523        -8.26523
            1375     1.27384E+03     1.27384E+03         10.2849         10.2849        -7.00575        -7.00575
            1376     1.27795E+03     1.27795E+03         10.2713         10.2713        -6.00559        -6.00559
            1377     1.28148E+03     1.28148E+03         10.2271         10.2271        -5.20163        -5.20163
            1378     1.28455E+03     1.28455E+03         10.1448         10.1448        -4.54777        -4.54777
            1379     1.28722E+03     1.28722E+03         10.0199         10.0199        -4.00967        -4.00967
            1380     1.28957E+03     1.28957E+03         9.85089         9.85089        -3.56156        -3.56156
            1381     1.29166E+03     1.29166E+03         9.63831         9.63831        -3.18388        -3.18388
            1382     1.29352E+03     1.29352E+03         9.38466         9.38466        -2.86172        -2.86172
            1383     1.29519E+03     1.29519E+03         9.09374         9.09374        -2.58362        -2.58362
            1384     1.29669E+03     1.29669E+03         8.77030         8.77030        -2.34079        -2.34079
            1385     1.29804E+03     1.29804E+03         8.41969         8.41969        -2.12642        -2.12642
            1386     1.29927E+03     1.29927E+03         8.04754         8.04754        -1.93527        -1.93527
            1387     1.30037E+03     1.30037E+03         7.65955         7.65955        -1.76328        -1.76328
            1388     1.30137E+03     1.30137E+03         7.26130         7.26130        -1.60732        -1.60732
            1389     1.30228E+03     1.30228E+03         6.85808         6.85808        -1.46493        -1.46493
            1390     1.30310E+03     1.30310E+03         6.45482         6.45482        -1.33421        -1.33421
            1391     1.30384E+03     1.30384E+03         6.05602         6.05602        -1.21366        -1.21366
            1392     1.30451E+03     1.30451E+03         5.66570         5.66570        -1.10208        -1.10208
            1393     1.30512E+03     1.30512E+03         5.28741         5.28741    -998.502E-03    -998.502E-03
            1394     1.30566E+03     1.30566E+03         4.92423         4.92423    -902.118E-03    -902.118E-03
            1395     1.30615E+03     1.30615E+03         4.57878         4.57878    -812.244E-03    -812.244E-03
            1396     1.30658E+03     1.30658E+03         4.25326         4.25326    -728.279E-03    -728.279E-03
            1397     1.30697E+03     1.30697E+03         3.94950         3.94950    -649.681E-03    -649.681E-03
            1398     1.30731E+03     1.30731E+03         3.66897         3.66897    -575.941E-03    -575.941E-03
            1399     1.30761E+03     1.30761E+03         3.41284         3.41284    -506.574E-03    -506.574E-03
            1400     1.30787E+03     1.30787E+03         3.18203         3.18203    -441.107E-03    -441.107E-03
            1401     1.30809E+03     1.30809E+03         2.97724         2.97724    -379.069E-03    -379.069E-03
            1402     1.30828E+03     1.30828E+03         2.79898         2.79898    -319.985E-03    -319.985E-03
            1403     1.30844E+03     1.30844E+03         2.64764         2.64764    -263.376E-03    -263.376E-03
            1404     1.30856E+03     1.30856E+03         2.52347         2.52347    -208.752E-03    -208.752E-03
            1405     1.30866E+03     1.30866E+03         2.42664         2.42664    -155.610E-03    -155.610E-03
            1406     1.30873E+03     1.30873E+03         2.35725         2.35725    -103.437E-03    -103.437E-03
            1407     1.30877E+03     1.30877E+03         2.31526         2.31526    -51.8328E-03    -51.8328E-03
            1408     1.21925E+03     1.21925E+03        -19.6352        -19.6352        -82.8121        -82.8121
            1409     1.22711E+03     1.22711E+03        -9.57666        -9.57666        -63.4318        -63.4318
            1410     1.23614E+03     1.23614E+03        -3.54854        -3.54854        -49.2649        -49.2649
            1411     1.24473E+03     1.24473E+03     275.969E-03     275.969E-03        -38.8582        -38.8582
            1412     1.25242E+03     1.25242E+03         2.83539         2.83539        -31.1018        -31.1018
            1413     1.25914E+03     1.25914E+03         4.63079         4.63079        -25.2410        -25.2410
            1414     1.26496E+03     1.26496E+03         5.93554         5.93554        -20.7521        -20.7521
            1415     1.26999E+03     1.26999E+03         6.90858         6.90858        -17.2716        -17.2716
            1416     1.27435E+03     1.27435E+03         7.64113         7.64113        -14.5412        -14.5412
            1417     1.27814E+03     1.27814E+03         8.18924         8.18924        -12.3759        -12.3759
            1418     1.28145E+03     1.28145E+03         8.58745         8.58745        -10.6402        -10.6402
            1419     1.28437E+03     1.28437E+03         8.85915         8.85915        -9.23418        -9.23418
            1420     1.28695E+03     1.28695E+03         9.02098         9.02098        -8.08295        -8.08295
            1421     1.28924E+03     1.28924E+03         9.08623         9.08623        -7.13002        -7.13002
            1422     1.29130E+03     1.29130E+03         9.06617         9.06617        -6.33235        -6.33235
            1423     1.29314E+03     1.29314E+03         8.97116         8.97116        -5.65700        -5.65700
            1424     1.29480E+03     1.29480E+03         8.81092         8.81092        -5.07865        -5.07865
            1425     1.29630E+03     1.29630E+03         8.59483         8.59483        -4.57776        -4.57776
            1426     1.29766E+03     1.29766E+03         8.33186         8.33186        -4.13925        -4.13925
            1427     1.29890E+03     1.29890E+03         8.03062         8.03062        -3.75143        -3.75143
            1428     1.30002E+03     1.30002E+03         7.69926         7.69926        -3.40528        -3.40528
            1429     1.30104E+03     1.30104E+03         7.34540         7.34540        -3.09376        -3.09376
            1430     1.30196E+03     1.30196E+03         6.97608         6.97608        -2.81144        -2.81144
            1431     1.30281E+03     1.30281E+03         6.59774         6.59774        -2.55405        -2.55405
            1432     1.30357E+03     1.30357E+03         6.21614         6.21614        -2.31825        -2.31825
            1433     1.30426E+03     1.30426E+03         5.83644         5.83644        -2.10139        -2.10139
            1434     1.30489E+03     1.30489E+03         5.46314         5.46314        -1.90132        -1.90132
            1435     1.30545E+03     1.30545E+03         5.10015         5.10015        -1.71630        -1.71630
            1436     1.30596E+03     1.30596E+03         4.75080         4.75080        -1.54485        -1.54485
            1437     1.30641E+03     1.30641E+03         4.41791         4.41791        -1.38572        -1.38572
            1438     1.30681E+03     1.30681E+03         4.10381         4.10381        -1.23777        -1.23777
            1439     1.30717E+03     1.30717E+03         3.81042         3.81042        -1.10000        -1.10000
            1440     1.30749E+03     1.30749E+03         3.53927         3.53927    -971.454E-03    -971.454E-03
            1441     1.30777E+03     1.30777E+03         3.29157         3.29157    -851.219E-03    -851.219E-03
            1442     1.30801E+03     1.30801E+03         3.06828         3.06828    -738.419E-03    -738.419E-03
            1443     1.30822E+03     1.30822E+03         2.87010         2.87010    -632.188E-03    -632.188E-03
            1444     1.30840E+03     1.30840E+03         2.69757         2.69757    -531.666E-03    -531.666E-03
            1445     1.30854E+03     1.30854E+03         2.55105         2.55105    -435.994E-03    -435.994E-03
            1446     1.30866E+03     1.30866E+03         2.43080         2.43080    -344.308E-03    -344.308E-03
            1447     1.30875E+03     1.30875E+03         2.33699         2.33699    -255.740E-03    -255.740E-03
            1448     1.30882E+03     1.30882E+03         2.26973         2.26973    -169.414E-03    -169.414E-03
            1449     1.30885E+03     1.30885E+03         2.22896         2.22896    -84.6602E-03    -84.6602E-03
            1450     1.28381E+03     1.28381E+03        -43.6063        -43.6063        -78.1435        -78.1435
            1451     1.27461E+03     1.27461E+03        -29.1122        -29.1122        -65.6500        -65.6500
            1452     1.27123E+03     1.27123E+03        -18.8425        -18.8425        -54.3687        -54.3687
            1453     1.27100E+03     1.27100E+03        -11.5989        -11.5989        -44.9159        -44.9159
            1454     1.27238E+03     1.27238E+03        -6.39334        -6.39334        -37.2357        -37.2357
            1455     1.27453E+03     1.27453E+03        -2.58178        -2.58178        -31.0588        -31.0588
            1456     1.27700E+03     1.27700E+03     261.153E-03     261.153E-03        -26.1022        -26.1022
            1457     1.27953E+03     1.27953E+03         2.40921         2.40921        -22.1169        -22.1169
            1458     1.28201E+03     1.28201E+03         4.04506         4.04506        -18.8990        -18.8990
            1459     1.28436E+03     1.28436E+03         5.29044         5.29044        -16.2858        -16.2858
            1460     1.28657E+03     1.28657E+03         6.23010         6.23010        -14.1492        -14.1492
            1461     1.28862E+03     1.28862E+03         6.92402         6.92402        -12.3884        -12.3884
            1462     1.29051E+03     1.29051E+03         7.41679         7.41679        -10.9250        -10.9250
            1463     1.29226E+03     1.29226E+03         7.74253         7.74253        -9.69713        -9.69713
            1464     1.29387E+03     1.29387E+03         7.92859         7.92859        -8.65667        -8.65667
            1465     1.29536E+03     1.29536E+03         7.99753         7.99753        -7.76584        -7.76584
            1466     1.29672E+03     1.29672E+03         7.96856         7.96856        -6.99511        -6.99511
            1467     1.29798E+03     1.29798E+03         7.85837         7.85837        -6.32139        -6.32139
            1468     1.29913E+03     1.29913E+03         7.68161         7.68161        -5.72667        -5.72667
            1469     1.30019E+03     1.30019E+03         7.45128         7.45128        -5.19688        -5.19688
            1470     1.30116E+03     1.30116E+03         7.17895         7.17895        -4.72107        -4.72107
            1471     1.30205E+03     1.30205E+03         6.87487         6.87487        -4.29066        -4.29066
            1472     1.30286E+03     1.30286E+03         6.54809         6.54809        -3.89898        -3.89898
            1473     1.30360E+03     1.30360E+03         6.20659         6.20659        -3.54077        -3.54077
            1474     1.30428E+03     1.30428E+03         5.85732         5.85732        -3.21187        -3.21187
            1475     1.30489E+03     1.30489E+03         5.50631         5.50631        -2.90894        -2.90894
            1476     1.30544E+03     1.30544E+03         5.15873         5.15873        -2.62926        -2.62926
            1477     1.30595E+03     1.30595E+03         4.81895         4.81895        -2.37058        -2.37058
            1478     1.30640E+03     1.30640E+03         4.49068         4.49068        -2.13099        -2.13099
            1479     1.30680E+03     1.30680E+03         4.17698         4.17698        -1.90879        -1.90879
            1480     1.30716E+03     1.30716E+03         3.88036         3.88036        -1.70247        -1.70247
            1481     1.30748E+03     1.30748E+03         3.60286         3.60286        -1.51065        -1.51065
            1482     1.30777E+03     1.30777E+03         3.34611         3.34611        -1.33201        -1.33201
            1483     1.30801E+03     1.30801E+03         3.11138         3.11138        -1.16527        -1.16527
            1484     1.30823E+03     1.30823E+03         2.89964         2.89964        -1.00922        -1.00922
            1485     1.30841E+03     1.30841E+03         2.71164         2.71164    -862.627E-03    -862.627E-03
            1486     1.30857E+03     1.30857E+03         2.54792         2.54792    -724.289E-03    -724.289E-03
            1487     1.30870E+03     1.30870E+03         2.40886         2.40886    -593.001E-03    -593.001E-03
            1488     1.30881E+03     1.30881E+03         2.29472         2.29472    -467.557E-03    -467.557E-03
            1489     1.30889E+03     1.30889E+03         2.20568         2.20568    -346.747E-03    -346.747E-03
            1490     1.30894E+03     1.30894E+03         2.14184         2.14184    -229.367E-03    -229.367E-03
            1491     1.30898E+03     1.30898E+03         2.10316         2.10316    -114.492E-03    -114.492E-03
            1492     1.32832E+03     1.32832E+03        -53.0628        -53.0628        -56.1892        -56.1892
            1493     1.31267E+03     1.31267E+03        -40.4609        -40.4609        -53.1236        -53.1236
            1494     1.30243E+03     1.30243E+03        -29.7798        -29.7798        -47.9546        -47.9546
            1495     1.29615E+03     1.29615E+03        -21.2394        -21.2394        -42.2453        -42.2453
            1496     1.29258E+03     1.29258E+03        -14.5763        -14.5763        -36.7916        -36.7916
            1497     1.29080E+03     1.29080E+03        -9.39755        -9.39755        -31.9088        -31.9088
            1498     1.29017E+03     1.29017E+03        -5.36990        -5.36990        -27.6771        -27.6771
            1499     1.29027E+03     1.29027E+03        -2.22922        -2.22922        -24.0712        -24.0712
            1500     1.29084E+03     1.29084E+03     220.813E-03     220.813E-03        -21.0238        -21.0238
            1501     1.29168E+03     1.29168E+03         2.12763         2.12763        -18.4557        -18.4557
            1502     1.29269E+03     1.29269E+03         3.60084         3.60084        -16.2897        -16.2897
            1503     1.29377E+03     1.29377E+03         4.72403         4.72403        -14.4567        -14.4567
            1504     1.29489E+03     1.29489E+03         5.56155         5.56155        -12.8969        -12.8969
            1505     1.29601E+03     1.29601E+03         6.16435         6.16435        -11.5604        -11.5604
            1506     1.29711E+03     1.29711E+03         6.57344         6.57344        -10.4061        -10.4061
            1507     1.29816E+03     1.29816E+03         6.82256         6.82256        -9.40036        -9.40036
            1508     1.29917E+03     1.29917E+03         6.93990         6.93990        -8.51634        -8.51634
            1509     1.30012E+03     1.30012E+03         6.94934         6.94934        -7.73244        -7.73244
            1510     1.30102E+03     1.30102E+03         6.87128         6.87128        -7.03153        -7.03153
            1511     1.30186E+03     1.30186E+03         6.72326         6.72326        -6.40008        -6.40008
            1512     1.30264E+03     1.30264E+03         6.52039         6.52039        -5.82740        -5.82740
            1513     1.30336E+03     1.30336E+03         6.27569         6.27569        -5.30509        -5.30509
            1514     1.30403E+03     1.30403E+03         6.00037         6.00037        -4.82651        -4.82651
            1515     1.30464E+03     1.30464E+03         5.70404         5.70404        -4.38639        -4.38639
            1516     1.30520E+03     1.30520E+03         5.39490         5.39490        -3.98050        -3.98050
            1517     1.30571E+03     1.30571E+03         5.07992         5.07992        -3.60542        -3.60542
            1518     1.30617E+03     1.30617E+03         4.76493         4.76493        -3.25828        -3.25828
            1519     1.30659E+03     1.30659E+03         4.45484         4.45484        -2.93668        -2.93668
            1520     1.30697E+03     1.30697E+03         4.15371         4.15371        -2.63851        -2.63851
            1521     1.30731E+03     1.30731E+03         3.86486         3.86486        -2.36186        -2.36186
            1522     1.30761E+03     1.30761E+03         3.59098         3.59098        -2.10501        -2.10501
            1523     1.30788E+03     1.30788E+03         3.33423         3.33423        -1.86629        -1.86629
            1524     1.30812E+03     1.30812E+03         3.09633         3.09633        -1.64415        -1.64415
            1525     1.30832E+03     1.30832E+03         2.87859         2.87859        -1.43703        -1.43703
            1526     1.30850E+03     1.30850E+03         2.68204         2.68204        -1.24341        -1.24341
            1527     1.30866E+03     1.30866E+03         2.50743         2.50743        -1.06180        -1.06180
            1528     1.30879E+03     1.30879E+03         2.35532         2.35532    -890.684E-03    -890.684E-03
            1529     1.30890E+03     1.30890E+03         2.22610         2.22610    -728.560E-03    -728.560E-03
            1530     1.30899E+03     1.30899E+03         2.12005         2.12005    -573.921E-03    -573.921E-03
            1531     1.30905E+03     1.30905E+03         2.03735         2.03735    -425.258E-03    -425.258E-03
            1532     1.30910E+03     1.30910E+03         1.97811         1.97811    -281.065E-03    -281.065E-03
            1533     1.30913E+03     1.30913E+03         1.94233         1.94233    -140.207E-03    -140.207E-03
            1534     1.31541E+03     1.31541E+03     40.4903E-03     40.4903E-03        -4.45290        -4.45290
            1535     1.31973E+03     1.31973E+03     67.8042E-03     67.8042E-03        -7.93427        -7.93427
            1536     1.32408E+03     1.32408E+03     33.2620E-03     33.2620E-03        -10.4873        -10.4873
            1537     1.32859E+03     1.32859E+03    -154.993E-03    -154.993E-03        -12.4426        -12.4426
            1538     1.33337E+03     1.33337E+03    -631.389E-03    -631.389E-03        -14.0362        -14.0362
            1539     1.33860E+03     1.33860E+03        -1.58286        -1.58286        -15.4026        -15.4026
            1540     1.34449E+03     1.34449E+03        -3.26919        -3.26919        -16.5736        -16.5736
            1541     1.35125E+03     1.35125E+03        -6.05402        -6.05402        -17.4515        -17.4515
            1542     1.35912E+03     1.35912E+03        -10.4414        -10.4414        -17.7442        -17.7442
            1543     1.36823E+03     1.36823E+03        -17.1014        -17.1014        -16.8356        -16.8356
            1544     1.37838E+03     1.37838E+03        -26.8013        -26.8013        -13.5912        -13.5912
            1545     1.38844E+03     1.38844E+03        -40.0842        -40.0842        -6.13341        -6.13341
            1546     1.30987E+03     1.30987E+03     430.197E-03     430.197E-03        -4.10644        -4.10644
            1547     1.31572E+03     1.31572E+03         1.15206         1.15206        -7.34575        -7.34575
            1548     1.32102E+03     1.32102E+03         2.17263         2.17263        -9.80232        -9.80232
            1549     1.32602E+03     1.32602E+03         3.36197         3.36197        -11.8304        -11.8304
            1550     1.33102E+03     1.33102E+03         4.58996         4.58996        -13.7026        -13.7026
            1551     1.33628E+03     1.33628E+03         5.70658         5.70658        -15.6186        -15.6186
            1552     1.34214E+03     1.34214E+03         6.51038         6.51038        -17.7194        -17.7194
            1553     1.34896E+03     1.34896E+03         6.69996         6.69996        -20.0839        -20.0839
            1554     1.35723E+03     1.35723E+03         5.79470         5.79470        -22.6914        -22.6914
            1555     1.36757E+03     1.36757E+03         3.00473         3.00473        -25.3191        -25.3191
            1556     1.38071E+03     1.38071E+03        -2.96178        -2.96178        -27.2716        -27.2716
            1557     1.39717E+03     1.39717E+03        -14.0528        -14.0528        -26.8193        -26.8193
            1558     1.30519E+03     1.30519E+03     792.867E-03     792.867E-03        -3.10477        -3.10477
            1559     1.31231E+03     1.31231E+03         2.16524         2.16524        -5.55966        -5.55966
            1560     1.31829E+03     1.31829E+03         4.18473         4.18473        -7.45506        -7.45506
            1561     1.32356E+03     1.32356E+03         6.70487         6.70487        -9.09449        -9.09449
            1562     1.32851E+03     1.32851E+03         9.63399         9.63399        -10.7241        -10.7241
            1563     1.33347E+03     1.33347E+03         12.9144         12.9144        -12.5499        -12.5499
            1564     1.33881E+03     1.33881E+03         16.4988         16.4988        -14.7645        -14.7645
            1565     1.34492E+03     1.34492E+03         20.3180         20.3180        -17.5672        -17.5672
            1566     1.35239E+03     1.35239E+03         24.2261         24.2261        -21.1778        -21.1778
            1567     1.36200E+03     1.36200E+03         27.8895         27.8895        -25.8322        -25.8322
            1568     1.37504E+03     1.37504E+03         30.5265         30.5265        -31.7096        -31.7096
            1569     1.39353E+03     1.39353E+03         30.2832         30.2832        -38.6215        -38.6215
            1570     1.30217E+03     1.30217E+03         1.05258         1.05258        -1.55929        -1.55929
            1571     1.31011E+03     1.31011E+03         2.89255         2.89255        -2.77478        -2.77478
            1572     1.31649E+03     1.31649E+03         5.63527         5.63527        -3.70595        -3.70595
            1573     1.32187E+03     1.32187E+03         9.13157         9.13157        -4.53198        -4.53198
            1574     1.32666E+03     1.32666E+03         13.3340         13.3340        -5.40221        -5.40221
            1575     1.33124E+03     1.33124E+03         18.2809         18.2809        -6.45057        -6.45057
            1576     1.33595E+03     1.33595E+03         24.0902         24.0902        -7.81631        -7.81631
            1577     1.34116E+03     1.34116E+03         30.9631         30.9631        -9.66717        -9.66717
            1578     1.34736E+03     1.34736E+03         39.1984         39.1984        -12.2294        -12.2294
            1579     1.35526E+03     1.35526E+03         49.2145         49.2145        -15.8346        -15.8346
            1580     1.36600E+03     1.36600E+03         61.5642         61.5642        -21.0184        -21.0184
            1581     1.38172E+03     1.38172E+03         76.8430         76.8430        -28.7005        -28.7005
            1582     1.30138E+03     1.30138E+03         1.15024         1.15024     299.233E-03     299.233E-03
            1583     1.30959E+03     1.30959E+03         3.16658         3.16658     586.696E-03     586.696E-03
            1584     1.31609E+03     1.31609E+03         6.18314         6.18314     857.647E-03     857.647E-03
            1585     1.32146E+03     1.32146E+03         10.0509         10.0509         1.10323         1.10323
            1586     1.32615E+03     1.32615E+03         14.7411         14.7411         1.31721         1.31721
            1587     1.33052E+03     1.33052E+03         20.3323         20.3323         1.49475         1.49475
            1588     1.33492E+03     1.33492E+03         27.0127         27.0127         1.63225         1.63225
            1589     1.33969E+03     1.33969E+03         35.1031         35.1031         1.72747         1.72747
            1590     1.34526E+03     1.34526E+03         45.1089         45.1089         1.77913         1.77913
            1591     1.35224E+03     1.35224E+03         57.8191         57.8191         1.78727         1.78727
            1592     1.36159E+03     1.36159E+03         74.5219         74.5219         1.75348         1.75348
            1593     1.37507E+03     1.37507E+03         97.5323         97.5323         1.67835         1.67835
            1594     1.30301E+03     1.30301E+03         1.06347         1.06347         2.16785         2.16785
            1595     1.31091E+03     1.31091E+03         2.92399         2.92399         3.96722         3.96722
            1596     1.31723E+03     1.31723E+03         5.69889         5.69889         5.44791         5.44791
            1597     1.32253E+03     1.32253E+03         9.23709         9.23709         6.77133         6.77133
            1598     1.32722E+03     1.32722E+03         13.4893         13.4893         8.07449         8.07449
            1599     1.33169E+03     1.33169E+03         18.4920         18.4920         9.48158         9.48158
            1600     1.33628E+03     1.33628E+03         24.3615         24.3615         11.1249         11.1249
            1601     1.34137E+03     1.34137E+03         31.2974         31.2974         13.1676         13.1676
            1602     1.34745E+03     1.34745E+03         39.5973         39.5973         15.8339         15.8339
            1603     1.35522E+03     1.35522E+03         49.6783         49.6783         19.4551         19.4551
            1604     1.36585E+03     1.36585E+03         62.0909         62.0909         24.5686         24.5686
            1605     1.38146E+03     1.38146E+03         77.4309         77.4309         32.1008         32.1008
            1606     1.30690E+03     1.30690E+03     814.583E-03     814.583E-03         3.74361         3.74361
            1607     1.31394E+03     1.31394E+03         2.22798         2.22798         6.80922         6.80922
            1608     1.31978E+03     1.31978E+03         4.31169         4.31169         9.27691         9.27691
            1609     1.32489E+03     1.32489E+03         6.91545         6.91545         11.4324         11.4324
            1610     1.32964E+03     1.32964E+03         9.94377         9.94377         13.5097         13.5097
            1611     1.33438E+03     1.33438E+03         13.3354         13.3354         15.7052         15.7052
            1612     1.33947E+03     1.33947E+03         17.0396         17.0396         18.2049         18.2049
            1613     1.34534E+03     1.34534E+03         20.9843         20.9843         21.2039         21.2039
            1614     1.35256E+03     1.35256E+03         25.0206         25.0206         24.9201         24.9201
            1615     1.36192E+03     1.36192E+03         28.8125         28.8125         29.5898         29.5898
            1616     1.37472E+03     1.37472E+03         31.5774         31.5774         35.3938         35.3938
            1617     1.39299E+03     1.39299E+03         31.4553         31.4553         42.1467         42.1467
            1618     1.31250E+03     1.31250E+03     462.616E-03     462.616E-03         4.79570         4.79570
            1619     1.31822E+03     1.31822E+03         1.24583         1.24583         8.69038         8.69038
            1620     1.32331E+03     1.32331E+03         2.36244         2.36244         11.7571         11.7571
            1621     1.32805E+03     1.32805E+03         3.67671         3.67671         14.3323         14.3323
            1622     1.33274E+03     1.33274E+03         5.05283         5.05283         16.6765         16.6765
            1623     1.33766E+03     1.33766E+03         6.33530         6.33530         18.9802         18.9802
            1624     1.34315E+03     1.34315E+03         7.31753         7.31753         21.3783         21.3783
            1625     1.34959E+03     1.34959E+03         7.69333         7.69333         23.9459         23.9459
            1626     1.35748E+03     1.35748E+03         6.97781         6.97781         26.6611         26.6611
            1627     1.36745E+03     1.36745E+03         4.37781         4.37781         29.3028         29.3028
            1628     1.38022E+03     1.38022E+03        -1.40130        -1.40130         31.1789         31.1789
            1629     1.39633E+03     1.39633E+03        -12.3063        -12.3063         30.5596         30.5596
            1630     1.31905E+03     1.31905E+03     83.4862E-03     83.4862E-03         5.21273         5.21273
            1631     1.32317E+03     1.32317E+03     192.258E-03     192.258E-03         9.41180         9.41180
            1632     1.32723E+03     1.32723E+03     285.241E-03     285.241E-03         12.6277         12.6277
            1633     1.33137E+03     1.33137E+03     262.740E-03     262.740E-03         15.1730         15.1730
            1634     1.33572E+03     1.33572E+03    -17.4413E-03    -17.4413E-03         17.2722         17.2722
            1635     1.34048E+03     1.34048E+03    -749.648E-03    -749.648E-03         19.0510         19.0510
            1636     1.34586E+03     1.34586E+03        -2.20070        -2.20070         20.5355         20.5355
            1637     1.35211E+03     1.35211E+03        -4.74077        -4.74077         21.6249         21.6249
            1638     1.35945E+03     1.35945E+03        -8.87980        -8.87980         22.0272         22.0272
            1639     1.36805E+03     1.36805E+03        -15.2933        -15.2933         21.1288         21.1288
            1640     1.37772E+03     1.37772E+03        -24.7517        -24.7517         17.8018         17.8018
            1641     1.38731E+03     1.38731E+03        -37.7972        -37.7972         10.1757         10.1757
            1642     1.30944E+03     1.30944E+03         1.58869         1.58869     173.642E-03     173.642E-03
            1643     1.30943E+03     1.30943E+03         1.61829         1.61829     348.269E-03     348.269E-03
            1644     1.30940E+03     1.30940E+03         1.66747         1.66747     527.280E-03     527.280E-03
            1645     1.30936E+03     1.30936E+03         1.73622         1.73622     712.123E-03     712.123E-03
            1646     1.30932E+03     1.30932E+03         1.82444         1.82444     904.727E-03     904.727E-03
            1647     1.30925E+03     1.30925E+03         1.93195         1.93195         1.10702         1.10702
            1648     1.30918E+03     1.30918E+03         2.05848         2.05848         1.32091         1.32091
            1649     1.30909E+03     1.30909E+03         2.20366         2.20366         1.54830         1.54830
            1650     1.30899E+03     1.30899E+03         2.36692         2.36692         1.79108         1.79108
            1651     1.30887E+03     1.30887E+03         2.54752         2.54752         2.05109         2.05109
            1652     1.30874E+03     1.30874E+03         2.74443         2.74443         2.33017         2.33017
            1653     1.30858E+03     1.30858E+03         2.95631         2.95631         2.63013         2.63013
            1654     1.30841E+03     1.30841E+03         3.18140         3.18140         2.95277         2.95277
            1655     1.30822E+03     1.30822E+03         3.41744         3.41744         3.29984         3.29984
            1656     1.30800E+03     1.30800E+03         3.66155         3.66155         3.67311         3.67311
            1657     1.30776E+03     1.30776E+03         3.91014         3.91014         4.07436         4.07436
            1658     1.30749E+03     1.30749E+03         4.15874         4.15874         4.50542         4.50542
            1659     1.30721E+03     1.30721E+03         4.40183         4.40183         4.96819         4.96819
            1660     1.30689E+03     1.30689E+03         4.63270         4.63270         5.46476         5.46476
            1661     1.30655E+03     1.30655E+03         4.84317         4.84317         5.99741         5.99741
            1662     1.30620E+03     1.30620E+03         5.02339         5.02339         6.56881         6.56881
            1663     1.30582E+03     1.30582E+03         5.16157         5.16157         7.18207         7.18207
            1664     1.30542E+03     1.30542E+03         5.24364         5.24364         7.84095         7.84095
            1665     1.30503E+03     1.30503E+03         5.25291         5.25291         8.55005         8.55005
            1666     1.30463E+03     1.30463E+03         5.16966         5.16966         9.31494         9.31494
            1667     1.30425E+03     1.30425E+03         4.97067         4.97067         10.1424         10.1424
            1668     1.30390E+03     1.30390E+03         4.62873         4.62873         11.0406         11.0406
            1669     1.30362E+03     1.30362E+03         4.11194         4.11194         12.0191         12.0191
            1670     1.30342E+03     1.30342E+03         3.38315         3.38315         13.0884         13.0884
            1671     1.30337E+03     1.30337E+03         2.39904         2.39904         14.2598         14.2598
            1672     1.30350E+03     1.30350E+03         1.10952         1.10952         15.5438         15.5438
            1673     1.30390E+03     1.30390E+03    -543.411E-03    -543.411E-03         16.9479         16.9479
            1674     1.30467E+03     1.30467E+03        -2.62545        -2.62545         18.4727         18.4727
            1675     1.30592E+03     1.30592E+03        -5.21064        -5.21064         20.1049         20.1049
            1676     1.30782E+03     1.30782E+03        -8.37729        -8.37729         21.8068         21.8068
            1677     1.31057E+03     1.31057E+03        -12.2040        -12.2040         23.5006         23.5006
            1678     1.31441E+03     1.31441E+03        -16.7504        -16.7504         25.0423         25.0423
            1679     1.31961E+03     1.31961E+03        -22.0322        -22.0322         26.1930         26.1930
            1680     1.32647E+03     1.32647E+03        -27.9542        -27.9542         26.5738         26.5738
            1681     1.33519E+03     1.33519E+03        -34.2224        -34.2224         25.6541         25.6541
            1682     1.34578E+03     1.34578E+03        -40.1968        -40.1968         22.7545         22.7545
            1683     1.35790E+03     1.35790E+03        -44.8375        -44.8375         17.2443         17.2443
            1684     1.30959E+03     1.30959E+03         1.41257         1.41257     181.818E-03     181.818E-03
            1685     1.30958E+03     1.30958E+03         1.43919         1.43919     364.652E-03     364.652E-03
            1686     1.30956E+03     1.30956E+03         1.48344         1.48344     552.157E-03     552.157E-03
            1687     1.30954E+03     1.30954E+03         1.54532         1.54532     745.871E-03     745.871E-03
            1688     1.30951E+03     1.30951E+03         1.62471         1.62471     947.843E-03     947.843E-03
            1689     1.30948E+03     1.30948E+03         1.72145         1.72145         1.16011         1.16011
            1690     1.30943E+03     1.30943E+03         1.83530         1.83530         1.38471         1.38471
            1691     1.30938E+03     1.30938E+03         1.96590         1.96590         1.62364         1.62364
            1692     1.30931E+03     1.30931E+03         2.11271         2.11271         1.87887         1.87887
            1693     1.30924E+03     1.30924E+03         2.27503         2.27503         2.15235         2.15235
            1694     1.30916E+03     1.30916E+03         2.45188         2.45188         2.44595         2.44595
            1695     1.30906E+03     1.30906E+03         2.64194         2.64194         2.76152         2.76152
            1696     1.30895E+03     1.30895E+03         2.84351         2.84351         3.10084         3.10084
            1697     1.30883E+03     1.30883E+03         3.05437         3.05437         3.46561         3.46561
            1698     1.30869E+03     1.30869E+03         3.27170         3.27170         3.85748         3.85748
            1699     1.30854E+03     1.30854E+03         3.49192         3.49192         4.27798         4.27798
            1700     1.30837E+03     1.30837E+03         3.71056         3.71056         4.72864         4.72864
            1701     1.30819E+03     1.30819E+03         3.92209         3.92209         5.21087         5.21087
            1702     1.30800E+03     1.30800E+03         4.11970         4.11970         5.72608         5.72608
            1703     1.30779E+03     1.30779E+03         4.29509         4.29509         6.27568         6.27568
            1704     1.30758E+03     1.30758E+03         4.43817         4.43817         6.86111         6.86111
            1705     1.30736E+03     1.30736E+03         4.53683         4.53683         7.48390         7.48390
            1706     1.30714E+03     1.30714E+03         4.57656         4.57656         8.14576         8.14576
            1707     1.30693E+03     1.30693E+03         4.54010         4.54010         8.84860         8.84860
            1708     1.30675E+03     1.30675E+03         4.40706         4.40706         9.59458         9.59458
            1709     1.30660E+03     1.30660E+03         4.15351         4.15351         10.3861         10.3861
            1710     1.30652E+03     1.30652E+03         3.75151         3.75151         11.2257         11.2257
            1711     1.30653E+03     1.30653E+03         3.16877         3.16877         12.1158         12.1158
            1712     1.30666E+03     1.30666E+03         2.36817         2.36817         13.0579         13.0579
            1713     1.30696E+03     1.30696E+03         1.30770         1.30770         14.0519         14.0519
            1714     1.30750E+03     1.30750E+03    -59.7546E-03    -59.7546E-03         15.0937         15.0937
            1715     1.30835E+03     1.30835E+03        -1.78547        -1.78547         16.1730         16.1730
            1716     1.30959E+03     1.30959E+03        -3.92393        -3.92393         17.2682         17.2682
            1717     1.31135E+03     1.31135E+03        -6.52867        -6.52867         18.3394         18.3394
            1718     1.31376E+03     1.31376E+03        -9.64708        -9.64708         19.3193         19.3193
            1719     1.31698E+03     1.31698E+03        -13.3068        -13.3068         20.0987         20.0987
            1720     1.32117E+03     1.32117E+03        -17.4974        -17.4974         20.5112         20.5112
            1721     1.32649E+03     1.32649E+03        -22.1328        -22.1328         20.3126         20.3126
            1722     1.33305E+03     1.33305E+03        -27.0011        -27.0011         19.1764         19.1764
            1723     1.34086E+03     1.34086E+03        -31.6951        -31.6951         16.6966         16.6966
            1724     1.34969E+03     1.34969E+03        -35.5471        -35.5471         12.4701         12.4701
            1725     1.35916E+03     1.35916E+03        -37.6673        -37.6673         6.13165         6.13165
            1726     1.30973E+03     1.30973E+03         1.23039         1.23039     185.719E-03     185.719E-03
            1727     1.30973E+03     1.30973E+03         1.25389         1.25389     372.469E-03     372.469E-03
            1728     1.30972E+03     1.30972E+03         1.29297         1.29297     564.091E-03     564.091E-03
            1729     1.30971E+03     1.30971E+03         1.34760         1.34760     762.176E-03     762.176E-03
            1730     1.30971E+03     1.30971E+03         1.41771         1.41771     968.855E-03     968.855E-03
            1731     1.30969E+03     1.30969E+03         1.50313         1.50313         1.18625         1.18625
            1732     1.30968E+03     1.30968E+03         1.60366         1.60366         1.41646         1.41646
            1733     1.30966E+03     1.30966E+03         1.71896         1.71896         1.66155         1.66155
            1734     1.30964E+03     1.30964E+03         1.84855         1.84855         1.92356         1.92356
            1735     1.30962E+03     1.30962E+03         1.99176         1.99176         2.20446         2.20446
            1736     1.30959E+03     1.30959E+03         2.14768         2.14768         2.50617         2.50617
            1737     1.30955E+03     1.30955E+03         2.31508         2.31508         2.83051         2.83051
            1738     1.30951E+03     1.30951E+03         2.49235         2.49235         3.17921         3.17921
            1739     1.30946E+03     1.30946E+03         2.67736         2.67736         3.55387         3.55387
            1740     1.30941E+03     1.30941E+03         2.86742         2.86742         3.95597         3.95597
            1741     1.30935E+03     1.30935E+03         3.05908         3.05908         4.38678         4.38678
            1742     1.30929E+03     1.30929E+03         3.24801         3.24801         4.84741         4.84741
            1743     1.30922E+03     1.30922E+03         3.42882         3.42882         5.33875         5.33875
            1744     1.30915E+03     1.30915E+03         3.59483         3.59483         5.86146         5.86146
            1745     1.30908E+03     1.30908E+03         3.73787         3.73787         6.41593         6.41593
            1746     1.30901E+03     1.30901E+03         3.84799         3.84799         7.00227         7.00227
            1747     1.30895E+03     1.30895E+03         3.91316         3.91316         7.62028         7.62028
            1748     1.30891E+03     1.30891E+03         3.91899         3.91899         8.26941         8.26941
            1749     1.30889E+03     1.30889E+03         3.84831         3.84831         8.94872         8.94872
            1750     1.30891E+03     1.30891E+03         3.68093         3.68093         9.65671         9.65671
            1751     1.30899E+03     1.30899E+03         3.39319         3.39319         10.3912         10.3912
            1752     1.30914E+03     1.30914E+03         2.95778         2.95778         11.1490         11.1490
            1753     1.30941E+03     1.30941E+03         2.34346         2.34346         11.9255         11.9255
            1754     1.30982E+03     1.30982E+03         1.51521         1.51521         12.7134         12.7134
            1755     1.31042E+03     1.31042E+03     434.367E-03     434.367E-03         13.5021         13.5021
            1756     1.31127E+03     1.31127E+03    -940.240E-03    -940.240E-03         14.2751         14.2751
            1757     1.31244E+03     1.31244E+03        -2.65085        -2.65085         15.0075         15.0075
            1758     1.31400E+03     1.31400E+03        -4.73714        -4.73714         15.6613         15.6613
            1759     1.31605E+03     1.31605E+03        -7.23139        -7.23139         16.1804         16.1804
            1760     1.31870E+03     1.31870E+03        -10.1488        -10.1488         16.4822         16.4822
            1761     1.32205E+03     1.32205E+03        -13.4743        -13.4743         16.4502         16.4502
            1762     1.32618E+03     1.32618E+03        -17.1402        -17.1402         15.9239         15.9239
            1763     1.33118E+03     1.33118E+03        -20.9962        -20.9962         14.6978         14.6978
            1764     1.33701E+03     1.33701E+03        -24.7724        -24.7724         12.5242         12.5242
            1765     1.34355E+03     1.34355E+03        -28.0348        -28.0348         9.14910         9.14910
            1766     1.35053E+03     1.35053E+03        -30.1857        -30.1857         4.35507         4.35507
            1767     1.35746E+03     1.35746E+03        -30.3846        -30.3846        -2.00918        -2.00918
            1768     1.30986E+03     1.30986E+03         1.04645         1.04645     185.176E-03     185.176E-03
            1769     1.30986E+03     1.30986E+03         1.06674         1.06674     371.370E-03     371.370E-03
            1770     1.30987E+03     1.30987E+03         1.10049         1.10049     562.545E-03     562.545E-03
            1771     1.30988E+03     1.30988E+03         1.14767         1.14767     760.305E-03     760.305E-03
            1772     1.30989E+03     1.30989E+03         1.20822         1.20822     966.820E-03     966.820E-03
            1773     1.30990E+03     1.30990E+03         1.28200         1.28200         1.18425         1.18425
            1774     1.30992E+03     1.30992E+03         1.36883         1.36883         1.41473         1.41473
            1775     1.30994E+03     1.30994E+03         1.46841         1.46841         1.66035         1.66035
            1776     1.30996E+03     1.30996E+03         1.58032         1.58032         1.92317         1.92317
            1777     1.30999E+03     1.30999E+03         1.70396         1.70396         2.20517         2.20517
            1778     1.31001E+03     1.31001E+03         1.83851         1.83851         2.50825         2.50825
            1779     1.31004E+03     1.31004E+03         1.98285         1.98285         2.83419         2.83419
            1780     1.31007E+03     1.31007E+03         2.13548         2.13548         3.18465         3.18465
            1781     1.31011E+03     1.31011E+03         2.29448         2.29448         3.56111         3.56111
            1782     1.31014E+03     1.31014E+03         2.45732         2.45732         3.96482         3.96482
            1783     1.31018E+03     1.31018E+03         2.62080         2.62080         4.39681         4.39681
            1784     1.31022E+03     1.31022E+03         2.78087         2.78087         4.85775         4.85775
            1785     1.31027E+03     1.31027E+03         2.93243         2.93243         5.34799         5.34799
            1786     1.31033E+03     1.31033E+03         3.06919         3.06919         5.86741         5.86741
            1787     1.31039E+03     1.31039E+03         3.18339         3.18339         6.41540         6.41540
            1788     1.31047E+03     1.31047E+03         3.26554         3.26554         6.99073         6.99073
            1789     1.31057E+03     1.31057E+03         3.30417         3.30417         7.59148         7.59148
            1790     1.31070E+03     1.31070E+03         3.28550         3.28550         8.21489         8.21489
            1791     1.31087E+03     1.31087E+03         3.19319         3.19319         8.85717         8.85717
            1792     1.31108E+03     1.31108E+03         3.00796         3.00796         9.51333         9.51333
            1793     1.31137E+03     1.31137E+03         2.70746         2.70746         10.1768         10.1768
            1794     1.31174E+03     1.31174E+03         2.26606         2.26606         10.8391         10.8391
            1795     1.31223E+03     1.31223E+03         1.65496         1.65496         11.4889         11.4889
            1796     1.31287E+03     1.31287E+03     842.513E-03     842.513E-03         12.1117         12.1117
            1797     1.31370E+03     1.31370E+03    -204.891E-03    -204.891E-03         12.6880         12.6880
            1798     1.31477E+03     1.31477E+03        -1.52138        -1.52138         13.1915         13.1915
            1799     1.31614E+03     1.31614E+03        -3.13871        -3.13871         13.5871         13.5871
            1800     1.31787E+03     1.31787E+03        -5.08232        -5.08232         13.8274         13.8274
            1801     1.32003E+03     1.32003E+03        -7.36439        -7.36439         13.8486         13.8486
            1802     1.32269E+03     1.32269E+03        -9.97443        -9.97443         13.5668         13.5668
            1803     1.32591E+03     1.32591E+03        -12.8652        -12.8652         12.8737         12.8737
            1804     1.32972E+03     1.32972E+03        -15.9339        -15.9339         11.6364         11.6364
            1805     1.33411E+03     1.33411E+03        -19.0003        -19.0003         9.70108         9.70108
            1806     1.33900E+03     1.33900E+03        -21.7797        -21.7797         6.91054         6.91054
            1807     1.34420E+03     1.34420E+03        -23.8737        -23.8737         3.13302         3.13302
            1808     1.34941E+03     1.34941E+03        -24.7433        -24.7433        -1.70424        -1.70424
            1809     1.35414E+03     1.35414E+03        -23.7184        -23.7184        -7.52340        -7.52340
            1810     1.30996E+03     1.30996E+03     865.192E-03     865.192E-03     180.099E-03     180.099E-03
            1811     1.30998E+03     1.30998E+03     882.245E-03     882.245E-03     361.168E-03     361.168E-03
            1812     1.30999E+03     1.30999E+03     910.615E-03     910.615E-03     547.225E-03     547.225E-03
            1813     1.31002E+03     1.31002E+03     950.287E-03     950.287E-03     739.847E-03     739.847E-03
            1814     1.31005E+03     1.31005E+03         1.00120         1.00120     941.200E-03     941.200E-03
            1815     1.31010E+03     1.31010E+03         1.06325         1.06325         1.15343         1.15343
            1816     1.31015E+03     1.31015E+03         1.13629         1.13629         1.37867         1.37867
            1817     1.31020E+03     1.31020E+03         1.22005         1.22005         1.61900         1.61900
            1818     1.31027E+03     1.31027E+03         1.31419         1.31419         1.87645         1.87645
            1819     1.31034E+03     1.31034E+03         1.41819         1.41819         2.15298         2.15298
            1820     1.31043E+03     1.31043E+03         1.53132         1.53132         2.45044         2.45044
            1821     1.31052E+03     1.31052E+03         1.65262         1.65262         2.77056         2.77056
            1822     1.31062E+03     1.31062E+03         1.78077         1.78077         3.11490         3.11490
            1823     1.31074E+03     1.31074E+03         1.91404         1.91404         3.48479         3.48479
            1824     1.31086E+03     1.31086E+03         2.05020         2.05020         3.88130         3.88130
            1825     1.31100E+03     1.31100E+03         2.18636         2.18636         4.30517         4.30517
            1826     1.31115E+03     1.31115E+03         2.31888         2.31888         4.75671         4.75671
            1827     1.31132E+03     1.31132E+03         2.44314         2.44314         5.23575         5.23575
            1828     1.31150E+03     1.31150E+03         2.55342         2.55342         5.74147         5.74147
            1829     1.31171E+03     1.31171E+03         2.64262         2.64262         6.27233         6.27233
            1830     1.31194E+03     1.31194E+03         2.70209         2.70209         6.82592         6.82592
            1831     1.31220E+03     1.31220E+03         2.72129         2.72129         7.39874         7.39874
            1832     1.31249E+03     1.31249E+03         2.68761         2.68761         7.98602         7.98602
            1833     1.31284E+03     1.31284E+03         2.58604         2.58604         8.58149         8.58149
            1834     1.31324E+03     1.31324E+03         2.39901         2.39901         9.17701         9.17701
            1835     1.31371E+03     1.31371E+03         2.10623         2.10623         9.76222         9.76222
            1836     1.31428E+03     1.31428E+03         1.68467         1.68467         10.3240         10.3240
            1837     1.31496E+03     1.31496E+03         1.10887         1.10887         10.8459         10.8459
            1838     1.31578E+03     1.31578E+03     351.512E-03     351.512E-03         11.3072         11.3072
            1839     1.31678E+03     1.31678E+03    -615.379E-03    -615.379E-03         11.6818         11.6818
            1840     1.31800E+03     1.31800E+03        -1.81839        -1.81839         11.9370         11.9370
            1841     1.31947E+03     1.31947E+03        -3.27966        -3.27966         12.0318         12.0318
            1842     1.32125E+03     1.32125E+03        -5.01206        -5.01206         11.9147         11.9147
            1843     1.32337E+03     1.32337E+03        -7.01249        -7.01249         11.5226         11.5226
            1844     1.32588E+03     1.32588E+03        -9.25262        -9.25262         10.7786         10.7786
            1845     1.32880E+03     1.32880E+03        -11.6665        -11.6665         9.59325         9.59325
            1846     1.33211E+03     1.33211E+03        -14.1371        -14.1371         7.86802         7.86802
            1847     1.33576E+03     1.33576E+03        -16.4787        -16.4787         5.50510         5.50510
            1848     1.33965E+03     1.33965E+03        -18.4285        -18.4285         2.42558         2.42558
            1849     1.34355E+03     1.34355E+03        -19.6334        -19.6334        -1.40717        -1.40717
            1850     1.34720E+03     1.34720E+03        -19.6598        -19.6598        -5.93825        -5.93825
            1851     1.35020E+03     1.35020E+03        -18.0268        -18.0268        -10.9724        -10.9724
            1852     1.31005E+03     1.31005E+03     691.076E-03     691.076E-03     170.492E-03     170.492E-03
            1853     1.31007E+03     1.31007E+03     704.942E-03     704.942E-03     341.868E-03     341.868E-03
            1854     1.31010E+03     1.31010E+03     728.016E-03     728.016E-03     518.128E-03     518.128E-03
            1855     1.31014E+03     1.31014E+03     760.287E-03     760.287E-03     700.782E-03     700.782E-03
            1856     1.31019E+03     1.31019E+03     801.709E-03     801.709E-03     891.937E-03     891.937E-03
            1857     1.31026E+03     1.31026E+03     852.204E-03     852.204E-03         1.09369         1.09369
            1858     1.31034E+03     1.31034E+03     911.646E-03     911.646E-03         1.30811         1.30811
            1859     1.31044E+03     1.31044E+03     979.840E-03     979.840E-03         1.53722         1.53722
            1860     1.31055E+03     1.31055E+03         1.05649         1.05649         1.78300         1.78300
            1861     1.31067E+03     1.31067E+03         1.14118         1.14118         2.04734         2.04734
            1862     1.31082E+03     1.31082E+03         1.23330         1.23330         2.33202         2.33202
            1863     1.31097E+03     1.31097E+03         1.33204         1.33204         2.63869         2.63869
            1864     1.31115E+03     1.31115E+03         1.43629         1.43629         2.96880         2.96880
            1865     1.31135E+03     1.31135E+03         1.54460         1.54460         3.32355         3.32355
            1866     1.31156E+03     1.31156E+03         1.65504         1.65504         3.70384         3.70384
            1867     1.31180E+03     1.31180E+03         1.76516         1.76516         4.11017         4.11017
            1868     1.31206E+03     1.31206E+03         1.87179         1.87179         4.54254         4.54254
            1869     1.31235E+03     1.31235E+03         1.97095         1.97095         5.00034         5.00034
            1870     1.31266E+03     1.31266E+03         2.05765         2.05765         5.48222         5.48222
            1871     1.31300E+03     1.31300E+03         2.12573         2.12573         5.98589         5.98589
            1872     1.31338E+03     1.31338E+03         2.16758         2.16758         6.50795         6.50795
            1873     1.31380E+03     1.31380E+03         2.17401         2.17401         7.04368         7.04368
            1874     1.31427E+03     1.31427E+03         2.13393         2.13393         7.58670         7.58670
            1875     1.31478E+03     1.31478E+03         2.03424         2.03424         8.12874         8.12874
            1876     1.31536E+03     1.31536E+03         1.85957         1.85957         8.65920         8.65920
            1877     1.31601E+03     1.31601E+03         1.59233         1.59233         9.16476         9.16476
            1878     1.31675E+03     1.31675E+03         1.21270         1.21270         9.62884         9.62884
            1879     1.31760E+03     1.31760E+03     699.145E-03     699.145E-03         10.0310         10.0310
            1880     1.31857E+03     1.31857E+03     29.0537E-03     29.0537E-03         10.3464         10.3464
            1881     1.31969E+03     1.31969E+03    -819.795E-03    -819.795E-03         10.5446         10.5446
            1882     1.32098E+03     1.32098E+03        -1.86715        -1.86715         10.5895         10.5895
            1883     1.32248E+03     1.32248E+03        -3.12701        -3.12701         10.4376         10.4376
            1884     1.32421E+03     1.32421E+03        -4.60299        -4.60299         10.0385         10.0385
            1885     1.32620E+03     1.32620E+03        -6.28218        -6.28218         9.33372         9.33372
            1886     1.32845E+03     1.32845E+03        -8.12683        -8.12683         8.25921         8.25921
            1887     1.33095E+03     1.33095E+03        -10.0653        -10.0653         6.74760         6.74760
            1888     1.33368E+03     1.33368E+03        -11.9809        -11.9809         4.73529         4.73529
            1889     1.33655E+03     1.33655E+03        -13.7043        -13.7043         2.17385         2.17385
            1890     1.33945E+03     1.33945E+03        -15.0053        -15.0053    -954.590E-03    -954.590E-03
            1891     1.34218E+03     1.34218E+03        -15.5980        -15.5980        -4.61019        -4.61019
            1892     1.34452E+03     1.34452E+03        -15.1573        -15.1573        -8.66784        -8.66784
            1893     1.34618E+03     1.34618E+03        -13.3582        -13.3582        -12.8796        -12.8796
            1894     1.31010E+03     1.31010E+03     528.523E-03     528.523E-03     156.465E-03     156.465E-03
            1895     1.31012E+03     1.31012E+03     539.327E-03     539.327E-03     313.684E-03     313.684E-03
            1896     1.31016E+03     1.31016E+03     557.317E-03     557.317E-03     475.568E-03     475.568E-03
            1897     1.31022E+03     1.31022E+03     582.479E-03     582.479E-03     643.506E-03     643.506E-03
            1898     1.31030E+03     1.31030E+03     614.782E-03     614.782E-03     819.497E-03     819.497E-03
            1899     1.31039E+03     1.31039E+03     654.171E-03     654.171E-03         1.00553         1.00553
            1900     1.31050E+03     1.31050E+03     700.555E-03     700.555E-03         1.20357         1.20357
            1901     1.31064E+03     1.31064E+03     753.785E-03     753.785E-03         1.41554         1.41554
            1902     1.31079E+03     1.31079E+03     813.637E-03     813.637E-03         1.64331         1.64331
            1903     1.31096E+03     1.31096E+03     879.783E-03     879.783E-03         1.88867         1.88867
            1904     1.31116E+03     1.31116E+03     951.754E-03     951.754E-03         2.15332         2.15332
            1905     1.31139E+03     1.31139E+03         1.02890         1.02890         2.43878         2.43878
            1906     1.31163E+03     1.31163E+03         1.11034         1.11034         2.74640         2.74640
            1907     1.31191E+03     1.31191E+03         1.19490         1.19490         3.07726         3.07726
            1908     1.31222E+03     1.31222E+03         1.28103         1.28103         3.43212         3.43212
            1909     1.31255E+03     1.31255E+03         1.36672         1.36672         3.81129         3.81129
            1910     1.31292E+03     1.31292E+03         1.44940         1.44940         4.21457         4.21457
            1911     1.31333E+03     1.31333E+03         1.52579         1.52579         4.64105         4.64105
            1912     1.31378E+03     1.31378E+03         1.59179         1.59179         5.08901         5.08901
            1913     1.31426E+03     1.31426E+03         1.64229         1.64229         5.55568         5.55568
            1914     1.31479E+03     1.31479E+03         1.67100         1.67100         6.03703         6.03703
            1915     1.31537E+03     1.31537E+03         1.67027         1.67027         6.52749         6.52749
            1916     1.31599E+03     1.31599E+03         1.63091         1.63091         7.01966         7.01966
            1917     1.31668E+03     1.31668E+03         1.54199         1.54199         7.50394         7.50394
            1918     1.31743E+03     1.31743E+03         1.39081         1.39081         7.96812         7.96812
            1919     1.31825E+03     1.31825E+03         1.16283         1.16283         8.39700         8.39700
            1920     1.31915E+03     1.31915E+03     841.848E-03     841.848E-03         8.77179         8.77179
            1921     1.32014E+03     1.32014E+03     410.448E-03     410.448E-03         9.06976         9.06976
            1922     1.32123E+03     1.32123E+03    -149.214E-03    -149.214E-03         9.26362         9.26362
            1923     1.32244E+03     1.32244E+03    -854.072E-03    -854.072E-03         9.32119         9.32119
            1924     1.32378E+03     1.32378E+03        -1.71807        -1.71807         9.20502         9.20502
            1925     1.32526E+03     1.32526E+03        -2.74918        -2.74918         8.87260         8.87260
            1926     1.32689E+03     1.32689E+03        -3.94532        -3.94532         8.27671         8.27671
            1927     1.32867E+03     1.32867E+03        -5.28898        -5.28898         7.36711         7.36711
            1928     1.33060E+03     1.33060E+03        -6.74101        -6.74101         6.09326         6.09326
            1929     1.33264E+03     1.33264E+03        -8.23308        -8.23308         4.40930         4.40930
            1930     1.33476E+03     1.33476E+03        -9.66167        -9.66167         2.28195         2.28195
            1931     1.33686E+03     1.33686E+03        -10.8821        -10.8821    -299.213E-03    -299.213E-03
            1932     1.33883E+03     1.33883E+03        -11.7093        -11.7093        -3.30554        -3.30554
            1933     1.34053E+03     1.34053E+03        -11.9247        -11.9247        -6.65292        -6.65292
            1934     1.34177E+03     1.34177E+03        -11.2969        -11.2969        -10.1802        -10.1802
            1935     1.34239E+03     1.34239E+03        -9.62074        -9.62074        -13.6343        -13.6343
            1936     1.31011E+03     1.31011E+03     381.784E-03     381.784E-03     138.239E-03     138.239E-03
            1937     1.31014E+03     1.31014E+03     389.742E-03     389.742E-03     277.057E-03     277.057E-03
            1938     1.31019E+03     1.31019E+03     402.999E-03     402.999E-03     420.189E-03     420.189E-03
            1939     1.31027E+03     1.31027E+03     421.540E-03     421.540E-03     568.862E-03     568.862E-03
            1940     1.31036E+03     1.31036E+03     445.348E-03     445.348E-03     724.904E-03     724.904E-03
            1941     1.31048E+03     1.31048E+03     474.385E-03     474.385E-03     890.140E-03     890.140E-03
            1942     1.31062E+03     1.31062E+03     508.593E-03     508.593E-03         1.06638         1.06638
            1943     1.31079E+03     1.31079E+03     547.870E-03     547.870E-03         1.25538         1.25538
            1944     1.31098E+03     1.31098E+03     592.056E-03     592.056E-03         1.45888         1.45888
            1945     1.31120E+03     1.31120E+03     640.911E-03     640.911E-03         1.67851         1.67851
            1946     1.31146E+03     1.31146E+03     694.093E-03     694.093E-03         1.91584         1.91584
            1947     1.31174E+03     1.31174E+03     751.121E-03     751.121E-03         2.17227         2.17227
            1948     1.31206E+03     1.31206E+03     811.339E-03     811.339E-03         2.44904         2.44904
            1949     1.31242E+03     1.31242E+03     873.861E-03     873.861E-03         2.74710         2.74710
            1950     1.31281E+03     1.31281E+03     937.518E-03     937.518E-03         3.06710         3.06710
            1951     1.31325E+03     1.31325E+03         1.00078         1.00078         3.40926         3.40926
            1952     1.31373E+03     1.31373E+03         1.06169         1.06169         3.77326         3.77326
            1953     1.31425E+03     1.31425E+03         1.11773         1.11773         4.15806         4.15806
            1954     1.31482E+03     1.31482E+03         1.16573         1.16573         4.56180         4.56180
            1955     1.31545E+03     1.31545E+03         1.20174         1.20174         4.98152         4.98152
            1956     1.31613E+03     1.31613E+03         1.22090         1.22090         5.41295         5.41295
            1957     1.31686E+03     1.31686E+03         1.21724         1.21724         5.85021         5.85021
            1958     1.31766E+03     1.31766E+03         1.18361         1.18361         6.28551         6.28551
            1959     1.31851E+03     1.31851E+03         1.11152         1.11152         6.70873         6.70873
            1960     1.31944E+03     1.31944E+03     991.056E-03     991.056E-03         7.10709         7.10709
            1961     1.32042E+03     1.32042E+03     810.962E-03     810.962E-03         7.46464         7.46464
            1962     1.32148E+03     1.32148E+03     558.748E-03     558.748E-03         7.76190         7.76190
            1963     1.32261E+03     1.32261E+03     221.130E-03     221.130E-03         7.97543         7.97543
            1964     1.32382E+03     1.32382E+03    -215.267E-03    -215.267E-03         8.07752         8.07752
            1965     1.32511E+03     1.32511E+03    -762.717E-03    -762.717E-03         8.03608         8.03608
            1966     1.32647E+03     1.32647E+03        -1.43062        -1.43062         7.81483         7.81483
            1967     1.32791E+03     1.32791E+03        -2.22302        -2.22302         7.37390         7.37390
            1968     1.32941E+03     1.32941E+03        -3.13523        -3.13523         6.67128         6.67128
            1969     1.33097E+03     1.33097E+03        -4.14980        -4.14980         5.66517         5.66517
            1970     1.33256E+03     1.33256E+03        -5.23150        -5.23150         4.31785         4.31785
            1971     1.33413E+03     1.33413E+03        -6.32278        -6.32278         2.60137         2.60137
            1972     1.33564E+03     1.33564E+03        -7.33906        -7.33906     504.941E-03     504.941E-03
            1973     1.33701E+03     1.33701E+03        -8.16730        -8.16730        -1.95452        -1.95452
            1974     1.33813E+03     1.33813E+03        -8.66788        -8.66788        -4.72151        -4.72151
            1975     1.33891E+03     1.33891E+03        -8.68360        -8.68360        -7.68864        -7.68864
            1976     1.33921E+03     1.33921E+03        -8.05902        -8.05902        -10.6873        -10.6873
            1977     1.33895E+03     1.33895E+03        -6.66804        -6.66804        -13.4831        -13.4831
            1978     1.31008E+03     1.31008E+03     254.843E-03     254.843E-03     116.158E-03     116.158E-03
            1979     1.31011E+03     1.31011E+03     260.258E-03     260.258E-03     232.657E-03     232.657E-03
            1980     1.31017E+03     1.31017E+03     269.283E-03     269.283E-03     353.000E-03     353.000E-03
            1981     1.31026E+03     1.31026E+03     281.904E-03     281.904E-03     478.171E-03     478.171E-03
            1982     1.31037E+03     1.31037E+03     298.103E-03     298.103E-03     609.778E-03     609.778E-03
            1983     1.31051E+03     1.31051E+03     317.868E-03     317.868E-03     749.426E-03     749.426E-03
            1984     1.31068E+03     1.31068E+03     341.168E-03     341.168E-03     898.690E-03     898.690E-03
            1985     1.31088E+03     1.31088E+03     367.934E-03     367.934E-03         1.05913         1.05913
            1986     1.31111E+03     1.31111E+03     398.063E-03     398.063E-03         1.23226         1.23226
            1987     1.31138E+03     1.31138E+03     431.398E-03     431.398E-03         1.41955         1.41955
            1988     1.31168E+03     1.31168E+03     467.709E-03     467.709E-03         1.62236         1.62236
            1989     1.31203E+03     1.31203E+03     506.670E-03     506.670E-03         1.84196         1.84196
            1990     1.31241E+03     1.31241E+03     547.833E-03     547.833E-03         2.07944         2.07944
            1991     1.31284E+03     1.31284E+03     590.591E-03     590.591E-03         2.33564         2.33564
            1992     1.31332E+03     1.31332E+03     634.135E-03     634.135E-03         2.61115         2.61115
            1993     1.31385E+03     1.31385E+03     677.404E-03     677.404E-03         2.90613         2.90613
            1994     1.31444E+03     1.31444E+03     719.021E-03     719.021E-03         3.22024         3.22024
            1995     1.31508E+03     1.31508E+03     757.225E-03     757.225E-03         3.55250         3.55250
            1996     1.31579E+03     1.31579E+03     789.785E-03     789.785E-03         3.90113         3.90113
            1997     1.31655E+03     1.31655E+03     813.905E-03     813.905E-03         4.26329         4.26329
            1998     1.31738E+03     1.31738E+03     826.123E-03     826.123E-03         4.63490         4.63490
            1999     1.31827E+03     1.31827E+03     822.204E-03     822.204E-03         5.01035         5.01035
            2000     1.31924E+03     1.31924E+03     797.041E-03     797.041E-03         5.38214         5.38214
            2001     1.32027E+03     1.32027E+03     744.562E-03     744.562E-03         5.74056         5.74056
            2002     1.32137E+03     1.32137E+03     657.701E-03     657.701E-03         6.07328         6.07328
            2003     1.32253E+03     1.32253E+03     528.411E-03     528.411E-03         6.36499         6.36499
            2004     1.32375E+03     1.32375E+03     347.820E-03     347.820E-03         6.59697         6.59697
            2005     1.32504E+03     1.32504E+03     106.540E-03     106.540E-03         6.74685         6.74685
            2006     1.32637E+03     1.32637E+03    -204.750E-03    -204.750E-03         6.78838         6.78838
            2007     1.32774E+03     1.32774E+03    -594.394E-03    -594.394E-03         6.69155         6.69155
            2008     1.32914E+03     1.32914E+03        -1.06842        -1.06842         6.42303         6.42303
            2009     1.33054E+03     1.33054E+03        -1.62861        -1.62861         5.94721         5.94721
            2010     1.33194E+03     1.33194E+03        -2.27016        -2.27016         5.22796         5.22796
            2011     1.33328E+03     1.33328E+03        -2.97854        -2.97854         4.23152         4.23152
            2012     1.33455E+03     1.33455E+03        -3.72641        -3.72641         2.93067         2.93067
            2013     1.33568E+03     1.33568E+03        -4.47017        -4.47017         1.31012         1.31012
            2014     1.33661E+03     1.33661E+03        -5.14787        -5.14787    -626.040E-03    -626.040E-03
            2015     1.33729E+03     1.33729E+03        -5.67857        -5.67857        -2.84652        -2.84652
            2016     1.33763E+03     1.33763E+03        -5.96528        -5.96528        -5.28355        -5.28355
            2017     1.33756E+03     1.33756E+03        -5.90303        -5.90303        -7.82569        -7.82569
            2018     1.33702E+03     1.33702E+03        -5.39218        -5.39218        -10.3138        -10.3138
            2019     1.33595E+03     1.33595E+03        -4.35952        -4.35952        -12.5430        -12.5430
            2020     1.30999E+03     1.30999E+03     151.274E-03     151.274E-03     90.6806E-03     90.6806E-03
            2021     1.31003E+03     1.31003E+03     154.554E-03     154.554E-03     181.428E-03     181.428E-03
            2022     1.31010E+03     1.31010E+03     160.020E-03     160.020E-03     275.374E-03     275.374E-03
            2023     1.31020E+03     1.31020E+03     167.626E-03     167.626E-03     373.253E-03     373.253E-03
            2024     1.31033E+03     1.31033E+03     177.389E-03     177.389E-03     476.384E-03     476.384E-03
            2025     1.31049E+03     1.31049E+03     189.316E-03     189.316E-03     586.055E-03     586.055E-03
            2026     1.31068E+03     1.31068E+03     203.381E-03     203.381E-03     703.561E-03     703.561E-03
            2027     1.31091E+03     1.31091E+03     219.549E-03     219.549E-03     830.182E-03     830.182E-03
            2028     1.31117E+03     1.31117E+03     237.759E-03     237.759E-03     967.173E-03     967.173E-03
            2029     1.31148E+03     1.31148E+03     257.919E-03     257.919E-03         1.11574         1.11574
            2030     1.31183E+03     1.31183E+03     279.893E-03     279.893E-03         1.27704         1.27704
            2031     1.31223E+03     1.31223E+03     303.487E-03     303.487E-03         1.45211         1.45211
            2032     1.31267E+03     1.31267E+03     328.432E-03     328.432E-03         1.64189         1.64189
            2033     1.31318E+03     1.31318E+03     354.359E-03     354.359E-03         1.84709         1.84709
            2034     1.31374E+03     1.31374E+03     380.775E-03     380.775E-03         2.06823         2.06823
            2035     1.31436E+03     1.31436E+03     407.032E-03     407.032E-03         2.30546         2.30546
            2036     1.31505E+03     1.31505E+03     432.281E-03     432.281E-03         2.55854         2.55854
            2037     1.31580E+03     1.31580E+03     455.436E-03     455.436E-03         2.82665         2.82665
            2038     1.31663E+03     1.31663E+03     475.111E-03     475.111E-03         3.10829         3.10829
            2039     1.31753E+03     1.31753E+03     489.567E-03     489.567E-03         3.40109         3.40109
            2040     1.31851E+03     1.31851E+03     496.639E-03     496.639E-03         3.70156         3.70156
            2041     1.31957E+03     1.31957E+03     493.675E-03     493.675E-03         4.00488         4.00488
            2042     1.32071E+03     1.32071E+03     477.463E-03     477.463E-03         4.30460         4.30460
            2043     1.32192E+03     1.32192E+03     444.184E-03     444.184E-03         4.59229         4.59229
            2044     1.32321E+03     1.32321E+03     389.377E-03     389.377E-03         4.85723         4.85723
            2045     1.32456E+03     1.32456E+03     307.971E-03     307.971E-03         5.08608         5.08608
            2046     1.32597E+03     1.32597E+03     194.369E-03     194.369E-03         5.26249         5.26249
            2047     1.32743E+03     1.32743E+03     42.6782E-03     42.6782E-03         5.36693         5.36693
            2048     1.32891E+03     1.32891E+03    -152.919E-03    -152.919E-03         5.37658         5.37658
            2049     1.33040E+03     1.33040E+03    -397.556E-03    -397.556E-03         5.26549         5.26549
            2050     1.33187E+03     1.33187E+03    -694.772E-03    -694.772E-03         5.00513         5.00513
            2051     1.33329E+03     1.33329E+03        -1.04532        -1.04532         4.56549         4.56549
            2052     1.33461E+03     1.33461E+03        -1.44554        -1.44554         3.91693         3.91693
            2053     1.33580E+03     1.33580E+03        -1.88552        -1.88552         3.03299         3.03299
            2054     1.33679E+03     1.33679E+03        -2.34699        -2.34699         1.89416         1.89416
            2055     1.33753E+03     1.33753E+03        -2.80155        -2.80155     493.045E-03     493.045E-03
            2056     1.33796E+03     1.33796E+03        -3.20932        -3.20932        -1.15983        -1.15983
            2057     1.33800E+03     1.33800E+03        -3.51918        -3.51918        -3.02920        -3.02920
            2058     1.33761E+03     1.33761E+03        -3.67121        -3.67121        -5.04909        -5.04909
            2059     1.33673E+03     1.33673E+03        -3.60195        -3.60195        -7.11811        -7.11811
            2060     1.33534E+03     1.33534E+03        -3.25338        -3.25338        -9.09873        -9.09873
            2061     1.33344E+03     1.33344E+03        -2.58445        -2.58445        -10.8221        -10.8221
            2062     1.30985E+03     1.30985E+03     74.1465E-03     74.1465E-03     62.4451E-03     62.4451E-03
            2063     1.30990E+03     1.30990E+03     75.8247E-03     75.8247E-03     124.524E-03     124.524E-03
            2064     1.30997E+03     1.30997E+03     78.5223E-03     78.5223E-03     189.075E-03     189.075E-03
            2065     1.31008E+03     1.31008E+03     82.2533E-03     82.2533E-03     256.488E-03     256.488E-03
            2066     1.31022E+03     1.31022E+03     87.0714E-03     87.0714E-03     327.658E-03     327.658E-03
            2067     1.31039E+03     1.31039E+03     92.9592E-03     92.9592E-03     403.516E-03     403.516E-03
            2068     1.31060E+03     1.31060E+03     99.9049E-03     99.9049E-03     485.005E-03     485.005E-03
            2069     1.31086E+03     1.31086E+03     107.892E-03     107.892E-03     573.053E-03     573.053E-03
            2070     1.31115E+03     1.31115E+03     116.890E-03     116.890E-03     668.576E-03     668.576E-03
            2071     1.31149E+03     1.31149E+03     126.855E-03     126.855E-03     772.461E-03     772.461E-03
            2072     1.31188E+03     1.31188E+03     137.719E-03     137.719E-03     885.558E-03     885.558E-03
            2073     1.31233E+03     1.31233E+03     149.387E-03     149.387E-03         1.00865         1.00865
            2074     1.31283E+03     1.31283E+03     161.726E-03     161.726E-03         1.14244         1.14244
            2075     1.31339E+03     1.31339E+03     174.551E-03     174.551E-03         1.28749         1.28749
            2076     1.31403E+03     1.31403E+03     187.617E-03     187.617E-03         1.44420         1.44420
            2077     1.31473E+03     1.31473E+03     200.598E-03     200.598E-03         1.61274         1.61274
            2078     1.31552E+03     1.31552E+03     213.068E-03     213.068E-03         1.79297         1.79297
            2079     1.31638E+03     1.31638E+03     224.477E-03     224.477E-03         1.98436         1.98436
            2080     1.31733E+03     1.31733E+03     234.125E-03     234.125E-03         2.18586         2.18586
            2081     1.31837E+03     1.31837E+03     241.126E-03     241.126E-03         2.39577         2.39577
            2082     1.31950E+03     1.31950E+03     244.382E-03     244.382E-03         2.61157         2.61157
            2083     1.32073E+03     1.32073E+03     242.534E-03     242.534E-03         2.82973         2.82973
            2084     1.32205E+03     1.32205E+03     233.942E-03     233.942E-03         3.04549         3.04549
            2085     1.32345E+03     1.32345E+03     216.643E-03     216.643E-03         3.25259         3.25259
            2086     1.32494E+03     1.32494E+03     188.347E-03     188.347E-03         3.44302         3.44302
            2087     1.32651E+03     1.32651E+03     146.440E-03     146.440E-03         3.60671         3.60671
            2088     1.32813E+03     1.32813E+03     88.0425E-03     88.0425E-03         3.73135         3.73135
            2089     1.32980E+03     1.32980E+03     10.1169E-03     10.1169E-03         3.80211         3.80211
            2090     1.33148E+03     1.33148E+03    -90.3236E-03    -90.3236E-03         3.80169         3.80169
            2091     1.33315E+03     1.33315E+03    -215.894E-03    -215.894E-03         3.71036         3.71036
            2092     1.33475E+03     1.33475E+03    -368.371E-03    -368.371E-03         3.50652         3.50652
            2093     1.33626E+03     1.33626E+03    -548.022E-03    -548.022E-03         3.16753         3.16753
            2094     1.33760E+03     1.33760E+03    -752.821E-03    -752.821E-03         2.67131         2.67131
            2095     1.33871E+03     1.33871E+03    -977.393E-03    -977.393E-03         1.99848         1.99848
            2096     1.33953E+03     1.33953E+03        -1.21207        -1.21207         1.13557         1.13557
            2097     1.33997E+03     1.33997E+03        -1.44184        -1.44184     78.7772E-03     78.7772E-03
            2098     1.33996E+03     1.33996E+03        -1.64589        -1.64589        -1.16135        -1.16135
            2099     1.33944E+03     1.33944E+03        -1.79781        -1.79781        -2.55526        -2.55526
            2100     1.33835E+03     1.33835E+03        -1.86691        -1.86691        -4.05007        -4.05007
            2101     1.33666E+03     1.33666E+03        -1.82147        -1.82147        -5.56708        -5.56708
            2102     1.33437E+03     1.33437E+03        -1.63288        -1.63288        -7.00205        -7.00205
            2103     1.33154E+03     1.33154E+03        -1.28086        -1.28086        -8.22856        -8.22856
            2104     1.30965E+03     1.30965E+03     25.8310E-03     25.8310E-03     32.1658E-03     32.1658E-03
            2105     1.30970E+03     1.30970E+03     26.4745E-03     26.4745E-03     63.6581E-03     63.6581E-03
            2106     1.30978E+03     1.30978E+03     27.3630E-03     27.3630E-03     96.7636E-03     96.7636E-03
            2107     1.30989E+03     1.30989E+03     28.6415E-03     28.6415E-03     131.371E-03     131.371E-03
            2108     1.31004E+03     1.31004E+03     30.3059E-03     30.3059E-03     167.959E-03     167.959E-03
            2109     1.31023E+03     1.31023E+03     32.3348E-03     32.3348E-03     207.043E-03     207.043E-03
            2110     1.31045E+03     1.31045E+03     34.7314E-03     34.7314E-03     249.122E-03     249.122E-03
            2111     1.31072E+03     1.31072E+03     37.4844E-03     37.4844E-03     294.698E-03     294.698E-03
            2112     1.31104E+03     1.31104E+03     40.5859E-03     40.5859E-03     344.266E-03     344.266E-03
            2113     1.31141E+03     1.31141E+03     44.0181E-03     44.0181E-03     398.307E-03     398.307E-03
            2114     1.31183E+03     1.31183E+03     47.7582E-03     47.7582E-03     457.286E-03     457.286E-03
            2115     1.31231E+03     1.31231E+03     51.7714E-03     51.7714E-03     521.635E-03     521.635E-03
            2116     1.31286E+03     1.31286E+03     56.0105E-03     56.0105E-03     591.746E-03     591.746E-03
            2117     1.31348E+03     1.31348E+03     60.4104E-03     60.4104E-03     667.944E-03     667.944E-03
            2118     1.31418E+03     1.31418E+03     64.8839E-03     64.8839E-03     750.468E-03     750.468E-03
            2119     1.31496E+03     1.31496E+03     69.3152E-03     69.3152E-03     839.436E-03     839.436E-03
            2120     1.31583E+03     1.31583E+03     73.5534E-03     73.5534E-03     934.807E-03     934.807E-03
            2121     1.31679E+03     1.31679E+03     77.4034E-03     77.4034E-03         1.03633         1.03633
            2122     1.31786E+03     1.31786E+03     80.6159E-03     80.6159E-03         1.14348         1.14348
            2123     1.31903E+03     1.31903E+03     82.8769E-03     82.8769E-03         1.25538         1.25538
            2124     1.32031E+03     1.32031E+03     83.7937E-03     83.7937E-03         1.37071         1.37071
            2125     1.32171E+03     1.32171E+03     82.8835E-03     82.8835E-03         1.48760         1.48760
            2126     1.32321E+03     1.32321E+03     79.5586E-03     79.5586E-03         1.60350         1.60350
            2127     1.32482E+03     1.32482E+03     73.1194E-03     73.1194E-03         1.71503         1.71503
            2128     1.32654E+03     1.32654E+03     62.7434E-03     62.7434E-03         1.81785         1.81785
            2129     1.32834E+03     1.32834E+03     47.4969E-03     47.4969E-03         1.90645         1.90645
            2130     1.33022E+03     1.33022E+03     26.3436E-03     26.3436E-03         1.97406         1.97406
            2131     1.33215E+03     1.33215E+03    -1.80175E-03    -1.80175E-03         2.01251         2.01251
            2132     1.33410E+03     1.33410E+03    -38.0130E-03    -38.0130E-03         2.01218         2.01218
            2133     1.33602E+03     1.33602E+03    -83.2204E-03    -83.2204E-03         1.96211         1.96211
            2134     1.33786E+03     1.33786E+03    -138.049E-03    -138.049E-03         1.85023         1.85023
            2135     1.33956E+03     1.33956E+03    -202.579E-03    -202.579E-03         1.66390         1.66390
            2136     1.34104E+03     1.34104E+03    -276.030E-03    -276.030E-03         1.39072         1.39072
            2137     1.34222E+03     1.34222E+03    -356.436E-03    -356.436E-03         1.01991         1.01991
            2138     1.34299E+03     1.34299E+03    -440.217E-03    -440.217E-03     543.938E-03     543.938E-03
            2139     1.34327E+03     1.34327E+03    -521.920E-03    -521.920E-03    -39.1268E-03    -39.1268E-03
            2140     1.34295E+03     1.34295E+03    -593.947E-03    -593.947E-03    -723.170E-03    -723.170E-03
            2141     1.34194E+03     1.34194E+03    -646.743E-03    -646.743E-03        -1.49130        -1.49130
            2142     1.34019E+03     1.34019E+03    -669.306E-03    -669.306E-03        -2.31360        -2.31360
            2143     1.33766E+03     1.33766E+03    -650.242E-03    -650.242E-03        -3.14597        -3.14597
            2144     1.33437E+03     1.33437E+03    -579.890E-03    -579.890E-03        -3.93039        -3.93039
            2145     1.33040E+03     1.33040E+03    -450.629E-03    -450.629E-03        -4.59629        -4.59629
            2146     1.24056E+03     1.24056E+03         358.258         358.258        -96.0545        -96.0545
            2147     1.25399E+03     1.25399E+03         325.866         325.866        -95.3972        -95.3972
            2148     1.26702E+03     1.26702E+03         293.388         293.388        -92.1388        -92.1388
            2149     1.27920E+03     1.27920E+03         261.632         261.632        -87.2383        -87.2383
            2150     1.29024E+03     1.29024E+03         231.198         231.198        -80.9381        -80.9381
            2151     1.29992E+03     1.29992E+03         202.575         202.575        -73.4986        -73.4986
            2152     1.30810E+03     1.30810E+03         176.140         176.140        -65.3022        -65.3022
            2153     1.31480E+03     1.31480E+03         152.086         152.086        -56.7033        -56.7033
            2154     1.32004E+03     1.32004E+03         130.503         130.503        -48.0413        -48.0413
            2155     1.32400E+03     1.32400E+03         111.341         111.341        -39.6057        -39.6057
            2156     1.32679E+03     1.32679E+03         94.4861         94.4861        -31.5974        -31.5974
            2157     1.32863E+03     1.32863E+03         79.7735         79.7735        -24.1769        -24.1769
            2158     1.32966E+03     1.32966E+03         67.0054         67.0054        -17.4158        -17.4158
            2159     1.33004E+03     1.33004E+03         55.9909         55.9909        -11.3628        -11.3628
            2160     1.32990E+03     1.32990E+03         46.5278         46.5278        -6.00788        -6.00788
            2161     1.32936E+03     1.32936E+03         38.4411         38.4411        -1.33137        -1.33137
            2162     1.32851E+03     1.32851E+03         31.5551         31.5551         2.71603         2.71603
            2163     1.32743E+03     1.32743E+03         25.7220         25.7220         6.18562         6.18562
            2164     1.32619E+03     1.32619E+03         20.7981         20.7981         9.14008         9.14008
            2165     1.32482E+03     1.32482E+03         16.6612         16.6612         11.6399         11.6399
            2166     1.32337E+03     1.32337E+03         13.1946         13.1946         13.7476         13.7476
            2167     1.32188E+03     1.32188E+03         10.2970         10.2970         15.5217         15.5217
            2168     1.32037E+03     1.32037E+03         7.87147         7.87147         17.0189         17.0189
            2169     1.31887E+03     1.31887E+03         5.83144         5.83144         18.2917         18.2917
            2170     1.31740E+03     1.31740E+03         4.09341         4.09341         19.3894         19.3894
            2171     1.31598E+03     1.31598E+03         2.57968         2.57968         20.3577         20.3577
            2172     1.31465E+03     1.31465E+03         1.21399         1.21399         21.2396         21.2396
            2173     1.31342E+03     1.31342E+03    -77.6890E-03    -77.6890E-03         22.0750         22.0750
            2174     1.31234E+03     1.31234E+03        -1.37008        -1.37008         22.9013         22.9013
            2175     1.31146E+03     1.31146E+03        -2.73887        -2.73887         23.7528         23.7528
            2176     1.31081E+03     1.31081E+03        -4.26271        -4.26271         24.6598         24.6598
            2177     1.31049E+03     1.31049E+03        -6.02415        -6.02415         25.6470         25.6470
            2178     1.31059E+03     1.31059E+03        -8.11036        -8.11036         26.7293         26.7293
            2179     1.31122E+03     1.31122E+03        -10.6138        -10.6138         27.9057         27.9057
            2180     1.31255E+03     1.31255E+03        -13.6285        -13.6285         29.1487         29.1487
            2181     1.31478E+03     1.31478E+03        -17.2466        -17.2466         30.3887         30.3887
            2182     1.31814E+03     1.31814E+03        -21.5389        -21.5389         31.4886         31.4886
            2183     1.32291E+03     1.32291E+03        -26.5308        -26.5308         32.2151         32.2151
            2184     1.32937E+03     1.32937E+03        -32.1340        -32.1340         32.1936         32.1936
            2185     1.33773E+03     1.33773E+03        -38.0603        -38.0603         30.8968         30.8968
            2186     1.34799E+03     1.34799E+03        -43.6724        -43.6724         27.6478         27.6478
            2187     1.35979E+03     1.35979E+03        -47.9293        -47.9293         21.8204         21.8204
            2188     1.24420E+03     1.24420E+03         357.464         357.464        -109.808        -109.808
            2189     1.25831E+03     1.25831E+03         323.197         323.197        -108.962        -108.962
            2190     1.27183E+03     1.27183E+03         288.850         288.850        -104.921        -104.921
            2191     1.28433E+03     1.28433E+03         255.378         255.378        -98.9156        -98.9156
            2192     1.29542E+03     1.29542E+03         223.526         223.526        -91.1712        -91.1712
            2193     1.30483E+03     1.30483E+03         193.910         193.910        -82.1607        -82.1607
            2194     1.31253E+03     1.31253E+03         166.889         166.889        -72.3318        -72.3318
            2195     1.31849E+03     1.31849E+03         142.678         142.678        -62.1727        -62.1727
            2196     1.32292E+03     1.32292E+03         121.266         121.266        -52.1037        -52.1037
            2197     1.32597E+03     1.32597E+03         102.542         102.542        -42.4312        -42.4312
            2198     1.32791E+03     1.32791E+03         86.3070         86.3070        -33.4056        -33.4056
            2199     1.32893E+03     1.32893E+03         72.3120         72.3120        -25.1421        -25.1421
            2200     1.32925E+03     1.32925E+03         60.3186         60.3186        -17.7272        -17.7272
            2201     1.32903E+03     1.32903E+03         50.0712         50.0712        -11.1571        -11.1571
            2202     1.32841E+03     1.32841E+03         41.3577         41.3577        -5.41793        -5.41793
            2203     1.32751E+03     1.32751E+03         33.9642         33.9642    -451.293E-03    -451.293E-03
            2204     1.32642E+03     1.32642E+03         27.7195         27.7195         3.80165         3.80165
            2205     1.32519E+03     1.32519E+03         22.4565         22.4565         7.41635         7.41635
            2206     1.32390E+03     1.32390E+03         18.0402         18.0402         10.4642         10.4642
            2207     1.32256E+03     1.32256E+03         14.3413         14.3413         13.0194         13.0194
            2208     1.32123E+03     1.32123E+03         11.2522         11.2522         15.1504         15.1504
            2209     1.31991E+03     1.31991E+03         8.67038         8.67038         16.9227         16.9227
            2210     1.31864E+03     1.31864E+03         6.50707         6.50707         18.3956         18.3956
            2211     1.31743E+03     1.31743E+03         4.67722         4.67722         19.6237         19.6237
            2212     1.31629E+03     1.31629E+03         3.10363         3.10363         20.6563         20.6563
            2213     1.31525E+03     1.31525E+03         1.71119         1.71119         21.5374         21.5374
            2214     1.31433E+03     1.31433E+03     428.529E-03     428.529E-03         22.3064         22.3064
            2215     1.31356E+03     1.31356E+03    -815.429E-03    -815.429E-03         22.9976         22.9976
            2216     1.31298E+03     1.31298E+03        -2.09093        -2.09093         23.6406         23.6406
            2217     1.31263E+03     1.31263E+03        -3.46933        -3.46933         24.2591         24.2591
            2218     1.31256E+03     1.31256E+03        -5.02286        -5.02286         24.8699         24.8699
            2219     1.31285E+03     1.31285E+03        -6.82482        -6.82482         25.4799         25.4799
            2220     1.31359E+03     1.31359E+03        -8.94853        -8.94853         26.0825         26.0825
            2221     1.31489E+03     1.31489E+03        -11.4639        -11.4639         26.6503         26.6503
            2222     1.31689E+03     1.31689E+03        -14.4321        -14.4321         27.1264         27.1264
            2223     1.31973E+03     1.31973E+03        -17.8926        -17.8926         27.4099         27.4099
            2224     1.32358E+03     1.32358E+03        -21.8448        -21.8448         27.3417         27.3417
            2225     1.32860E+03     1.32860E+03        -26.2108        -26.2108         26.6828         26.6828
            2226     1.33489E+03     1.33489E+03        -30.7851        -30.7851         25.1118         25.1118
            2227     1.34245E+03     1.34245E+03        -35.1652        -35.1652         22.2261         22.2261
            2228     1.35106E+03     1.35106E+03        -38.6867        -38.6867         17.6271         17.6271
            2229     1.36032E+03     1.36032E+03        -40.4628        -40.4628         10.9557         10.9557
            2230     1.24898E+03     1.24898E+03         356.494         356.494        -124.318        -124.318
            2231     1.26378E+03     1.26378E+03         319.931         319.931        -123.143        -123.143
            2232     1.27793E+03     1.27793E+03         283.230         283.230        -118.184        -118.184
            2233     1.29070E+03     1.29070E+03         247.655         247.655        -110.701        -110.701
            2234     1.30167E+03     1.30167E+03         214.175         214.175        -101.232        -101.232
            2235     1.31065E+03     1.31065E+03         183.451         183.451        -90.2954        -90.2954
            2236     1.31751E+03     1.31751E+03         155.937         155.937        -78.5895        -78.5895
            2237     1.32249E+03     1.32249E+03         131.708         131.708        -66.7168        -66.7168
            2238     1.32576E+03     1.32576E+03         110.693         110.693        -55.1492        -55.1492
            2239     1.32770E+03     1.32770E+03         92.6433         92.6433        -44.2770        -44.2770
            2240     1.32856E+03     1.32856E+03         77.2406         77.2406        -34.2803        -34.2803
            2241     1.32863E+03     1.32863E+03         64.1745         64.1745        -25.3039        -25.3039
            2242     1.32814E+03     1.32814E+03         53.1087         53.1087        -17.3492        -17.3492
            2243     1.32727E+03     1.32727E+03         43.7776         43.7776        -10.4101        -10.4101
            2244     1.32616E+03     1.32616E+03         35.9106         35.9106        -4.41321        -4.41321
            2245     1.32490E+03     1.32490E+03         29.3042         29.3042     711.575E-03     711.575E-03
            2246     1.32359E+03     1.32359E+03         23.7585         23.7585         5.05778         5.05778
            2247     1.32226E+03     1.32226E+03         19.1210         19.1210         8.71170         8.71170
            2248     1.32096E+03     1.32096E+03         15.2459         15.2459         11.7630         11.7630
            2249     1.31972E+03     1.31972E+03         12.0177         12.0177         14.2931         14.2931
            2250     1.31855E+03     1.31855E+03         9.32679         9.32679         16.3788         16.3788
            2251     1.31746E+03     1.31746E+03         7.08212         7.08212         18.0891         18.0891
            2252     1.31647E+03     1.31647E+03         5.19713         5.19713         19.4860         19.4860
            2253     1.31558E+03     1.31558E+03         3.59575         3.59575         20.6243         20.6243
            2254     1.31482E+03     1.31482E+03         2.20465         2.20465         21.5518         21.5518
            2255     1.31418E+03     1.31418E+03     955.922E-03     955.922E-03         22.3098         22.3098
            2256     1.31369E+03     1.31369E+03    -217.319E-03    -217.319E-03         22.9327         22.9327
            2257     1.31338E+03     1.31338E+03        -1.37972        -1.37972         23.4488         23.4488
            2258     1.31328E+03     1.31328E+03        -2.59594        -2.59594         23.8792         23.8792
            2259     1.31342E+03     1.31342E+03        -3.92987        -3.92987         24.2376         24.2376
            2260     1.31386E+03     1.31386E+03        -5.44483        -5.44483         24.5281         24.5281
            2261     1.31467E+03     1.31467E+03        -7.20198        -7.20198         24.7435         24.7435
            2262     1.31592E+03     1.31592E+03        -9.25745        -9.25745         24.8605         24.8605
            2263     1.31769E+03     1.31769E+03        -11.6575        -11.6575         24.8354         24.8354
            2264     1.32009E+03     1.32009E+03        -14.4293        -14.4293         24.5958         24.5958
            2265     1.32323E+03     1.32323E+03        -17.5679        -17.5679         24.0338         24.0338
            2266     1.32718E+03     1.32718E+03        -21.0141        -21.0141         22.9957         22.9957
            2267     1.33202E+03     1.33202E+03        -24.6244        -24.6244         21.2816         21.2816
            2268     1.33771E+03     1.33771E+03        -28.1346        -28.1346         18.6485         18.6485
            2269     1.34414E+03     1.34414E+03        -31.1150        -31.1150         14.8469         14.8469
            2270     1.35102E+03     1.35102E+03        -32.9722        -32.9722         9.66344         9.66344
            2271     1.35786E+03     1.35786E+03        -32.8722        -32.8722         2.95246         2.95246
            2272     1.25507E+03     1.25507E+03         355.389         355.389        -139.692        -139.692
            2273     1.27090E+03     1.27090E+03         315.837         315.837        -138.150        -138.150
            2274     1.28564E+03     1.28564E+03         276.200         276.200        -131.835        -131.835
            2275     1.29861E+03     1.29861E+03         238.092         238.092        -122.556        -122.556
            2276     1.30928E+03     1.30928E+03         202.698         202.698        -110.811        -110.811
            2277     1.31734E+03     1.31734E+03         170.919         170.919        -97.5803        -97.5803
            2278     1.32305E+03     1.32305E+03         143.036         143.036        -83.7108        -83.7108
            2279     1.32653E+03     1.32653E+03         119.095         119.095        -69.9474        -69.9474
            2280     1.32835E+03     1.32835E+03         98.7920         98.7920        -56.9068        -56.9068
            2281     1.32883E+03     1.32883E+03         81.7107         81.7107        -44.8712        -44.8712
            2282     1.32843E+03     1.32843E+03         67.4312         67.4312        -34.0801        -34.0801
            2283     1.32742E+03     1.32742E+03         55.4915         55.4915        -24.5351        -24.5351
            2284     1.32606E+03     1.32606E+03         45.5487         45.5487        -16.2399        -16.2399
            2285     1.32452E+03     1.32452E+03         37.2475         37.2475        -9.09478        -9.09478
            2286     1.32293E+03     1.32293E+03         30.3401         30.3401        -3.01156        -3.01156
            2287     1.32136E+03     1.32136E+03         24.5800         24.5800         2.12999         2.12999
            2288     1.31988E+03     1.31988E+03         19.7925         19.7925         6.43732         6.43732
            2289     1.31852E+03     1.31852E+03         15.8091         15.8091         10.0209         10.0209
            2290     1.31729E+03     1.31729E+03         12.5046         12.5046         12.9794         12.9794
            2291     1.31620E+03     1.31620E+03         9.76038         9.76038         15.4044         15.4044
            2292     1.31526E+03     1.31526E+03         7.48273         7.48273         17.3771         17.3771
            2293     1.31446E+03     1.31446E+03         5.58327         5.58327         18.9693         18.9693
            2294     1.31381E+03     1.31381E+03         3.98751         3.98751         20.2437         20.2437
            2295     1.31331E+03     1.31331E+03         2.62428         2.62428         21.2537         21.2537
            2296     1.31295E+03     1.31295E+03         1.42975         1.42975         22.0448         22.0448
            2297     1.31275E+03     1.31275E+03     341.680E-03     341.680E-03         22.6540         22.6540
            2298     1.31271E+03     1.31271E+03    -698.677E-03    -698.677E-03         23.1106         23.1106
            2299     1.31286E+03     1.31286E+03        -1.74954        -1.74954         23.4363         23.4363
            2300     1.31322E+03     1.31322E+03        -2.86736        -2.86736         23.6441         23.6441
            2301     1.31383E+03     1.31383E+03        -4.10758        -4.10758         23.7386         23.7386
            2302     1.31472E+03     1.31472E+03        -5.52284        -5.52284         23.7138         23.7138
            2303     1.31594E+03     1.31594E+03        -7.16111        -7.16111         23.5517         23.5517
            2304     1.31756E+03     1.31756E+03        -9.06154        -9.06154         23.2191         23.2191
            2305     1.31965E+03     1.31965E+03        -11.2482        -11.2482         22.6642         22.6642
            2306     1.32225E+03     1.32225E+03        -13.7205        -13.7205         21.8130         21.8130
            2307     1.32544E+03     1.32544E+03        -16.4399        -16.4399         20.5652         20.5652
            2308     1.32923E+03     1.32923E+03        -19.3103        -19.3103         18.7947         18.7947
            2309     1.33362E+03     1.33362E+03        -22.1578        -22.1578         16.3529         16.3529
            2310     1.33852E+03     1.33852E+03        -24.7020        -24.7020         13.0874         13.0874
            2311     1.34375E+03     1.34375E+03        -26.5492        -26.5492         8.87022         8.87022
            2312     1.34898E+03     1.34898E+03        -27.1642        -27.1642         3.63269         3.63269
            2313     1.35376E+03     1.35376E+03        -25.8836        -25.8836        -2.54636        -2.54636
            2314     1.26332E+03     1.26332E+03         353.970         353.970        -156.241        -156.241
            2315     1.28008E+03     1.28008E+03         310.669         310.669        -153.944        -153.944
            2316     1.29556E+03     1.29556E+03         267.284         267.284        -145.995        -145.995
            2317     1.30852E+03     1.30852E+03         226.045         226.045        -134.090        -134.090
            2318     1.31831E+03     1.31831E+03         188.654         188.654        -119.545        -119.545
            2319     1.32506E+03     1.32506E+03         155.857         155.857        -103.485        -103.485
            2320     1.32880E+03     1.32880E+03         128.028         128.028        -87.1281        -87.1281
            2321     1.33035E+03     1.33035E+03         104.802         104.802        -71.4687        -71.4687
            2322     1.33018E+03     1.33018E+03         85.6385         85.6385        -56.9662        -56.9662
            2323     1.32895E+03     1.32895E+03         69.9428         69.9428        -44.0229        -44.0229
            2324     1.32708E+03     1.32708E+03         57.0491         57.0491        -32.6271        -32.6271
            2325     1.32491E+03     1.32491E+03         46.5016         46.5016        -22.7933        -22.7933
            2326     1.32267E+03     1.32267E+03         37.8157         37.8157        -14.3739        -14.3739
            2327     1.32050E+03     1.32050E+03         30.6842         30.6842        -7.25054        -7.25054
            2328     1.31849E+03     1.31849E+03         24.7948         24.7948        -1.26239        -1.26239
            2329     1.31671E+03     1.31671E+03         19.9444         19.9444         3.72910         3.72910
            2330     1.31516E+03     1.31516E+03         15.9347         15.9347         7.86280         7.86280
            2331     1.31385E+03     1.31385E+03         12.6291         12.6291         11.2603         11.2603
            2332     1.31279E+03     1.31279E+03         9.89733         9.89733         14.0322         14.0322
            2333     1.31195E+03     1.31195E+03         7.64306         7.64306         16.2749         16.2749
            2334     1.31132E+03     1.31132E+03         5.77558         5.77558         18.0724         18.0724
            2335     1.31089E+03     1.31089E+03         4.22235         4.22235         19.4972         19.4972
            2336     1.31065E+03     1.31065E+03         2.91462         2.91462         20.6102         20.6102
            2337     1.31058E+03     1.31058E+03         1.79321         1.79321         21.4628         21.4628
            2338     1.31068E+03     1.31068E+03     800.916E-03     800.916E-03         22.0962         22.0962
            2339     1.31095E+03     1.31095E+03    -114.757E-03    -114.757E-03         22.5430         22.5430
            2340     1.31138E+03     1.31138E+03        -1.00545        -1.00545         22.8268         22.8268
            2341     1.31200E+03     1.31200E+03        -1.92044        -1.92044         22.9627         22.9627
            2342     1.31282E+03     1.31282E+03        -2.90801        -2.90801         22.9566         22.9566
            2343     1.31385E+03     1.31385E+03        -4.01383        -4.01383         22.8053         22.8053
            2344     1.31514E+03     1.31514E+03        -5.27996        -5.27996         22.4954         22.4954
            2345     1.31671E+03     1.31671E+03        -6.74164        -6.74164         22.0019         22.0019
            2346     1.31861E+03     1.31861E+03        -8.42310        -8.42310         21.2869         21.2869
            2347     1.32087E+03     1.32087E+03        -10.3308        -10.3308         20.2983         20.2983
            2348     1.32353E+03     1.32353E+03        -12.4447        -12.4447         18.9684         18.9684
            2349     1.32661E+03     1.32661E+03        -14.7056        -14.7056         17.2154         17.2154
            2350     1.33008E+03     1.33008E+03        -17.0023        -17.0023         14.9468         14.9468
            2351     1.33390E+03     1.33390E+03        -19.1539        -19.1539         12.0698         12.0698
            2352     1.33795E+03     1.33795E+03        -20.9018        -20.9018         8.50954         8.50954
            2353     1.34203E+03     1.34203E+03        -21.8963        -21.8963         4.23300         4.23300
            2354     1.34584E+03     1.34584E+03        -21.7078        -21.7078    -702.627E-03    -702.627E-03
            2355     1.34901E+03     1.34901E+03        -19.8576        -19.8576        -6.10209        -6.10209
            2356     1.27411E+03     1.27411E+03         352.305         352.305        -174.053        -174.053
            2357     1.29247E+03     1.29247E+03         303.873         303.873        -170.928        -170.928
            2358     1.30843E+03     1.30843E+03         255.649         255.649        -160.192        -160.192
            2359     1.32079E+03     1.32079E+03         210.828         210.828        -144.992        -144.992
            2360     1.32919E+03     1.32919E+03         171.210         171.210        -126.631        -126.631
            2361     1.33333E+03     1.33333E+03         137.978         137.978        -107.164        -107.164
            2362     1.33448E+03     1.33448E+03         110.771         110.771        -88.2261        -88.2261
            2363     1.33321E+03     1.33321E+03         88.9191         88.9191        -70.6208        -70.6208
            2364     1.33066E+03     1.33066E+03         71.5241         71.5241        -55.0554        -55.0554
            2365     1.32742E+03     1.32742E+03         57.5723         57.5723        -41.4675        -41.4675
            2366     1.32399E+03     1.32399E+03         46.4394         46.4394        -29.8785        -29.8785
            2367     1.32066E+03     1.32066E+03         37.4396         37.4396        -20.0538        -20.0538
            2368     1.31759E+03     1.31759E+03         30.1868         30.1868        -11.8212        -11.8212
            2369     1.31491E+03     1.31491E+03         24.2763         24.2763        -4.95760        -4.95760
            2370     1.31262E+03     1.31262E+03         19.4711         19.4711     722.476E-03     722.476E-03
            2371     1.31074E+03     1.31074E+03         15.5344         15.5344         5.39635         5.39635
            2372     1.30926E+03     1.30926E+03         12.3168         12.3168         9.21704         9.21704
            2373     1.30815E+03     1.30815E+03         9.67465         9.67465         12.3180         12.3180
            2374     1.30737E+03     1.30737E+03         7.50898         7.50898         14.8152         14.8152
            2375     1.30690E+03     1.30690E+03         5.72667         5.72667         16.8065         16.8065
            2376     1.30669E+03     1.30669E+03         4.25766         4.25766         18.3762         18.3762
            2377     1.30672E+03     1.30672E+03         3.03604         3.03604         19.5936         19.5936
            2378     1.30696E+03     1.30696E+03         2.00773         2.00773         20.5174         20.5174
            2379     1.30740E+03     1.30740E+03         1.12100         1.12100         21.1940         21.1940
            2380     1.30801E+03     1.30801E+03     329.980E-03     329.980E-03         21.6604         21.6604
            2381     1.30879E+03     1.30879E+03    -410.142E-03    -410.142E-03         21.9437         21.9437
            2382     1.30974E+03     1.30974E+03        -1.14131        -1.14131         22.0619         22.0619
            2383     1.31084E+03     1.31084E+03        -1.90472        -1.90472         22.0238         22.0238
            2384     1.31211E+03     1.31211E+03        -2.73926        -2.73926         21.8295         21.8295
            2385     1.31356E+03     1.31356E+03        -3.68150        -3.68150         21.4696         21.4696
            2386     1.31521E+03     1.31521E+03        -4.76324        -4.76324         20.9255         20.9255
            2387     1.31708E+03     1.31708E+03        -6.00896        -6.00896         20.1686         20.1686
            2388     1.31918E+03     1.31918E+03        -7.43113        -7.43113         19.1606         19.1606
            2389     1.32153E+03     1.32153E+03        -9.02446        -9.02446         17.8532         17.8532
            2390     1.32415E+03     1.32415E+03        -10.7576        -10.7576         16.1906         16.1906
            2391     1.32702E+03     1.32702E+03        -12.5644        -12.5644         14.1120         14.1120
            2392     1.33009E+03     1.33009E+03        -14.3326        -14.3326         11.5593         11.5593
            2393     1.33331E+03     1.33331E+03        -15.8967        -15.8967         8.48839         8.48839
            2394     1.33653E+03     1.33653E+03        -17.0300        -17.0300         4.88494         4.88494
            2395     1.33959E+03     1.33959E+03        -17.4495        -17.4495     791.462E-03     791.462E-03
            2396     1.34223E+03     1.34223E+03        -16.8320        -16.8320        -3.66538        -3.66538
            2397     1.34419E+03     1.34419E+03        -14.8542        -14.8542        -8.23707        -8.23707
            2398     1.28961E+03     1.28961E+03         349.860         349.860        -193.850        -193.850
            2399     1.30902E+03     1.30902E+03         294.655         294.655        -188.612        -188.612
            2400     1.32528E+03     1.32528E+03         240.250         240.250        -174.433        -174.433
            2401     1.33641E+03     1.33641E+03         190.940         190.940        -154.005        -154.005
            2402     1.34135E+03     1.34135E+03         149.832         149.832        -130.828        -130.828
            2403     1.34196E+03     1.34196E+03         116.871         116.871        -107.598        -107.598
            2404     1.33891E+03     1.33891E+03         91.3872         91.3872        -85.8783        -85.8783
            2405     1.33422E+03     1.33422E+03         71.9138         71.9138        -67.0083        -67.0083
            2406     1.32884E+03     1.32884E+03         56.7850         56.7850        -50.7715        -50.7715
            2407     1.32347E+03     1.32347E+03         45.1247         45.1247        -37.1746        -37.1746
            2408     1.31852E+03     1.31852E+03         35.9232         35.9232        -25.8219        -25.8219
            2409     1.31414E+03     1.31414E+03         28.6945         28.6945        -16.4413        -16.4413
            2410     1.31046E+03     1.31046E+03         22.9051         22.9051        -8.71517        -8.71517
            2411     1.30744E+03     1.30744E+03         18.2799         18.2799        -2.38526        -2.38526
            2412     1.30508E+03     1.30508E+03         14.5358         14.5358         2.77674         2.77674
            2413     1.30332E+03     1.30332E+03         11.5107         11.5107         6.96639         6.96639
            2414     1.30209E+03     1.30209E+03         9.04659         9.04659         10.3445         10.3445
            2415     1.30134E+03     1.30134E+03         7.04317         7.04317         13.0506         13.0506
            2416     1.30100E+03     1.30100E+03         5.40561         5.40561         15.1975         15.1975
            2417     1.30102E+03     1.30102E+03         4.06728         4.06728         16.8826         16.8826
            2418     1.30135E+03     1.30135E+03         2.96579         2.96579         18.1841         18.1841
            2419     1.30195E+03     1.30195E+03         2.05281         2.05281         19.1681         19.1681
            2420     1.30277E+03     1.30277E+03         1.28253         1.28253         19.8867         19.8867
            2421     1.30379E+03     1.30379E+03     616.039E-03     616.039E-03         20.3817         20.3817
            2422     1.30498E+03     1.30498E+03     15.6194E-03     15.6194E-03         20.6840         20.6840
            2423     1.30633E+03     1.30633E+03    -553.159E-03    -553.159E-03         20.8153         20.8153
            2424     1.30781E+03     1.30781E+03        -1.12415        -1.12415         20.7880         20.7880
            2425     1.30942E+03     1.30942E+03        -1.72922        -1.72922         20.6057         20.6057
            2426     1.31116E+03     1.31116E+03        -2.39897        -2.39897         20.2634         20.2634
            2427     1.31303E+03     1.31303E+03        -3.16092        -3.16092         19.7474         19.7474
            2428     1.31503E+03     1.31503E+03        -4.03833        -4.03833         19.0360         19.0360
            2429     1.31716E+03     1.31716E+03        -5.04691        -5.04691         18.0996         18.0996
            2430     1.31942E+03     1.31942E+03        -6.19139        -6.19139         16.9016         16.9016
            2431     1.32182E+03     1.32182E+03        -7.45986        -7.45986         15.4005         15.4005
            2432     1.32435E+03     1.32435E+03        -8.81810        -8.81810         13.5529         13.5529
            2433     1.32696E+03     1.32696E+03        -10.2017        -10.2017         11.3187         11.3187
            2434     1.32962E+03     1.32962E+03        -11.5109        -11.5109         8.66905         8.66905
            2435     1.33224E+03     1.33224E+03        -12.6035        -12.6035         5.59715         5.59715
            2436     1.33471E+03     1.33471E+03        -13.2973        -13.2973         2.13446         2.13446
            2437     1.33688E+03     1.33688E+03        -13.3756        -13.3756        -1.63300        -1.63300
            2438     1.33857E+03     1.33857E+03        -12.6089        -12.6089        -5.54252        -5.54252
            2439     1.33960E+03     1.33960E+03        -10.7914        -10.7914        -9.34055        -9.34055
            2440     1.31067E+03     1.31067E+03         346.655         346.655        -215.380        -215.380
            2441     1.33251E+03     1.33251E+03         281.486         281.486        -207.873        -207.873
            2442     1.34809E+03     1.34809E+03         218.532         218.532        -186.710        -186.710
            2443     1.35484E+03     1.35484E+03         165.349         165.349        -159.455        -159.455
            2444     1.35498E+03     1.35498E+03         123.389         123.389        -130.296        -130.296
            2445     1.34890E+03     1.34890E+03         92.7263         92.7263        -102.709        -102.709
            2446     1.34065E+03     1.34065E+03         70.7077         70.7077        -79.5035        -79.5035
            2447     1.33187E+03     1.33187E+03         54.3025         54.3025        -60.0113        -60.0113
            2448     1.32354E+03     1.32354E+03         42.2659         42.2659        -44.1349        -44.1349
            2449     1.31620E+03     1.31620E+03         33.0532         33.0532        -31.1797        -31.1797
            2450     1.30995E+03     1.30995E+03         26.0611         26.0611        -20.6825        -20.6825
            2451     1.30487E+03     1.30487E+03         20.5831         20.5831        -12.1852        -12.1852
            2452     1.30086E+03     1.30086E+03         16.3065         16.3065        -5.31655        -5.31655
            2453     1.29784E+03     1.29784E+03         12.8970         12.8970     216.080E-03     216.080E-03
            2454     1.29569E+03     1.29569E+03         10.1831         10.1831         4.66507         4.66507
            2455     1.29429E+03     1.29429E+03         7.99492         7.99492         8.22116         8.22116
            2456     1.29355E+03     1.29355E+03         6.23313         6.23313         11.0513         11.0513
            2457     1.29336E+03     1.29336E+03         4.80378         4.80378         13.2828         13.2828
            2458     1.29364E+03     1.29364E+03         3.64512         3.64512         15.0264         15.0264
            2459     1.29432E+03     1.29432E+03         2.69987         2.69987         16.3675         16.3675
            2460     1.29532E+03     1.29532E+03         1.92609         1.92609         17.3795         17.3795
            2461     1.29660E+03     1.29660E+03         1.28461         1.28461         18.1188         18.1188
            2462     1.29810E+03     1.29810E+03     743.692E-03     743.692E-03         18.6315         18.6315
            2463     1.29978E+03     1.29978E+03     272.908E-03     272.908E-03         18.9521         18.9521
            2464     1.30163E+03     1.30163E+03    -154.619E-03    -154.619E-03         19.1059         19.1059
            2465     1.30359E+03     1.30359E+03    -565.285E-03    -565.285E-03         19.1087         19.1087
            2466     1.30567E+03     1.30567E+03    -983.684E-03    -983.684E-03         18.9680         18.9680
            2467     1.30783E+03     1.30783E+03        -1.43386        -1.43386         18.6828         18.6828
            2468     1.31006E+03     1.31006E+03        -1.93799        -1.93799         18.2444         18.2444
            2469     1.31236E+03     1.31236E+03        -2.51612        -2.51612         17.6366         17.6366
            2470     1.31471E+03     1.31471E+03        -3.18410        -3.18410         16.8363         16.8363
            2471     1.31711E+03     1.31711E+03        -3.95165        -3.95165         15.8143         15.8143
            2472     1.31953E+03     1.31953E+03        -4.81874        -4.81874         14.5376         14.5376
            2473     1.32197E+03     1.32197E+03        -5.77205        -5.77205         12.9716         12.9716
            2474     1.32439E+03     1.32439E+03        -6.77970        -6.77970         11.0844         11.0844
            2475     1.32675E+03     1.32675E+03        -7.78709        -7.78709         8.85256         8.85256
            2476     1.32900E+03     1.32900E+03        -8.71201        -8.71201         6.26902         6.26902
            2477     1.33107E+03     1.33107E+03        -9.44363        -9.44363         3.35343         3.35343
            2478     1.33285E+03     1.33285E+03        -9.84395        -9.84395     163.246E-03     163.246E-03
            2479     1.33425E+03     1.33425E+03        -9.75745        -9.75745        -3.19260        -3.19260
            2480     1.33514E+03     1.33514E+03        -9.02946        -9.02946        -6.54458        -6.54458
            2481     1.33542E+03     1.33542E+03        -7.53411        -7.53411        -9.65677        -9.65677
            2482     1.34437E+03     1.34437E+03         340.675         340.675        -240.920        -240.920
            2483     1.36614E+03     1.36614E+03         260.837         260.837        -225.596        -225.596
            2484     1.37731E+03     1.37731E+03         188.383         188.383        -195.462        -195.462
            2485     1.37774E+03     1.37774E+03         130.855         130.855        -157.602        -157.602
            2486     1.36610E+03     1.36610E+03         92.2461         92.2461        -120.801        -120.801
            2487     1.35152E+03     1.35152E+03         67.2460         67.2460        -91.6596        -91.6596
            2488     1.33720E+03     1.33720E+03         49.5827         49.5827        -68.1715        -68.1715
            2489     1.32428E+03     1.32428E+03         37.5185         37.5185        -49.8048        -49.8048
            2490     1.31345E+03     1.31345E+03         28.6258         28.6258        -35.3261        -35.3261
            2491     1.30459E+03     1.30459E+03         22.1812         22.1812        -23.8973        -23.8973
            2492     1.29764E+03     1.29764E+03         17.2686         17.2686        -14.8680        -14.8680
            2493     1.29235E+03     1.29235E+03         13.5445         13.5445        -7.69341        -7.69341
            2494     1.28851E+03     1.28851E+03         10.6323         10.6323        -2.00941        -2.00941
            2495     1.28589E+03     1.28589E+03         8.35646         8.35646         2.50887         2.50887
            2496     1.28431E+03     1.28431E+03         6.54516         6.54516         6.07945         6.07945
            2497     1.28360E+03     1.28360E+03         5.10329         5.10329         8.89852         8.89852
            2498     1.28361E+03     1.28361E+03         3.94362         3.94362         11.1036         11.1036
            2499     1.28422E+03     1.28422E+03         3.01105         3.01105         12.8168         12.8168
            2500     1.28532E+03     1.28532E+03         2.25617         2.25617         14.1277         14.1277
            2501     1.28681E+03     1.28681E+03         1.64423         1.64423         15.1140         15.1140
            2502     1.28863E+03     1.28863E+03         1.14366         1.14366         15.8341         15.8341
            2503     1.29071E+03     1.29071E+03     729.979E-03     729.979E-03         16.3367         16.3367
            2504     1.29300E+03     1.29300E+03     380.182E-03     380.182E-03         16.6580         16.6580
            2505     1.29544E+03     1.29544E+03     74.6762E-03     74.6762E-03         16.8258         16.8258
            2506     1.29801E+03     1.29801E+03    -205.638E-03    -205.638E-03         16.8585         16.8585
            2507     1.30067E+03     1.30067E+03    -478.227E-03    -478.227E-03         16.7672         16.7672
            2508     1.30339E+03     1.30339E+03    -760.375E-03    -760.375E-03         16.5546         16.5546
            2509     1.30615E+03     1.30615E+03        -1.06823        -1.06823         16.2169         16.2169
            2510     1.30892E+03     1.30892E+03        -1.41713        -1.41713         15.7430         15.7430
            2511     1.31169E+03     1.31169E+03        -1.82036        -1.82036         15.1154         15.1154
            2512     1.31442E+03     1.31442E+03        -2.28830        -2.28830         14.3114         14.3114
            2513     1.31711E+03     1.31711E+03        -2.82633        -2.82633         13.3038         13.3038
            2514     1.31971E+03     1.31971E+03        -3.43282        -3.43282         12.0635         12.0635
            2515     1.32220E+03     1.32220E+03        -4.09581        -4.09581         10.5623         10.5623
            2516     1.32454E+03     1.32454E+03        -4.79028        -4.79028         8.77742         8.77742
            2517     1.32668E+03     1.32668E+03        -5.47443        -5.47443         6.69712         6.69712
            2518     1.32856E+03     1.32856E+03        -6.08802        -6.08802         4.32811         4.32811
            2519     1.33011E+03     1.33011E+03        -6.55134        -6.55134         1.70361         1.70361
            2520     1.33128E+03     1.33128E+03        -6.76869        -6.76869        -1.10721        -1.10721
            2521     1.33197E+03     1.33197E+03        -6.63598        -6.63598        -3.99217        -3.99217
            2522     1.33213E+03     1.33213E+03        -6.05464        -6.05464        -6.79135        -6.79135
            2523     1.33173E+03     1.33173E+03        -4.95162        -4.95162        -9.29850        -9.29850
            2524     1.39366E+03     1.39366E+03         330.321         330.321        -266.701        -266.701
            2525     1.41595E+03     1.41595E+03         228.051         228.051        -243.083        -243.083
            2526     1.41925E+03     1.41925E+03         140.563         140.563        -191.788        -191.788
            2527     1.39602E+03     1.39602E+03         88.3587         88.3587        -138.859        -138.859
            2528     1.36913E+03     1.36913E+03         60.4533         60.4533        -101.308        -101.308
            2529     1.34543E+03     1.34543E+03         41.9264         41.9264        -73.2347        -73.2347
            2530     1.32536E+03     1.32536E+03         30.5515         30.5515        -52.4910        -52.4910
            2531     1.30953E+03     1.30953E+03         22.5398         22.5398        -36.9762        -36.9762
            2532     1.29714E+03     1.29714E+03         17.0728         17.0728        -25.1241        -25.1241
            2533     1.28783E+03     1.28783E+03         13.0485         13.0485        -16.0724        -16.0724
            2534     1.28100E+03     1.28100E+03         10.1019         10.1019        -9.02559        -9.02559
            2535     1.27625E+03     1.27625E+03         7.85615         7.85615        -3.56385        -3.56385
            2536     1.27318E+03     1.27318E+03         6.13622         6.13622     719.828E-03     719.828E-03
            2537     1.27149E+03     1.27149E+03         4.79122         4.79122         4.05614         4.05614
            2538     1.27091E+03     1.27091E+03         3.73293         3.73293         6.66595         6.66595
            2539     1.27125E+03     1.27125E+03         2.89129         2.89129         8.68679         8.68679
            2540     1.27231E+03     1.27231E+03         2.21921         2.21921         10.2464         10.2464
            2541     1.27397E+03     1.27397E+03         1.67945         1.67945         11.4311         11.4311
            2542     1.27609E+03     1.27609E+03         1.24482         1.24482         12.3186         12.3186
            2543     1.27858E+03     1.27858E+03     892.810E-03     892.810E-03         12.9642         12.9642
            2544     1.28137E+03     1.28137E+03     605.896E-03     605.896E-03         13.4159         13.4159
            2545     1.28438E+03     1.28438E+03     368.521E-03     368.521E-03         13.7084         13.7084
            2546     1.28755E+03     1.28755E+03     167.727E-03     167.727E-03         13.8698         13.8698
            2547     1.29084E+03     1.29084E+03    -8.81651E-03    -8.81651E-03         13.9193         13.9193
            2548     1.29422E+03     1.29422E+03    -172.127E-03    -172.127E-03         13.8699         13.8699
            2549     1.29764E+03     1.29764E+03    -333.145E-03    -333.145E-03         13.7275         13.7275
            2550     1.30107E+03     1.30107E+03    -502.074E-03    -502.074E-03         13.4922         13.4922
            2551     1.30448E+03     1.30448E+03    -688.978E-03    -688.978E-03         13.1580         13.1580
            2552     1.30784E+03     1.30784E+03    -902.999E-03    -902.999E-03         12.7135         12.7135
            2553     1.31113E+03     1.31113E+03        -1.15228        -1.15228         12.1418         12.1418
            2554     1.31430E+03     1.31430E+03        -1.44280        -1.44280         11.4221         11.4221
            2555     1.31733E+03     1.31733E+03        -1.77748        -1.77748         10.5306         10.5306
            2556     1.32016E+03     1.32016E+03        -2.15442        -2.15442         9.44261         9.44261
            2557     1.32276E+03     1.32276E+03        -2.56530        -2.56530         8.13572         8.13572
            2558     1.32507E+03     1.32507E+03        -2.99311        -2.99311         6.59350         6.59350
            2559     1.32704E+03     1.32704E+03        -3.41059        -3.41059         4.81095         4.81095
            2560     1.32860E+03     1.32860E+03        -3.77873        -3.77873         2.80032         2.80032
            2561     1.32970E+03     1.32970E+03        -4.04727        -4.04727     598.154E-03     598.154E-03
            2562     1.33028E+03     1.33028E+03        -4.15687        -4.15687        -1.72885        -1.72885
            2563     1.33030E+03     1.33030E+03        -4.04472        -4.04472        -4.07882        -4.07882
            2564     1.32974E+03     1.32974E+03        -3.65357        -3.65357        -6.31429        -6.31429
            2565     1.32862E+03     1.32862E+03        -2.94352        -2.94352        -8.26536        -8.26536
            2566     1.49252E+03     1.49252E+03         304.394         304.394        -304.150        -304.150
            2567     1.50130E+03     1.50130E+03         157.420         157.420        -234.959        -234.959
            2568     1.44914E+03     1.44914E+03         77.7727         77.7727        -152.155        -152.155
            2569     1.39607E+03     1.39607E+03         48.7888         48.7888        -102.908        -102.908
            2570     1.35613E+03     1.35613E+03         30.8012         30.8012        -71.1422        -71.1422
            2571     1.32515E+03     1.32515E+03         21.3265         21.3265        -49.2244        -49.2244
            2572     1.30247E+03     1.30247E+03         15.0663         15.0663        -34.1335        -34.1335
            2573     1.28569E+03     1.28569E+03         11.0652         11.0652        -23.0084        -23.0084
            2574     1.27369E+03     1.27369E+03         8.28192         8.28192        -14.9096        -14.9096
            2575     1.26529E+03     1.26529E+03         6.29926         6.29926        -8.73788        -8.73788
            2576     1.25976E+03     1.25976E+03         4.85396         4.85396        -4.09061        -4.09061
            2577     1.25643E+03     1.25643E+03         3.75936         3.75936    -495.799E-03    -495.799E-03
            2578     1.25487E+03     1.25487E+03         2.92974         2.92974         2.25359         2.25359
            2579     1.25468E+03     1.25468E+03         2.27968         2.27968         4.38386         4.38386
            2580     1.25558E+03     1.25558E+03         1.77278         1.77278         6.01345         6.01345
            2581     1.25733E+03     1.25733E+03         1.36848         1.36848         7.26218         7.26218
            2582     1.25976E+03     1.25976E+03         1.04748         1.04748         8.20239         8.20239
            2583     1.26272E+03     1.26272E+03     789.269E-03     789.269E-03         8.90279         8.90279
            2584     1.26607E+03     1.26607E+03     581.892E-03     581.892E-03         9.40918         9.40918
            2585     1.26974E+03     1.26974E+03     413.860E-03     413.860E-03         9.76288         9.76288
            2586     1.27363E+03     1.27363E+03     276.840E-03     276.840E-03         9.99278         9.99278
            2587     1.27768E+03     1.27768E+03     163.362E-03     163.362E-03         10.1235         10.1235
            2588     1.28185E+03     1.28185E+03     66.9122E-03     66.9122E-03         10.1718         10.1718
            2589     1.28608E+03     1.28608E+03    -18.3028E-03    -18.3028E-03         10.1505         10.1505
            2590     1.29034E+03     1.29034E+03    -97.9609E-03    -97.9609E-03         10.0666         10.0666
            2591     1.29459E+03     1.29459E+03    -177.258E-03    -177.258E-03         9.92303         9.92303
            2592     1.29880E+03     1.29880E+03    -261.484E-03    -261.484E-03         9.71791         9.71791
            2593     1.30293E+03     1.30293E+03    -355.503E-03    -355.503E-03         9.44538         9.44538
            2594     1.30696E+03     1.30696E+03    -464.046E-03    -464.046E-03         9.09527         9.09527
            2595     1.31083E+03     1.31083E+03    -591.052E-03    -591.052E-03         8.65392         8.65392
            2596     1.31452E+03     1.31452E+03    -739.567E-03    -739.567E-03         8.10452         8.10452
            2597     1.31797E+03     1.31797E+03    -910.825E-03    -910.825E-03         7.42840         7.42840
            2598     1.32112E+03     1.32112E+03        -1.10372        -1.10372         6.60657         6.60657
            2599     1.32391E+03     1.32391E+03        -1.31358        -1.31358         5.62213         5.62213
            2600     1.32628E+03     1.32628E+03        -1.53140        -1.53140         4.46347         4.46347
            2601     1.32816E+03     1.32816E+03        -1.74264        -1.74264         3.12817         3.12817
            2602     1.32947E+03     1.32947E+03        -1.92703        -1.92703         1.62780         1.62780
            2603     1.33017E+03     1.33017E+03        -2.05842        -2.05842    -7.44571E-03    -7.44571E-03
            2604     1.33019E+03     1.33019E+03        -2.10653        -2.10653        -1.72431        -1.72431
            2605     1.32953E+03     1.32953E+03        -2.03984        -2.03984        -3.44399        -3.44399
            2606     1.32819E+03     1.32819E+03        -1.83019        -1.83019        -5.06243        -5.06243
            2607     1.32622E+03     1.32622E+03        -1.45877        -1.45877        -6.45321        -6.45321
            2608     1.68213E+03     1.68213E+03         206.460         206.460        -266.953        -266.953
            2609     1.54111E+03     1.54111E+03         58.3035         58.3035        -144.518        -144.518
            2610     1.43058E+03     1.43058E+03         31.1450         31.1450        -82.8764        -82.8764
            2611     1.36399E+03     1.36399E+03         17.4535         17.4535        -54.2323        -54.2323
            2612     1.31822E+03     1.31822E+03         10.9472         10.9472        -35.3407        -35.3407
            2613     1.28752E+03     1.28752E+03         7.49283         7.49283        -24.0848        -24.0848
            2614     1.26633E+03     1.26633E+03         5.16854         5.16854        -15.9552        -15.9552
            2615     1.25205E+03     1.25205E+03         3.84644         3.84644        -10.4591        -10.4591
            2616     1.24268E+03     1.24268E+03         2.81788         2.81788        -6.32579        -6.32579
            2617     1.23696E+03     1.23696E+03         2.17796         2.17796        -3.33615        -3.33615
            2618     1.23398E+03     1.23398E+03         1.65393         1.65393        -1.04498        -1.04498
            2619     1.23307E+03     1.23307E+03         1.29810         1.29810     668.029E-03     668.029E-03
            2620     1.23376E+03     1.23376E+03         1.00335         1.00335         1.98683         1.98683
            2621     1.23567E+03     1.23567E+03     788.673E-03     788.673E-03         2.98245         2.98245
            2622     1.23851E+03     1.23851E+03     611.295E-03     611.295E-03         3.74224         3.74224
            2623     1.24206E+03     1.24206E+03     475.670E-03     475.670E-03         4.30990         4.30990
            2624     1.24616E+03     1.24616E+03     364.301E-03     364.301E-03         4.73194         4.73194
            2625     1.25065E+03     1.25065E+03     276.503E-03     276.503E-03         5.03604         5.03604
            2626     1.25544E+03     1.25544E+03     204.728E-03     204.728E-03         5.24906         5.24906
            2627     1.26043E+03     1.26043E+03     146.884E-03     146.884E-03         5.38865         5.38865
            2628     1.26556E+03     1.26556E+03     99.3009E-03     99.3009E-03         5.47080         5.47080
            2629     1.27077E+03     1.27077E+03     59.7140E-03     59.7140E-03         5.50623         5.50623
            2630     1.27602E+03     1.27602E+03     25.8979E-03     25.8979E-03         5.50384         5.50384
            2631     1.28126E+03     1.28126E+03    -4.29588E-03    -4.29588E-03         5.46899         5.46899
            2632     1.28648E+03     1.28648E+03    -32.6293E-03    -32.6293E-03         5.40508         5.40508
            2633     1.29163E+03     1.29163E+03    -61.1315E-03    -61.1315E-03         5.31267         5.31267
            2634     1.29668E+03     1.29668E+03    -91.4540E-03    -91.4540E-03         5.19029         5.19029
            2635     1.30161E+03     1.30161E+03    -125.486E-03    -125.486E-03         5.03395         5.03395
            2636     1.30637E+03     1.30637E+03    -164.743E-03    -164.743E-03         4.83760         4.83760
            2637     1.31093E+03     1.31093E+03    -210.739E-03    -210.739E-03         4.59310         4.59310
            2638     1.31522E+03     1.31522E+03    -264.427E-03    -264.427E-03         4.29073         4.29073
            2639     1.31920E+03     1.31920E+03    -326.307E-03    -326.307E-03         3.91968         3.91968
            2640     1.32278E+03     1.32278E+03    -395.843E-03    -395.843E-03         3.46902         3.46902
            2641     1.32590E+03     1.32590E+03    -471.377E-03    -471.377E-03         2.92911         2.92911
            2642     1.32845E+03     1.32845E+03    -549.496E-03    -549.496E-03         2.29324         2.29324
            2643     1.33036E+03     1.33036E+03    -624.983E-03    -624.983E-03         1.56012         1.56012
            2644     1.33153E+03     1.33153E+03    -690.334E-03    -690.334E-03     736.250E-03     736.250E-03
            2645     1.33189E+03     1.33189E+03    -736.199E-03    -736.199E-03    -161.198E-03    -161.198E-03
            2646     1.33139E+03     1.33139E+03    -751.570E-03    -751.570E-03        -1.10222        -1.10222
            2647     1.32999E+03     1.32999E+03    -725.318E-03    -725.318E-03        -2.04270        -2.04270
            2648     1.32774E+03     1.32774E+03    -647.666E-03    -647.666E-03        -2.92473        -2.92473
            2649     1.32472E+03     1.32472E+03    -511.984E-03    -511.984E-03        -3.67766        -3.67766
            2650     1.38654E+03     1.38654E+03        -43.2713        -43.2713         2.59759         2.59759
            2651     1.37774E+03     1.37774E+03        -30.0700        -30.0700         11.0714         11.0714
            2652     1.36824E+03     1.36824E+03        -20.0148        -20.0148         15.2123         15.2123
            2653     1.35942E+03     1.35942E+03        -12.8302        -12.8302         16.7877         16.7877
            2654     1.35163E+03     1.35163E+03        -7.90985        -7.90985         16.9407         16.9407
            2655     1.34487E+03     1.34487E+03        -4.65502        -4.65502         16.3429         16.3429
            2656     1.33896E+03     1.33896E+03        -2.58006        -2.58006         15.3397         15.3397
            2657     1.33370E+03     1.33370E+03        -1.31768        -1.31768         14.0677         14.0677
            2658     1.32891E+03     1.32891E+03    -598.210E-03    -598.210E-03         12.5201         12.5201
            2659     1.32443E+03     1.32443E+03    -225.197E-03    -225.197E-03         10.5779         10.5779
            2660     1.32014E+03     1.32014E+03    -57.7382E-03    -57.7382E-03         8.01334         8.01334
            2661     1.31594E+03     1.31594E+03    -2.64927E-03    -2.64927E-03         4.49748         4.49748
            2662     1.39629E+03     1.39629E+03        -25.7422        -25.7422         20.6016         20.6016
            2663     1.38152E+03     1.38152E+03        -12.5394        -12.5394         23.9258         23.9258
            2664     1.36888E+03     1.36888E+03        -4.33497        -4.33497         23.7925         23.7925
            2665     1.35852E+03     1.35852E+03     366.053E-03     366.053E-03         22.2140         22.2140
            2666     1.35007E+03     1.35007E+03         2.76841         2.76841         20.1711         20.1711
            2667     1.34306E+03     1.34306E+03         3.71518         3.71518         18.0905         18.0905
            2668     1.33704E+03     1.33704E+03         3.76608         3.76608         16.1125         16.1125
            2669     1.33167E+03     1.33167E+03         3.29030         3.29030         14.2250         14.2250
            2670     1.32663E+03     1.32663E+03         2.54016         2.54016         12.3229         12.3229
            2671     1.32165E+03     1.32165E+03         1.70116         1.70116         10.2244         10.2244
            2672     1.31646E+03     1.31646E+03     924.965E-03     924.965E-03         7.66192         7.66192
            2673     1.31079E+03     1.31079E+03     351.499E-03     351.499E-03         4.27756         4.27756
            2674     1.39766E+03     1.39766E+03         6.34960         6.34960         35.8682         35.8682
            2675     1.37910E+03     1.37910E+03         13.8976         13.8976         32.1704         32.1704
            2676     1.36529E+03     1.36529E+03         16.4790         16.4790         27.6010         27.6010
            2677     1.35488E+03     1.35488E+03         16.3899         16.3899         23.3453         23.3453
            2678     1.34678E+03     1.34678E+03         14.9273         14.9273         19.7438         19.7438
            2679     1.34019E+03     1.34019E+03         12.8076         12.8076         16.7875         16.7875
            2680     1.33452E+03     1.33452E+03         10.4232         10.4232         14.3560         14.3560
            2681     1.32935E+03     1.32935E+03         8.00141         8.00141         12.2899         12.2899
            2682     1.32430E+03     1.32430E+03         5.69006         5.69006         10.4084         10.4084
            2683     1.31902E+03     1.31902E+03         3.60961         3.60961         8.50143         8.50143
            2684     1.31314E+03     1.31314E+03         1.89009         1.89009         6.30881         6.30881
            2685     1.30624E+03     1.30624E+03     697.995E-03     697.995E-03         3.50409         3.50409
            2686     1.39001E+03     1.39001E+03         48.3901         48.3901         39.4701         39.4701
            2687     1.37169E+03     1.37169E+03         44.0954         44.0954         30.6593         30.6593
            2688     1.35910E+03     1.35910E+03         38.1147         38.1147         23.8424         23.8424
            2689     1.34998E+03     1.34998E+03         31.9530         31.9530         18.7580         18.7580
            2690     1.34296E+03     1.34296E+03         26.1640         26.1640         14.9853         14.9853
            2691     1.33719E+03     1.33719E+03         20.8990         20.8990         12.1654         12.1654
            2692     1.33212E+03     1.33212E+03         16.1782         16.1782         10.0178         10.0178
            2693     1.32732E+03     1.32732E+03         11.9843         11.9843         8.32025         8.32025
            2694     1.32241E+03     1.32241E+03         8.30847         8.30847         6.88275         6.88275
            2695     1.31701E+03     1.31701E+03         5.17723         5.17723         5.52477         5.52477
            2696     1.31068E+03     1.31068E+03         2.67603         2.67603         4.05148         4.05148
            2697     1.30289E+03     1.30289E+03     977.351E-03     977.351E-03         2.23494         2.23494
            2698     1.37903E+03     1.37903E+03         85.9297         85.9297         25.0689         25.0689
            2699     1.36384E+03     1.36384E+03         68.2615         68.2615         17.2600         17.2600
            2700     1.35356E+03     1.35356E+03         54.1648         54.1648         12.1754         12.1754
            2701     1.34604E+03     1.34604E+03         42.8956         42.8956         8.77091         8.77091
            2702     1.34013E+03     1.34013E+03         33.7373         33.7373         6.43205         6.43205
            2703     1.33514E+03     1.33514E+03         26.1682         26.1682         4.79880         4.79880
            2704     1.33060E+03     1.33060E+03         19.8186         19.8186         3.64163         3.64163
            2705     1.32613E+03     1.32613E+03         14.4414         14.4414         2.80314         2.80314
            2706     1.32138E+03     1.32138E+03         9.88950         9.88950         2.16880         2.16880
            2707     1.31598E+03     1.31598E+03         6.10828         6.10828         1.64600         1.64600
            2708     1.30947E+03     1.30947E+03         3.14025         3.14025         1.15319         1.15319
            2709     1.30126E+03     1.30126E+03         1.14462         1.14462     614.137E-03     614.137E-03
            2710     1.37465E+03     1.37465E+03         98.8011         98.8011        -4.30182        -4.30182
            2711     1.36130E+03     1.36130E+03         75.3854         75.3854        -4.64022        -4.64022
            2712     1.35205E+03     1.35205E+03         58.3822         58.3822        -4.63800        -4.63800
            2713     1.34514E+03     1.34514E+03         45.4716         45.4716        -4.51321        -4.51321
            2714     1.33963E+03     1.33963E+03         35.3296         35.3296        -4.32124        -4.32124
            2715     1.33491E+03     1.33491E+03         27.1455         27.1455        -4.08609        -4.08609
            2716     1.33055E+03     1.33055E+03         20.4013         20.4013        -3.81232        -3.81232
            2717     1.32621E+03     1.32621E+03         14.7680         14.7680        -3.49309        -3.49309
            2718     1.32155E+03     1.32155E+03         10.0525         10.0525        -3.11104        -3.11104
            2719     1.31622E+03     1.31622E+03         6.17307         6.17307        -2.63385        -2.63385
            2720     1.30977E+03     1.30977E+03         3.15572         3.15572        -2.00647        -2.00647
            2721     1.30163E+03     1.30163E+03         1.14455         1.14455        -1.13913        -1.13913
            2722     1.38189E+03     1.38189E+03         76.0868         76.0868        -32.8315        -32.8315
            2723     1.36639E+03     1.36639E+03         60.4679         60.4679        -25.7734        -25.7734
            2724     1.35577E+03     1.35577E+03         48.1429         48.1429        -20.9033        -20.9033
            2725     1.34796E+03     1.34796E+03         38.2348         38.2348        -17.3878        -17.3878
            2726     1.34184E+03     1.34184E+03         30.1262         30.1262        -14.7587        -14.7587
            2727     1.33672E+03     1.33672E+03         23.3781         23.3781        -12.7143        -12.7143
            2728     1.33211E+03     1.33211E+03         17.6869         17.6869        -11.0443        -11.0443
            2729     1.32764E+03     1.32764E+03         12.8536         12.8536        -9.58633        -9.58633
            2730     1.32298E+03     1.32298E+03         8.76310         8.76310        -8.19731        -8.19731
            2731     1.31777E+03     1.31777E+03         5.37867         5.37867        -6.72872        -6.72872
            2732     1.31161E+03     1.31161E+03         2.74423         2.74423        -4.99943        -4.99943
            2733     1.30402E+03     1.30402E+03     993.003E-03     993.003E-03        -2.78037        -2.78037
            2734     1.39323E+03     1.39323E+03         30.2240         30.2240        -42.1236        -42.1236
            2735     1.37512E+03     1.37512E+03         29.8864         29.8864        -35.5405        -35.5405
            2736     1.36241E+03     1.36241E+03         27.0453         27.0453        -29.9584        -29.9584
            2737     1.35308E+03     1.35308E+03         23.3685         23.3685        -25.4713        -25.4713
            2738     1.34586E+03     1.34586E+03         19.5205         19.5205        -21.8829        -21.8829
            2739     1.33997E+03     1.33997E+03         15.7901         15.7901        -18.9689        -18.9689
            2740     1.33487E+03     1.33487E+03         12.3061         12.3061        -16.5182        -16.5182
            2741     1.33014E+03     1.33014E+03         9.13261         9.13261        -14.3390        -14.3390
            2742     1.32544E+03     1.32544E+03         6.31684         6.31684        -12.2412        -12.2412
            2743     1.32044E+03     1.32044E+03         3.91568         3.91568        -10.0160        -10.0160
            2744     1.31482E+03     1.31482E+03         2.01364         2.01364        -7.40680        -7.40680
            2745     1.30817E+03     1.30817E+03     734.832E-03     734.832E-03        -4.09796        -4.09796
            2746     1.39629E+03     1.39629E+03        -13.0264        -13.0264        -30.2670        -30.2670
            2747     1.38026E+03     1.38026E+03        -2.41360        -2.41360        -30.8732        -30.8732
            2748     1.36759E+03     1.36759E+03         3.22432         3.22432        -29.0935        -29.0935
            2749     1.35771E+03     1.35771E+03         5.81364         5.81364        -26.5859        -26.5859
            2750     1.34987E+03     1.34987E+03         6.60697         6.60697        -23.9990        -23.9990
            2751     1.34346E+03     1.34346E+03         6.35690         6.35690        -21.5356        -21.5356
            2752     1.33800E+03     1.33800E+03         5.52575         5.52575        -19.2150        -19.2150
            2753     1.33311E+03     1.33311E+03         4.40657         4.40657        -16.9608        -16.9608
            2754     1.32849E+03     1.32849E+03         3.19734         3.19734        -14.6367        -14.6367
            2755     1.32386E+03     1.32386E+03         2.04537         2.04537        -12.0481        -12.0481
            2756     1.31898E+03     1.31898E+03         1.07375         1.07375        -8.92929        -8.92929
            2757     1.31360E+03     1.31360E+03     397.523E-03     397.523E-03        -4.93990        -4.93990
            2758     1.38713E+03     1.38713E+03        -38.0817        -38.0817        -9.92721        -9.92721
            2759     1.37756E+03     1.37756E+03        -25.1327        -25.1327        -17.5347        -17.5347
            2760     1.36796E+03     1.36796E+03        -15.7562        -15.7562        -20.8815        -20.8815
            2761     1.35943E+03     1.35943E+03        -9.38405        -9.38405        -21.8288        -21.8288
            2762     1.35215E+03     1.35215E+03        -5.24379        -5.24379        -21.4888        -21.4888
            2763     1.34595E+03     1.34595E+03        -2.66647        -2.66647        -20.4611        -20.4611
            2764     1.34061E+03     1.34061E+03        -1.15428        -1.15428        -19.0283        -19.0283
            2765     1.33589E+03     1.33589E+03    -346.180E-03    -346.180E-03        -17.2881        -17.2881
            2766     1.33159E+03     1.33159E+03     17.0386E-03     17.0386E-03        -15.2122        -15.2122
            2767     1.32755E+03     1.32755E+03     122.201E-03     122.201E-03        -12.6750        -12.6750
            2768     1.32361E+03     1.32361E+03     103.218E-03     103.218E-03        -9.45328        -9.45328
            2769     1.31970E+03     1.31970E+03     49.3914E-03     49.3914E-03        -5.24012        -5.24012
            2770     1.23501E+03     1.23501E+03         359.651         359.651         66.8570         66.8570
            2771     1.24740E+03     1.24740E+03         330.176         330.176         66.4683         66.4683
            2772     1.25952E+03     1.25952E+03         300.680         300.680         64.4161         64.4161
            2773     1.27106E+03     1.27106E+03         271.719         271.719         61.3666         61.3666
            2774     1.28183E+03     1.28183E+03         243.682         243.682         57.4299         57.4299
            2775     1.29164E+03     1.29164E+03         216.918         216.918         52.7382         52.7382
            2776     1.30035E+03     1.30035E+03         191.716         191.716         47.4852         47.4852
            2777     1.30791E+03     1.30791E+03         168.279         168.279         41.8643         41.8643
            2778     1.31429E+03     1.31429E+03         146.741         146.741         36.0784         36.0784
            2779     1.31953E+03     1.31953E+03         127.152         127.152         30.3078         30.3078
            2780     1.32369E+03     1.32369E+03         109.507         109.507         24.7031         24.7031
            2781     1.32685E+03     1.32685E+03         93.7478         93.7478         19.3862         19.3862
            2782     1.32911E+03     1.32911E+03         79.7810         79.7810         14.4371         14.4371
            2783     1.33059E+03     1.33059E+03         67.4921         67.4921         9.91228         9.91228
            2784     1.33138E+03     1.33138E+03         56.7503         56.7503         5.83259         5.83259
            2785     1.33158E+03     1.33158E+03         47.4227         47.4227         2.20441         2.20441
            2786     1.33129E+03     1.33129E+03         39.3722         39.3722    -989.231E-03    -989.231E-03
            2787     1.33058E+03     1.33058E+03         32.4689         32.4689        -3.77210        -3.77210
            2788     1.32953E+03     1.32953E+03         26.5849         26.5849        -6.18055        -6.18055
            2789     1.32819E+03     1.32819E+03         21.6019         21.6019        -8.25267        -8.25267
            2790     1.32661E+03     1.32661E+03         17.4067         17.4067        -10.0321        -10.0321
            2791     1.32485E+03     1.32485E+03         13.8951         13.8951        -11.5615        -11.5615
            2792     1.32294E+03     1.32294E+03         10.9686         10.9686        -12.8857        -12.8857
            2793     1.32091E+03     1.32091E+03         8.53610         8.53610        -14.0479        -14.0479
            2794     1.31880E+03     1.31880E+03         6.51145         6.51145        -15.0919        -15.0919
            2795     1.31661E+03     1.31661E+03         4.81411         4.81411        -16.0609        -16.0609
            2796     1.31438E+03     1.31438E+03         3.36692         3.36692        -16.9993        -16.9993
            2797     1.31212E+03     1.31212E+03         2.09594         2.09594        -17.9527        -17.9527
            2798     1.30986E+03     1.30986E+03     928.348E-03     928.348E-03        -18.9693        -18.9693
            2799     1.30762E+03     1.30762E+03    -208.752E-03    -208.752E-03        -20.1012        -20.1012
            2800     1.30542E+03     1.30542E+03        -1.39093        -1.39093        -21.4058        -21.4058
            2801     1.30331E+03     1.30331E+03        -2.69924        -2.69924        -22.9471        -22.9471
            2802     1.30133E+03     1.30133E+03        -4.22438        -4.22438        -24.7966        -24.7966
            2803     1.29957E+03     1.29957E+03        -6.07267        -6.07267        -27.0337        -27.0337
            2804     1.29815E+03     1.29815E+03        -8.37341        -8.37341        -29.7441        -29.7441
            2805     1.29725E+03     1.29725E+03        -11.2908        -11.2908        -33.0141        -33.0141
            2806     1.29713E+03     1.29713E+03        -15.0357        -15.0357        -36.9170        -36.9170
            2807     1.29822E+03     1.29822E+03        -19.8841        -19.8841        -41.4829        -41.4829
            2808     1.30114E+03     1.30114E+03        -26.1795        -26.1795        -46.6348        -46.6348
            2809     1.30682E+03     1.30682E+03        -34.3234        -34.3234        -52.0598        -52.0598
            2810     1.31652E+03     1.31652E+03        -44.5874        -44.5874        -56.9622        -56.9622
            2811     1.33167E+03     1.33167E+03        -56.7598        -56.7598        -59.7798        -59.7798
            2812     1.23301E+03     1.23301E+03         360.202         360.202         51.3663         51.3663
            2813     1.24499E+03     1.24499E+03         331.828         331.828         51.0521         51.0521
            2814     1.25674E+03     1.25674E+03         303.458         303.458         49.4999         49.4999
            2815     1.26801E+03     1.26801E+03         275.562         275.562         47.2339         47.2339
            2816     1.27861E+03     1.27861E+03         248.467         248.467         44.3107         44.3107
            2817     1.28839E+03     1.28839E+03         222.472         222.472         40.8363         40.8363
            2818     1.29722E+03     1.29722E+03         197.826         197.826         36.9263         36.9263
            2819     1.30502E+03     1.30502E+03         174.728         174.728         32.7248         32.7248
            2820     1.31176E+03     1.31176E+03         153.312         153.312         28.3686         28.3686
            2821     1.31743E+03     1.31743E+03         133.658         133.658         23.9906         23.9906
            2822     1.32206E+03     1.32206E+03         115.789         115.789         19.7058         19.7058
            2823     1.32572E+03     1.32572E+03         99.6859         99.6859         15.6053         15.6053
            2824     1.32846E+03     1.32846E+03         85.2921         85.2921         11.7611         11.7611
            2825     1.33039E+03     1.33039E+03         72.5243         72.5243         8.21663         8.21663
            2826     1.33157E+03     1.33157E+03         61.2831         61.2831         5.00077         5.00077
            2827     1.33210E+03     1.33210E+03         51.4553         51.4553         2.11924         2.11924
            2828     1.33207E+03     1.33207E+03         42.9246         42.9246    -431.098E-03    -431.098E-03
            2829     1.33155E+03     1.33155E+03         35.5707         35.5707        -2.66832        -2.66832
            2830     1.33060E+03     1.33060E+03         29.2771         29.2771        -4.61456        -4.61456
            2831     1.32930E+03     1.32930E+03         23.9290         23.9290        -6.30004        -6.30004
            2832     1.32770E+03     1.32770E+03         19.4182         19.4182        -7.75598        -7.75598
            2833     1.32584E+03     1.32584E+03         15.6409         15.6409        -9.01737        -9.01737
            2834     1.32377E+03     1.32377E+03         12.5005         12.5005        -10.1189        -10.1189
            2835     1.32151E+03     1.32151E+03         9.90565         9.90565        -11.0972        -11.0972
            2836     1.31910E+03     1.31910E+03         7.77168         7.77168        -11.9885        -11.9885
            2837     1.31655E+03     1.31655E+03         6.01892         6.01892        -12.8309        -12.8309
            2838     1.31389E+03     1.31389E+03         4.57315         4.57315        -13.6638        -13.6638
            2839     1.31111E+03     1.31111E+03         3.36411         3.36411        -14.5297        -14.5297
            2840     1.30822E+03     1.30822E+03         2.32511         2.32511        -15.4752        -15.4752
            2841     1.30524E+03     1.30524E+03         1.39135         1.39135        -16.5532        -16.5532
            2842     1.30214E+03     1.30214E+03     498.367E-03     498.367E-03        -17.8248        -17.8248
            2843     1.29895E+03     1.29895E+03    -420.629E-03    -420.629E-03        -19.3632        -19.3632
            2844     1.29565E+03     1.29565E+03        -1.43868        -1.43868        -21.2568        -21.2568
            2845     1.29226E+03     1.29226E+03        -2.64056        -2.64056        -23.6143        -23.6143
            2846     1.28881E+03     1.28881E+03        -4.13238        -4.13238        -26.5709        -26.5709
            2847     1.28535E+03     1.28535E+03        -6.05431        -6.05431        -30.2954        -30.2954
            2848     1.28202E+03     1.28202E+03        -8.60470        -8.60470        -34.9965        -34.9965
            2849     1.27906E+03     1.27906E+03        -12.0708        -12.0708        -40.9273        -40.9273
            2850     1.27692E+03     1.27692E+03        -16.8894        -16.8894        -48.3738        -48.3738
            2851     1.27645E+03     1.27645E+03        -23.7149        -23.7149        -57.6080        -57.6080
            2852     1.27918E+03     1.27918E+03        -33.5442        -33.5442        -68.6875        -68.6875
            2853     1.28777E+03     1.28777E+03        -47.5829        -47.5829        -80.9952        -80.9952
            2854     1.23163E+03     1.23163E+03         360.609         360.609         36.3328         36.3328
            2855     1.24331E+03     1.24331E+03         333.013         333.013         36.0660         36.0660
            2856     1.25480E+03     1.25480E+03         305.432         305.432         34.9523         34.9523
            2857     1.26586E+03     1.26586E+03         278.289         278.289         33.3528         33.3528
            2858     1.27633E+03     1.27633E+03         251.867         251.867         31.3169         31.3169
            2859     1.28606E+03     1.28606E+03         226.428         226.428         28.9004         28.9004
            2860     1.29494E+03     1.29494E+03         202.201         202.201         26.1896         26.1896
            2861     1.30289E+03     1.30289E+03         179.371         179.371         23.2699         23.2699
            2862     1.30985E+03     1.30985E+03         158.077         158.077         20.2374         20.2374
            2863     1.31580E+03     1.31580E+03         138.409         138.409         17.1790         17.1790
            2864     1.32075E+03     1.32075E+03         120.410         120.410         14.1733         14.1733
            2865     1.32475E+03     1.32475E+03         104.085         104.085         11.2868         11.2868
            2866     1.32783E+03     1.32783E+03         89.4025         89.4025         8.56758         8.56758
            2867     1.33007E+03     1.33007E+03         76.3031         76.3031         6.05281         6.05281
            2868     1.33154E+03     1.33154E+03         64.7066         64.7066         3.76095         3.76095
            2869     1.33232E+03     1.33232E+03         54.5197         54.5197         1.70254         1.70254
            2870     1.33249E+03     1.33249E+03         45.6379         45.6379    -126.085E-03    -126.085E-03
            2871     1.33211E+03     1.33211E+03         37.9534         37.9534        -1.73297        -1.73297
            2872     1.33125E+03     1.33125E+03         31.3557         31.3557        -3.13512        -3.13512
            2873     1.32999E+03     1.32999E+03         25.7367         25.7367        -4.35123        -4.35123
            2874     1.32837E+03     1.32837E+03         20.9904         20.9904        -5.40483        -5.40483
            2875     1.32645E+03     1.32645E+03         17.0164         17.0164        -6.31971        -6.31971
            2876     1.32425E+03     1.32425E+03         13.7185         13.7185        -7.12206        -7.12206
            2877     1.32183E+03     1.32183E+03         11.0076         11.0076        -7.83804        -7.83804
            2878     1.31919E+03     1.31919E+03         8.79998         8.79998        -8.49546        -8.49546
            2879     1.31636E+03     1.31636E+03         7.01852         7.01852        -9.12281        -9.12281
            2880     1.31334E+03     1.31334E+03         5.59207         5.59207        -9.75088        -9.75088
            2881     1.31014E+03     1.31014E+03         4.45556         4.45556        -10.4130        -10.4130
            2882     1.30674E+03     1.30674E+03         3.54930         3.54930        -11.1470        -11.1470
            2883     1.30313E+03     1.30313E+03         2.81864         2.81864        -11.9966        -11.9966
            2884     1.29927E+03     1.29927E+03         2.21304         2.21304        -13.0143        -13.0143
            2885     1.29512E+03     1.29512E+03         1.68477         1.68477        -14.2648        -14.2648
            2886     1.29062E+03     1.29062E+03         1.18698         1.18698        -15.8300        -15.8300
            2887     1.28571E+03     1.28571E+03     670.055E-03     670.055E-03        -17.8159        -17.8159
            2888     1.28029E+03     1.28029E+03     76.6976E-03     76.6976E-03        -20.3628        -20.3628
            2889     1.27425E+03     1.27425E+03    -668.663E-03    -668.663E-03        -23.6602        -23.6602
            2890     1.26748E+03     1.26748E+03        -1.67404        -1.67404        -27.9698        -27.9698
            2891     1.25987E+03     1.25987E+03        -3.11265        -3.11265        -33.6583        -33.6583
            2892     1.25134E+03     1.25134E+03        -5.27023        -5.27023        -41.2517        -41.2517
            2893     1.24196E+03     1.24196E+03        -8.65850        -8.65850        -51.5072        -51.5072
            2894     1.23219E+03     1.23219E+03        -14.2256        -14.2256        -65.5369        -65.5369
            2895     1.22364E+03     1.22364E+03        -23.8081        -23.8081        -84.7943        -84.7943
            2896     1.23076E+03     1.23076E+03         360.883         360.883         21.6089         21.6089
            2897     1.24226E+03     1.24226E+03         333.779         333.779         21.3802         21.3802
            2898     1.25358E+03     1.25358E+03         306.697         306.697         20.6559         20.6559
            2899     1.26450E+03     1.26450E+03         280.029         280.029         19.6627         19.6627
            2900     1.27488E+03     1.27488E+03         254.034         254.034         18.4203         18.4203
            2901     1.28458E+03     1.28458E+03         228.952         228.952         16.9712         16.9712
            2902     1.29348E+03     1.29348E+03         204.996         204.996         15.3560         15.3560
            2903     1.30150E+03     1.30150E+03         182.345         182.345         13.6305         13.6305
            2904     1.30859E+03     1.30859E+03         161.137         161.137         11.8447         11.8447
            2905     1.31471E+03     1.31471E+03         141.470         141.470         10.0503         10.0503
            2906     1.31986E+03     1.31986E+03         123.398         123.398         8.29200         8.29200
            2907     1.32406E+03     1.32406E+03         106.939         106.939         6.60633         6.60633
            2908     1.32736E+03     1.32736E+03         92.0775         92.0775         5.02331         5.02331
            2909     1.32980E+03     1.32980E+03         78.7688         78.7688         3.56129         3.56129
            2910     1.33145E+03     1.33145E+03         66.9473         66.9473         2.23394         2.23394
            2911     1.33239E+03     1.33239E+03         56.5296         56.5296         1.04412         1.04412
            2912     1.33268E+03     1.33268E+03         47.4222         47.4222    -7.79831E-03    -7.79831E-03
            2913     1.33240E+03     1.33240E+03         39.5232         39.5232    -929.228E-03    -929.228E-03
            2914     1.33160E+03     1.33160E+03         32.7287         32.7287        -1.72840        -1.72840
            2915     1.33037E+03     1.33037E+03         26.9333         26.9333        -2.41826        -2.41826
            2916     1.32874E+03     1.32874E+03         22.0346         22.0346        -3.01157        -3.01157
            2917     1.32677E+03     1.32677E+03         17.9330         17.9330        -3.52359        -3.52359
            2918     1.32451E+03     1.32451E+03         14.5345         14.5345        -3.96911        -3.96911
            2919     1.32197E+03     1.32197E+03         11.7503         11.7503        -4.36428        -4.36428
            2920     1.31918E+03     1.31918E+03         9.49864         9.49864        -4.72502        -4.72502
            2921     1.31617E+03     1.31617E+03         7.70388         7.70388        -5.06849        -5.06849
            2922     1.31292E+03     1.31292E+03         6.29779         6.29779        -5.41248        -5.41248
            2923     1.30943E+03     1.30943E+03         5.21914         5.21914        -5.77676        -5.77676
            2924     1.30568E+03     1.30568E+03         4.41408         4.41408        -6.18336        -6.18336
            2925     1.30164E+03     1.30164E+03         3.83617         3.83617        -6.65822        -6.65822
            2926     1.29724E+03     1.29724E+03         3.44645         3.44645        -7.23250        -7.23250
            2927     1.29242E+03     1.29242E+03         3.21364         3.21364        -7.94522        -7.94522
            2928     1.28707E+03     1.28707E+03         3.11392         3.11392        -8.84644        -8.84644
            2929     1.28104E+03     1.28104E+03         3.13108         3.13108        -10.0026        -10.0026
            2930     1.27415E+03     1.27415E+03         3.25526         3.25526        -11.5039        -11.5039
            2931     1.26614E+03     1.26614E+03         3.48248         3.48248        -13.4767        -13.4767
            2932     1.25666E+03     1.25666E+03         3.80926         3.80926        -16.1026        -16.1026
            2933     1.24522E+03     1.24522E+03         4.22841         4.22841        -19.6524        -19.6524
            2934     1.23114E+03     1.23114E+03         4.70711         4.70711        -24.5404        -24.5404
            2935     1.21346E+03     1.21346E+03         5.15660         5.15660        -31.4371        -31.4371
            2936     1.19076E+03     1.19076E+03         5.33808         5.33808        -41.4770        -41.4770
            2937     1.16094E+03     1.16094E+03         4.58454         4.58454        -56.7964        -56.7964
            2938     1.23034E+03     1.23034E+03         361.017         361.017         7.08216         7.08216
            2939     1.24175E+03     1.24175E+03         334.146         334.146         6.89509         6.89509
            2940     1.25299E+03     1.25299E+03         307.298         307.298         6.55730         6.55730
            2941     1.26385E+03     1.26385E+03         280.854         280.854         6.13980         6.13980
            2942     1.27419E+03     1.27419E+03         255.057         255.057         5.65991         5.65991
            2943     1.28387E+03     1.28387E+03         230.139         230.139         5.12663         5.12663
            2944     1.29278E+03     1.29278E+03         206.307         206.307         4.56150         4.56150
            2945     1.30084E+03     1.30084E+03         183.735         183.735         3.97808         3.97808
            2946     1.30799E+03     1.30799E+03         162.564         162.564         3.39606         3.39606
            2947     1.31419E+03     1.31419E+03         142.892         142.892         2.82906         2.82906
            2948     1.31942E+03     1.31942E+03         124.782         124.782         2.29034         2.29034
            2949     1.32372E+03     1.32372E+03         108.258         108.258         1.79012         1.79012
            2950     1.32711E+03     1.32711E+03         93.3095         93.3095         1.33415         1.33415
            2951     1.32965E+03     1.32965E+03         79.9010         79.9010     927.754E-03     927.754E-03
            2952     1.33139E+03     1.33139E+03         67.9722         67.9722     570.672E-03     570.672E-03
            2953     1.33239E+03     1.33239E+03         57.4460         57.4460     263.761E-03     263.761E-03
            2954     1.33274E+03     1.33274E+03         48.2324         48.2324     3.12950E-03     3.12950E-03
            2955     1.33250E+03     1.33250E+03         40.2335         40.2335    -213.411E-03    -213.411E-03
            2956     1.33173E+03     1.33173E+03         33.3475         33.3475    -391.282E-03    -391.282E-03
            2957     1.33051E+03     1.33051E+03         27.4709         27.4709    -534.203E-03    -534.203E-03
            2958     1.32888E+03     1.32888E+03         22.5021         22.5021    -647.750E-03    -647.750E-03
            2959     1.32689E+03     1.32689E+03         18.3425         18.3425    -736.054E-03    -736.054E-03
            2960     1.32459E+03     1.32459E+03         14.8983         14.8983    -804.156E-03    -804.156E-03
            2961     1.32200E+03     1.32200E+03         12.0813         12.0813    -855.980E-03    -855.980E-03
            2962     1.31915E+03     1.31915E+03         9.80984         9.80984    -895.826E-03    -895.826E-03
            2963     1.31606E+03     1.31606E+03         8.00918         8.00918    -927.195E-03    -927.195E-03
            2964     1.31271E+03     1.31271E+03         6.61209         6.61209    -953.728E-03    -953.728E-03
            2965     1.30910E+03     1.30910E+03         5.55889         5.55889    -978.554E-03    -978.554E-03
            2966     1.30520E+03     1.30520E+03         4.79821         4.79821        -1.00490        -1.00490
            2967     1.30097E+03     1.30097E+03         4.28693         4.28693        -1.03574        -1.03574
            2968     1.29635E+03     1.29635E+03         3.99128         3.99128        -1.07424        -1.07424
            2969     1.29125E+03     1.29125E+03         3.88688         3.88688        -1.12356        -1.12356
            2970     1.28553E+03     1.28553E+03         3.96058         3.96058        -1.18733        -1.18733
            2971     1.27904E+03     1.27904E+03         4.21063         4.21063        -1.26942        -1.26942
            2972     1.27152E+03     1.27152E+03         4.65026         4.65026        -1.37478        -1.37478
            2973     1.26266E+03     1.26266E+03         5.30770         5.30770        -1.50877        -1.50877
            2974     1.25201E+03     1.25201E+03         6.23406         6.23406        -1.67926        -1.67926
            2975     1.23889E+03     1.23889E+03         7.50183         7.50183        -1.89421        -1.89421
            2976     1.22235E+03     1.22235E+03         9.22319         9.22319        -2.16644        -2.16644
            2977     1.20087E+03     1.20087E+03         11.5451         11.5451        -2.50502        -2.50502
            2978     1.17204E+03     1.17204E+03         14.6963         14.6963        -2.91783        -2.91783
            2979     1.13150E+03     1.13150E+03         19.0036         19.0036        -3.31857        -3.31857
            2980     1.23034E+03     1.23034E+03         361.017         361.017        -7.35901        -7.35901
            2981     1.24176E+03     1.24176E+03         334.135         334.135        -7.47002        -7.47002
            2982     1.25301E+03     1.25301E+03         307.276         307.276        -7.40615        -7.40615
            2983     1.26387E+03     1.26387E+03         280.816         280.816        -7.22862        -7.22862
            2984     1.27422E+03     1.27422E+03         255.002         255.002        -6.94564        -6.94564
            2985     1.28391E+03     1.28391E+03         230.065         230.065        -6.55862        -6.55862
            2986     1.29283E+03     1.29283E+03         206.212         206.212        -6.08423        -6.08423
            2987     1.30089E+03     1.30089E+03         183.622         183.622        -5.53382        -5.53382
            2988     1.30804E+03     1.30804E+03         162.434         162.434        -4.92809        -4.92809
            2989     1.31423E+03     1.31423E+03         142.748         142.748        -4.28412        -4.28412
            2990     1.31947E+03     1.31947E+03         124.628         124.628        -3.62093        -3.62093
            2991     1.32376E+03     1.32376E+03         108.097         108.097        -2.95582        -2.95582
            2992     1.32714E+03     1.32714E+03         93.1465         93.1465        -2.30245        -2.30245
            2993     1.32966E+03     1.32966E+03         79.7391         79.7391        -1.67423        -1.67423
            2994     1.33139E+03     1.33139E+03         67.8147         67.8147        -1.07845        -1.07845
            2995     1.33238E+03     1.33238E+03         57.2952         57.2952    -522.906E-03    -522.906E-03
            2996     1.33272E+03     1.33272E+03         48.0902         48.0902    -9.40725E-03    -9.40725E-03
            2997     1.33247E+03     1.33247E+03         40.1011         40.1011     459.573E-03     459.573E-03
            2998     1.33170E+03     1.33170E+03         33.2253         33.2253     886.193E-03     886.193E-03
            2999     1.33047E+03     1.33047E+03         27.3590         27.3590         1.27206         1.27206
            3000     1.32884E+03     1.32884E+03         22.3998         22.3998         1.62195         1.62195
            3001     1.32685E+03     1.32685E+03         18.2485         18.2485         1.94033         1.94033
            3002     1.32456E+03     1.32456E+03         14.8109         14.8109         2.23381         2.23381
            3003     1.32198E+03     1.32198E+03         11.9983         11.9983         2.50905         2.50905
            3004     1.31915E+03     1.31915E+03         9.72843         9.72843         2.77441         2.77441
            3005     1.31607E+03     1.31607E+03         7.92583         7.92583         3.03889         3.03889
            3006     1.31276E+03     1.31276E+03         6.52235         6.52235         3.31339         3.31339
            3007     1.30919E+03     1.30919E+03         5.45730         5.45730         3.61048         3.61048
            3008     1.30534E+03     1.30534E+03         4.67768         4.67768         3.94564         3.94564
            3009     1.30119E+03     1.30119E+03         4.13850         4.13850         4.33784         4.33784
            3010     1.29665E+03     1.29665E+03         3.80293         3.80293         4.81143         4.81143
            3011     1.29167E+03     1.29167E+03         3.64282         3.64282         5.39777         5.39777
            3012     1.28611E+03     1.28611E+03         3.63887         3.63887         6.13894         6.13894
            3013     1.27982E+03     1.27982E+03         3.78128         3.78128         7.09168         7.09168
            3014     1.27260E+03     1.27260E+03         4.06969         4.06969         8.33589         8.33589
            3015     1.26416E+03     1.26416E+03         4.51354         4.51354         9.98441         9.98441
            3016     1.25410E+03     1.25410E+03         5.13030         5.13030         12.2055         12.2055
            3017     1.24187E+03     1.24187E+03         5.94257         5.94257         15.2508         15.2508
            3018     1.22668E+03     1.22668E+03         6.96624         6.96624         19.5230         19.5230
            3019     1.20740E+03     1.20740E+03         8.18443         8.18443         25.6784         25.6784
            3020     1.18230E+03     1.18230E+03         9.46898         9.46898         34.8880         34.8880
            3021     1.14895E+03     1.14895E+03         10.2863         10.2863         49.3910         49.3910
            3022     1.23076E+03     1.23076E+03         360.888         360.888        -21.8451        -21.8451
            3023     1.24228E+03     1.24228E+03         333.759         333.759        -21.8665        -21.8665
            3024     1.25362E+03     1.25362E+03         306.644         306.644        -21.3736        -21.3736
            3025     1.26456E+03     1.26456E+03         279.937         279.937        -20.5825        -20.5825
            3026     1.27496E+03     1.27496E+03         253.895         253.895        -19.5045        -19.5045
            3027     1.28468E+03     1.28468E+03         228.762         228.762        -18.1759        -18.1759
            3028     1.29359E+03     1.29359E+03         204.753         204.753        -16.6334        -16.6334
            3029     1.30163E+03     1.30163E+03         182.053         182.053        -14.9313        -14.9313
            3030     1.30872E+03     1.30872E+03         160.800         160.800        -13.1206        -13.1206
            3031     1.31483E+03     1.31483E+03         141.097         141.097        -11.2569        -11.2569
            3032     1.31997E+03     1.31997E+03         122.998         122.998        -9.38975        -9.38975
            3033     1.32415E+03     1.32415E+03         106.523         106.523        -7.56227        -7.56227
            3034     1.32742E+03     1.32742E+03         91.6555         91.6555        -5.81137        -5.81137
            3035     1.32983E+03     1.32983E+03         78.3502         78.3502        -4.16223        -4.16223
            3036     1.33146E+03     1.33146E+03         66.5399         66.5399        -2.63499        -2.63499
            3037     1.33236E+03     1.33236E+03         56.1399         56.1399        -1.23813        -1.23813
            3038     1.33263E+03     1.33263E+03         47.0549         47.0549     23.1855E-03     23.1855E-03
            3039     1.33232E+03     1.33232E+03         39.1813         39.1813         1.15275         1.15275
            3040     1.33151E+03     1.33151E+03         32.4135         32.4135         2.15609         2.15609
            3041     1.33026E+03     1.33026E+03         26.6446         26.6446         3.04457         3.04457
            3042     1.32863E+03     1.32863E+03         21.7706         21.7706         3.83030         3.83030
            3043     1.32667E+03     1.32667E+03         17.6907         17.6907         4.52887         4.52887
            3044     1.32442E+03     1.32442E+03         14.3095         14.3095         5.15625         5.15625
            3045     1.32191E+03     1.32191E+03         11.5371         11.5371         5.73073         5.73073
            3046     1.31917E+03     1.31917E+03         9.28980         9.28980         6.27133         6.27133
            3047     1.31621E+03     1.31621E+03         7.49057         7.49057         6.79933         6.79933
            3048     1.31304E+03     1.31304E+03         6.06896         6.06896         7.33791         7.33791
            3049     1.30966E+03     1.30966E+03         4.96095         4.96095         7.91376         7.91376
            3050     1.30604E+03     1.30604E+03         4.10906         4.10906         8.55774         8.55774
            3051     1.30217E+03     1.30217E+03         3.46180         3.46180         9.30715         9.30715
            3052     1.29800E+03     1.29800E+03         2.97340         2.97340         10.2078         10.2078
            3053     1.29348E+03     1.29348E+03         2.60286         2.60286         11.3178         11.3178
            3054     1.28852E+03     1.28852E+03         2.31266         2.31266         12.7124         12.7124
            3055     1.28302E+03     1.28302E+03         2.06654         2.06654         14.4918         14.4918
            3056     1.27686E+03     1.27686E+03         1.82514         1.82514         16.7911         16.7911
            3057     1.26985E+03     1.26985E+03         1.53937         1.53937         19.7989         19.7989
            3058     1.26181E+03     1.26181E+03         1.13604         1.13604         23.7806         23.7806
            3059     1.25248E+03     1.25248E+03     495.088E-03     495.088E-03         29.1248         29.1248
            3060     1.24158E+03     1.24158E+03    -603.196E-03    -603.196E-03         36.4033         36.4033
            3061     1.22889E+03     1.22889E+03        -2.57285        -2.57285         46.4941         46.4941
            3062     1.21440E+03     1.21440E+03        -6.26313        -6.26313         60.7451         60.7451
            3063     1.19898E+03     1.19898E+03        -13.4205        -13.4205         81.1153         81.1153
            3064     1.23163E+03     1.23163E+03         360.619         360.619        -36.5150        -36.5150
            3065     1.24334E+03     1.24334E+03         332.994         332.994        -36.4362        -36.4362
            3066     1.25485E+03     1.25485E+03         305.370         305.370        -35.4963        -35.4963
            3067     1.26594E+03     1.26594E+03         278.174         278.174        -34.0475        -34.0475
            3068     1.27643E+03     1.27643E+03         251.691         251.691        -32.1327        -32.1327
            3069     1.28619E+03     1.28619E+03         226.185         226.185        -29.8023        -29.8023
            3070     1.29509E+03     1.29509E+03         201.891         201.891        -27.1401        -27.1401
            3071     1.30305E+03     1.30305E+03         178.996         178.996        -24.2307        -24.2307
            3072     1.31001E+03     1.31001E+03         157.646         157.646        -21.1721        -21.1721
            3073     1.31595E+03     1.31595E+03         137.931         137.931        -18.0545        -18.0545
            3074     1.32089E+03     1.32089E+03         119.900         119.900        -14.9612        -14.9612
            3075     1.32486E+03     1.32486E+03         103.556         103.556        -11.9641        -11.9641
            3076     1.32791E+03     1.32791E+03         88.8665         88.8665        -9.11675        -9.11675
            3077     1.33011E+03     1.33011E+03         75.7725         75.7725        -6.46169        -6.46169
            3078     1.33154E+03     1.33154E+03         64.1916         64.1916        -4.02205        -4.02205
            3079     1.33228E+03     1.33228E+03         54.0283         54.0283        -1.81254        -1.81254
            3080     1.33241E+03     1.33241E+03         45.1758         45.1758     167.303E-03     167.303E-03
            3081     1.33200E+03     1.33200E+03         37.5242         37.5242         1.92296         1.92296
            3082     1.33112E+03     1.33112E+03         30.9608         30.9608         3.46976         3.46976
            3083     1.32985E+03     1.32985E+03         25.3758         25.3758         4.82534         4.82534
            3084     1.32822E+03     1.32822E+03         20.6613         20.6613         6.01291         6.01291
            3085     1.32631E+03     1.32631E+03         16.7152         16.7152         7.05643         7.05643
            3086     1.32413E+03     1.32413E+03         13.4399         13.4399         7.98292         7.98292
            3087     1.32174E+03     1.32174E+03         10.7447         10.7447         8.81982         8.81982
            3088     1.31916E+03     1.31916E+03         8.54393         8.54393         9.59678         9.59678
            3089     1.31640E+03     1.31640E+03         6.75872         6.75872         10.3447         10.3447
            3090     1.31348E+03     1.31348E+03         5.31540         5.31540         11.0972         11.0972
            3091     1.31041E+03     1.31041E+03         4.14576         4.14576         11.8915         11.8915
            3092     1.30717E+03     1.30717E+03         3.18601         3.18601         12.7699         12.7699
            3093     1.30377E+03     1.30377E+03         2.37603         2.37603         13.7813         13.7813
            3094     1.30017E+03     1.30017E+03         1.65782         1.65782         14.9852         14.9852
            3095     1.29637E+03     1.29637E+03     973.428E-03     973.428E-03         16.4538         16.4538
            3096     1.29234E+03     1.29234E+03     261.800E-03     261.800E-03         18.2784         18.2784
            3097     1.28803E+03     1.28803E+03    -546.693E-03    -546.693E-03         20.5750         20.5750
            3098     1.28342E+03     1.28342E+03        -1.53779        -1.53779         23.4952         23.4952
            3099     1.27851E+03     1.27851E+03        -2.82828        -2.82828         27.2367         27.2367
            3100     1.27330E+03     1.27330E+03        -4.58591        -4.58591         32.0637         32.0637
            3101     1.26791E+03     1.26791E+03        -7.07254        -7.07254         38.3239         38.3239
            3102     1.26259E+03     1.26259E+03        -10.7008        -10.7008         46.4765         46.4765
            3103     1.25796E+03     1.25796E+03        -16.1633        -16.1633         57.0868         57.0868
            3104     1.25533E+03     1.25533E+03        -24.5968        -24.5968         70.7465         70.7465
            3105     1.25732E+03     1.25732E+03        -37.7359        -37.7359         87.7161         87.7161
            3106     1.23301E+03     1.23301E+03         360.213         360.213        -51.4930        -51.4930
            3107     1.24501E+03     1.24501E+03         331.810         331.810        -51.3055        -51.3055
            3108     1.25679E+03     1.25679E+03         303.400         303.400        -49.8679        -49.8679
            3109     1.26808E+03     1.26808E+03         275.453         275.453        -47.7012        -47.7012
            3110     1.27871E+03     1.27871E+03         248.299         248.299        -44.8559        -44.8559
            3111     1.28851E+03     1.28851E+03         222.239         222.239        -41.4344        -41.4344
            3112     1.29736E+03     1.29736E+03         197.529         197.529        -37.5505        -37.5505
            3113     1.30517E+03     1.30517E+03         174.371         174.371        -33.3489        -33.3489
            3114     1.31191E+03     1.31191E+03         152.904         152.904        -28.9679        -28.9679
            3115     1.31757E+03     1.31757E+03         133.209         133.209        -24.5437        -24.5437
            3116     1.32218E+03     1.32218E+03         115.312         115.312        -20.1952        -20.1952
            3117     1.32581E+03     1.32581E+03         99.1933         99.1933        -16.0174        -16.0174
            3118     1.32852E+03     1.32852E+03         84.7961         84.7961        -12.0863        -12.0863
            3119     1.33041E+03     1.33041E+03         72.0360         72.0360        -8.44900        -8.44900
            3120     1.33155E+03     1.33155E+03         60.8115         60.8115        -5.13742        -5.13742
            3121     1.33205E+03     1.33205E+03         51.0073         51.0073        -2.15967        -2.15967
            3122     1.33198E+03     1.33198E+03         42.5053         42.5053     485.358E-03     485.358E-03
            3123     1.33143E+03     1.33143E+03         35.1829         35.1829         2.81446         2.81446
            3124     1.33047E+03     1.33047E+03         28.9219         28.9219         4.84879         4.84879
            3125     1.32915E+03     1.32915E+03         23.6059         23.6059         6.61813         6.61813
            3126     1.32754E+03     1.32754E+03         19.1250         19.1250         8.15354         8.15354
            3127     1.32569E+03     1.32569E+03         15.3741         15.3741         9.49020         9.49020
            3128     1.32364E+03     1.32364E+03         12.2553         12.2553         10.6632         10.6632
            3129     1.32142E+03     1.32142E+03         9.67606         9.67606         11.7097         11.7097
            3130     1.31905E+03     1.31905E+03         7.55020         7.55020         12.6669         12.6669
            3131     1.31657E+03     1.31657E+03         5.79651         5.79651         13.5738         13.5738
            3132     1.31398E+03     1.31398E+03         4.33887         4.33887         14.4709         14.4709
            3133     1.31131E+03     1.31131E+03         3.10463         3.10463         15.4019         15.4019
            3134     1.30857E+03     1.30857E+03         2.02402         2.02402         16.4146         16.4146
            3135     1.30575E+03     1.30575E+03         1.02823         1.02823         17.5631         17.5631
            3136     1.30289E+03     1.30289E+03     47.4998E-03     47.4998E-03         18.9095         18.9095
            3137     1.29998E+03     1.29998E+03    -991.968E-03    -991.968E-03         20.5270         20.5270
            3138     1.29705E+03     1.29705E+03        -2.17254        -2.17254         22.5029         22.5029
            3139     1.29414E+03     1.29414E+03        -3.59116        -3.59116         24.9422         24.9422
            3140     1.29132E+03     1.29132E+03        -5.37019        -5.37019         27.9709         27.9709
            3141     1.28870E+03     1.28870E+03        -7.67003        -7.67003         31.7393         31.7393
            3142     1.28650E+03     1.28650E+03        -10.7147        -10.7147         36.4193         36.4193
            3143     1.28506E+03     1.28506E+03        -14.8166        -14.8166         42.1943         42.1943
            3144     1.28497E+03     1.28497E+03        -20.4313        -20.4313         49.2183         49.2183
            3145     1.28723E+03     1.28723E+03        -28.1769        -28.1769         57.5157         57.5157
            3146     1.29342E+03     1.29342E+03        -38.8491        -38.8491         66.7235         66.7235
            3147     1.30592E+03     1.30592E+03        -53.1407        -53.1407         75.6973         75.6973
            3148     1.23501E+03     1.23501E+03         359.658         359.658        -66.9253        -66.9253
            3149     1.24741E+03     1.24741E+03         330.163         330.163        -66.5976        -66.5976
            3150     1.25954E+03     1.25954E+03         300.640         300.640        -64.6008        -64.6008
            3151     1.27111E+03     1.27111E+03         271.646         271.646        -61.5994        -61.5994
            3152     1.28189E+03     1.28189E+03         243.571         243.571        -57.6997        -57.6997
            3153     1.29171E+03     1.29171E+03         216.767         216.767        -53.0316        -53.0316
            3154     1.30043E+03     1.30043E+03         191.525         191.525        -47.7883        -47.7883
            3155     1.30800E+03     1.30800E+03         168.052         168.052        -42.1635        -42.1635
            3156     1.31438E+03     1.31438E+03         146.483         146.483        -36.3615        -36.3615
            3157     1.31961E+03     1.31961E+03         126.871         126.871        -30.5646        -30.5646
            3158     1.32375E+03     1.32375E+03         109.210         109.210        -24.9256        -24.9256
            3159     1.32689E+03     1.32689E+03         93.4432         93.4432        -19.5688        -19.5688
            3160     1.32913E+03     1.32913E+03         79.4763         79.4763        -14.5760        -14.5760
            3161     1.33059E+03     1.33059E+03         67.1940         67.1940        -10.0056        -10.0056
            3162     1.33135E+03     1.33135E+03         56.4639         56.4639        -5.87994        -5.87994
            3163     1.33153E+03     1.33153E+03         47.1522         47.1522        -2.20649        -2.20649
            3164     1.33122E+03     1.33122E+03         39.1203         39.1203         1.03106         1.03106
            3165     1.33049E+03     1.33049E+03         32.2372         32.2372         3.85582         3.85582
            3166     1.32943E+03     1.32943E+03         26.3737         26.3737         6.30392         6.30392
            3167     1.32808E+03     1.32808E+03         21.4108         21.4108         8.41324         8.41324
            3168     1.32650E+03     1.32650E+03         17.2343         17.2343         10.2274         10.2274
            3169     1.32475E+03     1.32475E+03         13.7393         13.7393         11.7893         11.7893
            3170     1.32285E+03     1.32285E+03         10.8264         10.8264         13.1437         13.1437
            3171     1.32084E+03     1.32084E+03         8.40395         8.40395         14.3341         14.3341
            3172     1.31875E+03     1.31875E+03         6.38503         6.38503         15.4046         15.4046
            3173     1.31660E+03     1.31660E+03         4.68828         4.68828         16.3985         16.3985
            3174     1.31442E+03     1.31442E+03         3.23552         3.23552         17.3603         17.3603
            3175     1.31222E+03     1.31222E+03         1.95160         1.95160         18.3357         18.3357
            3176     1.31004E+03     1.31004E+03     762.156E-03     762.156E-03         19.3727         19.3727
            3177     1.30790E+03     1.30790E+03    -407.654E-03    -407.654E-03         20.5230         20.5230
            3178     1.30582E+03     1.30582E+03        -1.63583        -1.63583         21.8427         21.8427
            3179     1.30387E+03     1.30387E+03        -3.00654        -3.00654         23.3937         23.3937
            3180     1.30209E+03     1.30209E+03        -4.61411        -4.61411         25.2439         25.2439
            3181     1.30058E+03     1.30058E+03        -6.56933        -6.56933         27.4664         27.4664
            3182     1.29949E+03     1.29949E+03        -9.00581        -9.00581         30.1362         30.1362
            3183     1.29899E+03     1.29899E+03        -12.0919        -12.0919         33.3216         33.3216
            3184     1.29940E+03     1.29940E+03        -16.0378        -16.0378         37.0665         37.0665
            3185     1.30115E+03     1.30115E+03        -21.1113        -21.1113         41.3534         41.3534
            3186     1.30486E+03     1.30486E+03        -27.6205        -27.6205         46.0319         46.0319
            3187     1.31143E+03     1.31143E+03        -35.8834        -35.8834         50.6918         50.6918
            3188     1.32195E+03     1.32195E+03        -46.0070        -46.0070         54.4592         54.4592
            3189     1.33759E+03     1.33759E+03        -57.5589        -57.5589         55.7511         55.7511
            3190     1.36001E+03     1.36001E+03        -47.8305        -47.8305        -21.6962        -21.6962
            3191     1.34822E+03     1.34822E+03        -43.6916        -43.6916        -27.6234        -27.6234
            3192     1.33790E+03     1.33790E+03        -38.1004        -38.1004        -30.9485        -30.9485
            3193     1.32948E+03     1.32948E+03        -32.1574        -32.1574        -32.2743        -32.2743
            3194     1.32296E+03     1.32296E+03        -26.5313        -26.5313        -32.2946        -32.2946
            3195     1.31816E+03     1.31816E+03        -21.5237        -21.5237        -31.5530        -31.5530
            3196     1.31478E+03     1.31478E+03        -17.2240        -17.2240        -30.4357        -30.4357
            3197     1.31255E+03     1.31255E+03        -13.6045        -13.6045        -29.1810        -29.1810
            3198     1.31121E+03     1.31121E+03        -10.5913        -10.5913        -27.9268        -27.9268
            3199     1.31058E+03     1.31058E+03        -8.09101        -8.09101        -26.7424        -26.7424
            3200     1.31049E+03     1.31049E+03        -6.00817        -6.00817        -25.6546        -25.6546
            3201     1.31081E+03     1.31081E+03        -4.24997        -4.24997        -24.6637        -24.6637
            3202     1.31145E+03     1.31145E+03        -2.72894        -2.72894        -23.7543        -23.7543
            3203     1.31234E+03     1.31234E+03        -1.36250        -1.36250        -22.9014        -22.9014
            3204     1.31342E+03     1.31342E+03    -71.9539E-03    -71.9539E-03        -22.0742        -22.0742
            3205     1.31465E+03     1.31465E+03         1.21827         1.21827        -21.2382        -21.2382
            3206     1.31599E+03     1.31599E+03         2.58289         2.58289        -20.3560        -20.3560
            3207     1.31740E+03     1.31740E+03         4.09582         4.09582        -19.3875        -19.3875
            3208     1.31887E+03     1.31887E+03         5.83331         5.83331        -18.2897        -18.2897
            3209     1.32037E+03     1.32037E+03         7.87295         7.87295        -17.0169        -17.0169
            3210     1.32188E+03     1.32188E+03         10.2982         10.2982        -15.5196        -15.5196
            3211     1.32337E+03     1.32337E+03         13.1957         13.1957        -13.7453        -13.7453
            3212     1.32482E+03     1.32482E+03         16.6622         16.6622        -11.6376        -11.6376
            3213     1.32619E+03     1.32619E+03         20.7990         20.7990        -9.13762        -9.13762
            3214     1.32743E+03     1.32743E+03         25.7230         25.7230        -6.18305        -6.18305
            3215     1.32851E+03     1.32851E+03         31.5560         31.5560        -2.71329        -2.71329
            3216     1.32936E+03     1.32936E+03         38.4418         38.4418         1.33424         1.33424
            3217     1.32990E+03     1.32990E+03         46.5285         46.5285         6.01093         6.01093
            3218     1.33004E+03     1.33004E+03         55.9913         55.9913         11.3660         11.3660
            3219     1.32966E+03     1.32966E+03         67.0056         67.0056         17.4192         17.4192
            3220     1.32863E+03     1.32863E+03         79.7732         79.7732         24.1803         24.1803
            3221     1.32679E+03     1.32679E+03         94.4854         94.4854         31.6010         31.6010
            3222     1.32400E+03     1.32400E+03         111.339         111.339         39.6093         39.6093
            3223     1.32004E+03     1.32004E+03         130.501         130.501         48.0450         48.0450
            3224     1.31480E+03     1.31480E+03         152.083         152.083         56.7070         56.7070
            3225     1.30810E+03     1.30810E+03         176.136         176.136         65.3057         65.3057
            3226     1.29992E+03     1.29992E+03         202.569         202.569         73.5018         73.5018
            3227     1.29024E+03     1.29024E+03         231.191         231.191         80.9408         80.9408
            3228     1.27921E+03     1.27921E+03         261.623         261.623         87.2399         87.2399
            3229     1.26703E+03     1.26703E+03         293.378         293.378         92.1386         92.1386
            3230     1.25399E+03     1.25399E+03         325.854         325.854         95.3941         95.3941
            3231     1.24056E+03     1.24056E+03         358.249         358.249         96.0465         96.0465
            3232     1.36038E+03     1.36038E+03        -40.3122        -40.3122        -10.9052        -10.9052
            3233     1.35118E+03     1.35118E+03        -38.6333        -38.6333        -17.5853        -17.5853
            3234     1.34257E+03     1.34257E+03        -35.1617        -35.1617        -22.2251        -22.2251
            3235     1.33499E+03     1.33499E+03        -30.7935        -30.7935        -25.1411        -25.1411
            3236     1.32866E+03     1.32866E+03        -26.2148        -26.2148        -26.7249        -26.7249
            3237     1.32362E+03     1.32362E+03        -21.8406        -21.8406        -27.3841        -27.3841
            3238     1.31975E+03     1.31975E+03        -17.8821        -17.8821        -27.4463        -27.4463
            3239     1.31690E+03     1.31690E+03        -14.4184        -14.4184        -27.1549        -27.1549
            3240     1.31490E+03     1.31490E+03        -11.4495        -11.4495        -26.6714        -26.6714
            3241     1.31359E+03     1.31359E+03        -8.93506        -8.93506        -26.0975        -26.0975
            3242     1.31285E+03     1.31285E+03        -6.81301        -6.81301        -25.4901        -25.4901
            3243     1.31256E+03     1.31256E+03        -5.01295        -5.01295        -24.8766        -24.8766
            3244     1.31263E+03     1.31263E+03        -3.46131        -3.46131        -24.2634        -24.2634
            3245     1.31298E+03     1.31298E+03        -2.08459        -2.08459        -23.6432        -23.6432
            3246     1.31356E+03     1.31356E+03    -810.508E-03    -810.508E-03        -22.9991        -22.9991
            3247     1.31433E+03     1.31433E+03     432.309E-03     432.309E-03        -22.3071        -22.3071
            3248     1.31525E+03     1.31525E+03         1.71407         1.71407        -21.5376        -21.5376
            3249     1.31629E+03     1.31629E+03         3.10584         3.10584        -20.6561        -20.6561
            3250     1.31743E+03     1.31743E+03         4.67893         4.67893        -19.6233        -19.6233
            3251     1.31864E+03     1.31864E+03         6.50844         6.50844        -18.3949        -18.3949
            3252     1.31992E+03     1.31992E+03         8.67152         8.67152        -16.9219        -16.9219
            3253     1.32123E+03     1.32123E+03         11.2532         11.2532        -15.1495        -15.1495
            3254     1.32257E+03     1.32257E+03         14.3422         14.3422        -13.0184        -13.0184
            3255     1.32390E+03     1.32390E+03         18.0410         18.0410        -10.4630        -10.4630
            3256     1.32519E+03     1.32519E+03         22.4573         22.4573        -7.41501        -7.41501
            3257     1.32641E+03     1.32641E+03         27.7202         27.7202        -3.80015        -3.80015
            3258     1.32751E+03     1.32751E+03         33.9648         33.9648     452.984E-03     452.984E-03
            3259     1.32841E+03     1.32841E+03         41.3581         41.3581         5.41980         5.41980
            3260     1.32903E+03     1.32903E+03         50.0714         50.0714         11.1592         11.1592
            3261     1.32925E+03     1.32925E+03         60.3185         60.3185         17.7295         17.7295
            3262     1.32893E+03     1.32893E+03         72.3116         72.3116         25.1445         25.1445
            3263     1.32791E+03     1.32791E+03         86.3060         86.3060         33.4082         33.4082
            3264     1.32597E+03     1.32597E+03         102.541         102.541         42.4339         42.4339
            3265     1.32292E+03     1.32292E+03         121.264         121.264         52.1065         52.1065
            3266     1.31849E+03     1.31849E+03         142.675         142.675         62.1755         62.1755
            3267     1.31253E+03     1.31253E+03         166.885         166.885         72.3344         72.3344
            3268     1.30483E+03     1.30483E+03         193.905         193.905         82.1630         82.1630
            3269     1.29542E+03     1.29542E+03         223.520         223.520         91.1729         91.1729
            3270     1.28433E+03     1.28433E+03         255.371         255.371         98.9161         98.9161
            3271     1.27184E+03     1.27184E+03         288.842         288.842         104.920         104.920
            3272     1.25832E+03     1.25832E+03         323.190         323.190         108.958         108.958
            3273     1.24420E+03     1.24420E+03         357.459         357.459         109.801         109.801
            3274     1.35786E+03     1.35786E+03        -32.7541        -32.7541        -2.97408        -2.97408
            3275     1.35106E+03     1.35106E+03        -32.9011        -32.9011        -9.65121        -9.65121
            3276     1.34421E+03     1.34421E+03        -31.0846        -31.0846        -14.8393        -14.8393
            3277     1.33778E+03     1.33778E+03        -28.1254        -28.1254        -18.6558        -18.6558
            3278     1.33207E+03     1.33207E+03        -24.6219        -24.6219        -21.3005        -21.3005
            3279     1.32722E+03     1.32722E+03        -21.0111        -21.0111        -23.0197        -23.0197
            3280     1.32325E+03     1.32325E+03        -17.5623        -17.5623        -24.0578        -24.0578
            3281     1.32011E+03     1.32011E+03        -14.4215        -14.4215        -24.6169        -24.6169
            3282     1.31770E+03     1.31770E+03        -11.6486        -11.6486        -24.8524        -24.8524
            3283     1.31592E+03     1.31592E+03        -9.24853        -9.24853        -24.8735        -24.8735
            3284     1.31467E+03     1.31467E+03        -7.19371        -7.19371        -24.7530        -24.7530
            3285     1.31387E+03     1.31387E+03        -5.43760        -5.43760        -24.5348        -24.5348
            3286     1.31342E+03     1.31342E+03        -3.92377        -3.92377        -24.2421        -24.2421
            3287     1.31328E+03     1.31328E+03        -2.59098        -2.59098        -23.8821        -23.8821
            3288     1.31338E+03     1.31338E+03        -1.37575        -1.37575        -23.4505        -23.4505
            3289     1.31370E+03     1.31370E+03    -214.211E-03    -214.211E-03        -22.9336        -22.9336
            3290     1.31418E+03     1.31418E+03     958.343E-03     958.343E-03        -22.3100        -22.3100
            3291     1.31482E+03     1.31482E+03         2.20653         2.20653        -21.5516        -21.5516
            3292     1.31558E+03     1.31558E+03         3.59723         3.59723        -20.6238        -20.6238
            3293     1.31647E+03     1.31647E+03         5.19832         5.19832        -19.4852        -19.4852
            3294     1.31746E+03     1.31746E+03         7.08311         7.08311        -18.0881        -18.0881
            3295     1.31855E+03     1.31855E+03         9.32763         9.32763        -16.3777        -16.3777
            3296     1.31972E+03     1.31972E+03         12.0184         12.0184        -14.2918        -14.2918
            3297     1.32096E+03     1.32096E+03         15.2466         15.2466        -11.7616        -11.7616
            3298     1.32226E+03     1.32226E+03         19.1216         19.1216        -8.71016        -8.71016
            3299     1.32359E+03     1.32359E+03         23.7590         23.7590        -5.05608        -5.05608
            3300     1.32490E+03     1.32490E+03         29.3046         29.3046    -709.723E-03    -709.723E-03
            3301     1.32616E+03     1.32616E+03         35.9109         35.9109         4.41522         4.41522
            3302     1.32727E+03     1.32727E+03         43.7776         43.7776         10.4123         10.4123
            3303     1.32814E+03     1.32814E+03         53.1085         53.1085         17.3515         17.3515
            3304     1.32863E+03     1.32863E+03         64.1740         64.1740         25.3063         25.3063
            3305     1.32856E+03     1.32856E+03         77.2396         77.2396         34.2827         34.2827
            3306     1.32770E+03     1.32770E+03         92.6418         92.6418         44.2795         44.2795
            3307     1.32576E+03     1.32576E+03         110.691         110.691         55.1516         55.1516
            3308     1.32249E+03     1.32249E+03         131.706         131.706         66.7192         66.7192
            3309     1.31751E+03     1.31751E+03         155.934         155.934         78.5916         78.5916
            3310     1.31065E+03     1.31065E+03         183.447         183.447         90.2970         90.2970
            3311     1.30167E+03     1.30167E+03         214.170         214.170         101.233         101.233
            3312     1.29070E+03     1.29070E+03         247.649         247.649         110.701         110.701
            3313     1.27793E+03     1.27793E+03         283.223         283.223         118.182         118.182
            3314     1.26378E+03     1.26378E+03         319.926         319.926         123.139         123.139
            3315     1.24898E+03     1.24898E+03         356.492         356.492         124.313         124.313
            3316     1.35376E+03     1.35376E+03        -25.8195        -25.8195         2.49052         2.49052
            3317     1.34900E+03     1.34900E+03        -27.1076        -27.1076        -3.64754        -3.64754
            3318     1.34378E+03     1.34378E+03        -26.5130        -26.5130        -8.87188        -8.87188
            3319     1.33856E+03     1.33856E+03        -24.6830        -24.6830        -13.0901        -13.0901
            3320     1.33366E+03     1.33366E+03        -22.1484        -22.1484        -16.3610        -16.3610
            3321     1.32927E+03     1.32927E+03        -19.3048        -19.3048        -18.8072        -18.8072
            3322     1.32546E+03     1.32546E+03        -16.4350        -16.4350        -20.5796        -20.5796
            3323     1.32227E+03     1.32227E+03        -13.7152        -13.7152        -21.8271        -21.8271
            3324     1.31966E+03     1.31966E+03        -11.2424        -11.2424        -22.6765        -22.6765
            3325     1.31757E+03     1.31757E+03        -9.05567        -9.05567        -23.2292        -23.2292
            3326     1.31595E+03     1.31595E+03        -7.15551        -7.15551        -23.5595        -23.5595
            3327     1.31472E+03     1.31472E+03        -5.51778        -5.51778        -23.7196        -23.7196
            3328     1.31383E+03     1.31383E+03        -4.10319        -4.10319        -23.7426        -23.7426
            3329     1.31322E+03     1.31322E+03        -2.86368        -2.86368        -23.6468        -23.6468
            3330     1.31286E+03     1.31286E+03        -1.74654        -1.74654        -23.4378        -23.4378
            3331     1.31271E+03     1.31271E+03    -696.269E-03    -696.269E-03        -23.1114        -23.1114
            3332     1.31275E+03     1.31275E+03     343.587E-03     343.587E-03        -22.6541        -22.6541
            3333     1.31295E+03     1.31295E+03         1.43126         1.43126        -22.0445        -22.0445
            3334     1.31331E+03     1.31331E+03         2.62548         2.62548        -21.2531        -21.2531
            3335     1.31381E+03     1.31381E+03         3.98849         3.98849        -20.2428        -20.2428
            3336     1.31446E+03     1.31446E+03         5.58408         5.58408        -18.9682        -18.9682
            3337     1.31526E+03     1.31526E+03         7.48342         7.48342        -17.3758        -17.3758
            3338     1.31620E+03     1.31620E+03         9.76098         9.76098        -15.4030        -15.4030
            3339     1.31729E+03     1.31729E+03         12.5052         12.5052        -12.9778        -12.9778
            3340     1.31852E+03     1.31852E+03         15.8096         15.8096        -10.0192        -10.0192
            3341     1.31988E+03     1.31988E+03         19.7929         19.7929        -6.43547        -6.43547
            3342     1.32136E+03     1.32136E+03         24.5803         24.5803        -2.12802        -2.12802
            3343     1.32293E+03     1.32293E+03         30.3402         30.3402         3.01365         3.01365
            3344     1.32452E+03     1.32452E+03         37.2475         37.2475         9.09697         9.09697
            3345     1.32606E+03     1.32606E+03         45.5484         45.5484         16.2422         16.2422
            3346     1.32742E+03     1.32742E+03         55.4908         55.4908         24.5374         24.5374
            3347     1.32843E+03     1.32843E+03         67.4302         67.4302         34.0824         34.0824
            3348     1.32883E+03     1.32883E+03         81.7092         81.7092         44.8735         44.8735
            3349     1.32835E+03     1.32835E+03         98.7900         98.7900         56.9090         56.9090
            3350     1.32653E+03     1.32653E+03         119.093         119.093         69.9494         69.9494
            3351     1.32305E+03     1.32305E+03         143.032         143.032         83.7124         83.7124
            3352     1.31735E+03     1.31735E+03         170.915         170.915         97.5813         97.5813
            3353     1.30928E+03     1.30928E+03         202.693         202.693         110.811         110.811
            3354     1.29861E+03     1.29861E+03         238.087         238.087         122.555         122.555
            3355     1.28564E+03     1.28564E+03         276.195         276.195         131.833         131.833
            3356     1.27091E+03     1.27091E+03         315.834         315.834         138.147         138.147
            3357     1.25507E+03     1.25507E+03         355.387         355.387         139.688         139.688
            3358     1.34902E+03     1.34902E+03        -19.8398        -19.8398         6.04195         6.04195
            3359     1.34585E+03     1.34585E+03        -21.6747        -21.6747     674.384E-03     674.384E-03
            3360     1.34205E+03     1.34205E+03        -21.8669        -21.8669        -4.24410        -4.24410
            3361     1.33798E+03     1.33798E+03        -20.8812        -20.8812        -8.51454        -8.51454
            3362     1.33393E+03     1.33393E+03        -19.1410        -19.1410        -12.0747        -12.0747
            3363     1.33011E+03     1.33011E+03        -16.9942        -16.9942        -14.9536        -14.9536
            3364     1.32663E+03     1.32663E+03        -14.6999        -14.6999        -17.2237        -17.2237
            3365     1.32355E+03     1.32355E+03        -12.4400        -12.4400        -18.9772        -18.9772
            3366     1.32089E+03     1.32089E+03        -10.3266        -10.3266        -20.3066        -20.3066
            3367     1.31862E+03     1.31862E+03        -8.41906        -8.41906        -21.2941        -21.2941
            3368     1.31672E+03     1.31672E+03        -6.73786        -6.73786        -22.0077        -22.0077
            3369     1.31515E+03     1.31515E+03        -5.27653        -5.27653        -22.4998        -22.4998
            3370     1.31386E+03     1.31386E+03        -4.01081        -4.01081        -22.8085        -22.8085
            3371     1.31282E+03     1.31282E+03        -2.90544        -2.90544        -22.9586        -22.9586
            3372     1.31200E+03     1.31200E+03        -1.91829        -1.91829        -22.9638        -22.9638
            3373     1.31139E+03     1.31139E+03        -1.00370        -1.00370        -22.8273        -22.8273
            3374     1.31095E+03     1.31095E+03    -113.345E-03    -113.345E-03        -22.5429        -22.5429
            3375     1.31068E+03     1.31068E+03     802.048E-03     802.048E-03        -22.0957        -22.0957
            3376     1.31058E+03     1.31058E+03         1.79412         1.79412        -21.4619        -21.4619
            3377     1.31065E+03     1.31065E+03         2.91537         2.91537        -20.6091        -20.6091
            3378     1.31089E+03     1.31089E+03         4.22297         4.22297        -19.4959        -19.4959
            3379     1.31132E+03     1.31132E+03         5.77612         5.77612        -18.0710        -18.0710
            3380     1.31195E+03     1.31195E+03         7.64353         7.64353        -16.2733        -16.2733
            3381     1.31279E+03     1.31279E+03         9.89774         9.89774        -14.0305        -14.0305
            3382     1.31385E+03     1.31385E+03         12.6294         12.6294        -11.2585        -11.2585
            3383     1.31516E+03     1.31516E+03         15.9350         15.9350        -7.86086        -7.86086
            3384     1.31670E+03     1.31670E+03         19.9445         19.9445        -3.72707        -3.72707
            3385     1.31849E+03     1.31849E+03         24.7948         24.7948         1.26451         1.26451
            3386     1.32050E+03     1.32050E+03         30.6841         30.6841         7.25272         7.25272
            3387     1.32267E+03     1.32267E+03         37.8154         37.8154         14.3761         14.3761
            3388     1.32491E+03     1.32491E+03         46.5009         46.5009         22.7955         22.7955
            3389     1.32708E+03     1.32708E+03         57.0481         57.0481         32.6293         32.6293
            3390     1.32895E+03     1.32895E+03         69.9414         69.9414         44.0250         44.0250
            3391     1.33018E+03     1.33018E+03         85.6367         85.6367         56.9681         56.9681
            3392     1.33036E+03     1.33036E+03         104.799         104.799         71.4703         71.4703
            3393     1.32880E+03     1.32880E+03         128.025         128.025         87.1292         87.1292
            3394     1.32506E+03     1.32506E+03         155.854         155.854         103.486         103.486
            3395     1.31831E+03     1.31831E+03         188.650         188.650         119.545         119.545
            3396     1.30852E+03     1.30852E+03         226.041         226.041         134.089         134.089
            3397     1.29556E+03     1.29556E+03         267.281         267.281         145.993         145.993
            3398     1.28008E+03     1.28008E+03         310.667         310.667         153.941         153.941
            3399     1.26333E+03     1.26333E+03         353.969         353.969         156.238         156.238
            3400     1.34421E+03     1.34421E+03        -14.8647        -14.8647         8.18878         8.18878
            3401     1.34224E+03     1.34224E+03        -16.8197        -16.8197         3.63550         3.63550
            3402     1.33960E+03     1.33960E+03        -17.4306        -17.4306    -807.209E-03    -807.209E-03
            3403     1.33655E+03     1.33655E+03        -17.0127        -17.0127        -4.89303        -4.89303
            3404     1.33333E+03     1.33333E+03        -15.8835        -15.8835        -8.49351        -8.49351
            3405     1.33011E+03     1.33011E+03        -14.3234        -14.3234        -11.5640        -11.5640
            3406     1.32703E+03     1.32703E+03        -12.5580        -12.5580        -14.1171        -14.1171
            3407     1.32416E+03     1.32416E+03        -10.7530        -10.7530        -16.1960        -16.1960
            3408     1.32154E+03     1.32154E+03        -9.02085        -9.02085        -17.8585        -17.8585
            3409     1.31919E+03     1.31919E+03        -7.42812        -7.42812        -19.1653        -19.1653
            3410     1.31708E+03     1.31708E+03        -6.00635        -6.00635        -20.1726        -20.1726
            3411     1.31521E+03     1.31521E+03        -4.76095        -4.76095        -20.9285        -20.9285
            3412     1.31356E+03     1.31356E+03        -3.67951        -3.67951        -21.4717        -21.4717
            3413     1.31211E+03     1.31211E+03        -2.73755        -2.73755        -21.8308        -21.8308
            3414     1.31084E+03     1.31084E+03        -1.90329        -1.90329        -22.0244        -22.0244
            3415     1.30974E+03     1.30974E+03        -1.14012        -1.14012        -22.0620        -22.0620
            3416     1.30880E+03     1.30880E+03    -409.170E-03    -409.170E-03        -21.9433        -21.9433
            3417     1.30802E+03     1.30802E+03     330.774E-03     330.774E-03        -21.6597        -21.6597
            3418     1.30740E+03     1.30740E+03         1.12165         1.12165        -21.1930        -21.1930
            3419     1.30696E+03     1.30696E+03         2.00827         2.00827        -20.5161        -20.5161
            3420     1.30672E+03     1.30672E+03         3.03650         3.03650        -19.5922        -19.5922
            3421     1.30669E+03     1.30669E+03         4.25805         4.25805        -18.3746        -18.3746
            3422     1.30690E+03     1.30690E+03         5.72701         5.72701        -16.8049        -16.8049
            3423     1.30737E+03     1.30737E+03         7.50928         7.50928        -14.8135        -14.8135
            3424     1.30815E+03     1.30815E+03         9.67490         9.67490        -12.3161        -12.3161
            3425     1.30926E+03     1.30926E+03         12.3170         12.3170        -9.21509        -9.21509
            3426     1.31074E+03     1.31074E+03         15.5345         15.5345        -5.39433        -5.39433
            3427     1.31262E+03     1.31262E+03         19.4711         19.4711    -720.395E-03    -720.395E-03
            3428     1.31491E+03     1.31491E+03         24.2762         24.2762         4.95972         4.95972
            3429     1.31759E+03     1.31759E+03         30.1865         30.1865         11.8233         11.8233
            3430     1.32066E+03     1.32066E+03         37.4390         37.4390         20.0559         20.0559
            3431     1.32399E+03     1.32399E+03         46.4386         46.4386         29.8804         29.8804
            3432     1.32742E+03     1.32742E+03         57.5711         57.5711         41.4693         41.4693
            3433     1.33066E+03     1.33066E+03         71.5225         71.5225         55.0570         55.0570
            3434     1.33321E+03     1.33321E+03         88.9171         88.9171         70.6221         70.6221
            3435     1.33448E+03     1.33448E+03         110.769         110.769         88.2270         88.2270
            3436     1.33333E+03     1.33333E+03         137.975         137.975         107.164         107.164
            3437     1.32920E+03     1.32920E+03         171.207         171.207         126.631         126.631
            3438     1.32080E+03     1.32080E+03         210.826         210.826         144.991         144.991
            3439     1.30843E+03     1.30843E+03         255.647         255.647         160.190         160.190
            3440     1.29247E+03     1.29247E+03         303.871         303.871         170.926         170.926
            3441     1.27411E+03     1.27411E+03         352.304         352.304         174.050         174.050
            3442     1.33963E+03     1.33963E+03        -10.8149        -10.8149         9.30824         9.30824
            3443     1.33858E+03     1.33858E+03        -12.6099        -12.6099         5.51790         5.51790
            3444     1.33689E+03     1.33689E+03        -13.3661        -13.3661         1.61691         1.61691
            3445     1.33472E+03     1.33472E+03        -13.2848        -13.2848        -2.14416        -2.14416
            3446     1.33225E+03     1.33225E+03        -12.5922        -12.5922        -5.60325        -5.60325
            3447     1.32963E+03     1.32963E+03        -11.5020        -11.5020        -8.67345        -8.67345
            3448     1.32698E+03     1.32698E+03        -10.1953        -10.1953        -11.3225        -11.3225
            3449     1.32436E+03     1.32436E+03        -8.81356        -8.81356        -13.5565        -13.5565
            3450     1.32183E+03     1.32183E+03        -7.45663        -7.45663        -15.4038        -15.4038
            3451     1.31943E+03     1.31943E+03        -6.18898        -6.18898        -16.9045        -16.9045
            3452     1.31716E+03     1.31716E+03        -5.04504        -5.04504        -18.1020        -18.1020
            3453     1.31503E+03     1.31503E+03        -4.03680        -4.03680        -19.0378        -19.0378
            3454     1.31303E+03     1.31303E+03        -3.15966        -3.15966        -19.7486        -19.7486
            3455     1.31116E+03     1.31116E+03        -2.39791        -2.39791        -20.2640        -20.2640
            3456     1.30942E+03     1.30942E+03        -1.72833        -1.72833        -20.6058        -20.6058
            3457     1.30781E+03     1.30781E+03        -1.12341        -1.12341        -20.7877        -20.7877
            3458     1.30633E+03     1.30633E+03    -552.541E-03    -552.541E-03        -20.8147        -20.8147
            3459     1.30498E+03     1.30498E+03     16.1313E-03     16.1313E-03        -20.6830        -20.6830
            3460     1.30379E+03     1.30379E+03     616.466E-03     616.466E-03        -20.3806        -20.3806
            3461     1.30277E+03     1.30277E+03         1.28289         1.28289        -19.8854        -19.8854
            3462     1.30195E+03     1.30195E+03         2.05312         2.05312        -19.1667        -19.1667
            3463     1.30135E+03     1.30135E+03         2.96606         2.96606        -18.1825        -18.1825
            3464     1.30102E+03     1.30102E+03         4.06751         4.06751        -16.8809        -16.8809
            3465     1.30100E+03     1.30100E+03         5.40582         5.40582        -15.1957        -15.1957
            3466     1.30134E+03     1.30134E+03         7.04334         7.04334        -13.0487        -13.0487
            3467     1.30209E+03     1.30209E+03         9.04670         9.04670        -10.3426        -10.3426
            3468     1.30332E+03     1.30332E+03         11.5107         11.5107        -6.96443        -6.96443
            3469     1.30508E+03     1.30508E+03         14.5357         14.5357        -2.77475        -2.77475
            3470     1.30744E+03     1.30744E+03         18.2798         18.2798         2.38726         2.38726
            3471     1.31046E+03     1.31046E+03         22.9047         22.9047         8.71713         8.71713
            3472     1.31414E+03     1.31414E+03         28.6939         28.6939         16.4432         16.4432
            3473     1.31852E+03     1.31852E+03         35.9224         35.9224         25.8237         25.8237
            3474     1.32347E+03     1.32347E+03         45.1237         45.1237         37.1762         37.1762
            3475     1.32884E+03     1.32884E+03         56.7836         56.7836         50.7729         50.7729
            3476     1.33422E+03     1.33422E+03         71.9122         71.9122         67.0093         67.0093
            3477     1.33891E+03     1.33891E+03         91.3853         91.3853         85.8788         85.8788
            3478     1.34196E+03     1.34196E+03         116.869         116.869         107.598         107.598
            3479     1.34135E+03     1.34135E+03         149.830         149.830         130.827         130.827
            3480     1.33641E+03     1.33641E+03         190.938         190.938         154.004         154.004
            3481     1.32528E+03     1.32528E+03         240.248         240.248         174.431         174.431
            3482     1.30902E+03     1.30902E+03         294.653         294.653         188.609         188.609
            3483     1.28961E+03     1.28961E+03         349.859         349.859         193.847         193.847
            3484     1.33544E+03     1.33544E+03        -7.56042        -7.56042         9.63894         9.63894
            3485     1.33515E+03     1.33515E+03        -9.03681        -9.03681         6.52706         6.52706
            3486     1.33425E+03     1.33425E+03        -9.75387        -9.75387         3.17873         3.17873
            3487     1.33286E+03     1.33286E+03        -9.83579        -9.83579    -173.201E-03    -173.201E-03
            3488     1.33108E+03     1.33108E+03        -9.43480        -9.43480        -3.36019        -3.36019
            3489     1.32901E+03     1.32901E+03        -8.70446        -8.70446        -6.27368        -6.27368
            3490     1.32676E+03     1.32676E+03        -7.78131        -7.78131        -8.85591        -8.85591
            3491     1.32439E+03     1.32439E+03        -6.77560        -6.77560        -11.0869        -11.0869
            3492     1.32197E+03     1.32197E+03        -5.76923        -5.76923        -12.9736        -12.9736
            3493     1.31954E+03     1.31954E+03        -4.81681        -4.81681        -14.5392        -14.5392
            3494     1.31711E+03     1.31711E+03        -3.95029        -3.95029        -15.8155        -15.8155
            3495     1.31472E+03     1.31472E+03        -3.18311        -3.18311        -16.8370        -16.8370
            3496     1.31236E+03     1.31236E+03        -2.51535        -2.51535        -17.6370        -17.6370
            3497     1.31006E+03     1.31006E+03        -1.93737        -1.93737        -18.2444        -18.2444
            3498     1.30783E+03     1.30783E+03        -1.43335        -1.43335        -18.6824        -18.6824
            3499     1.30567E+03     1.30567E+03    -983.263E-03    -983.263E-03        -18.9673        -18.9673
            3500     1.30359E+03     1.30359E+03    -564.932E-03    -564.932E-03        -19.1078        -19.1078
            3501     1.30163E+03     1.30163E+03    -154.320E-03    -154.320E-03        -19.1049        -19.1049
            3502     1.29978E+03     1.29978E+03     273.162E-03     273.162E-03        -18.9509        -18.9509
            3503     1.29810E+03     1.29810E+03     743.912E-03     743.912E-03        -18.6302        -18.6302
            3504     1.29659E+03     1.29659E+03         1.28480         1.28480        -18.1173        -18.1173
            3505     1.29532E+03     1.29532E+03         1.92626         1.92626        -17.3780        -17.3780
            3506     1.29432E+03     1.29432E+03         2.70002         2.70002        -16.3659        -16.3659
            3507     1.29364E+03     1.29364E+03         3.64525         3.64525        -15.0247        -15.0247
            3508     1.29336E+03     1.29336E+03         4.80389         4.80389        -13.2811        -13.2811
            3509     1.29355E+03     1.29355E+03         6.23319         6.23319        -11.0495        -11.0495
            3510     1.29429E+03     1.29429E+03         7.99494         7.99494        -8.21933        -8.21933
            3511     1.29569E+03     1.29569E+03         10.1830         10.1830        -4.66323        -4.66323
            3512     1.29784E+03     1.29784E+03         12.8968         12.8968    -214.257E-03    -214.257E-03
            3513     1.30086E+03     1.30086E+03         16.3062         16.3062         5.31833         5.31833
            3514     1.30487E+03     1.30487E+03         20.5827         20.5827         12.1869         12.1869
            3515     1.30995E+03     1.30995E+03         26.0605         26.0605         20.6840         20.6840
            3516     1.31620E+03     1.31620E+03         33.0524         33.0524         31.1810         31.1810
            3517     1.32354E+03     1.32354E+03         42.2648         42.2648         44.1359         44.1359
            3518     1.33188E+03     1.33188E+03         54.3013         54.3013         60.0120         60.0120
            3519     1.34065E+03     1.34065E+03         70.7063         70.7063         79.5038         79.5038
            3520     1.34890E+03     1.34890E+03         92.7248         92.7248         102.709         102.709
            3521     1.35498E+03     1.35498E+03         123.387         123.387         130.295         130.295
            3522     1.35484E+03     1.35484E+03         165.347         165.347         159.454         159.454
            3523     1.34809E+03     1.34809E+03         218.530         218.530         186.708         186.708
            3524     1.33252E+03     1.33252E+03         281.485         281.485         207.871         207.871
            3525     1.31068E+03     1.31068E+03         346.655         346.655         215.378         215.378
            3526     1.33175E+03     1.33175E+03        -4.97469        -4.97469         9.29134         9.29134
            3527     1.33214E+03     1.33214E+03        -6.06294        -6.06294         6.78006         6.78006
            3528     1.33197E+03     1.33197E+03        -6.63522        -6.63522         3.98093         3.98093
            3529     1.33128E+03     1.33128E+03        -6.76357        -6.76357         1.09788         1.09788
            3530     1.33012E+03     1.33012E+03        -6.54505        -6.54505        -1.71056        -1.71056
            3531     1.32856E+03     1.32856E+03        -6.08222        -6.08222        -4.33292        -4.33292
            3532     1.32668E+03     1.32668E+03        -5.46985        -5.46985        -6.70032        -6.70032
            3533     1.32454E+03     1.32454E+03        -4.78695        -4.78695        -8.77948        -8.77948
            3534     1.32220E+03     1.32220E+03        -4.09357        -4.09357        -10.5636        -10.5636
            3535     1.31971E+03     1.31971E+03        -3.43134        -3.43134        -12.0642        -12.0642
            3536     1.31711E+03     1.31711E+03        -2.82538        -2.82538        -13.3041        -13.3041
            3537     1.31442E+03     1.31442E+03        -2.28767        -2.28767        -14.3114        -14.3114
            3538     1.31168E+03     1.31168E+03        -1.81992        -1.81992        -15.1152        -15.1152
            3539     1.30892E+03     1.30892E+03        -1.41681        -1.41681        -15.7425        -15.7425
            3540     1.30615E+03     1.30615E+03        -1.06798        -1.06798        -16.2162        -16.2162
            3541     1.30339E+03     1.30339E+03    -760.168E-03    -760.168E-03        -16.5538        -16.5538
            3542     1.30067E+03     1.30067E+03    -478.051E-03    -478.051E-03        -16.7661        -16.7661
            3543     1.29801E+03     1.29801E+03    -205.485E-03    -205.485E-03        -16.8574        -16.8574
            3544     1.29544E+03     1.29544E+03     74.8103E-03     74.8103E-03        -16.8246        -16.8246
            3545     1.29300E+03     1.29300E+03     380.302E-03     380.302E-03        -16.6567        -16.6567
            3546     1.29071E+03     1.29071E+03     730.087E-03     730.087E-03        -16.3354        -16.3354
            3547     1.28863E+03     1.28863E+03         1.14376         1.14376        -15.8326        -15.8326
            3548     1.28681E+03     1.28681E+03         1.64432         1.64432        -15.1125        -15.1125
            3549     1.28532E+03     1.28532E+03         2.25625         2.25625        -14.1261        -14.1261
            3550     1.28422E+03     1.28422E+03         3.01111         3.01111        -12.8152        -12.8152
            3551     1.28361E+03     1.28361E+03         3.94365         3.94365        -11.1019        -11.1019
            3552     1.28360E+03     1.28360E+03         5.10329         5.10329        -8.89690        -8.89690
            3553     1.28431E+03     1.28431E+03         6.54511         6.54511        -6.07783        -6.07783
            3554     1.28589E+03     1.28589E+03         8.35634         8.35634        -2.50727        -2.50727
            3555     1.28851E+03     1.28851E+03         10.6321         10.6321         2.01095         2.01095
            3556     1.29235E+03     1.29235E+03         13.5442         13.5442         7.69486         7.69486
            3557     1.29765E+03     1.29765E+03         17.2682         17.2682         14.8693         14.8693
            3558     1.30459E+03     1.30459E+03         22.1807         22.1807         23.8984         23.8984
            3559     1.31345E+03     1.31345E+03         28.6250         28.6250         35.3270         35.3270
            3560     1.32428E+03     1.32428E+03         37.5176         37.5176         49.8053         49.8053
            3561     1.33720E+03     1.33720E+03         49.5817         49.5817         68.1717         68.1717
            3562     1.35152E+03     1.35152E+03         67.2449         67.2449         91.6593         91.6593
            3563     1.36610E+03     1.36610E+03         92.2450         92.2450         120.801         120.801
            3564     1.37774E+03     1.37774E+03         130.854         130.854         157.601         157.601
            3565     1.37731E+03     1.37731E+03         188.382         188.382         195.460         195.460
            3566     1.36614E+03     1.36614E+03         260.837         260.837         225.594         225.594
            3567     1.34438E+03     1.34438E+03         340.675         340.675         240.918         240.918
            3568     1.32863E+03     1.32863E+03        -2.96003        -2.96003         8.26435         8.26435
            3569     1.32975E+03     1.32975E+03        -3.65962        -3.65962         6.30686         6.30686
            3570     1.33031E+03     1.33031E+03        -4.04462        -4.04462         4.06968         4.06968
            3571     1.33028E+03     1.33028E+03        -4.15379        -4.15379         1.72048         1.72048
            3572     1.32970E+03     1.32970E+03        -4.04318        -4.04318    -604.687E-03    -604.687E-03
            3573     1.32860E+03     1.32860E+03        -3.77485        -3.77485        -2.80492        -2.80492
            3574     1.32704E+03     1.32704E+03        -3.40742        -3.40742        -4.81386        -4.81386
            3575     1.32507E+03     1.32507E+03        -2.99081        -2.99081        -6.59517        -6.59517
            3576     1.32276E+03     1.32276E+03        -2.56375        -2.56375        -8.13649        -8.13649
            3577     1.32016E+03     1.32016E+03        -2.15343        -2.15343        -9.44279        -9.44279
            3578     1.31733E+03     1.31733E+03        -1.77688        -1.77688        -10.5304        -10.5304
            3579     1.31430E+03     1.31430E+03        -1.44244        -1.44244        -11.4216        -11.4216
            3580     1.31113E+03     1.31113E+03        -1.15206        -1.15206        -12.1411        -12.1411
            3581     1.30784E+03     1.30784E+03    -902.855E-03    -902.855E-03        -12.7127        -12.7127
            3582     1.30448E+03     1.30448E+03    -688.873E-03    -688.873E-03        -13.1572        -13.1572
            3583     1.30106E+03     1.30106E+03    -501.990E-03    -501.990E-03        -13.4913        -13.4913
            3584     1.29763E+03     1.29763E+03    -333.072E-03    -333.072E-03        -13.7264        -13.7264
            3585     1.29422E+03     1.29422E+03    -172.061E-03    -172.061E-03        -13.8688        -13.8688
            3586     1.29084E+03     1.29084E+03    -8.75608E-03    -8.75608E-03        -13.9182        -13.9182
            3587     1.28755E+03     1.28755E+03     167.784E-03     167.784E-03        -13.8687        -13.8687
            3588     1.28437E+03     1.28437E+03     368.575E-03     368.575E-03        -13.7072        -13.7072
            3589     1.28137E+03     1.28137E+03     605.947E-03     605.947E-03        -13.4147        -13.4147
            3590     1.27858E+03     1.27858E+03     892.857E-03     892.857E-03        -12.9629        -12.9629
            3591     1.27609E+03     1.27609E+03         1.24487         1.24487        -12.3173        -12.3173
            3592     1.27397E+03     1.27397E+03         1.67948         1.67948        -11.4298        -11.4298
            3593     1.27231E+03     1.27231E+03         2.21923         2.21923        -10.2450        -10.2450
            3594     1.27125E+03     1.27125E+03         2.89128         2.89128        -8.68544        -8.68544
            3595     1.27091E+03     1.27091E+03         3.73290         3.73290        -6.66461        -6.66461
            3596     1.27149E+03     1.27149E+03         4.79114         4.79114        -4.05483        -4.05483
            3597     1.27318E+03     1.27318E+03         6.13609         6.13609    -718.570E-03    -718.570E-03
            3598     1.27625E+03     1.27625E+03         7.85595         7.85595         3.56502         3.56502
            3599     1.28100E+03     1.28100E+03         10.1016         10.1016         9.02664         9.02664
            3600     1.28783E+03     1.28783E+03         13.0482         13.0482         16.0733         16.0733
            3601     1.29714E+03     1.29714E+03         17.0724         17.0724         25.1248         25.1248
            3602     1.30953E+03     1.30953E+03         22.5393         22.5393         36.9766         36.9766
            3603     1.32536E+03     1.32536E+03         30.5509         30.5509         52.4910         52.4910
            3604     1.34543E+03     1.34543E+03         41.9257         41.9257         73.2344         73.2344
            3605     1.36913E+03     1.36913E+03         60.4526         60.4526         101.308         101.308
            3606     1.39602E+03     1.39602E+03         88.3580         88.3580         138.858         138.858
            3607     1.41925E+03     1.41925E+03         140.562         140.562         191.787         191.787
            3608     1.41595E+03     1.41595E+03         228.051         228.051         243.082         243.082
            3609     1.39366E+03     1.39366E+03         330.321         330.321         266.699         266.699
            3610     1.32622E+03     1.32622E+03        -1.46759        -1.46759         6.45361         6.45361
            3611     1.32819E+03     1.32819E+03        -1.83303        -1.83303         5.05661         5.05661
            3612     1.32953E+03     1.32953E+03        -2.03970        -2.03970         3.43660         3.43660
            3613     1.33020E+03     1.33020E+03        -2.10486        -2.10486         1.71749         1.71749
            3614     1.33017E+03     1.33017E+03        -2.05621        -2.05621     2.04947E-03     2.04947E-03
            3615     1.32947E+03     1.32947E+03        -1.92489        -1.92489        -1.63155        -1.63155
            3616     1.32816E+03     1.32816E+03        -1.74090        -1.74090        -3.13047        -3.13047
            3617     1.32628E+03     1.32628E+03        -1.53011        -1.53011        -4.46463        -4.46463
            3618     1.32391E+03     1.32391E+03        -1.31272        -1.31272        -5.62251        -5.62251
            3619     1.32111E+03     1.32111E+03        -1.10319        -1.10319        -6.60644        -6.60644
            3620     1.31796E+03     1.31796E+03    -910.515E-03    -910.515E-03        -7.42796        -7.42796
            3621     1.31451E+03     1.31451E+03    -739.392E-03    -739.392E-03        -8.10390        -8.10390
            3622     1.31083E+03     1.31083E+03    -590.957E-03    -590.957E-03        -8.65320        -8.65320
            3623     1.30695E+03     1.30695E+03    -463.991E-03    -463.991E-03        -9.09450        -9.09450
            3624     1.30293E+03     1.30293E+03    -355.468E-03    -355.468E-03        -9.44457        -9.44457
            3625     1.29879E+03     1.29879E+03    -261.457E-03    -261.457E-03        -9.71708        -9.71708
            3626     1.29458E+03     1.29458E+03    -177.234E-03    -177.234E-03        -9.92218        -9.92218
            3627     1.29034E+03     1.29034E+03    -97.9380E-03    -97.9380E-03        -10.0657        -10.0657
            3628     1.28608E+03     1.28608E+03    -18.2799E-03    -18.2799E-03        -10.1497        -10.1497
            3629     1.28185E+03     1.28185E+03     66.9350E-03     66.9350E-03        -10.1709        -10.1709
            3630     1.27768E+03     1.27768E+03     163.385E-03     163.385E-03        -10.1226        -10.1226
            3631     1.27363E+03     1.27363E+03     276.862E-03     276.862E-03        -9.99185        -9.99185
            3632     1.26973E+03     1.26973E+03     413.882E-03     413.882E-03        -9.76193        -9.76193
            3633     1.26607E+03     1.26607E+03     581.911E-03     581.911E-03        -9.40822        -9.40822
            3634     1.26271E+03     1.26271E+03     789.284E-03     789.284E-03        -8.90182        -8.90182
            3635     1.25976E+03     1.25976E+03         1.04749         1.04749        -8.20140        -8.20140
            3636     1.25733E+03     1.25733E+03         1.36847         1.36847        -7.26120        -7.26120
            3637     1.25558E+03     1.25558E+03         1.77276         1.77276        -6.01247        -6.01247
            3638     1.25468E+03     1.25468E+03         2.27964         2.27964        -4.38291        -4.38291
            3639     1.25487E+03     1.25487E+03         2.92967         2.92967        -2.25267        -2.25267
            3640     1.25644E+03     1.25644E+03         3.75926         3.75926     496.645E-03     496.645E-03
            3641     1.25976E+03     1.25976E+03         4.85382         4.85382         4.09136         4.09136
            3642     1.26530E+03     1.26530E+03         6.29907         6.29907         8.73850         8.73850
            3643     1.27369E+03     1.27369E+03         8.28169         8.28169         14.9101         14.9101
            3644     1.28569E+03     1.28569E+03         11.0649         11.0649         23.0086         23.0086
            3645     1.30247E+03     1.30247E+03         15.0660         15.0660         34.1335         34.1335
            3646     1.32515E+03     1.32515E+03         21.3262         21.3262         49.2242         49.2242
            3647     1.35613E+03     1.35613E+03         30.8008         30.8008         71.1416         71.1416
            3648     1.39607E+03     1.39607E+03         48.7884         48.7884         102.908         102.908
            3649     1.44914E+03     1.44914E+03         77.7724         77.7724         152.154         152.154
            3650     1.50131E+03     1.50131E+03         157.419         157.419         234.957         234.957
            3651     1.49252E+03     1.49252E+03         304.394         304.394         304.148         304.148
            3652     1.32473E+03     1.32473E+03    -514.833E-03    -514.833E-03         3.67706         3.67706
            3653     1.32775E+03     1.32775E+03    -648.397E-03    -648.397E-03         2.92070         2.92070
            3654     1.33000E+03     1.33000E+03    -725.191E-03    -725.191E-03         2.03813         2.03813
            3655     1.33139E+03     1.33139E+03    -750.916E-03    -750.916E-03         1.09811         1.09811
            3656     1.33189E+03     1.33189E+03    -735.346E-03    -735.346E-03     158.007E-03     158.007E-03
            3657     1.33153E+03     1.33153E+03    -689.524E-03    -689.524E-03    -738.437E-03    -738.437E-03
            3658     1.33035E+03     1.33035E+03    -624.311E-03    -624.311E-03        -1.56140        -1.56140
            3659     1.32844E+03     1.32844E+03    -549.010E-03    -549.010E-03        -2.29383        -2.29383
            3660     1.32589E+03     1.32589E+03    -471.048E-03    -471.048E-03        -2.92921        -2.92921
            3661     1.32277E+03     1.32277E+03    -395.643E-03    -395.643E-03        -3.46883        -3.46883
            3662     1.31919E+03     1.31919E+03    -326.191E-03    -326.191E-03        -3.91931        -3.91931
            3663     1.31521E+03     1.31521E+03    -264.365E-03    -264.365E-03        -4.29028        -4.29028
            3664     1.31092E+03     1.31092E+03    -210.707E-03    -210.707E-03        -4.59261        -4.59261
            3665     1.30636E+03     1.30636E+03    -164.727E-03    -164.727E-03        -4.83710        -4.83710
            3666     1.30160E+03     1.30160E+03    -125.477E-03    -125.477E-03        -5.03345        -5.03345
            3667     1.29668E+03     1.29668E+03    -91.4465E-03    -91.4465E-03        -5.18979        -5.18979
            3668     1.29162E+03     1.29162E+03    -61.1252E-03    -61.1252E-03        -5.31217        -5.31217
            3669     1.28647E+03     1.28647E+03    -32.6223E-03    -32.6223E-03        -5.40458        -5.40458
            3670     1.28126E+03     1.28126E+03    -4.28894E-03    -4.28894E-03        -5.46849        -5.46849
            3671     1.27601E+03     1.27601E+03     25.9056E-03     25.9056E-03        -5.50334        -5.50334
            3672     1.27077E+03     1.27077E+03     59.7217E-03     59.7217E-03        -5.50572        -5.50572
            3673     1.26556E+03     1.26556E+03     99.3087E-03     99.3087E-03        -5.47028        -5.47028
            3674     1.26043E+03     1.26043E+03     146.892E-03     146.892E-03        -5.38814        -5.38814
            3675     1.25543E+03     1.25543E+03     204.734E-03     204.734E-03        -5.24854        -5.24854
            3676     1.25065E+03     1.25065E+03     276.508E-03     276.508E-03        -5.03551        -5.03551
            3677     1.24616E+03     1.24616E+03     364.303E-03     364.303E-03        -4.73141        -4.73141
            3678     1.24206E+03     1.24206E+03     475.669E-03     475.669E-03        -4.30937        -4.30937
            3679     1.23851E+03     1.23851E+03     611.288E-03     611.288E-03        -3.74171        -3.74171
            3680     1.23567E+03     1.23567E+03     788.658E-03     788.658E-03        -2.98194        -2.98194
            3681     1.23376E+03     1.23376E+03         1.00333         1.00333        -1.98633        -1.98633
            3682     1.23307E+03     1.23307E+03         1.29807         1.29807    -667.573E-03    -667.573E-03
            3683     1.23398E+03     1.23398E+03         1.65388         1.65388         1.04538         1.04538
            3684     1.23696E+03     1.23696E+03         2.17790         2.17790         3.33648         3.33648
            3685     1.24268E+03     1.24268E+03         2.81780         2.81780         6.32602         6.32602
            3686     1.25206E+03     1.25206E+03         3.84634         3.84634         10.4593         10.4593
            3687     1.26633E+03     1.26633E+03         5.16842         5.16842         15.9552         15.9552
            3688     1.28752E+03     1.28752E+03         7.49270         7.49270         24.0846         24.0846
            3689     1.31822E+03     1.31822E+03         10.9471         10.9471         35.3404         35.3404
            3690     1.36399E+03     1.36399E+03         17.4534         17.4534         54.2318         54.2318
            3691     1.43058E+03     1.43058E+03         31.1448         31.1448         82.8757         82.8757
            3692     1.54112E+03     1.54112E+03         58.3033         58.3033         144.518         144.518
            3693     1.68213E+03     1.68213E+03         206.460         206.460         266.952         266.952
            3694         77.7389         77.7389        -583.753        -583.753        -74.0654        -74.0654
            3695         280.251         280.251        -237.544        -237.544        -191.385        -191.385
            3696         543.469         543.469        -73.9421        -73.9421        -207.199        -207.199
            3697         790.081         790.081        -12.2101        -12.2101        -170.745        -170.745
            3698         982.486         982.486         4.50398         4.50398        -120.709        -120.709
            3699         246.844         246.844        -431.149        -431.149        -168.861        -168.861
            3700         542.080         542.080        -238.652        -238.652        -334.116        -334.116
            3701         804.039         804.039        -140.549        -140.549        -330.848        -330.848
            3702         998.892         998.892        -87.2135        -87.2135        -256.796        -256.796
            3703     1.12896E+03     1.12896E+03        -55.0746        -55.0746        -174.354        -174.354
            3704         527.120         527.120        -246.015        -246.015        -278.678        -278.678
            3705         892.682         892.682        -240.766        -240.766        -391.526        -391.526
            3706     1.10665E+03     1.10665E+03        -201.732        -201.732        -339.438        -339.438
            3707     1.21758E+03     1.21758E+03        -148.045        -148.045        -243.047        -243.047
            3708     1.27159E+03     1.27159E+03        -99.4973        -99.4973        -156.083        -156.083
            3709         894.842         894.842        -81.5323        -81.5323        -371.627        -371.627
            3710     1.23691E+03     1.23691E+03        -231.339        -231.339        -355.370        -355.370
            3711     1.35225E+03     1.35225E+03        -222.499        -222.499        -262.882        -262.882
            3712     1.37310E+03     1.37310E+03        -166.233        -166.233        -172.048        -172.048
            3713     1.36334E+03     1.36334E+03        -110.301        -110.301        -103.700        -103.700
            3714     1.47356E+03     1.47356E+03         165.007         165.007         58.7299         58.7299
            3715     1.59529E+03     1.59529E+03         253.692         253.692         68.2405         68.2405
            3716     1.81335E+03     1.81335E+03         344.555         344.555         47.3012         47.3012
            3717     2.19155E+03     2.19155E+03         391.274         391.274        -41.5525        -41.5525
            3718     2.80468E+03     2.80468E+03         321.198         321.198        -239.431        -239.431
            3719     1.48992E+03     1.48992E+03         61.0826         61.0826         70.0978         70.0978
            3720     1.60268E+03     1.60268E+03         111.868         111.868         82.5955         82.5955
            3721     1.78031E+03     1.78031E+03         184.569         184.569         53.7432         53.7432
            3722     2.05931E+03     2.05931E+03         266.932         266.932        -81.2295        -81.2295
            3723     2.49428E+03     2.49428E+03         318.400         318.400        -409.476        -409.476
            3724     1.48456E+03     1.48456E+03        -32.4383        -32.4383         36.9188         36.9188
            3725     1.58388E+03     1.58388E+03        -28.0657        -28.0657         39.4384         39.4384
            3726     1.71923E+03     1.71923E+03         4.34028         4.34028         7.20319         7.20319
            3727     1.88608E+03     1.88608E+03         96.3473         96.3473        -126.875        -126.875
            3728     2.08339E+03     2.08339E+03         274.930         274.930        -482.778        -482.778
            3729     1.45338E+03     1.45338E+03        -82.5857        -82.5857        -9.70316        -9.70316
            3730     1.53227E+03     1.53227E+03        -114.574        -114.574        -27.6143        -27.6143
            3731     1.62773E+03     1.62773E+03        -129.821        -129.821        -72.8753        -72.8753
            3732     1.70108E+03     1.70108E+03        -70.5564        -70.5564        -188.848        -188.848
            3733     1.66398E+03     1.66398E+03         175.638         175.638        -477.886        -477.886
            3734         956.318         956.318        -56.4373        -56.4373         385.555         385.555
            3735     1.28943E+03     1.28943E+03        -229.028        -229.028         345.933         345.933
            3736     1.38740E+03     1.38740E+03        -223.759        -223.759         247.995         247.995
            3737     1.39414E+03     1.39414E+03        -167.103        -167.103         159.120         159.120
            3738     1.37516E+03     1.37516E+03        -110.463        -110.463         94.4605         94.4605
            3739         636.869         636.869        -186.759        -186.759         313.703         313.703
            3740     1.01133E+03     1.01133E+03        -240.877        -240.877         393.383         393.383
            3741     1.19965E+03     1.19965E+03        -216.190        -216.190         324.857         324.857
            3742     1.28041E+03     1.28041E+03        -161.217        -161.217         225.617         225.617
            3743     1.31054E+03     1.31054E+03        -108.390        -108.390         141.664         141.664
            3744         369.010         369.010        -341.445        -341.445         222.414         222.414
            3745         708.505         708.505        -241.226        -241.226         378.208         378.208
            3746         956.025         956.025        -175.557        -175.557         353.759         353.759
            3747     1.11340E+03     1.11340E+03        -123.540        -123.540         264.781         264.781
            3748     1.20589E+03     1.20589E+03        -82.5146        -82.5146         175.178         175.178
            3749         173.785         173.785        -495.175        -495.175         133.213         133.213
            3750         435.484         435.484        -239.741        -239.741         297.107         297.107
            3751         701.750         701.750        -116.614        -116.614         306.702         306.702
            3752         919.449         919.449        -60.8941        -60.8941         244.997         244.997
            3753     1.07451E+03     1.07451E+03        -34.7351        -34.7351         169.573         169.573
            3754         58.3509         58.3509        -611.142        -611.142         59.6066         59.6066
            3755         246.059         246.059        -240.290        -240.290         163.174         163.174
            3756         505.725         505.725        -64.8603        -64.8603         179.508         179.508
            3757         757.232         757.232     49.0704E-03     49.0704E-03         149.771         149.771
            3758         958.107         958.107         15.0637         15.0637         106.964         106.964
            3759     1.45495E+03     1.45495E+03        -84.7971        -84.7971         12.7035         12.7035
            3760     1.53371E+03     1.53371E+03        -116.470        -116.470         29.8865         29.8865
            3761     1.62904E+03     1.62904E+03        -131.364        -131.364         74.5760         74.5760
            3762     1.70257E+03     1.70257E+03        -71.7560        -71.7560         190.173         190.173
            3763     1.66588E+03     1.66588E+03         174.840         174.840         479.021         479.021
            3764     1.48573E+03     1.48573E+03        -34.1160        -34.1160        -34.0794        -34.0794
            3765     1.58497E+03     1.58497E+03        -29.4133        -29.4133        -37.2639        -37.2639
            3766     1.72025E+03     1.72025E+03         3.40396         3.40396        -5.56711        -5.56711
            3767     1.88726E+03     1.88726E+03         95.8630         95.8630         128.064         128.064
            3768     2.08521E+03     2.08521E+03         275.076         275.076         483.846         483.846
            3769     1.49067E+03     1.49067E+03         60.0110         60.0110        -67.3607        -67.3607
            3770     1.60336E+03     1.60336E+03         111.111         111.111        -80.4108        -80.4108
            3771     1.78093E+03     1.78093E+03         184.209         184.209        -52.0298        -52.0298
            3772     2.06008E+03     2.06008E+03         267.057         267.057         82.5840         82.5840
            3773     2.49577E+03     2.49577E+03         318.842         318.842         410.617         410.617
            3774     1.47391E+03     1.47391E+03         164.509         164.509        -56.0061        -56.0061
            3775     1.59559E+03     1.59559E+03         253.396         253.396        -65.9617        -65.9617
            3776     1.81361E+03     1.81361E+03         344.533         344.533        -45.3755        -45.3755
            3777     2.19192E+03     2.19192E+03         391.514         391.514         43.1720         43.1720
            3778     2.80554E+03     2.80554E+03         321.505         321.505         240.584         240.584
            3779     1.59746E+03     1.59746E+03         158.412         158.412        -474.695        -474.695
            3780     1.67172E+03     1.67172E+03        -96.2361        -96.2361        -200.394        -200.394
            3781     1.61273E+03     1.61273E+03        -149.455        -149.455        -88.0690        -88.0690
            3782     1.52395E+03     1.52395E+03        -127.181        -127.181        -40.9436        -40.9436
            3783     1.44891E+03     1.44891E+03        -90.5757        -90.5757        -20.2514        -20.2514
            3784     1.94284E+03     1.94284E+03         251.887         251.887        -492.685        -492.685
            3785     1.82665E+03     1.82665E+03         38.3873         38.3873        -145.927        -145.927
            3786     1.69445E+03     1.69445E+03        -50.0193        -50.0193        -17.2702        -17.2702
            3787     1.57274E+03     1.57274E+03        -67.4392        -67.4392         16.6146         16.6146
            3788     1.47912E+03     1.47912E+03        -57.9427        -57.9427         18.8499         18.8499
            3789     2.30043E+03     2.30043E+03         306.392         306.392        -463.625        -463.625
            3790     1.97810E+03     1.97810E+03         186.654         186.654        -104.015        -104.015
            3791     1.75567E+03     1.75567E+03         92.2412         92.2412         36.8061         36.8061
            3792     1.60002E+03     1.60002E+03         35.4650         35.4650         66.6133         66.6133
            3793     1.49326E+03     1.49326E+03         7.26336         7.26336         56.1525         56.1525
            3794     2.62285E+03     2.62285E+03         323.243         323.243        -369.019        -369.019
            3795     2.11413E+03     2.11413E+03         318.163         318.163        -70.3705        -70.3705
            3796     1.79622E+03     1.79622E+03         246.436         246.436         57.2160         57.2160
            3797     1.60348E+03     1.60348E+03         164.112         164.112         85.5168         85.5168
            3798     1.48722E+03     1.48722E+03         97.6401         97.6401         72.1853         72.1853
            3799     2.85144E+03     2.85144E+03         318.673         318.673        -206.688        -206.688
            3800     2.21257E+03     2.21257E+03         406.399         406.399        -37.0481        -37.0481
            3801     1.81900E+03     1.81900E+03         367.092         367.092         40.4623         40.4623
            3802     1.59384E+03     1.59384E+03         275.422         275.422         59.2882         59.2882
            3803     1.47032E+03     1.47032E+03         181.813         181.813         50.8924         50.8924
            3804     1.45313E+03     1.45313E+03        -82.8430        -82.8430         9.96448         9.96448
            3805     1.53192E+03     1.53192E+03        -114.945        -114.945         28.0068         28.0068
            3806     1.62722E+03     1.62722E+03        -130.262        -130.262         73.3911         73.3911
            3807     1.70053E+03     1.70053E+03        -71.1429        -71.1429         189.387         189.387
            3808     1.66345E+03     1.66345E+03         174.660         174.660         478.029         478.029
            3809     1.48442E+03     1.48442E+03        -32.8260        -32.8260        -36.6612        -36.6612
            3810     1.58365E+03     1.58365E+03        -28.5395        -28.5395        -39.0434        -39.0434
            3811     1.71884E+03     1.71884E+03         3.84284         3.84284        -6.68272        -6.68272
            3812     1.88542E+03     1.88542E+03         95.8168         95.8168         127.301         127.301
            3813     2.08246E+03     2.08246E+03         274.577         274.577         482.809         482.809
            3814     1.48992E+03     1.48992E+03         60.5827         60.5827        -69.8565        -69.8565
            3815     1.60257E+03     1.60257E+03         111.357         111.357        -82.1741        -82.1741
            3816     1.77998E+03     1.77998E+03         184.096         184.096        -53.2379        -53.2379
            3817     2.05856E+03     2.05856E+03         266.586         266.586         81.7179         81.7179
            3818     2.49284E+03     2.49284E+03         318.164         318.164         409.702         409.702
            3819     1.47372E+03     1.47372E+03         164.443         164.443        -58.5855        -58.5855
            3820     1.59536E+03     1.59536E+03         253.095         253.095        -67.8934        -67.8934
            3821     1.81308E+03     1.81308E+03         344.163         344.163        -46.7575        -46.7575
            3822     2.19076E+03     2.19076E+03         391.290         391.290         42.0807         42.0807
            3823     2.80281E+03     2.80281E+03         321.450         321.450         239.620         239.620
            3824         958.018         958.018        -57.2325        -57.2325         386.327         386.327
            3825     1.29154E+03     1.29154E+03        -230.633        -230.633         346.900         346.900
            3826     1.38960E+03     1.38960E+03        -225.708        -225.708         249.283         249.283
            3827     1.39651E+03     1.39651E+03        -169.392        -169.392         160.928         160.928
            3828     1.37776E+03     1.37776E+03        -113.209        -113.209         97.0348         97.0348
            3829         638.091         638.091        -188.124        -188.124         314.336         314.336
            3830     1.01320E+03     1.01320E+03        -242.764        -242.764         394.408         394.408
            3831     1.20182E+03     1.20182E+03        -218.348        -218.348         326.119         326.119
            3832     1.28287E+03     1.28287E+03        -163.681        -163.681         227.224         227.224
            3833     1.31340E+03     1.31340E+03        -111.322        -111.322         143.858         143.858
            3834         369.755         369.755        -343.441        -343.441         222.867         222.867
            3835         709.936         709.936        -243.334        -243.334         379.212         379.212
            3836         957.956         957.956        -177.828        -177.828         354.957         354.957
            3837     1.11581E+03     1.11581E+03        -126.107        -126.107         266.174         266.174
            3838     1.20890E+03     1.20890E+03        -85.5756        -85.5756         176.962         176.962
            3839         174.112         174.112        -497.794        -497.794         133.504         133.504
            3840         436.399         436.399        -242.007        -242.007         297.948         297.948
            3841         703.295         703.295        -118.899        -118.899         307.711         307.711
            3842         921.665         921.665        -63.4700        -63.4700         246.097         246.097
            3843     1.07753E+03     1.07753E+03        -37.8496        -37.8496         170.883         170.883
            3844         58.3912         58.3912        -614.241        -614.241         59.7762         59.7762
            3845         246.535         246.535        -242.656        -242.656         163.708         163.708
            3846         506.888         506.888        -67.1053        -67.1053         180.146         180.146
            3847         759.208         759.208        -2.47576        -2.47576         150.433         150.433
            3848         961.046         961.046         11.9576         11.9576         107.699         107.699
            3849     1.36589E+03     1.36589E+03        -113.033        -113.033        -106.196        -106.196
            3850     1.37529E+03     1.37529E+03        -168.462        -168.462        -173.820        -173.820
            3851     1.35410E+03     1.35410E+03        -224.338        -224.338        -264.134        -264.134
            3852     1.23848E+03     1.23848E+03        -232.912        -232.912        -356.128        -356.128
            3853         896.039         896.039        -82.6900        -82.6900        -371.938        -371.938
            3854     1.27440E+03     1.27440E+03        -102.431        -102.431        -158.085        -158.085
            3855     1.21982E+03     1.21982E+03        -150.466        -150.466        -244.526        -244.526
            3856     1.10841E+03     1.10841E+03        -203.851        -203.851        -340.558        -340.558
            3857         894.026         894.026        -242.770        -242.770        -392.328        -392.328
            3858         527.822         527.822        -247.930        -247.930        -278.935        -278.935
            3859     1.13185E+03     1.13185E+03        -58.1080        -58.1080        -175.786        -175.786
            3860     1.00099E+03     1.00099E+03        -89.7068        -89.7068        -257.900        -257.900
            3861         805.486         805.486        -142.772        -142.772        -331.757        -331.757
            3862         542.920         542.920        -240.892        -240.892        -334.791        -334.791
            3863         247.104         247.104        -433.758        -433.758        -168.966        -168.966
            3864         985.356         985.356         1.44226         1.44226        -121.442        -121.442
            3865         791.983         791.983        -14.6926        -14.6926        -171.321        -171.321
            3866         544.555         544.555        -76.1584        -76.1584        -207.681        -207.681
            3867         280.656         280.656        -239.910        -239.910        -191.724        -191.724
            3868         77.7237         77.7237        -586.882        -586.882        -74.0533        -74.0533


  Minimum               -21.8013        -21.8013        -923.523        -923.523        -740.157        -740.157
         At Node              28              28              28              28             590             590

  Maximum            3.34266E+03     3.34266E+03         436.761         436.761         735.676         735.676
         At Node              27              27             585             585             574             574

           Total     5.08425E+06     5.08425E+06     82.1481E+03     82.1481E+03     2.44016E+03     2.44016E+03


