********************************************************************************
Field Output Report, written Thu Feb 22 21:47:40 2024

Source 1
---------

   ODB: C:/Users/Isabel Haycock/OneDrive - Imperial College London/Fourth Year/FYP/Isabel Haycock/06 - FE models/Specimen_2/Plate_hole_1.odb
   Step: load
   Frame: Increment      2: Step Time =   0.2000

Loc 1 : Nodal values at shell < composite > < elset = ASSEMBLY_PLATE_1-1_COMPOSITELAYUP-1-1 > from source 1 : SNEG, (fraction = -1.0), Layer = 1
Loc 2 : Nodal values at shell < composite > < elset = ASSEMBLY_PLATE_1-1_COMPOSITELAYUP-1-1 > from source 1 : SPOS, (fraction = 1.0), Layer = 8

Output sorted by column "Node Label".

Field Output reported at nodes for part: PLATE_1-1
   Computation algorithm: EXTRAPOLATE_COMPUTE_AVERAGE
   Averaged at nodes
   Averaging regions: ODB_REGIONS

      Node Label           S.S11           S.S11           S.S22           S.S22           S.S12           S.S12
                          @Loc 1          @Loc 2          @Loc 1          @Loc 2          @Loc 1          @Loc 2
-----------------------------------------------------------------------------------------------------------------
               1         345.207         345.207        -16.1402        -16.1402        -6.94132        -6.94132
               2         328.291         328.291     455.659E-03     455.659E-03    -20.8534E-03    -20.8534E-03
               3         328.355         328.355     2.12793E-03     2.12793E-03    -2.35308E-03    -2.35308E-03
               4         331.895         331.895    -21.2072E-03    -21.2072E-03     701.444E-03     701.444E-03
               5         345.345         345.345        -16.0820        -16.0820         6.68341         6.68341
               6         328.291         328.291     455.724E-03     455.724E-03     20.8515E-03     20.8515E-03
               7         264.231         264.231         7.39850         7.39850        -1.02346        -1.02346
               8         330.671         330.671    -25.9322E-03    -25.9322E-03    -589.694E-03    -589.694E-03
               9         345.916         345.916        -16.8190        -16.8190         7.64239         7.64239
              10         351.055         351.055         34.6238         34.6238     400.989E-03     400.989E-03
              11         331.961         331.961    -22.0399E-03    -22.0399E-03    -701.432E-03    -701.432E-03
              12         328.355         328.355     2.12838E-03     2.12838E-03     2.35356E-03     2.35356E-03
              13         308.702         308.702         93.8925         93.8925        -20.4722        -20.4722
              14         502.277         502.277         69.7407         69.7407        -81.2909        -81.2909
              15         345.545         345.545        -16.9281        -16.9281        -8.10491        -8.10491
              16         330.713         330.713    -26.9714E-03    -26.9714E-03     590.305E-03     590.305E-03
              17         350.923         350.923         35.0597         35.0597        -1.01316        -1.01316
              18         308.704         308.704         93.8898         93.8898         20.4675         20.4675
              19         265.227         265.227         6.42987         6.42987        -1.02225        -1.02225
              20         502.277         502.277         69.7406         69.7406         81.2907         81.2907
              21        -5.36816        -5.36816        -232.800        -232.800     214.511E-03     214.511E-03
              22         271.828         271.828         60.7514         60.7514        -132.318        -132.318
              23         838.215         838.215         54.5026         54.5026     97.0135E-03     97.0135E-03
              24         276.030         276.030         62.5755         62.5755         134.169         134.169
              25         276.537         276.537         62.6473         62.6473         134.437         134.437
              26         266.890         266.890         59.8689         59.8689        -130.907        -130.907
              27         839.867         839.867         53.9308         53.9308         3.87736         3.87736
              28        -5.40555        -5.40555        -233.821        -233.821     231.569E-03     231.569E-03
              29         338.777         338.777        -12.9757        -12.9757        -8.20664        -8.20664
              30         335.040         335.040        -10.9326        -10.9326        -9.03942        -9.03942
              31         332.069         332.069        -8.78000        -8.78000        -9.09796        -9.09796
              32         329.855         329.855        -6.80117        -6.80117        -8.69236        -8.69236
              33         328.276         328.276        -5.09424        -5.09424        -8.05519        -8.05519
              34         327.191         327.191        -3.67185        -3.67185        -7.33625        -7.33625
              35         326.476         326.476        -2.50627        -2.50627        -6.61976        -6.61976
              36         326.029         326.029        -1.56138        -1.56138        -5.94784        -5.94784
              37         325.777         325.777    -801.110E-03    -801.110E-03        -5.33845        -5.33845
              38         325.663         325.663    -194.135E-03    -194.135E-03        -4.79584        -4.79584
              39         325.646         325.646     286.028E-03     286.028E-03        -4.31731        -4.31731
              40         325.698         325.698     661.180E-03     661.180E-03        -3.89683        -3.89683
              41         325.796         325.796     949.314E-03     949.314E-03        -3.52726        -3.52726
              42         325.924         325.924         1.16529         1.16529        -3.20143        -3.20143
              43         326.072         326.072         1.32147         1.32147        -2.91275        -2.91275
              44         326.229         326.229         1.42822         1.42822        -2.65540        -2.65540
              45         326.392         326.392         1.49428         1.49428        -2.42449        -2.42449
              46         326.553         326.553         1.52706         1.52706        -2.21591        -2.21591
              47         326.712         326.712         1.53287         1.53287        -2.02634        -2.02634
              48         326.865         326.865         1.51708         1.51708        -1.85306        -1.85306
              49         327.010         327.010         1.48429         1.48429        -1.69392        -1.69392
              50         327.147         327.147         1.43839         1.43839        -1.54720        -1.54720
              51         327.276         327.276         1.38271         1.38271        -1.41150        -1.41150
              52         327.395         327.395         1.32005         1.32005        -1.28573        -1.28573
              53         327.505         327.505         1.25279         1.25279        -1.16898        -1.16898
              54         327.606         327.606         1.18290         1.18290        -1.06050        -1.06050
              55         327.698         327.698         1.11205         1.11205    -959.638E-03    -959.638E-03
              56         327.782         327.782         1.04159         1.04159    -865.845E-03    -865.845E-03
              57         327.857         327.857     972.663E-03     972.663E-03    -778.613E-03    -778.613E-03
              58         327.925         327.925     906.171E-03     906.171E-03    -697.473E-03    -697.473E-03
              59         327.986         327.986     842.857E-03     842.857E-03    -621.978E-03    -621.978E-03
              60         328.039         328.039     783.309E-03     783.309E-03    -551.697E-03    -551.697E-03
              61         328.087         328.087     727.989E-03     727.989E-03    -486.200E-03    -486.200E-03
              62         328.129         328.129     677.259E-03     677.259E-03    -425.065E-03    -425.065E-03
              63         328.165         328.165     631.394E-03     631.394E-03    -367.864E-03    -367.864E-03
              64         328.196         328.196     590.601E-03     590.601E-03    -314.171E-03    -314.171E-03
              65         328.222         328.222     555.034E-03     555.034E-03    -263.554E-03    -263.554E-03
              66         328.244         328.244     524.804E-03     524.804E-03    -215.580E-03    -215.580E-03
              67         328.261         328.261     499.986E-03     499.986E-03    -169.812E-03    -169.812E-03
              68         328.274         328.274     480.636E-03     480.636E-03    -125.812E-03    -125.812E-03
              69         328.284         328.284     466.787E-03     466.787E-03    -83.1403E-03    -83.1403E-03
              70         328.289         328.289     458.450E-03     458.450E-03    -41.4674E-03    -41.4674E-03
              71         328.331         328.331     410.121E-03     410.121E-03    -22.6057E-03    -22.6057E-03
              72         328.369         328.369     364.467E-03     364.467E-03    -23.6762E-03    -23.6762E-03
              73         328.405         328.405     317.256E-03     317.256E-03    -24.1989E-03    -24.1989E-03
              74         328.438         328.438     269.602E-03     269.602E-03    -24.1456E-03    -24.1456E-03
              75         328.466         328.466     222.655E-03     222.655E-03    -23.5054E-03    -23.5054E-03
              76         328.488         328.488     177.581E-03     177.581E-03    -22.2767E-03    -22.2767E-03
              77         328.501         328.501     135.529E-03     135.529E-03    -20.4748E-03    -20.4748E-03
              78         328.504         328.504     97.6107E-03     97.6107E-03    -18.1248E-03    -18.1248E-03
              79         328.495         328.495     64.8625E-03     64.8625E-03    -15.2753E-03    -15.2753E-03
              80         328.473         328.473     38.2240E-03     38.2240E-03    -11.9768E-03    -11.9768E-03
              81         328.437         328.437     18.4872E-03     18.4872E-03    -8.32807E-03    -8.32807E-03
              82         328.385         328.385     6.27948E-03     6.27948E-03    -4.39549E-03    -4.39549E-03
              83         328.359         328.359     2.17543E-03     2.17543E-03    -4.31864E-03    -4.31864E-03
              84         328.372         328.372     2.24305E-03     2.24305E-03    -8.46124E-03    -8.46124E-03
              85         328.393         328.393     2.31069E-03     2.31069E-03    -12.8837E-03    -12.8837E-03
              86         328.423         328.423     2.42558E-03     2.42558E-03    -17.4912E-03    -17.4912E-03
              87         328.462         328.462     2.57372E-03     2.57372E-03    -22.3641E-03    -22.3641E-03
              88         328.511         328.511     2.75455E-03     2.75455E-03    -27.5687E-03    -27.5687E-03
              89         328.571         328.571     2.96905E-03     2.96905E-03    -33.1726E-03    -33.1726E-03
              90         328.642         328.642     3.21545E-03     3.21545E-03    -39.2424E-03    -39.2424E-03
              91         328.726         328.726     3.49411E-03     3.49411E-03    -45.8438E-03    -45.8438E-03
              92         328.824         328.824     3.80307E-03     3.80307E-03    -53.0411E-03    -53.0411E-03
              93         328.936         328.936     4.14107E-03     4.14107E-03    -60.8960E-03    -60.8960E-03
              94         329.064         329.064     4.50506E-03     4.50506E-03    -69.4661E-03    -69.4661E-03
              95         329.210         329.210     4.89145E-03     4.89145E-03    -78.8030E-03    -78.8030E-03
              96         329.376         329.376     5.29482E-03     5.29482E-03    -88.9497E-03    -88.9497E-03
              97         329.562         329.562     5.70790E-03     5.70790E-03    -99.9373E-03    -99.9373E-03
              98         329.770         329.770     6.12112E-03     6.12112E-03    -111.781E-03    -111.781E-03
              99         330.003         330.003     6.52134E-03     6.52134E-03    -124.473E-03    -124.473E-03
             100         330.262         330.262     6.89239E-03     6.89239E-03    -137.979E-03    -137.979E-03
             101         330.548         330.548     7.21197E-03     7.21197E-03    -152.226E-03    -152.226E-03
             102         330.862         330.862     7.45404E-03     7.45404E-03    -167.093E-03    -167.093E-03
             103         331.207         331.207     7.58254E-03     7.58254E-03    -182.400E-03    -182.400E-03
             104         331.581         331.581     7.55773E-03     7.55773E-03    -197.890E-03    -197.890E-03
             105         331.987         331.987     7.32419E-03     7.32419E-03    -213.213E-03    -213.213E-03
             106         332.421         332.421     6.82503E-03     6.82503E-03    -227.909E-03    -227.909E-03
             107         332.884         332.884     5.98045E-03     5.98045E-03    -241.379E-03    -241.379E-03
             108         333.371         333.371     4.71615E-03     4.71615E-03    -252.873E-03    -252.873E-03
             109         333.878         333.878     2.92791E-03     2.92791E-03    -261.463E-03    -261.463E-03
             110         334.398         334.398     532.619E-06     532.619E-06    -266.030E-03    -266.030E-03
             111         334.922         334.922    -2.58376E-03    -2.58376E-03    -265.261E-03    -265.261E-03
             112         335.437         335.437    -6.48619E-03    -6.48619E-03    -257.654E-03    -257.654E-03
             113         335.930         335.930    -11.2531E-03    -11.2531E-03    -241.569E-03    -241.569E-03
             114         336.380         336.380    -16.8744E-03    -16.8744E-03    -215.280E-03    -215.280E-03
             115         336.767         336.767    -23.2989E-03    -23.2989E-03    -177.125E-03    -177.125E-03
             116         337.065         337.065    -30.3489E-03    -30.3489E-03    -125.648E-03    -125.648E-03
             117         337.248         337.248    -37.7034E-03    -37.7034E-03    -59.8870E-03    -59.8870E-03
             118         337.287         337.287    -44.9093E-03    -44.9093E-03     20.3745E-03     20.3745E-03
             119         337.154         337.154    -51.2558E-03    -51.2558E-03     114.201E-03     114.201E-03
             120         336.825         336.825    -55.9705E-03    -55.9705E-03     219.201E-03     219.201E-03
             121         336.281         336.281    -58.0204E-03    -58.0204E-03     331.198E-03     331.198E-03
             122         335.516         335.516    -56.4932E-03    -56.4932E-03     444.085E-03     444.085E-03
             123         334.535         334.535    -50.5415E-03    -50.5415E-03     550.010E-03     550.010E-03
             124         333.361         333.361    -39.5840E-03    -39.5840E-03     639.132E-03     639.132E-03
             125         332.187         332.187    -60.9419E-03    -60.9419E-03         1.29385         1.29385
             126         332.830         332.830    -176.107E-03    -176.107E-03         2.32763         2.32763
             127         333.581         333.581    -364.651E-03    -364.651E-03         3.09496         3.09496
             128         334.429         334.429    -639.051E-03    -639.051E-03         3.65878         3.65878
             129         335.378         335.378        -1.02776        -1.02776         4.05990         4.05990
             130         336.444         336.444        -1.57396        -1.57396         4.31181         4.31181
             131         337.641         337.641        -2.33565        -2.33565         4.39760         4.39760
             132         338.982         338.982        -3.38469        -3.38469         4.26340         4.26340
             133         340.451         340.451        -4.80210        -4.80210         3.80403         3.80403
             134         341.971         341.971        -6.65733        -6.65733         2.85034         2.85034
             135         343.342         343.342        -8.96696        -8.96696         1.16023         1.16023
             136         344.153         344.153        -11.5974        -11.5974        -1.52459        -1.52459
             137         338.950         338.950        -12.9396        -12.9396         7.94761         7.94761
             138         335.240         335.240        -10.9428        -10.9428         8.82662         8.82662
             139         332.278         332.278        -8.82435        -8.82435         8.93856         8.93856
             140         330.052         330.052        -6.86292        -6.86292         8.58390         8.58390
             141         328.450         328.450        -5.15969        -5.15969         7.98770         7.98770
             142         327.338         327.338        -3.73277        -3.73277         7.29846         7.29846
             143         326.597         326.597        -2.55924        -2.55924         6.60179         6.60179
             144         326.128         326.128        -1.60578        -1.60578         5.94268         5.94268
             145         325.857         325.857    -837.498E-03    -837.498E-03         5.34120         5.34120
             146         325.728         325.728    -223.621E-03    -223.621E-03         4.80326         4.80326
             147         325.699         325.699     262.284E-03     262.284E-03         4.32729         4.32729
             148         325.741         325.741     642.079E-03     642.079E-03         3.90802         3.90802
             149         325.831         325.831     933.923E-03     933.923E-03         3.53880         3.53880
             150         325.953         325.953         1.15283         1.15283         3.21279         3.21279
             151         326.096         326.096         1.31132         1.31132         2.92359         2.92359
             152         326.249         326.249         1.41989         1.41989         2.66556         2.66556
             153         326.408         326.408         1.48738         1.48738         2.43387         2.43387
             154         326.567         326.567         1.52129         1.52129         2.22447         2.22447
             155         326.724         326.724         1.52801         1.52801         2.03407         2.03407
             156         326.875         326.875         1.51295         1.51295         1.86000         1.86000
             157         327.019         327.019         1.48076         1.48076         1.70010         1.70010
             158         327.154         327.154         1.43536         1.43536         1.55266         1.55266
             159         327.282         327.282         1.38009         1.38009         1.41631         1.41631
             160         327.400         327.400         1.31779         1.31779         1.28994         1.28994
             161         327.509         327.509         1.25083         1.25083         1.17263         1.17263
             162         327.609         327.609         1.18120         1.18120         1.06365         1.06365
             163         327.701         327.701         1.11058         1.11058     962.340E-03     962.340E-03
             164         327.784         327.784         1.04033         1.04033     868.145E-03     868.145E-03
             165         327.859         327.859     971.577E-03     971.577E-03     780.557E-03     780.557E-03
             166         327.927         327.927     905.245E-03     905.245E-03     699.103E-03     699.103E-03
             167         327.987         327.987     842.073E-03     842.073E-03     623.332E-03     623.332E-03
             168         328.040         328.040     782.650E-03     782.650E-03     552.810E-03     552.810E-03
             169         328.088         328.088     727.441E-03     727.441E-03     487.105E-03     487.105E-03
             170         328.129         328.129     676.810E-03     676.810E-03     425.790E-03     425.790E-03
             171         328.165         328.165     631.033E-03     631.033E-03     368.436E-03     368.436E-03
             172         328.196         328.196     590.318E-03     590.318E-03     314.613E-03     314.613E-03
             173         328.222         328.222     554.822E-03     554.822E-03     263.888E-03     263.888E-03
             174         328.244         328.244     524.654E-03     524.654E-03     215.824E-03     215.824E-03
             175         328.261         328.261     499.895E-03     499.895E-03     169.982E-03     169.982E-03
             176         328.274         328.274     480.599E-03     480.599E-03     125.922E-03     125.922E-03
             177         328.284         328.284     466.799E-03     466.799E-03     83.2009E-03     83.2009E-03
             178         328.289         328.289     458.501E-03     458.501E-03     41.4855E-03     41.4855E-03
             179         328.249         328.249     501.883E-03     501.883E-03     18.2507E-03     18.2507E-03
             180         328.210         328.210     543.532E-03     543.532E-03     14.9105E-03     14.9105E-03
             181         328.179         328.179     576.124E-03     576.124E-03     11.0477E-03     11.0477E-03
             182         328.157         328.157     598.511E-03     598.511E-03     6.79754E-03     6.79754E-03
             183         328.145         328.145     609.902E-03     609.902E-03     2.30784E-03     2.30784E-03
             184         328.145         328.145     609.891E-03     609.891E-03    -2.26501E-03    -2.26501E-03
             185         328.157         328.157     598.486E-03     598.486E-03    -6.76091E-03    -6.76091E-03
             186         328.179         328.179     576.091E-03     576.091E-03    -11.0246E-03    -11.0246E-03
             187         328.210         328.210     543.484E-03     543.484E-03    -14.9021E-03    -14.9021E-03
             188         328.249         328.249     501.822E-03     501.822E-03    -18.2471E-03    -18.2471E-03
             189         271.572         271.572         3.82442         3.82442         18.0905         18.0905
             190         291.274         291.274        -5.19014        -5.19014         28.3990         28.3990
             191         313.005         313.005        -13.6673        -13.6673         28.8480         28.8480
             192         329.776         329.776        -18.1343        -18.1343         22.8694         22.8694
             193         339.693         339.693        -18.4734        -18.4734         14.9379         14.9379
             194         337.884         337.884        -18.4507        -18.4507        -16.5122        -16.5122
             195         323.565         323.565        -16.6006        -16.6006        -25.4237        -25.4237
             196         300.361         300.361        -8.81949        -8.81949        -28.9922        -28.9922
             197         275.910         275.910         1.81560         1.81560        -20.3831        -20.3831
             198         330.990         330.990    -74.6804E-03    -74.6804E-03        -1.07670        -1.07670
             199         331.703         331.703    -215.791E-03    -215.791E-03        -1.90676        -1.90676
             200         332.553         332.553    -444.883E-03    -444.883E-03        -2.48753        -2.48753
             201         333.524         333.524    -771.850E-03    -771.850E-03        -2.88660        -2.88660
             202         334.615         334.615        -1.22263        -1.22263        -3.14769        -3.14769
             203         335.836         335.836        -1.83795        -1.83795        -3.28635        -3.28635
             204         337.199         337.199        -2.67356        -2.67356        -3.28701        -3.28701
             205         338.709         338.709        -3.79912        -3.79912        -3.09636        -3.09636
             206         340.347         340.347        -5.29367        -5.29367        -2.60910        -2.60910
             207         342.031         342.031        -7.22482        -7.22482        -1.65493        -1.65493
             208         343.559         343.559        -9.60733        -9.60733     10.0647E-03     10.0647E-03
             209         344.512         344.512        -12.3078        -12.3078         2.65008         2.65008
             210         352.997         352.997        -14.6733        -14.6733     539.610E-03     539.610E-03
             211         357.451         357.451        -6.72873        -6.72873        -7.17980        -7.17980
             212         357.340         357.340         8.78149         8.78149        -12.6529        -12.6529
             213         353.494         353.494         26.4576         26.4576        -10.2605        -10.2605
             214         353.405         353.405         26.6131         26.6131         11.0697         11.0697
             215         357.157         357.157         9.09615         9.09615         13.4866         13.4866
             216         357.171         357.171        -6.25746        -6.25746         8.05987         8.05987
             217         352.614         352.614        -14.0557        -14.0557     405.254E-03     405.254E-03
             218         330.069         330.069     6.47098E-03     6.47098E-03     717.313E-03     717.313E-03
             219         328.170         328.170     39.0865E-03     39.0865E-03     657.692E-03     657.692E-03
             220         326.554         326.554     69.3241E-03     69.3241E-03     511.924E-03     511.924E-03
             221         325.439         325.439     90.6869E-03     90.6869E-03     295.453E-03     295.453E-03
             222         324.976         324.976     98.1290E-03     98.1290E-03     39.5003E-03     39.5003E-03
             223         325.219         325.219     89.7179E-03     89.7179E-03    -215.095E-03    -215.095E-03
             224         326.107         326.107     67.3870E-03     67.3870E-03    -427.493E-03    -427.493E-03
             225         327.480         327.480     36.1963E-03     36.1963E-03    -566.487E-03    -566.487E-03
             226         329.115         329.115     2.62340E-03     2.62340E-03    -616.624E-03    -616.624E-03
             227         344.098         344.098        -11.6220        -11.6220         1.56222         1.56222
             228         343.302         343.302        -8.99243        -8.99243        -1.13314        -1.13314
             229         341.941         341.941        -6.68452        -6.68452        -2.82724        -2.82724
             230         340.430         340.430        -4.83110        -4.83110        -3.78369        -3.78369
             231         338.970         338.970        -3.41437        -3.41437        -4.24625        -4.24625
             232         337.636         337.636        -2.36404        -2.36404        -4.38417        -4.38417
             233         336.445         336.445        -1.59903        -1.59903        -4.30204        -4.30204
             234         335.387         335.387        -1.04801        -1.04801        -4.05308        -4.05308
             235         334.446         334.446    -653.798E-03    -653.798E-03        -3.65395        -3.65395
             236         333.608         333.608    -373.961E-03    -373.961E-03        -3.09134        -3.09134
             237         332.870         332.870    -180.959E-03    -180.959E-03        -2.32490        -2.32490
             238         332.243         332.243    -62.8481E-03    -62.8481E-03        -1.29272        -1.29272
             239         333.381         333.381    -39.5289E-03    -39.5289E-03    -638.451E-03    -638.451E-03
             240         334.553         334.553    -50.5825E-03    -50.5825E-03    -549.141E-03    -549.141E-03
             241         335.532         335.532    -56.4951E-03    -56.4951E-03    -443.185E-03    -443.185E-03
             242         336.295         336.295    -58.0324E-03    -58.0324E-03    -330.290E-03    -330.290E-03
             243         336.837         336.837    -55.9482E-03    -55.9482E-03    -218.310E-03    -218.310E-03
             244         337.164         337.164    -51.2309E-03    -51.2309E-03    -113.363E-03    -113.363E-03
             245         337.296         337.296    -44.8690E-03    -44.8690E-03    -19.6051E-03    -19.6051E-03
             246         337.256         337.256    -37.6605E-03    -37.6605E-03     60.5694E-03     60.5694E-03
             247         337.072         337.072    -30.3041E-03    -30.3041E-03     126.241E-03     126.241E-03
             248         336.772         336.772    -23.2553E-03    -23.2553E-03     177.627E-03     177.627E-03
             249         336.384         336.384    -16.8362E-03    -16.8362E-03     215.699E-03     215.699E-03
             250         335.933         335.933    -11.2186E-03    -11.2186E-03     241.913E-03     241.913E-03
             251         335.441         335.441    -6.45871E-03    -6.45871E-03     257.936E-03     257.936E-03
             252         334.924         334.924    -2.56000E-03    -2.56000E-03     265.491E-03     265.491E-03
             253         334.400         334.400     550.507E-06     550.507E-06     266.218E-03     266.218E-03
             254         333.880         333.880     2.94316E-03     2.94316E-03     261.618E-03     261.618E-03
             255         333.373         333.373     4.72732E-03     4.72732E-03     253.001E-03     253.001E-03
             256         332.885         332.885     5.99011E-03     5.99011E-03     241.486E-03     241.486E-03
             257         332.423         332.423     6.83209E-03     6.83209E-03     227.999E-03     227.999E-03
             258         331.988         331.988     7.33049E-03     7.33049E-03     213.290E-03     213.290E-03
             259         331.582         331.582     7.56240E-03     7.56240E-03     197.955E-03     197.955E-03
             260         331.207         331.207     7.58685E-03     7.58685E-03     182.456E-03     182.456E-03
             261         330.863         330.863     7.45731E-03     7.45731E-03     167.142E-03     167.142E-03
             262         330.548         330.548     7.21506E-03     7.21506E-03     152.268E-03     152.268E-03
             263         330.262         330.262     6.89480E-03     6.89480E-03     138.016E-03     138.016E-03
             264         330.003         330.003     6.52363E-03     6.52363E-03     124.505E-03     124.505E-03
             265         329.771         329.771     6.12295E-03     6.12295E-03     111.809E-03     111.809E-03
             266         329.562         329.562     5.70964E-03     5.70964E-03     99.9615E-03     99.9615E-03
             267         329.376         329.376     5.29624E-03     5.29624E-03     88.9707E-03     88.9707E-03
             268         329.210         329.210     4.89279E-03     4.89279E-03     78.8212E-03     78.8212E-03
             269         329.064         329.064     4.50617E-03     4.50617E-03     69.4819E-03     69.4819E-03
             270         328.936         328.936     4.14210E-03     4.14210E-03     60.9097E-03     60.9097E-03
             271         328.824         328.824     3.80394E-03     3.80394E-03     53.0529E-03     53.0529E-03
             272         328.726         328.726     3.49493E-03     3.49493E-03     45.8538E-03     45.8538E-03
             273         328.642         328.642     3.21616E-03     3.21616E-03     39.2509E-03     39.2509E-03
             274         328.571         328.571     2.96971E-03     2.96971E-03     33.1798E-03     33.1798E-03
             275         328.511         328.511     2.75513E-03     2.75513E-03     27.5747E-03     27.5747E-03
             276         328.462         328.462     2.57427E-03     2.57427E-03     22.3689E-03     22.3689E-03
             277         328.423         328.423     2.42608E-03     2.42608E-03     17.4949E-03     17.4949E-03
             278         328.393         328.393     2.31119E-03     2.31119E-03     12.8864E-03     12.8864E-03
             279         328.372         328.372     2.24352E-03     2.24352E-03     8.46305E-03     8.46305E-03
             280         328.359         328.359     2.17589E-03     2.17589E-03     4.31955E-03     4.31955E-03
             281         328.385         328.385     6.28080E-03     6.28080E-03     4.39640E-03     4.39640E-03
             282         328.437         328.437     18.4911E-03     18.4911E-03     8.32980E-03     8.32980E-03
             283         328.473         328.473     38.2321E-03     38.2321E-03     11.9793E-03     11.9793E-03
             284         328.495         328.495     64.8761E-03     64.8761E-03     15.2785E-03     15.2785E-03
             285         328.504         328.504     97.6311E-03     97.6311E-03     18.1285E-03     18.1285E-03
             286         328.501         328.501     135.558E-03     135.558E-03     20.4789E-03     20.4789E-03
             287         328.488         328.488     177.618E-03     177.618E-03     22.2811E-03     22.2811E-03
             288         328.466         328.466     222.701E-03     222.701E-03     23.5099E-03     23.5099E-03
             289         328.438         328.438     269.656E-03     269.656E-03     24.1501E-03     24.1501E-03
             290         328.405         328.405     317.319E-03     317.319E-03     24.2027E-03     24.2027E-03
             291         328.369         328.369     364.537E-03     364.537E-03     23.6796E-03     23.6796E-03
             292         328.331         328.331     410.191E-03     410.191E-03     22.6022E-03     22.6022E-03
             293         310.313         310.313         90.0634         90.0634        -20.6077        -20.6077
             294         313.540         313.540         82.3522         82.3522        -20.5011        -20.5011
             295         316.677         316.677         74.6283         74.6283        -19.8563        -19.8563
             296         319.650         319.650         67.0505         67.0505        -18.8920        -18.8920
             297         322.387         322.387         59.7417         59.7417        -17.6316        -17.6316
             298         324.839         324.839         52.8080         52.8080        -16.1359        -16.1359
             299         326.978         326.978         46.3285         46.3285        -14.4621        -14.4621
             300         328.783         328.783         40.3619         40.3619        -12.6842        -12.6842
             301         330.267         330.267         34.9331         34.9331        -10.8667        -10.8667
             302         331.437         331.437         30.0501         30.0501        -9.06811        -9.06811
             303         332.330         332.330         25.6984         25.6984        -7.33780        -7.33780
             304         332.968         332.968         21.8522         21.8522        -5.70825        -5.70825
             305         333.393         333.393         18.4776         18.4776        -4.20595        -4.20595
             306         333.631         333.631         15.5348         15.5348        -2.84099        -2.84099
             307         333.717         333.717         12.9849         12.9849        -1.62076        -1.62076
             308         333.675         333.675         10.7861         10.7861    -541.251E-03    -541.251E-03
             309         333.531         333.531         8.90189         8.90189     402.105E-03     402.105E-03
             310         333.304         333.304         7.29439         7.29439         1.22031         1.22031
             311         333.012         333.012         5.93129         5.93129         1.92377         1.92377
             312         332.668         332.668         4.78026         4.78026         2.52593         2.52593
             313         332.286         332.286         3.81351         3.81351         3.03919         3.03919
             314         331.875         331.875         3.00371         3.00371         3.47704         3.47704
             315         331.444         331.444         2.32692         2.32692         3.85190         3.85190
             316         331.001         331.001         1.75975         1.75975         4.17639         4.17639
             317         330.553         330.553         1.28110         1.28110         4.46225         4.46225
             318         330.105         330.105     870.262E-03     870.262E-03         4.72117         4.72117
             319         329.664         329.664     507.841E-03     507.841E-03         4.96432         4.96432
             320         329.239         329.239     174.438E-03     174.438E-03         5.20288         5.20288
             321         328.835         328.835    -148.964E-03    -148.964E-03         5.44785         5.44785
             322         328.465         328.465    -482.029E-03    -482.029E-03         5.71036         5.71036
             323         328.140         328.140    -845.126E-03    -845.126E-03         6.00149         6.00149
             324         327.876         327.876        -1.26025        -1.26025         6.33217         6.33217
             325         327.697         327.697        -1.75153        -1.75153         6.71250         6.71250
             326         327.633         327.633        -2.34606        -2.34606         7.15070         7.15070
             327         327.723         327.723        -3.07474        -3.07474         7.65083         7.65083
             328         328.025         328.025        -3.97215        -3.97215         8.20902         8.20902
             329         328.612         328.612        -5.07647        -5.07647         8.80689         8.80689
             330         329.581         329.581        -6.42364        -6.42364         9.40079         9.40079
             331         331.052         331.052        -8.03886        -8.03886         9.90616         9.90616
             332         333.157         333.157        -9.90551        -9.90551         10.1753         10.1753
             333         336.009         336.009        -11.9236        -11.9236         9.98345         9.98345
             334         339.615         339.615        -13.8137        -13.8137         9.03035         9.03035
             335         331.885         331.885    -45.0539E-03    -45.0539E-03    -516.243E-03    -516.243E-03
             336         332.805         332.805    -56.6661E-03    -56.6661E-03    -415.419E-03    -415.419E-03
             337         333.508         333.508    -63.3140E-03    -63.3140E-03    -296.392E-03    -296.392E-03
             338         333.968         333.968    -65.4809E-03    -65.4809E-03    -169.016E-03    -169.016E-03
             339         334.176         334.176    -64.1412E-03    -64.1412E-03    -41.1285E-03    -41.1285E-03
             340         334.137         334.137    -60.0471E-03    -60.0471E-03     81.1681E-03     81.1681E-03
             341         333.867         333.867    -54.4117E-03    -54.4117E-03     193.688E-03     193.688E-03
             342         333.387         333.387    -47.7711E-03    -47.7711E-03     294.026E-03     294.026E-03
             343         332.721         332.721    -41.1062E-03    -41.1062E-03     381.199E-03     381.199E-03
             344         331.897         331.897    -34.4962E-03    -34.4962E-03     455.361E-03     455.361E-03
             345         330.938         330.938    -28.7058E-03    -28.7058E-03     517.372E-03     517.372E-03
             346         329.867         329.867    -23.2926E-03    -23.2926E-03     568.556E-03     568.556E-03
             347         328.705         328.705    -19.0623E-03    -19.0623E-03     610.392E-03     610.392E-03
             348         327.468         327.468    -14.9807E-03    -14.9807E-03     644.375E-03     644.375E-03
             349         326.171         326.171    -12.2604E-03    -12.2604E-03     671.856E-03     671.856E-03
             350         324.824         324.824    -9.07126E-03    -9.07126E-03     693.972E-03     693.972E-03
             351         323.439         323.439    -7.50422E-03    -7.50422E-03     711.599E-03     711.599E-03
             352         322.022         322.022    -4.49051E-03    -4.49051E-03     725.312E-03     725.312E-03
             353         320.582         320.582    -3.68455E-03    -3.68455E-03     735.396E-03     735.396E-03
             354         319.125         319.125     42.6485E-06     42.6485E-06     741.806E-03     741.806E-03
             355         317.660         317.660     368.762E-06     368.762E-06     744.214E-03     744.214E-03
             356         316.194         316.194     5.92398E-03     5.92398E-03     741.909E-03     741.909E-03
             357         314.739         314.739     5.85295E-03     5.85295E-03     733.916E-03     733.916E-03
             358         313.305         313.305     14.7816E-03     14.7816E-03     718.738E-03     718.738E-03
             359         311.911         311.911     14.1080E-03     14.1080E-03     694.646E-03     694.646E-03
             360         310.575         310.575     28.8055E-03     28.8055E-03     659.024E-03     659.024E-03
             361         309.322         309.322     26.8846E-03     26.8846E-03     609.165E-03     609.165E-03
             362         308.186         308.186     51.4409E-03     51.4409E-03     540.508E-03     540.508E-03
             363         307.208         307.208     46.8726E-03     46.8726E-03     449.001E-03     449.001E-03
             364         306.439         306.439     88.9391E-03     88.9391E-03     326.063E-03     326.063E-03
             365         305.950         305.950     78.7980E-03     78.7980E-03     165.880E-03     165.880E-03
             366         305.828         305.828     154.275E-03     154.275E-03    -49.7873E-03    -49.7873E-03
             367         306.195         306.195     131.891E-03     131.891E-03    -328.275E-03    -328.275E-03
             368         307.211         307.211     278.519E-03     278.519E-03    -714.441E-03    -714.441E-03
             369         309.105         309.105     226.112E-03     226.112E-03        -1.21299        -1.21299
             370         312.205         312.205     550.012E-03     550.012E-03        -1.95339        -1.95339
             371         317.002         317.002     411.153E-03     411.153E-03        -2.91567        -2.91567
             372         324.324         324.324         1.28553         1.28553        -4.55344        -4.55344
             373         335.456         335.456     847.006E-03     847.006E-03        -6.71849        -6.71849
             374         353.423         353.423         4.15122         4.15122        -11.5941        -11.5941
             375         383.179         383.179         2.42376         2.42376        -18.4360        -18.4360
             376         451.977         451.977         32.4697         32.4697        -51.3532        -51.3532
             377         439.441         439.441         84.7505         84.7505        -86.4804        -86.4804
             378         366.714         366.714         97.6706         97.6706        -80.7805        -80.7805
             379         346.871         346.871         95.8744         95.8744        -67.8911        -67.8911
             380         333.221         333.221         95.7259         95.7259        -61.0512        -61.0512
             381         325.949         325.949         95.0284         95.0284        -53.9646        -53.9646
             382         320.615         320.615         94.6708         94.6708        -48.6314        -48.6314
             383         317.184         317.184         94.3821         94.3821        -43.4819        -43.4819
             384         314.564         314.564         94.1830         94.1830        -39.0773        -39.0773
             385         312.723         312.723         94.0660         94.0660        -34.8719        -34.8719
             386         311.280         311.280         93.9739         93.9739        -31.0578        -31.0578
             387         310.215         310.215         93.9328         93.9328        -27.4053        -27.4053
             388         309.369         309.369         93.8963         93.8963        -23.9844        -23.9844
             389         344.376         344.376        -12.3646        -12.3646        -2.82696        -2.82696
             390         343.478         343.478        -9.70374        -9.70374    -176.357E-03    -176.357E-03
             391         342.000         342.000        -7.34249        -7.34249         1.51923         1.51923
             392         340.348         340.348        -5.41271        -5.41271         2.51044         2.51044
             393         338.728         338.728        -3.90578        -3.90578         3.03119         3.03119
             394         337.224         337.224        -2.76135        -2.76135         3.24771         3.24771
             395         335.862         335.862        -1.90577        -1.90577         3.26517         3.26517
             396         334.640         334.640        -1.27196        -1.27196         3.13846         3.13846
             397         333.548         333.548    -805.269E-03    -805.269E-03         2.88467         2.88467
             398         332.577         332.577    -465.189E-03    -465.189E-03         2.48946         2.48946
             399         331.730         331.730    -225.882E-03    -225.882E-03         1.90979         1.90979
             400         331.025         331.025    -78.0538E-03    -78.0538E-03         1.07848         1.07848
             401         329.265         329.265    -902.974E-06    -902.974E-06     622.162E-03     622.162E-03
             402         327.744         327.744     29.5060E-03     29.5060E-03     588.885E-03     588.885E-03
             403         326.403         326.403     59.4104E-03     59.4104E-03     480.135E-03     480.135E-03
             404         325.421         325.421     83.1341E-03     83.1341E-03     304.384E-03     304.384E-03
             405         324.944         324.944     97.9323E-03     97.9323E-03     80.6949E-03     80.6949E-03
             406         325.053         325.053     97.5510E-03     97.5510E-03    -160.386E-03    -160.386E-03
             407         325.744         325.744     84.1819E-03     84.1819E-03    -383.926E-03    -383.926E-03
             408         326.939         326.939     62.4776E-03     62.4776E-03    -563.555E-03    -563.555E-03
             409         328.502         328.502     33.2776E-03     33.2776E-03    -679.684E-03    -679.684E-03
             410         330.264         330.264     3.39030E-03     3.39030E-03    -722.453E-03    -722.453E-03
             411         352.654         352.654         29.5838         29.5838         9.28545         9.28545
             412         356.402         356.402         15.1539         15.1539         13.4278         13.4278
             413         358.309         358.309     2.01750E-03     2.01750E-03         10.8745         10.8745
             414         356.625         356.625        -10.5738        -10.5738         4.64316         4.64316
             415         352.094         352.094        -15.5519        -15.5519        -1.79204        -1.79204
             416         352.568         352.568        -14.1136        -14.1136    -351.737E-03    -351.737E-03
             417         357.150         357.150        -6.36698        -6.36698        -8.00463        -8.00463
             418         357.179         357.179         8.92750         8.92750        -13.4605        -13.4605
             419         353.470         353.470         26.4110         26.4110        -11.1177        -11.1177
             420         310.314         310.314         90.0615         90.0615         20.6019         20.6019
             421         313.540         313.540         82.3519         82.3519         20.4926         20.4926
             422         316.676         316.676         74.6301         74.6301         19.8449         19.8449
             423         319.647         319.647         67.0551         67.0551         18.8780         18.8780
             424         322.383         322.383         59.7492         59.7492         17.6155         17.6155
             425         324.834         324.834         52.8187         52.8187         16.1186         16.1186
             426         326.973         326.973         46.3422         46.3422         14.4444         14.4444
             427         328.777         328.777         40.3783         40.3783         12.6669         12.6669
             428         330.261         330.261         34.9517         34.9517         10.8505         10.8505
             429         331.432         331.432         30.0704         30.0704         9.05373         9.05373
             430         332.326         332.326         25.7197         25.7197         7.32563         7.32563
             431         332.966         332.966         21.8740         21.8740         5.69861         5.69861
             432         333.392         333.392         18.4994         18.4994         4.19904         4.19904
             433         333.632         333.632         15.5560         15.5560         2.83683         2.83683
             434         333.720         333.720         13.0052         13.0052         1.61940         1.61940
             435         333.680         333.680         10.8053         10.8053     542.543E-03     542.543E-03
             436         333.537         333.537         8.91969         8.91969    -398.205E-03    -398.205E-03
             437         333.311         333.311         7.31070         7.31070        -1.21400        -1.21400
             438         333.020         333.020         5.94614         5.94614        -1.91515        -1.91515
             439         332.677         332.677         4.79365         4.79365        -2.51521        -2.51521
             440         332.295         332.295         3.82559         3.82559        -3.02648        -3.02648
             441         331.884         331.884         3.01460         3.01460        -3.46252        -3.46252
             442         331.452         331.452         2.33687         2.33687        -3.83569        -3.83569
             443         331.008         331.008         1.76901         1.76901        -4.15865        -4.15865
             444         330.557         330.557         1.29002         1.29002        -4.44310        -4.44310
             445         330.107         330.107     879.217E-03     879.217E-03        -4.70078        -4.70078
             446         329.663         329.663     517.320E-03     517.320E-03        -4.94283        -4.94283
             447         329.233         329.233     184.982E-03     184.982E-03        -5.18051        -5.18051
             448         328.824         328.824    -136.668E-03    -136.668E-03        -5.42487        -5.42487
             449         328.446         328.446    -467.199E-03    -467.199E-03        -5.68717        -5.68717
             450         328.113         328.113    -826.794E-03    -826.794E-03        -5.97866        -5.97866
             451         327.838         327.838        -1.23733        -1.23733        -6.31062        -6.31062
             452         327.646         327.646        -1.72273        -1.72273        -6.69359        -6.69359
             453         327.565         327.565        -2.31007        -2.31007        -7.13657        -7.13657
             454         327.636         327.636        -3.03024        -3.03024        -7.64469        -7.64469
             455         327.913         327.913        -3.91846        -3.91846        -8.21579        -8.21579
             456         328.473         328.473        -5.01395        -5.01395        -8.83355        -8.83355
             457         329.413         329.413        -6.35558        -6.35558        -9.45719        -9.45719
             458         330.859         330.859        -7.97313        -7.97313        -10.0034        -10.0034
             459         332.951         332.951        -9.85566        -9.85566        -10.3230        -10.3230
             460         335.810         335.810        -11.9060        -11.9060        -10.1831        -10.1831
             461         339.445         339.445        -13.8406        -13.8406        -9.27265        -9.27265
             462         338.631         338.631        -19.2889        -19.2889        -17.3347        -17.3347
             463         324.435         324.435        -17.5013        -17.5013        -26.0772        -26.0772
             464         301.308         301.308        -9.76115        -9.76115        -29.4503        -29.4503
             465         276.892         276.892     854.708E-03     854.708E-03        -20.6173        -20.6173
             466         272.571         272.571         2.85365         2.85365         18.3066         18.3066
             467         292.257         292.257        -6.15211        -6.15211         28.8024         28.8024
             468         313.941         313.941        -14.6035        -14.6035         29.4179         29.4179
             469         330.629         330.629        -19.0262        -19.0262         23.5886         23.5886
             470         340.430         340.430        -19.3064        -19.3064         15.7907         15.7907
             471         308.121         308.121         93.8847         93.8847        -16.7026        -16.7026
             472         307.676         307.676         93.8874         93.8874        -12.8428        -12.8428
             473         307.367         307.367         93.8908         93.8908        -9.10418        -9.10418
             474         307.175         307.175         93.8963         93.8963        -5.43642        -5.43642
             475         307.081         307.081         93.8976         93.8976        -1.81983        -1.81983
             476         307.082         307.082         93.8962         93.8962         1.78894         1.78894
             477         307.177         307.177         93.8923         93.8923         5.40928         5.40928
             478         307.369         307.369         93.8857         93.8857         9.08263         9.08263
             479         307.678         307.678         93.8820         93.8820         12.8276         12.8276
             480         308.124         308.124         93.8804         93.8804         16.6935         16.6935
             481         309.370         309.370         93.8947         93.8947         23.9817         23.9817
             482         310.216         310.216         93.9322         93.9322         27.4033         27.4033
             483         311.280         311.280         93.9735         93.9735         31.0563         31.0563
             484         312.723         312.723         94.0658         94.0658         34.8708         34.8708
             485         314.564         314.564         94.1828         94.1828         39.0763         39.0763
             486         317.185         317.185         94.3820         94.3820         43.4811         43.4811
             487         320.615         320.615         94.6707         94.6707         48.6307         48.6307
             488         325.950         325.950         95.0284         95.0284         53.9640         53.9640
             489         333.221         333.221         95.7258         95.7258         61.0507         61.0507
             490         346.871         346.871         95.8744         95.8744         67.8906         67.8906
             491         366.714         366.714         97.6705         97.6705         80.7801         80.7801
             492         439.441         439.441         84.7504         84.7504         86.4801         86.4801
             493         451.977         451.977         32.4697         32.4697         51.3530         51.3530
             494         383.179         383.179         2.42375         2.42375         18.4359         18.4359
             495         353.423         353.423         4.15120         4.15120         11.5940         11.5940
             496         335.457         335.457     846.993E-03     846.993E-03         6.71842         6.71842
             497         324.324         324.324         1.28552         1.28552         4.55339         4.55339
             498         317.003         317.003     411.142E-03     411.142E-03         2.91565         2.91565
             499         312.206         312.206     550.002E-03     550.002E-03         1.95339         1.95339
             500         309.106         309.106     226.104E-03     226.104E-03         1.21301         1.21301
             501         307.212         307.212     278.512E-03     278.512E-03     714.473E-03     714.473E-03
             502         306.196         306.196     131.886E-03     131.886E-03     328.320E-03     328.320E-03
             503         305.829         305.829     154.270E-03     154.270E-03     49.8422E-03     49.8422E-03
             504         305.950         305.950     78.7951E-03     78.7951E-03    -165.818E-03    -165.818E-03
             505         306.439         306.439     88.9369E-03     88.9369E-03    -325.996E-03    -325.996E-03
             506         307.208         307.208     46.8715E-03     46.8715E-03    -448.931E-03    -448.931E-03
             507         308.186         308.186     51.4401E-03     51.4401E-03    -540.436E-03    -540.436E-03
             508         309.322         309.322     26.8845E-03     26.8845E-03    -609.092E-03    -609.092E-03
             509         310.574         310.574     28.8056E-03     28.8056E-03    -658.951E-03    -658.951E-03
             510         311.910         311.910     14.1082E-03     14.1082E-03    -694.574E-03    -694.574E-03
             511         313.305         313.305     14.7821E-03     14.7821E-03    -718.666E-03    -718.666E-03
             512         314.738         314.738     5.85305E-03     5.85305E-03    -733.844E-03    -733.844E-03
             513         316.193         316.193     5.92472E-03     5.92472E-03    -741.838E-03    -741.838E-03
             514         317.659         317.659     368.441E-06     368.441E-06    -744.143E-03    -744.143E-03
             515         319.124         319.124     43.4509E-06     43.4509E-06    -741.736E-03    -741.736E-03
             516         320.580         320.580    -3.68552E-03    -3.68552E-03    -735.325E-03    -735.325E-03
             517         322.020         322.020    -4.48968E-03    -4.48968E-03    -725.240E-03    -725.240E-03
             518         323.437         323.437    -7.50605E-03    -7.50605E-03    -711.525E-03    -711.525E-03
             519         324.822         324.822    -9.07036E-03    -9.07036E-03    -693.897E-03    -693.897E-03
             520         326.169         326.169    -12.2629E-03    -12.2629E-03    -671.778E-03    -671.778E-03
             521         327.466         327.466    -14.9791E-03    -14.9791E-03    -644.295E-03    -644.295E-03
             522         328.703         328.703    -19.0636E-03    -19.0636E-03    -610.312E-03    -610.312E-03
             523         329.865         329.865    -23.2873E-03    -23.2873E-03    -568.478E-03    -568.478E-03
             524         330.935         330.935    -28.6995E-03    -28.6995E-03    -517.305E-03    -517.305E-03
             525         331.894         331.894    -34.4795E-03    -34.4795E-03    -455.314E-03    -455.314E-03
             526         332.718         332.718    -41.0789E-03    -41.0789E-03    -381.195E-03    -381.195E-03
             527         333.384         333.384    -47.7308E-03    -47.7308E-03    -294.086E-03    -294.086E-03
             528         333.864         333.864    -54.3493E-03    -54.3493E-03    -193.850E-03    -193.850E-03
             529         334.135         334.135    -59.9810E-03    -59.9810E-03    -81.4540E-03    -81.4540E-03
             530         334.175         334.175    -64.0564E-03    -64.0564E-03     40.6942E-03     40.6942E-03
             531         333.968         333.968    -65.4291E-03    -65.4291E-03     168.447E-03     168.447E-03
             532         333.509         333.509    -63.2852E-03    -63.2852E-03     295.745E-03     295.745E-03
             533         332.807         332.807    -56.7077E-03    -56.7077E-03     414.787E-03     414.787E-03
             534         331.888         331.888    -45.2156E-03    -45.2156E-03     516.012E-03     516.012E-03
             535         5.23797         5.23797        -164.810        -164.810    -747.540E-03    -747.540E-03
             536         44.8356         44.8356        -61.4318        -61.4318        -2.04419        -2.04419
             537         108.434         108.434        -11.7879        -11.7879        -2.34068        -2.34068
             538         174.115         174.115         5.93842         5.93842        -2.04643        -2.04643
             539         228.683         228.683         8.85660         8.85660        -1.47734        -1.47734
             540         354.715         354.715        -25.7640        -25.7640        -13.0075        -13.0075
             541         367.757         367.757        -38.8016        -38.8016        -23.4234        -23.4234
             542         380.085         380.085        -50.9501        -50.9501        -40.3415        -40.3415
             543         377.235         377.235        -47.6615        -47.6615        -66.8807        -66.8807
             544         320.543         320.543         10.6788         10.6788        -107.654        -107.654
             545         160.816         160.816         10.2299         10.2299        -84.9407        -84.9407
             546         74.5956         74.5956        -62.6485        -62.6485        -38.8594        -38.8594
             547         24.0207         24.0207        -142.742        -142.742        -6.43161        -6.43161
             548     770.651E-03     770.651E-03        -206.347        -206.347         4.75207         4.75207
             549         366.161         366.161         53.5898         53.5898     352.273E-03     352.273E-03
             550         397.204         397.204         79.8949         79.8949     301.707E-03     301.707E-03
             551         455.807         455.807         104.380         104.380     263.927E-03     263.927E-03
             552         560.667         560.667         112.129         112.129     224.627E-03     224.627E-03
             553         732.775         732.775         81.9580         81.9580     149.215E-03     149.215E-03
             554         798.708         798.708         63.3606         63.3606        -92.0928        -92.0928
             555         692.686         692.686         83.1067         83.1067        -157.404        -157.404
             556         549.522         549.522         96.5718         96.5718        -182.390        -182.390
             557         401.653         401.653         89.2426         89.2426        -169.537        -169.537
             558         324.250         324.250         11.7531         11.7531         108.299         108.299
             559         379.776         379.776        -47.4222        -47.4222         66.0693         66.0693
             560         381.510         381.510        -50.8084        -50.8084         39.3691         39.3691
             561         368.478         368.478        -38.6679        -38.6679         22.6735         22.6735
             562         355.056         355.056        -25.6444        -25.6444         12.5044         12.5044
             563        -1.40029        -1.40029        -217.230        -217.230        -5.38189        -5.38189
             564         12.9878         12.9878        -169.399        -169.399    -708.503E-03    -708.503E-03
             565         43.9618         43.9618        -104.119        -104.119         19.1855         19.1855
             566         97.4385         97.4385        -36.3581        -36.3581         52.6642         52.6642
             567         176.210         176.210         21.3553         21.3553         92.8476         92.8476
             568         355.634         355.634        -26.2781        -26.2781         13.2237         13.2237
             569         369.030         369.030        -39.1861        -39.1861         23.1685         23.1685
             570         382.045         382.045        -51.2295        -51.2295         39.6971         39.6971
             571         380.329         380.329        -47.7348        -47.7348         66.2899         66.2899
             572         324.788         324.788         11.6662         11.6662         108.524         108.524
             573         402.193         402.193         89.1067         89.1067         169.810         169.810
             574         550.119         550.119         96.7106         96.7106         182.686         182.686
             575         693.216         693.216         83.2352         83.2352         157.677         157.677
             576         799.023         799.023         63.4330         63.4330         92.3124         92.3124
             577         317.043         317.043         9.40313         9.40313        -107.256        -107.256
             578         375.717         375.717        -49.1107        -49.1107        -67.7820        -67.7820
             579         379.389         379.389        -52.0084        -52.0084        -41.5136        -41.5136
             580         367.540         367.540        -39.6224        -39.6224        -24.5497        -24.5497
             581         354.821         354.821        -26.5222        -26.5222        -14.1289        -14.1289
             582         366.048         366.048         54.1305         54.1305        -1.09819        -1.09819
             583         397.211         397.211         80.4685         80.4685        -1.17319        -1.17319
             584         456.086         456.086         104.822         104.822    -845.546E-03    -845.546E-03
             585         561.363         561.363         112.298         112.298     217.903E-03     217.903E-03
             586         734.068         734.068         81.6805         81.6805         2.42557         2.42557
             587         814.486         814.486         60.0111         60.0111        -79.1693        -79.1693
             588         736.865         736.865         76.2111         76.2111        -141.754        -141.754
             589         625.500         625.500         92.4824         92.4824        -177.239        -177.239
             590         499.970         499.970         98.2872         98.2872        -183.746        -183.746
             591         378.087         378.087         87.3623         87.3623        -166.043        -166.043
             592         401.506         401.506         88.9323         88.9323         169.483         169.483
             593         549.259         549.259         96.5352         96.5352         182.334         182.334
             594         692.216         692.216         83.0401         83.0401         157.402         157.402
             595         798.008         798.008         63.4324         63.4324         92.0814         92.0814
             596         229.418         229.418         8.06491         8.06491        -1.46872        -1.46872
             597         174.585         174.585         5.30120         5.30120        -2.02906        -2.02906
             598         108.681         108.681        -12.3565        -12.3565        -2.31560        -2.31560
             599         44.9055         44.9055        -62.0515        -62.0515        -2.01655        -2.01655
             600         5.21693         5.21693        -165.661        -165.661    -725.439E-03    -725.439E-03
             601        -1.42193        -1.42193        -218.171        -218.171        -5.41091        -5.41091
             602         13.0004         13.0004        -170.150        -170.150    -744.266E-03    -744.266E-03
             603         44.0467         44.0467        -104.624        -104.624         19.1886         19.1886
             604         97.6287         97.6287        -36.6224        -36.6224         52.7495         52.7495
             605         176.554         176.554         21.2976         21.2976         93.0185         93.0185
             606         161.063         161.063         10.0114         10.0114        -84.9729        -84.9729
             607         74.6672         74.6672        -63.1268        -63.1268        -38.8241        -38.8241
             608         24.0174         24.0174        -143.488        -143.488        -6.35032        -6.35032
             609     736.798E-03     736.798E-03        -207.297        -207.297         4.82128         4.82128
             610         340.648         340.648        -11.3546        -11.3546        -4.12152        -4.12152
             611         337.621         337.621        -10.2227        -10.2227        -5.56514        -5.56514
             612         334.945         334.945        -8.72799        -8.72799        -6.34742        -6.34742
             613         332.729         332.729        -7.14333        -7.14333        -6.61665        -6.61665
             614         330.980         330.980        -5.63955        -5.63955        -6.54584        -6.54584
             615         329.650         329.650        -4.29589        -4.29589        -6.27242        -6.27242
             616         328.668         328.668        -3.13832        -3.13832        -5.89542        -5.89542
             617         327.963         327.963        -2.16317        -2.16317        -5.47710        -5.47710
             618         327.474         327.474        -1.35535        -1.35535        -5.05481        -5.05481
             619         327.150         327.150    -694.992E-03    -694.992E-03        -4.64880        -4.64880
             620         326.950         326.950    -162.279E-03    -162.279E-03        -4.26895        -4.26895
             621         326.843         326.843     261.475E-03     261.475E-03        -3.91880        -3.91880
             622         326.804         326.804     592.876E-03     592.876E-03        -3.59837        -3.59837
             623         326.815         326.815     846.558E-03     846.558E-03        -3.30588        -3.30588
             624         326.860         326.860         1.03518         1.03518        -3.03873        -3.03873
             625         326.930         326.930         1.16969         1.16969        -2.79413        -2.79413
             626         327.015         327.015         1.25950         1.25950        -2.56943        -2.56943
             627         327.110         327.110         1.31269         1.31269        -2.36226        -2.36226
             628         327.209         327.209         1.33616         1.33616        -2.17060        -2.17060
             629         327.309         327.309         1.33582         1.33582        -1.99273        -1.99273
             630         327.408         327.408         1.31668         1.31668        -1.82728        -1.82728
             631         327.503         327.503         1.28300         1.28300        -1.67310        -1.67310
             632         327.594         327.594         1.23838         1.23838        -1.52925        -1.52925
             633         327.679         327.679         1.18584         1.18584        -1.39497        -1.39497
             634         327.758         327.758         1.12790         1.12790        -1.26961        -1.26961
             635         327.832         327.832         1.06667         1.06667        -1.15261        -1.15261
             636         327.899         327.899         1.00387         1.00387        -1.04346        -1.04346
             637         327.960         327.960     940.937E-03     940.937E-03    -941.695E-03    -941.695E-03
             638         328.015         328.015     879.023E-03     879.023E-03    -846.876E-03    -846.876E-03
             639         328.065         328.065     819.067E-03     819.067E-03    -758.569E-03    -758.569E-03
             640         328.109         328.109     761.815E-03     761.815E-03    -676.343E-03    -676.343E-03
             641         328.149         328.149     707.861E-03     707.861E-03    -599.767E-03    -599.767E-03
             642         328.183         328.183     657.668E-03     657.668E-03    -528.403E-03    -528.403E-03
             643         328.214         328.214     611.594E-03     611.594E-03    -461.803E-03    -461.803E-03
             644         328.240         328.240     569.911E-03     569.911E-03    -399.516E-03    -399.516E-03
             645         328.262         328.262     532.821E-03     532.821E-03    -341.081E-03    -341.081E-03
             646         328.281         328.281     500.474E-03     500.474E-03    -286.030E-03    -286.030E-03
             647         328.297         328.297     472.977E-03     472.977E-03    -233.890E-03    -233.890E-03
             648         328.309         328.309     450.404E-03     450.404E-03    -184.184E-03    -184.184E-03
             649         328.319         328.319     432.807E-03     432.807E-03    -136.428E-03    -136.428E-03
             650         328.326         328.326     420.219E-03     420.219E-03    -90.1399E-03    -90.1399E-03
             651         328.330         328.330     412.651E-03     412.651E-03    -44.9541E-03    -44.9541E-03
             652         340.892         340.892        -9.51051        -9.51051        -1.34362        -1.34362
             653         338.540         338.540        -9.00816        -9.00816        -2.96724        -2.96724
             654         336.329         336.329        -8.05794        -8.05794        -4.06670        -4.06670
             655         334.363         334.363        -6.88210        -6.88210        -4.72435        -4.72435
             656         332.701         332.701        -5.65353        -5.65353        -5.03713        -5.03713
             657         331.349         331.349        -4.47903        -4.47903        -5.10756        -5.10756
             658         330.282         330.282        -3.41469        -3.41469        -5.01905        -5.01905
             659         329.462         329.462        -2.48358        -2.48358        -4.83465        -4.83465
             660         328.846         328.846        -1.68899        -1.68899        -4.59724        -4.59724
             661         328.395         328.395        -1.02423        -1.02423        -4.33507        -4.33507
             662         328.074         328.074    -477.538E-03    -477.538E-03        -4.06553        -4.06553
             663         327.856         327.856    -35.5031E-03    -35.5031E-03        -3.79897        -3.79897
             664         327.715         327.715     315.549E-03     315.549E-03        -3.54100        -3.54100
             665         327.635         327.635     588.529E-03     588.529E-03        -3.29444        -3.29444
             666         327.598         327.598     795.311E-03     795.311E-03        -3.06034        -3.06034
             667         327.594         327.594     946.506E-03     946.506E-03        -2.83885        -2.83885
             668         327.613         327.613         1.05150         1.05150        -2.62961        -2.62961
             669         327.648         327.648         1.11847         1.11847        -2.43207        -2.43207
             670         327.693         327.693         1.15451         1.15451        -2.24562        -2.24562
             671         327.745         327.745         1.16570         1.16570        -2.06969        -2.06969
             672         327.799         327.799         1.15724         1.15724        -1.90376        -1.90376
             673         327.855         327.855         1.13353         1.13353        -1.74738        -1.74738
             674         327.909         327.909         1.09827         1.09827        -1.60015        -1.60015
             675         327.962         327.962         1.05457         1.05457        -1.46170        -1.46170
             676         328.011         328.011         1.00502         1.00502        -1.33170        -1.33170
             677         328.057         328.057     951.753E-03     951.753E-03        -1.20982        -1.20982
             678         328.099         328.099     896.523E-03     896.523E-03        -1.09574        -1.09574
             679         328.138         328.138     840.761E-03     840.761E-03    -989.103E-03    -989.103E-03
             680         328.173         328.173     785.624E-03     785.624E-03    -889.566E-03    -889.566E-03
             681         328.204         328.204     732.042E-03     732.042E-03    -796.753E-03    -796.753E-03
             682         328.232         328.232     680.752E-03     680.752E-03    -710.269E-03    -710.269E-03
             683         328.257         328.257     632.333E-03     632.333E-03    -629.700E-03    -629.700E-03
             684         328.279         328.279     587.236E-03     587.236E-03    -554.612E-03    -554.612E-03
             685         328.297         328.297     545.807E-03     545.807E-03    -484.553E-03    -484.553E-03
             686         328.313         328.313     508.306E-03     508.306E-03    -419.058E-03    -419.058E-03
             687         328.327         328.327     474.927E-03     474.927E-03    -357.646E-03    -357.646E-03
             688         328.339         328.339     445.811E-03     445.811E-03    -299.827E-03    -299.827E-03
             689         328.348         328.348     421.058E-03     421.058E-03    -245.102E-03    -245.102E-03
             690         328.356         328.356     400.737E-03     400.737E-03    -192.965E-03    -192.965E-03
             691         328.361         328.361     384.895E-03     384.895E-03    -142.903E-03    -142.903E-03
             692         328.365         328.365     373.563E-03     373.563E-03    -94.4023E-03    -94.4023E-03
             693         328.368         328.368     366.747E-03     366.747E-03    -47.0769E-03    -47.0769E-03
             694         340.418         340.418        -7.65633        -7.65633     681.360E-03     681.360E-03
             695         338.703         338.703        -7.63066        -7.63066    -933.689E-03    -933.689E-03
             696         336.965         336.965        -7.10830        -7.10830        -2.16147        -2.16147
             697         335.327         335.327        -6.29826        -6.29826        -3.03537        -3.03537
             698         333.860         333.860        -5.35108        -5.35108        -3.60584        -3.60584
             699         332.599         332.599        -4.37836        -4.37836        -3.93467        -3.93467
             700         331.551         331.551        -3.45019        -3.45019        -4.08399        -4.08399
             701         330.702         330.702        -2.60603        -2.60603        -4.10587        -4.10587
             702         330.029         330.029        -1.86388        -1.86388        -4.04132        -4.04132
             703         329.505         329.505        -1.22817        -1.22817        -3.92016        -3.92016
             704         329.106         329.106    -695.420E-03    -695.420E-03        -3.76357        -3.76357
             705         328.808         328.808    -257.735E-03    -257.735E-03        -3.58596        -3.58596
             706         328.590         328.590     94.7506E-03     94.7506E-03        -3.39710        -3.39710
             707         328.435         328.435     372.596E-03     372.596E-03        -3.20342        -3.20342
             708         328.329         328.329     586.147E-03     586.147E-03        -3.00918        -3.00918
             709         328.259         328.259     745.138E-03     745.138E-03        -2.81716        -2.81716
             710         328.218         328.218     858.419E-03     858.419E-03        -2.62922        -2.62922
             711         328.197         328.197     933.895E-03     933.895E-03        -2.44662        -2.44662
             712         328.191         328.191     978.493E-03     978.493E-03        -2.27020        -2.27020
             713         328.195         328.195     998.224E-03     998.224E-03        -2.10056        -2.10056
             714         328.206         328.206     998.234E-03     998.234E-03        -1.93812        -1.93812
             715         328.221         328.221     982.899E-03     982.899E-03        -1.78316        -1.78316
             716         328.238         328.238     955.901E-03     955.901E-03        -1.63585        -1.63585
             717         328.256         328.256     920.322E-03     920.322E-03        -1.49629        -1.49629
             718         328.274         328.274     878.713E-03     878.713E-03        -1.36447        -1.36447
             719         328.292         328.292     833.179E-03     833.179E-03        -1.24034        -1.24034
             720         328.308         328.308     785.438E-03     785.438E-03        -1.12375        -1.12375
             721         328.323         328.323     736.885E-03     736.885E-03        -1.01452        -1.01452
             722         328.336         328.336     688.641E-03     688.641E-03    -912.387E-03    -912.387E-03
             723         328.348         328.348     641.600E-03     641.600E-03    -817.054E-03    -817.054E-03
             724         328.359         328.359     596.468E-03     596.468E-03    -728.172E-03    -728.172E-03
             725         328.368         328.368     553.798E-03     553.798E-03    -645.354E-03    -645.354E-03
             726         328.376         328.376     514.014E-03     514.014E-03    -568.182E-03    -568.182E-03
             727         328.382         328.382     477.442E-03     477.442E-03    -496.206E-03    -496.206E-03
             728         328.388         328.388     444.324E-03     444.324E-03    -428.958E-03    -428.958E-03
             729         328.392         328.392     414.840E-03     414.840E-03    -365.948E-03    -365.948E-03
             730         328.396         328.396     389.118E-03     389.118E-03    -306.671E-03    -306.671E-03
             731         328.399         328.399     367.250E-03     367.250E-03    -250.611E-03    -250.611E-03
             732         328.401         328.401     349.297E-03     349.297E-03    -197.243E-03    -197.243E-03
             733         328.403         328.403     335.302E-03     335.302E-03    -146.036E-03    -146.036E-03
             734         328.404         328.404     325.291E-03     325.291E-03    -96.4539E-03    -96.4539E-03
             735         328.405         328.405     319.270E-03     319.270E-03    -48.1005E-03    -48.1005E-03
             736         339.551         339.551        -5.96656        -5.96656         2.04591         2.04591
             737         338.385         338.385        -6.24291        -6.24291     577.342E-03     577.342E-03
             738         337.095         337.095        -6.04044        -6.04044    -651.736E-03    -651.736E-03
             739         335.799         335.799        -5.52508        -5.52508        -1.61881        -1.61881
             740         334.576         334.576        -4.83188        -4.83188        -2.33931        -2.33931
             741         333.473         333.473        -4.06153        -4.06153        -2.84422        -2.84422
             742         332.513         332.513        -3.28707        -3.28707        -3.17189        -3.17189
             743         331.699         331.699        -2.55504        -2.55504        -3.36071        -3.36071
             744         331.026         331.026        -1.89237        -1.89237        -3.44411        -3.44411
             745         330.478         330.478        -1.31164        -1.31164        -3.44958        -3.44958
             746         330.038         330.038    -815.997E-03    -815.997E-03        -3.39841        -3.39841
             747         329.690         329.690    -402.693E-03    -402.693E-03        -3.30686        -3.30686
             748         329.417         329.417    -65.5409E-03    -65.5409E-03        -3.18700        -3.18700
             749         329.205         329.205     203.338E-03     203.338E-03        -3.04784        -3.04784
             750         329.042         329.042     412.466E-03     412.466E-03        -2.89606        -2.89606
             751         328.917         328.917     570.283E-03     570.283E-03        -2.73666        -2.73666
             752         328.822         328.822     684.769E-03     684.769E-03        -2.57342        -2.57342
             753         328.749         328.749     763.204E-03     763.204E-03        -2.40922        -2.40922
             754         328.694         328.694     812.082E-03     812.082E-03        -2.24627        -2.24627
             755         328.651         328.651     837.086E-03     837.086E-03        -2.08628        -2.08628
             756         328.619         328.619     843.117E-03     843.117E-03        -1.93057        -1.93057
             757         328.593         328.593     834.351E-03     834.351E-03        -1.78015        -1.78015
             758         328.573         328.573     814.308E-03     814.308E-03        -1.63575        -1.63575
             759         328.556         328.556     785.927E-03     785.927E-03        -1.49791        -1.49791
             760         328.542         328.542     751.641E-03     751.641E-03        -1.36699        -1.36699
             761         328.530         328.530     713.446E-03     713.446E-03        -1.24317        -1.24317
             762         328.520         328.520     672.967E-03     672.967E-03        -1.12652        -1.12652
             763         328.510         328.510     631.518E-03     631.518E-03        -1.01700        -1.01700
             764         328.501         328.501     590.147E-03     590.147E-03    -914.452E-03    -914.452E-03
             765         328.493         328.493     549.689E-03     549.689E-03    -818.655E-03    -818.655E-03
             766         328.485         328.485     510.797E-03     510.797E-03    -729.311E-03    -729.311E-03
             767         328.478         328.478     473.978E-03     473.978E-03    -646.069E-03    -646.069E-03
             768         328.472         328.472     439.624E-03     439.624E-03    -568.529E-03    -568.529E-03
             769         328.466         328.466     408.027E-03     408.027E-03    -496.256E-03    -496.256E-03
             770         328.460         328.460     379.408E-03     379.408E-03    -428.783E-03    -428.783E-03
             771         328.455         328.455     353.927E-03     353.927E-03    -365.619E-03    -365.619E-03
             772         328.451         328.451     331.697E-03     331.697E-03    -306.255E-03    -306.255E-03
             773         328.447         328.447     312.798E-03     312.798E-03    -250.169E-03    -250.169E-03
             774         328.444         328.444     297.285E-03     297.285E-03    -196.826E-03    -196.826E-03
             775         328.441         328.441     285.192E-03     285.192E-03    -145.686E-03    -145.686E-03
             776         328.439         328.439     276.543E-03     276.543E-03    -96.2025E-03    -96.2025E-03
             777         328.438         328.438     271.341E-03     271.341E-03    -47.9764E-03    -47.9764E-03
             778         338.535         338.535        -4.52817        -4.52817         2.89253         2.89253
             779         337.802         337.802        -4.95238        -4.95238         1.62714         1.62714
             780         336.904         336.904        -4.95862        -4.95862     481.742E-03     481.742E-03
             781         335.936         335.936        -4.66588        -4.66588    -493.044E-03    -493.044E-03
             782         334.969         334.969        -4.18206        -4.18206        -1.28135        -1.28135
             783         334.055         334.055        -3.59598        -3.59598        -1.89061        -1.89061
             784         333.225         333.225        -2.97426        -2.97426        -2.33938        -2.33938
             785         332.491         332.491        -2.36445        -2.36445        -2.65147        -2.65147
             786         331.859         331.859        -1.79681        -1.79681        -2.85136        -2.85136
             787         331.323         331.323        -1.28860        -1.28860        -2.96141        -2.96141
             788         330.874         330.874    -847.471E-03    -847.471E-03        -3.00094        -3.00094
             789         330.502         330.502    -474.565E-03    -474.565E-03        -2.98594        -2.98594
             790         330.194         330.194    -166.897E-03    -166.897E-03        -2.92942        -2.92942
             791         329.941         329.941     80.9456E-03     80.9456E-03        -2.84177        -2.84177
             792         329.732         329.732     275.562E-03     275.562E-03        -2.73134        -2.73134
             793         329.560         329.560     423.954E-03     423.954E-03        -2.60475        -2.60475
             794         329.417         329.417     532.988E-03     532.988E-03        -2.46729        -2.46729
             795         329.297         329.297     609.098E-03     609.098E-03        -2.32320        -2.32320
             796         329.195         329.195     658.109E-03     658.109E-03        -2.17584        -2.17584
             797         329.108         329.108     685.178E-03     685.178E-03        -2.02789        -2.02789
             798         329.033         329.033     694.777E-03     694.777E-03        -1.88147        -1.88147
             799         328.967         328.967     690.732E-03     690.732E-03        -1.73822        -1.73822
             800         328.909         328.909     676.270E-03     676.270E-03        -1.59940        -1.59940
             801         328.857         328.857     654.085E-03     654.085E-03        -1.46595        -1.46595
             802         328.811         328.811     626.401E-03     626.401E-03        -1.33852        -1.33852
             803         328.769         328.769     595.042E-03     595.042E-03        -1.21756        -1.21756
             804         328.731         328.731     561.484E-03     561.484E-03        -1.10330        -1.10330
             805         328.696         328.696     526.915E-03     526.915E-03    -995.827E-03    -995.827E-03
             806         328.664         328.664     492.281E-03     492.281E-03    -895.099E-03    -895.099E-03
             807         328.635         328.635     458.329E-03     458.329E-03    -800.957E-03    -800.957E-03
             808         328.609         328.609     425.642E-03     425.642E-03    -713.157E-03    -713.157E-03
             809         328.585         328.585     394.670E-03     394.670E-03    -631.382E-03    -631.382E-03
             810         328.564         328.564     365.756E-03     365.756E-03    -555.260E-03    -555.260E-03
             811         328.545         328.545     339.157E-03     339.157E-03    -484.368E-03    -484.368E-03
             812         328.528         328.528     315.063E-03     315.063E-03    -418.253E-03    -418.253E-03
             813         328.513         328.513     293.612E-03     293.612E-03    -356.431E-03    -356.431E-03
             814         328.501         328.501     274.901E-03     274.901E-03    -298.397E-03    -298.397E-03
             815         328.490         328.490     258.996E-03     258.996E-03    -243.632E-03    -243.632E-03
             816         328.481         328.481     245.943E-03     245.943E-03    -191.604E-03    -191.604E-03
             817         328.475         328.475     235.769E-03     235.769E-03    -141.773E-03    -141.773E-03
             818         328.470         328.470     228.492E-03     228.492E-03    -93.5962E-03    -93.5962E-03
             819         328.467         328.467     224.118E-03     224.118E-03    -46.6792E-03    -46.6792E-03
             820         337.508         337.508        -3.35137        -3.35137         3.35341         3.35341
             821         337.108         337.108        -3.81286        -3.81286         2.29831         2.29831
             822         336.537         336.537        -3.93316        -3.93316         1.27630         1.27630
             823         335.864         335.864        -3.79231        -3.79231     350.625E-03     350.625E-03
             824         335.147         335.147        -3.47114        -3.47114    -445.966E-03    -445.966E-03
             825         334.433         334.433        -3.04111        -3.04111        -1.10204        -1.10204
             826         333.753         333.753        -2.56025        -2.56025        -1.62091        -1.62091
             827         333.126         333.126        -2.07157        -2.07157        -2.01389        -2.01389
             828         332.562         332.562        -1.60501        -1.60501        -2.29640        -2.29640
             829         332.064         332.064        -1.17913        -1.17913        -2.48504        -2.48504
             830         331.629         331.629    -803.876E-03    -803.876E-03        -2.59580        -2.59580
             831         331.251         331.251    -482.850E-03    -482.850E-03        -2.64324        -2.64324
             832         330.925         330.925    -215.398E-03    -215.398E-03        -2.64010        -2.64010
             833         330.643         330.643     1.83175E-03     1.83175E-03        -2.59728        -2.59728
             834         330.398         330.398     173.703E-03     173.703E-03        -2.52399        -2.52399
             835         330.185         330.185     305.758E-03     305.758E-03        -2.42789        -2.42789
             836         329.999         329.999     403.668E-03     403.668E-03        -2.31534        -2.31534
             837         329.835         329.835     472.868E-03     472.868E-03        -2.19155        -2.19155
             838         329.689         329.689     518.367E-03     518.367E-03        -2.06077        -2.06077
             839         329.559         329.559     544.634E-03     544.634E-03        -1.92642        -1.92642
             840         329.442         329.442     555.575E-03     555.575E-03        -1.79125        -1.79125
             841         329.337         329.337     554.537E-03     554.537E-03        -1.65743        -1.65743
             842         329.241         329.241     544.348E-03     544.348E-03        -1.52660        -1.52660
             843         329.154         329.154     527.367E-03     527.367E-03        -1.40004        -1.40004
             844         329.074         329.074     505.538E-03     505.538E-03        -1.27864        -1.27864
             845         329.002         329.002     480.451E-03     480.451E-03        -1.16304        -1.16304
             846         328.935         328.935     453.389E-03     453.389E-03        -1.05363        -1.05363
             847         328.875         328.875     425.379E-03     425.379E-03    -950.589E-03    -950.589E-03
             848         328.820         328.820     397.237E-03     397.237E-03    -853.961E-03    -853.961E-03
             849         328.771         328.771     369.602E-03     369.602E-03    -763.649E-03    -763.649E-03
             850         328.726         328.726     342.972E-03     342.972E-03    -679.452E-03    -679.452E-03
             851         328.685         328.685     317.727E-03     317.727E-03    -601.090E-03    -601.090E-03
             852         328.649         328.649     294.156E-03     294.156E-03    -528.213E-03    -528.213E-03
             853         328.617         328.617     272.473E-03     272.473E-03    -460.423E-03    -460.423E-03
             854         328.589         328.589     252.835E-03     252.835E-03    -397.283E-03    -397.283E-03
             855         328.565         328.565     235.356E-03     235.356E-03    -338.325E-03    -338.325E-03
             856         328.544         328.544     220.114E-03     220.114E-03    -283.059E-03    -283.059E-03
             857         328.527         328.527     207.162E-03     207.162E-03    -230.978E-03    -230.978E-03
             858         328.512         328.512     196.534E-03     196.534E-03    -181.565E-03    -181.565E-03
             859         328.502         328.502     188.252E-03     188.252E-03    -134.293E-03    -134.293E-03
             860         328.494         328.494     182.329E-03     182.329E-03    -88.6335E-03    -88.6335E-03
             861         328.489         328.489     178.770E-03     178.770E-03    -44.2084E-03    -44.2084E-03
             862         336.539         336.539        -2.41138        -2.41138         3.52662         3.52662
             863         336.400         336.400        -2.83825        -2.83825         2.66379         2.66379
             864         336.102         336.102        -3.00226        -3.00226         1.77782         1.77782
             865         335.689         335.689        -2.95402        -2.95402     932.728E-03     932.728E-03
             866         335.205         335.205        -2.75076        -2.75076     169.924E-03     169.924E-03
             867         334.687         334.687        -2.44695        -2.44695    -488.437E-03    -488.437E-03
             868         334.164         334.164        -2.08901        -2.08901        -1.03415        -1.03415
             869         333.656         333.656        -1.71355        -1.71355        -1.46899        -1.46899
             870         333.176         333.176        -1.34692        -1.34692        -1.80069        -1.80069
             871         332.731         332.731        -1.00669        -1.00669        -2.04033        -2.04033
             872         332.324         332.324    -703.076E-03    -703.076E-03        -2.20032        -2.20032
             873         331.954         331.954    -440.774E-03    -440.774E-03        -2.29313        -2.29313
             874         331.619         331.619    -220.528E-03    -220.528E-03        -2.33054        -2.33054
             875         331.316         331.316    -40.4945E-03    -40.4945E-03        -2.32322        -2.32322
             876         331.042         331.042     102.739E-03     102.739E-03        -2.28061        -2.28061
             877         330.793         330.793     213.378E-03     213.378E-03        -2.21084        -2.21084
             878         330.567         330.567     295.893E-03     295.893E-03        -2.12084        -2.12084
             879         330.361         330.361     354.674E-03     354.674E-03        -2.01641        -2.01641
             880         330.172         330.172     393.815E-03     393.815E-03        -1.90235        -1.90235
             881         329.999         329.999     417.002E-03     417.002E-03        -1.78258        -1.78258
             882         329.841         329.841     427.473E-03     427.473E-03        -1.66023        -1.66023
             883         329.695         329.695     428.007E-03     428.007E-03        -1.53780        -1.53780
             884         329.562         329.562     420.954E-03     420.954E-03        -1.41723        -1.41723
             885         329.439         329.439     408.272E-03     408.272E-03        -1.29998        -1.29998
             886         329.327         329.327     391.573E-03     391.573E-03        -1.18713        -1.18713
             887         329.224         329.224     372.170E-03     372.170E-03        -1.07943        -1.07943
             888         329.130         329.130     351.117E-03     351.117E-03    -977.352E-03    -977.352E-03
             889         329.044         329.044     329.259E-03     329.259E-03    -881.173E-03    -881.173E-03
             890         328.966         328.966     307.261E-03     307.261E-03    -790.979E-03    -790.979E-03
             891         328.896         328.896     285.640E-03     285.640E-03    -706.719E-03    -706.719E-03
             892         328.832         328.832     264.799E-03     264.799E-03    -628.229E-03    -628.229E-03
             893         328.775         328.775     245.042E-03     245.042E-03    -555.258E-03    -555.258E-03
             894         328.725         328.725     226.600E-03     226.600E-03    -487.484E-03    -487.484E-03
             895         328.680         328.680     209.641E-03     209.641E-03    -424.535E-03    -424.535E-03
             896         328.641         328.641     194.289E-03     194.289E-03    -365.998E-03    -365.998E-03
             897         328.607         328.607     180.630E-03     180.630E-03    -311.428E-03    -311.428E-03
             898         328.578         328.578     168.724E-03     168.724E-03    -260.362E-03    -260.362E-03
             899         328.554         328.554     158.611E-03     158.611E-03    -212.318E-03    -212.318E-03
             900         328.535         328.535     150.316E-03     150.316E-03    -166.804E-03    -166.804E-03
             901         328.520         328.520     143.853E-03     143.853E-03    -123.322E-03    -123.322E-03
             902         328.509         328.509     139.231E-03     139.231E-03    -81.3658E-03    -81.3658E-03
             903         328.503         328.503     136.456E-03     136.456E-03    -40.5908E-03    -40.5908E-03
             904         335.662         335.662        -1.67037        -1.67037         3.47376         3.47376
             905         335.741         335.741        -2.02233        -2.02233         2.77708         2.77708
             906         335.678         335.678        -2.18271        -2.18271         2.02533         2.02533
             907         335.497         335.497        -2.18241        -2.18241         1.27778         1.27778
             908         335.227         335.227        -2.05980        -2.05980     577.324E-03     577.324E-03
             909         334.895         334.895        -1.85388        -1.85388    -48.2874E-03    -48.2874E-03
             910         334.526         334.526        -1.59959        -1.59959    -584.328E-03    -584.328E-03
             911         334.139         334.139        -1.32537        -1.32537        -1.02579        -1.02579
             912         333.747         333.747        -1.05267        -1.05267        -1.37476        -1.37476
             913         333.361         333.361    -796.192E-03    -796.192E-03        -1.63776        -1.63776
             914         332.988         332.988    -565.059E-03    -565.059E-03        -1.82394        -1.82394
             915         332.630         332.630    -363.868E-03    -363.868E-03        -1.94356        -1.94356
             916         332.290         332.290    -193.977E-03    -193.977E-03        -2.00704        -2.00704
             917         331.970         331.970    -54.4870E-03    -54.4870E-03        -2.02435        -2.02435
             918         331.668         331.668     56.8838E-03     56.8838E-03        -2.00460        -2.00460
             919         331.384         331.384     143.180E-03     143.180E-03        -1.95589        -1.95589
             920         331.119         331.119     207.748E-03     207.748E-03        -1.88524        -1.88524
             921         330.871         330.871     253.934E-03     253.934E-03        -1.79861        -1.79861
             922         330.639         330.639     284.892E-03     284.892E-03        -1.70100        -1.70100
             923         330.424         330.424     303.481E-03     303.481E-03        -1.59648        -1.59648
             924         330.224         330.224     312.218E-03     312.218E-03        -1.48835        -1.48835
             925         330.038         330.038     313.266E-03     313.266E-03        -1.37925        -1.37925
             926         329.866         329.866     308.455E-03     308.455E-03        -1.27119        -1.27119
             927         329.708         329.708     299.304E-03     299.304E-03        -1.16573        -1.16573
             928         329.563         329.563     287.063E-03     287.063E-03        -1.06399        -1.06399
             929         329.430         329.430     272.745E-03     272.745E-03    -966.783E-03    -966.783E-03
             930         329.308         329.308     257.162E-03     257.162E-03    -874.617E-03    -874.617E-03
             931         329.197         329.197     240.961E-03     240.961E-03    -787.791E-03    -787.791E-03
             932         329.097         329.097     224.648E-03     224.648E-03    -706.420E-03    -706.420E-03
             933         329.006         329.006     208.616E-03     208.616E-03    -630.480E-03    -630.480E-03
             934         328.924         328.924     193.168E-03     193.168E-03    -559.832E-03    -559.832E-03
             935         328.852         328.852     178.532E-03     178.532E-03    -494.250E-03    -494.250E-03
             936         328.787         328.787     164.878E-03     164.878E-03    -433.444E-03    -433.444E-03
             937         328.730         328.730     152.331E-03     152.331E-03    -377.070E-03    -377.070E-03
             938         328.680         328.680     140.981E-03     140.981E-03    -324.748E-03    -324.748E-03
             939         328.637         328.637     130.889E-03     130.889E-03    -276.067E-03    -276.067E-03
             940         328.601         328.601     122.097E-03     122.097E-03    -230.602E-03    -230.602E-03
             941         328.571         328.571     114.634E-03     114.634E-03    -187.908E-03    -187.908E-03
             942         328.546         328.546     108.514E-03     108.514E-03    -147.533E-03    -147.533E-03
             943         328.528         328.528     103.747E-03     103.747E-03    -109.019E-03    -109.019E-03
             944         328.514         328.514     100.338E-03     100.338E-03    -71.9035E-03    -71.9035E-03
             945         328.506         328.506     98.2922E-03     98.2922E-03    -35.8813E-03    -35.8813E-03
             946         334.895         334.895        -1.09192        -1.09192         3.22365         3.22365
             947         335.175         335.175        -1.35132        -1.35132         2.66902         2.66902
             948         335.326         335.326        -1.48081        -1.48081         2.04601         2.04601
             949         335.358         335.358        -1.49820        -1.49820         1.40633         1.40633
             950         335.285         335.285        -1.42792        -1.42792     790.312E-03     790.312E-03
             951         335.128         335.128        -1.29596        -1.29596     226.437E-03     226.437E-03
             952         334.904         334.904        -1.12648        -1.12648    -267.636E-03    -267.636E-03
             953         334.631         334.631    -939.792E-03    -939.792E-03    -683.418E-03    -683.418E-03
             954         334.323         334.323    -751.532E-03    -751.532E-03        -1.01931        -1.01931
             955         333.993         333.993    -572.795E-03    -572.795E-03        -1.27866        -1.27866
             956         333.650         333.650    -410.593E-03    -410.593E-03        -1.46798        -1.46798
             957         333.302         333.302    -268.720E-03    -268.720E-03        -1.59548        -1.59548
             958         332.955         332.955    -148.494E-03    -148.494E-03        -1.67008        -1.67008
             959         332.614         332.614    -49.5504E-03    -49.5504E-03        -1.70067        -1.70067
             960         332.281         332.281     29.5750E-03     29.5750E-03        -1.69559        -1.69559
             961         331.961         331.961     90.9500E-03     90.9500E-03        -1.66240        -1.66240
             962         331.654         331.654     136.910E-03     136.910E-03        -1.60776        -1.60776
             963         331.363         331.363     169.817E-03     169.817E-03        -1.53735        -1.53735
             964         331.087         331.087     191.914E-03     191.914E-03        -1.45595        -1.45595
             965         330.827         330.827     205.241E-03     205.241E-03        -1.36750        -1.36750
             966         330.585         330.585     211.595E-03     211.595E-03        -1.27517        -1.27517
             967         330.358         330.358     212.521E-03     212.521E-03        -1.18148        -1.18148
             968         330.149         330.149     209.320E-03     209.320E-03        -1.08838        -1.08838
             969         329.955         329.955     203.075E-03     203.075E-03    -997.340E-03    -997.340E-03
             970         329.777         329.777     194.671E-03     194.671E-03    -909.453E-03    -909.453E-03
             971         329.614         329.614     184.822E-03     184.822E-03    -825.473E-03    -825.473E-03
             972         329.465         329.465     174.101E-03     174.101E-03    -745.895E-03    -745.895E-03
             973         329.330         329.330     162.958E-03     162.958E-03    -671.002E-03    -671.002E-03
             974         329.207         329.207     151.747E-03     151.747E-03    -600.908E-03    -600.908E-03
             975         329.097         329.097     140.739E-03     140.739E-03    -535.595E-03    -535.595E-03
             976         328.999         328.999     130.143E-03     130.143E-03    -474.944E-03    -474.944E-03
             977         328.911         328.911     120.115E-03     120.115E-03    -418.752E-03    -418.752E-03
             978         328.833         328.833     110.769E-03     110.769E-03    -366.762E-03    -366.762E-03
             979         328.764         328.764     102.189E-03     102.189E-03    -318.666E-03    -318.666E-03
             980         328.705         328.705     94.4339E-03     94.4339E-03    -274.127E-03    -274.127E-03
             981         328.654         328.654     87.5449E-03     87.5449E-03    -232.783E-03    -232.783E-03
             982         328.610         328.610     81.5481E-03     81.5481E-03    -194.255E-03    -194.255E-03
             983         328.574         328.574     76.4609E-03     76.4609E-03    -158.154E-03    -158.154E-03
             984         328.545         328.545     72.2915E-03     72.2915E-03    -124.083E-03    -124.083E-03
             985         328.523         328.523     69.0433E-03     69.0433E-03    -91.6390E-03    -91.6390E-03
             986         328.508         328.508     66.7204E-03     66.7204E-03    -60.4158E-03    -60.4158E-03
             987         328.498         328.498     65.3267E-03     65.3267E-03    -30.1674E-03    -30.1674E-03
             988         334.252         334.252    -647.420E-03    -647.420E-03         2.77714         2.77714
             989         334.741         334.741    -813.752E-03    -813.752E-03         2.34857         2.34857
             990         335.104         335.104    -900.918E-03    -900.918E-03         1.85287         1.85287
             991         335.340         335.340    -918.640E-03    -918.640E-03         1.33260         1.33260
             992         335.454         335.454    -881.052E-03    -881.052E-03     822.401E-03     822.401E-03
             993         335.457         335.457    -803.811E-03    -803.811E-03     348.119E-03     348.119E-03
             994         335.364         335.364    -701.814E-03    -701.814E-03    -73.2116E-03    -73.2116E-03
             995         335.191         335.191    -587.824E-03    -587.824E-03    -432.213E-03    -432.213E-03
             996         334.953         334.953    -471.873E-03    -471.873E-03    -725.762E-03    -725.762E-03
             997         334.665         334.665    -361.133E-03    -361.133E-03    -955.302E-03    -955.302E-03
             998         334.341         334.341    -260.268E-03    -260.268E-03        -1.12541        -1.12541
             999         333.992         333.992    -171.823E-03    -171.823E-03        -1.24251        -1.24251
            1000         333.628         333.628    -96.7819E-03    -96.7819E-03        -1.31389        -1.31389
            1001         333.258         333.258    -34.9915E-03    -34.9915E-03        -1.34703        -1.34703
            1002         332.889         332.889     14.4102E-03     14.4102E-03        -1.34906        -1.34906
            1003         332.526         332.526     52.7015E-03     52.7015E-03        -1.32652        -1.32652
            1004         332.172         332.172     81.3406E-03     81.3406E-03        -1.28520        -1.28520
            1005         331.833         331.833     101.814E-03     101.814E-03        -1.23005        -1.23005
            1006         331.510         331.510     115.535E-03     115.535E-03        -1.16526        -1.16526
            1007         331.204         331.204     123.790E-03     123.790E-03        -1.09425        -1.09425
            1008         330.917         330.917     127.711E-03     127.711E-03        -1.01978        -1.01978
            1009         330.650         330.650     128.269E-03     128.269E-03    -944.044E-03    -944.044E-03
            1010         330.402         330.402     126.282E-03     126.282E-03    -868.716E-03    -868.716E-03
            1011         330.172         330.172     122.425E-03     122.425E-03    -795.065E-03    -795.065E-03
            1012         329.962         329.962     117.248E-03     117.248E-03    -724.013E-03    -724.013E-03
            1013         329.770         329.770     111.196E-03     111.196E-03    -656.201E-03    -656.201E-03
            1014         329.595         329.595     104.622E-03     104.622E-03    -592.043E-03    -592.043E-03
            1015         329.436         329.436     97.8023E-03     97.8023E-03    -531.769E-03    -531.769E-03
            1016         329.293         329.293     90.9529E-03     90.9529E-03    -475.471E-03    -475.471E-03
            1017         329.165         329.165     84.2392E-03     84.2392E-03    -423.126E-03    -423.126E-03
            1018         329.051         329.051     77.7862E-03     77.7862E-03    -374.627E-03    -374.627E-03
            1019         328.949         328.949     71.6874E-03     71.6874E-03    -329.802E-03    -329.802E-03
            1020         328.859         328.859     66.0111E-03     66.0111E-03    -288.431E-03    -288.431E-03
            1021         328.780         328.780     60.8062E-03     60.8062E-03    -250.256E-03    -250.256E-03
            1022         328.712         328.712     56.1068E-03     56.1068E-03    -214.995E-03    -214.995E-03
            1023         328.654         328.654     51.9361E-03     51.9361E-03    -182.347E-03    -182.347E-03
            1024         328.604         328.604     48.3089E-03     48.3089E-03    -151.999E-03    -151.999E-03
            1025         328.563         328.563     45.2338E-03     45.2338E-03    -123.631E-03    -123.631E-03
            1026         328.530         328.530     42.7173E-03     42.7173E-03    -96.9170E-03    -96.9170E-03
            1027         328.505         328.505     40.7569E-03     40.7569E-03    -71.5319E-03    -71.5319E-03
            1028         328.487         328.487     39.3483E-03     39.3483E-03    -47.1422E-03    -47.1422E-03
            1029         328.477         328.477     38.5032E-03     38.5032E-03    -23.5649E-03    -23.5649E-03
            1030         333.759         333.759    -320.798E-03    -320.798E-03         2.10953         2.10953
            1031         334.484         334.484    -407.005E-03    -407.005E-03         1.80445         1.80445
            1032         335.074         335.074    -453.273E-03    -453.273E-03         1.44536         1.44536
            1033         335.516         335.516    -464.188E-03    -464.188E-03         1.06395         1.06395
            1034         335.808         335.808    -446.692E-03    -446.692E-03     686.460E-03     686.460E-03
            1035         335.956         335.956    -408.604E-03    -408.604E-03     332.902E-03     332.902E-03
            1036         335.974         335.974    -357.499E-03    -357.499E-03     16.9063E-03     16.9063E-03
            1037         335.878         335.878    -299.957E-03    -299.957E-03    -253.733E-03    -253.733E-03
            1038         335.687         335.687    -241.161E-03    -241.161E-03    -475.996E-03    -475.996E-03
            1039         335.420         335.420    -184.879E-03    -184.879E-03    -650.532E-03    -650.532E-03
            1040         335.093         335.093    -133.545E-03    -133.545E-03    -780.479E-03    -780.479E-03
            1041         334.724         334.724    -88.5220E-03    -88.5220E-03    -870.527E-03    -870.527E-03
            1042         334.326         334.326    -50.3315E-03    -50.3315E-03    -926.113E-03    -926.113E-03
            1043         333.913         333.913    -18.9166E-03    -18.9166E-03    -952.865E-03    -952.865E-03
            1044         333.494         333.494     6.16489E-03     6.16489E-03    -956.197E-03    -956.197E-03
            1045         333.078         333.078     25.5681E-03     25.5681E-03    -941.079E-03    -941.079E-03
            1046         332.670         332.670     40.0457E-03     40.0457E-03    -911.900E-03    -911.900E-03
            1047         332.277         332.277     50.3642E-03     50.3642E-03    -872.427E-03    -872.427E-03
            1048         331.902         331.902     57.2520E-03     57.2520E-03    -825.813E-03    -825.813E-03
            1049         331.547         331.547     61.3708E-03     61.3708E-03    -774.640E-03    -774.640E-03
            1050         331.215         331.215     63.3007E-03     63.3007E-03    -720.977E-03    -720.977E-03
            1051         330.905         330.905     63.5390E-03     63.5390E-03    -666.446E-03    -666.446E-03
            1052         330.618         330.618     62.5017E-03     62.5017E-03    -612.291E-03    -612.291E-03
            1053         330.354         330.354     60.5324E-03     60.5324E-03    -559.441E-03    -559.441E-03
            1054         330.112         330.112     57.9096E-03     57.9096E-03    -508.563E-03    -508.563E-03
            1055         329.892         329.892     54.8570E-03     54.8570E-03    -460.115E-03    -460.115E-03
            1056         329.692         329.692     51.5515E-03     51.5515E-03    -414.386E-03    -414.386E-03
            1057         329.512         329.512     48.1314E-03     48.1314E-03    -371.532E-03    -371.532E-03
            1058         329.350         329.350     44.7040E-03     44.7040E-03    -331.607E-03    -331.607E-03
            1059         329.206         329.206     41.3507E-03     41.3507E-03    -294.581E-03    -294.581E-03
            1060         329.077         329.077     38.1330E-03     38.1330E-03    -260.368E-03    -260.368E-03
            1061         328.963         328.963     35.0965E-03     35.0965E-03    -228.832E-03    -228.832E-03
            1062         328.863         328.863     32.2740E-03     32.2740E-03    -199.806E-03    -199.806E-03
            1063         328.775         328.775     29.6889E-03     29.6889E-03    -173.096E-03    -173.096E-03
            1064         328.700         328.700     27.3575E-03     27.3575E-03    -148.494E-03    -148.494E-03
            1065         328.635         328.635     25.2901E-03     25.2901E-03    -125.779E-03    -125.779E-03
            1066         328.580         328.580     23.4937E-03     23.4937E-03    -104.721E-03    -104.721E-03
            1067         328.535         328.535     21.9721E-03     21.9721E-03    -85.0874E-03    -85.0874E-03
            1068         328.499         328.499     20.7276E-03     20.7276E-03    -66.6410E-03    -66.6410E-03
            1069         328.472         328.472     19.7644E-03     19.7644E-03    -49.1464E-03    -49.1464E-03
            1070         328.452         328.452     19.0680E-03     19.0680E-03    -32.3776E-03    -32.3776E-03
            1071         328.441         328.441     18.6349E-03     18.6349E-03    -16.2375E-03    -16.2375E-03
            1072         333.457         333.457    -112.715E-03    -112.715E-03         1.17749         1.17749
            1073         334.471         334.471    -143.664E-03    -143.664E-03         1.01192         1.01192
            1074         335.316         335.316    -160.422E-03    -160.422E-03     815.611E-03     815.611E-03
            1075         335.972         335.972    -164.621E-03    -164.621E-03     606.312E-03     606.312E-03
            1076         336.433         336.433    -158.651E-03    -158.651E-03     398.630E-03     398.630E-03
            1077         336.706         336.706    -145.270E-03    -145.270E-03     203.785E-03     203.785E-03
            1078         336.806         336.806    -127.198E-03    -127.198E-03     29.4777E-03     29.4777E-03
            1079         336.755         336.755    -106.779E-03    -106.779E-03    -119.833E-03    -119.833E-03
            1080         336.576         336.576    -85.8946E-03    -85.8946E-03    -242.416E-03    -242.416E-03
            1081         336.295         336.295    -65.8892E-03    -65.8892E-03    -338.581E-03    -338.581E-03
            1082         335.934         335.934    -47.6508E-03    -47.6508E-03    -410.086E-03    -410.086E-03
            1083         335.516         335.516    -31.6635E-03    -31.6635E-03    -459.544E-03    -459.544E-03
            1084         335.060         335.060    -18.1183E-03    -18.1183E-03    -490.008E-03    -490.008E-03
            1085         334.583         334.583    -6.99121E-03    -6.99121E-03    -504.625E-03    -504.625E-03
            1086         334.097         334.097     1.87782E-03     1.87782E-03    -506.422E-03    -506.422E-03
            1087         333.614         333.614     8.72530E-03     8.72530E-03    -498.166E-03    -498.166E-03
            1088         333.142         333.142     13.8234E-03     13.8234E-03    -482.294E-03    -482.294E-03
            1089         332.688         332.688     17.4468E-03     17.4468E-03    -460.887E-03    -460.887E-03
            1090         332.256         332.256     19.8576E-03     19.8576E-03    -435.679E-03    -435.679E-03
            1091         331.848         331.848     21.2915E-03     21.2915E-03    -408.083E-03    -408.083E-03
            1092         331.467         331.467     21.9561E-03     21.9561E-03    -379.222E-03    -379.222E-03
            1093         331.114         331.114     22.0275E-03     22.0275E-03    -349.974E-03    -349.974E-03
            1094         330.789         330.789     21.6536E-03     21.6536E-03    -321.004E-03    -321.004E-03
            1095         330.491         330.491     20.9553E-03     20.9553E-03    -292.805E-03    -292.805E-03
            1096         330.219         330.219     20.0309E-03     20.0309E-03    -265.727E-03    -265.727E-03
            1097         329.973         329.973     18.9587E-03     18.9587E-03    -240.008E-03    -240.008E-03
            1098         329.751         329.751     17.8007E-03     17.8007E-03    -215.793E-03    -215.793E-03
            1099         329.552         329.552     16.6049E-03     16.6049E-03    -193.156E-03    -193.156E-03
            1100         329.373         329.373     15.4085E-03     15.4085E-03    -172.118E-03    -172.118E-03
            1101         329.214         329.214     14.2398E-03     14.2398E-03    -152.656E-03    -152.656E-03
            1102         329.074         329.074     13.1197E-03     13.1197E-03    -134.717E-03    -134.717E-03
            1103         328.950         328.950     12.0638E-03     12.0638E-03    -118.222E-03    -118.222E-03
            1104         328.841         328.841     11.0833E-03     11.0833E-03    -103.077E-03    -103.077E-03
            1105         328.747         328.747     10.1862E-03     10.1862E-03    -89.1755E-03    -89.1755E-03
            1106         328.665         328.665     9.37750E-03     9.37750E-03    -76.4031E-03    -76.4031E-03
            1107         328.596         328.596     8.66118E-03     8.66118E-03    -64.6391E-03    -64.6391E-03
            1108         328.538         328.538     8.03869E-03     8.03869E-03    -53.7599E-03    -53.7599E-03
            1109         328.490         328.490     7.51250E-03     7.51250E-03    -43.6393E-03    -43.6393E-03
            1110         328.451         328.451     7.08135E-03     7.08135E-03    -34.1513E-03    -34.1513E-03
            1111         328.422         328.422     6.75049E-03     6.75049E-03    -25.1655E-03    -25.1655E-03
            1112         328.401         328.401     6.52072E-03     6.52072E-03    -16.5611E-03    -16.5611E-03
            1113         328.389         328.389     6.35418E-03     6.35418E-03    -8.36823E-03    -8.36823E-03
            1114         334.755         334.755        -13.7179        -13.7179         12.9378         12.9378
            1115         330.678         330.678        -10.6915        -10.6915         12.6062         12.6062
            1116         327.870         327.870        -8.02198        -8.02198         11.6315         11.6315
            1117         326.046         326.046        -5.82442        -5.82442         10.4139         10.4139
            1118         324.930         324.930        -4.07590        -4.07590         9.17720         9.17720
            1119         324.300         324.300        -2.69971        -2.69971         8.02845         8.02845
            1120         323.997         323.997        -1.62102        -1.62102         7.00879         7.00879
            1121         323.910         323.910    -775.404E-03    -775.404E-03         6.12544         6.12544
            1122         323.963         323.963    -113.321E-03    -113.321E-03         5.36993         5.36993
            1123         324.107         324.107     403.617E-03     403.617E-03         4.72759         4.72759
            1124         324.306         324.306     804.342E-03     804.342E-03         4.18217         4.18217
            1125         324.538         324.538         1.11121         1.11121         3.71817         3.71817
            1126         324.787         324.787         1.34151         1.34151         3.32171         3.32171
            1127         325.043         325.043         1.50900         1.50900         2.98090         2.98090
            1128         325.297         325.297         1.62471         1.62471         2.68575         2.68575
            1129         325.547         325.547         1.69773         1.69773         2.42807         2.42807
            1130         325.787         325.787         1.73561         1.73561         2.20117         2.20117
            1131         326.017         326.017         1.74475         1.74475         1.99968         1.99968
            1132         326.234         326.234         1.73055         1.73055         1.81931         1.81931
            1133         326.438         326.438         1.69767         1.69767         1.65665         1.65665
            1134         326.629         326.629         1.65010         1.65010         1.50901         1.50901
            1135         326.806         326.806         1.59127         1.59127         1.37426         1.37426
            1136         326.971         326.971         1.52412         1.52412         1.25070         1.25070
            1137         327.122         327.122         1.45118         1.45118         1.13701         1.13701
            1138         327.261         327.261         1.37459         1.37459         1.03210         1.03210
            1139         327.388         327.388         1.29616         1.29616     935.100E-03     935.100E-03
            1140         327.503         327.503         1.21745         1.21745     845.283E-03     845.283E-03
            1141         327.608         327.608         1.13973         1.13973     762.030E-03     762.030E-03
            1142         327.702         327.702         1.06407         1.06407     684.802E-03     684.802E-03
            1143         327.787         327.787     991.349E-03     991.349E-03     613.114E-03     613.114E-03
            1144         327.863         327.863     922.274E-03     922.274E-03     546.521E-03     546.521E-03
            1145         327.931         327.931     857.423E-03     857.423E-03     484.601E-03     484.601E-03
            1146         327.991         327.991     797.253E-03     797.253E-03     426.952E-03     426.952E-03
            1147         328.043         328.043     742.125E-03     742.125E-03     373.179E-03     373.179E-03
            1148         328.089         328.089     692.316E-03     692.316E-03     322.893E-03     322.893E-03
            1149         328.128         328.128     648.037E-03     648.037E-03     275.710E-03     275.710E-03
            1150         328.161         328.161     609.448E-03     609.448E-03     231.245E-03     231.245E-03
            1151         328.189         328.189     576.662E-03     576.662E-03     189.115E-03     189.115E-03
            1152         328.211         328.211     549.765E-03     549.765E-03     148.934E-03     148.934E-03
            1153         328.228         328.228     528.813E-03     528.813E-03     110.318E-03     110.318E-03
            1154         328.240         328.240     513.847E-03     513.847E-03     72.8817E-03     72.8817E-03
            1155         328.247         328.247     504.873E-03     504.873E-03     36.3305E-03     36.3305E-03
            1156         326.665         326.665        -12.5702        -12.5702         18.1803         18.1803
            1157         323.332         323.332        -8.82699        -8.82699         15.9214         15.9214
            1158         321.577         321.577        -6.00085        -6.00085         13.5791         13.5791
            1159         320.807         320.807        -3.92159        -3.92159         11.4486         11.4486
            1160         320.620         320.620        -2.39124        -2.39124         9.62670         9.62670
            1161         320.767         320.767        -1.25570        -1.25570         8.11150         8.11150
            1162         321.096         321.096    -402.417E-03    -402.417E-03         6.86716         6.86716
            1163         321.517         321.517     244.731E-03     244.731E-03         5.84980         5.84980
            1164         321.978         321.978     738.746E-03     738.746E-03         5.01818         5.01818
            1165         322.447         322.447         1.11586         1.11586         4.33645         4.33645
            1166         322.909         322.909         1.40183         1.40183         3.77499         3.77499
            1167         323.353         323.353         1.61509         1.61509         3.30965         3.30965
            1168         323.774         323.774         1.76939         1.76939         2.92112         2.92112
            1169         324.171         324.171         1.87525         1.87525         2.59394         2.59394
            1170         324.542         324.542         1.94099         1.94099         2.31589         2.31589
            1171         324.888         324.888         1.97339         1.97339         2.07727         2.07727
            1172         325.210         325.210         1.97813         1.97813         1.87045         1.87045
            1173         325.508         325.508         1.96004         1.96004         1.68943         1.68943
            1174         325.785         325.785         1.92331         1.92331         1.52950         1.52950
            1175         326.040         326.040         1.87158         1.87158         1.38696         1.38696
            1176         326.275         326.275         1.80806         1.80806         1.25891         1.25891
            1177         326.491         326.491         1.73555         1.73555         1.14311         1.14311
            1178         326.690         326.690         1.65653         1.65653         1.03776         1.03776
            1179         326.871         326.871         1.57314         1.57314     941.472E-03     941.472E-03
            1180         327.037         327.037         1.48724         1.48724     853.129E-03     853.129E-03
            1181         327.188         327.188         1.40045         1.40045     771.836E-03     771.836E-03
            1182         327.325         327.325         1.31413         1.31413     696.859E-03     696.859E-03
            1183         327.449         327.449         1.22947         1.22947     627.590E-03     627.590E-03
            1184         327.561         327.561         1.14745         1.14745     563.505E-03     563.505E-03
            1185         327.662         327.662         1.06888         1.06888     504.148E-03     504.148E-03
            1186         327.752         327.752     994.443E-03     994.443E-03     449.108E-03     449.108E-03
            1187         327.832         327.832     924.684E-03     924.684E-03     398.005E-03     398.005E-03
            1188         327.903         327.903     860.045E-03     860.045E-03     350.483E-03     350.483E-03
            1189         327.965         327.965     800.879E-03     800.879E-03     306.200E-03     306.200E-03
            1190         328.019         328.019     747.456E-03     747.456E-03     264.824E-03     264.824E-03
            1191         328.066         328.066     699.990E-03     699.990E-03     226.030E-03     226.030E-03
            1192         328.105         328.105     658.637E-03     658.637E-03     189.496E-03     189.496E-03
            1193         328.138         328.138     623.516E-03     623.516E-03     154.904E-03     154.904E-03
            1194         328.164         328.164     594.712E-03     594.712E-03     121.936E-03     121.936E-03
            1195         328.185         328.185     572.287E-03     572.287E-03     90.2760E-03     90.2760E-03
            1196         328.199         328.199     556.282E-03     556.282E-03     59.6099E-03     59.6099E-03
            1197         328.207         328.207     546.711E-03     546.711E-03     29.6982E-03     29.6982E-03
            1198         314.287         314.287        -8.62394        -8.62394         21.4713         21.4713
            1199         313.569         313.569        -5.15394        -5.15394         17.1879         17.1879
            1200         314.014         314.014        -2.88418        -2.88418         13.7188         13.7188
            1201         314.963         314.963        -1.37750        -1.37750         11.0063         11.0063
            1202         316.079         316.079    -347.252E-03    -347.252E-03         8.90611         8.90611
            1203         317.206         317.206     380.327E-03     380.327E-03         7.27870         7.27870
            1204         318.275         318.275     907.563E-03     907.563E-03         6.01022         6.01022
            1205         319.258         319.258         1.29770         1.29770         5.01447         5.01447
            1206         320.149         320.149         1.58943         1.58943         4.22626         4.22626
            1207         320.951         320.951         1.80765         1.80765         3.59708         3.59708
            1208         321.672         321.672         1.96852         1.96852         3.09026         3.09026
            1209         322.320         322.320         2.08316         2.08316         2.67824         2.67824
            1210         322.904         322.904         2.15949         2.15949         2.33999         2.33999
            1211         323.431         323.431         2.20353         2.20353         2.05949         2.05949
            1212         323.908         323.908         2.22006         2.22006         1.82440         1.82440
            1213         324.341         324.341         2.21312         2.21312         1.62525         1.62525
            1214         324.735         324.735         2.18622         2.18622         1.45468         1.45468
            1215         325.093         325.093         2.14251         2.14251         1.30704         1.30704
            1216         325.420         325.420         2.08486         2.08486         1.17791         1.17791
            1217         325.718         325.718         2.01588         2.01588         1.06390         1.06390
            1218         325.990         325.990         1.93796         1.93796     962.334E-03     962.334E-03
            1219         326.238         326.238         1.85330         1.85330     871.169E-03     871.169E-03
            1220         326.465         326.465         1.76386         1.76386     788.791E-03     788.791E-03
            1221         326.671         326.671         1.67143         1.67143     713.939E-03     713.939E-03
            1222         326.859         326.859         1.57760         1.57760     645.615E-03     645.615E-03
            1223         327.030         327.030         1.48375         1.48375     583.026E-03     583.026E-03
            1224         327.184         327.184         1.39110         1.39110     525.524E-03     525.524E-03
            1225         327.324         327.324         1.30072         1.30072     472.579E-03     472.579E-03
            1226         327.450         327.450         1.21349         1.21349     423.742E-03     423.742E-03
            1227         327.563         327.563         1.13017         1.13017     378.625E-03     378.625E-03
            1228         327.664         327.664         1.05141         1.05141     336.885E-03     336.885E-03
            1229         327.754         327.754     977.707E-03     977.707E-03     298.213E-03     298.213E-03
            1230         327.833         327.833     909.494E-03     909.494E-03     262.318E-03     262.318E-03
            1231         327.903         327.903     847.107E-03     847.107E-03     228.930E-03     228.930E-03
            1232         327.964         327.964     790.812E-03     790.812E-03     197.787E-03     197.787E-03
            1233         328.016         328.016     740.813E-03     740.813E-03     168.636E-03     168.636E-03
            1234         328.061         328.061     697.268E-03     697.268E-03     141.230E-03     141.230E-03
            1235         328.098         328.098     660.293E-03     660.293E-03     115.326E-03     115.326E-03
            1236         328.127         328.127     629.974E-03     629.974E-03     90.6838E-03     90.6838E-03
            1237         328.150         328.150     606.373E-03     606.373E-03     67.0657E-03     67.0657E-03
            1238         328.166         328.166     589.534E-03     589.534E-03     44.2368E-03     44.2368E-03
            1239         328.175         328.175     579.467E-03     579.467E-03     22.0191E-03     22.0191E-03
            1240         299.426         299.426        -2.39231        -2.39231         20.0692         20.0692
            1241         303.090         303.090    -435.662E-03    -435.662E-03         14.9134         14.9134
            1242         306.525         306.525     631.233E-03     631.233E-03         11.2921         11.2921
            1243         309.504         309.504         1.25088         1.25088         8.71562         8.71562
            1244         312.020         312.020         1.63800         1.63800         6.84631         6.84631
            1245         314.132         314.132         1.89600         1.89600         5.46378         5.46378
            1246         315.907         315.907         2.07803         2.07803         4.42452         4.42452
            1247         317.405         317.405         2.21123         2.21123         3.63119         3.63119
            1248         318.678         318.678         2.30998         2.30998         3.01752         3.01752
            1249         319.768         319.768         2.38175         2.38175         2.53676         2.53676
            1250         320.709         320.709         2.43062         2.43062         2.15571         2.15571
            1251         321.526         321.526         2.45893         2.45893         1.85019         1.85019
            1252         322.243         322.243         2.46828         2.46828         1.60248         1.60248
            1253         322.875         322.875         2.46003         2.46003         1.39932         1.39932
            1254         323.436         323.436         2.43550         2.43550         1.23080         1.23080
            1255         323.936         323.936         2.39612         2.39612         1.08940         1.08940
            1256         324.385         324.385         2.34341         2.34341     969.376E-03     969.376E-03
            1257         324.790         324.790         2.27901         2.27901     866.355E-03     866.355E-03
            1258         325.155         325.155         2.20462         2.20462     776.973E-03     776.973E-03
            1259         325.486         325.486         2.12197         2.12197     698.635E-03     698.635E-03
            1260         325.786         325.786         2.03276         2.03276     629.345E-03     629.345E-03
            1261         326.058         326.058         1.93864         1.93864     567.553E-03     567.553E-03
            1262         326.305         326.305         1.84119         1.84119     512.055E-03     512.055E-03
            1263         326.529         326.529         1.74188         1.74188     461.913E-03     461.913E-03
            1264         326.733         326.733         1.64205         1.64205     416.384E-03     416.384E-03
            1265         326.918         326.918         1.54293         1.54293     374.879E-03     374.879E-03
            1266         327.084         327.084         1.44559         1.44559     336.923E-03     336.923E-03
            1267         327.235         327.235         1.35099         1.35099     302.126E-03     302.126E-03
            1268         327.371         327.371         1.25996         1.25996     270.160E-03     270.160E-03
            1269         327.493         327.493         1.17320         1.17320     240.745E-03     240.745E-03
            1270         327.602         327.602         1.09130         1.09130     213.637E-03     213.637E-03
            1271         327.698         327.698         1.01477         1.01477     188.616E-03     188.616E-03
            1272         327.784         327.784     943.991E-03     943.991E-03     165.479E-03     165.479E-03
            1273         327.860         327.860     879.302E-03     879.302E-03     144.039E-03     144.039E-03
            1274         327.925         327.925     820.956E-03     820.956E-03     124.117E-03     124.117E-03
            1275         327.982         327.982     769.153E-03     769.153E-03     105.545E-03     105.545E-03
            1276         328.030         328.030     724.045E-03     724.045E-03     88.1576E-03     88.1576E-03
            1277         328.069         328.069     685.746E-03     685.746E-03     71.7948E-03     71.7948E-03
            1278         328.101         328.101     654.340E-03     654.340E-03     56.3014E-03     56.3014E-03
            1279         328.126         328.126     629.889E-03     629.889E-03     41.5254E-03     41.5254E-03
            1280         328.143         328.143     612.434E-03     612.434E-03     27.3187E-03     27.3187E-03
            1281         328.153         328.153     601.986E-03     601.986E-03     13.5685E-03     13.5685E-03
            1282         286.668         286.668         3.69002         3.69002         12.2836         12.2836
            1283         294.875         294.875         3.61407         3.61407         8.60839         8.60839
            1284         300.994         300.994         3.41162         3.41162         6.26798         6.26798
            1285         305.639         305.639         3.21760         3.21760         4.69850         4.69850
            1286         309.238         309.238         3.06307         3.06307         3.60448         3.60448
            1287         312.079         312.079         2.94992         2.94992         2.82035         2.82035
            1288         314.359         314.359         2.87114         2.87114         2.24459         2.24459
            1289         316.215         316.215         2.81726         2.81726         1.81389         1.81389
            1290         317.748         317.748         2.77941         2.77941         1.48607         1.48607
            1291         319.030         319.030         2.74994         2.74994         1.23295         1.23295
            1292         320.115         320.115         2.72285         2.72285         1.03476         1.03476
            1293         321.043         321.043         2.69356         2.69356     877.658E-03     877.658E-03
            1294         321.844         321.844         2.65884         2.65884     751.544E-03     751.544E-03
            1295         322.543         322.543         2.61658         2.61658     649.099E-03     649.099E-03
            1296         323.156         323.156         2.56562         2.56562     564.868E-03     564.868E-03
            1297         323.699         323.699         2.50554         2.50554     494.797E-03     494.797E-03
            1298         324.182         324.182         2.43650         2.43650     435.817E-03     435.817E-03
            1299         324.615         324.615         2.35911         2.35911     385.614E-03     385.614E-03
            1300         325.003         325.003         2.27429         2.27429     342.419E-03     342.419E-03
            1301         325.353         325.353         2.18317         2.18317     304.885E-03     304.885E-03
            1302         325.670         325.670         2.08702         2.08702     271.973E-03     271.973E-03
            1303         325.956         325.956         1.98713         1.98713     242.885E-03     242.885E-03
            1304         326.215         326.215         1.88482         1.88482     217.000E-03     217.000E-03
            1305         326.450         326.450         1.78137         1.78137     193.834E-03     193.834E-03
            1306         326.663         326.663         1.67796         1.67796     173.005E-03     173.005E-03
            1307         326.856         326.856         1.57570         1.57570     154.208E-03     154.208E-03
            1308         327.030         327.030         1.47559         1.47559     137.197E-03     137.197E-03
            1309         327.187         327.187         1.37852         1.37852     121.770E-03     121.770E-03
            1310         327.328         327.328         1.28527         1.28527     107.757E-03     107.757E-03
            1311         327.455         327.455         1.19652         1.19652     95.0110E-03     95.0110E-03
            1312         327.568         327.568         1.11282         1.11282     83.4070E-03     83.4070E-03
            1313         327.669         327.669         1.03466         1.03466     72.8320E-03     72.8320E-03
            1314         327.758         327.758     962.417E-03     962.417E-03     63.1841E-03     63.1841E-03
            1315         327.836         327.836     896.416E-03     896.416E-03     54.3704E-03     54.3704E-03
            1316         327.905         327.905     836.904E-03     836.904E-03     46.3047E-03     46.3047E-03
            1317         327.963         327.963     784.074E-03     784.074E-03     38.9064E-03     38.9064E-03
            1318         328.013         328.013     738.075E-03     738.075E-03     32.1003E-03     32.1003E-03
            1319         328.054         328.054     699.017E-03     699.017E-03     25.8156E-03     25.8156E-03
            1320         328.088         328.088     666.982E-03     666.982E-03     19.9860E-03     19.9860E-03
            1321         328.113         328.113     642.026E-03     642.026E-03     14.5494E-03     14.5494E-03
            1322         328.131         328.131     624.189E-03     624.189E-03     9.44823E-03     9.44823E-03
            1323         328.142         328.142     613.478E-03     613.478E-03     4.64123E-03     4.64123E-03
            1324         282.219         282.219         5.92669         5.92669    -836.258E-03    -836.258E-03
            1325         292.249         292.249         4.95924         4.95924    -729.941E-03    -729.941E-03
            1326         299.316         299.316         4.27949         4.27949    -620.268E-03    -620.268E-03
            1327         304.515         304.515         3.80324         3.80324    -529.204E-03    -529.204E-03
            1328         308.459         308.459         3.47031         3.47031    -454.642E-03    -454.642E-03
            1329         311.523         311.523         3.24062         3.24062    -394.246E-03    -394.246E-03
            1330         313.952         313.952         3.08252         3.08252    -344.778E-03    -344.778E-03
            1331         315.912         315.912         2.97375         2.97375    -304.204E-03    -304.204E-03
            1332         317.519         317.519         2.89681         2.89681    -270.589E-03    -270.589E-03
            1333         318.853         318.853         2.83922         2.83922    -242.626E-03    -242.626E-03
            1334         319.977         319.977         2.79150         2.79150    -219.173E-03    -219.173E-03
            1335         320.934         320.934         2.74695         2.74695    -199.392E-03    -199.392E-03
            1336         321.757         321.757         2.70080         2.70080    -182.569E-03    -182.569E-03
            1337         322.472         322.472         2.64993         2.64993    -168.149E-03    -168.149E-03
            1338         323.099         323.099         2.59241         2.59241    -155.666E-03    -155.666E-03
            1339         323.652         323.652         2.52729         2.52729    -144.745E-03    -144.745E-03
            1340         324.143         324.143         2.45434         2.45434    -135.076E-03    -135.076E-03
            1341         324.582         324.582         2.37390         2.37390    -126.409E-03    -126.409E-03
            1342         324.976         324.976         2.28666         2.28666    -118.538E-03    -118.538E-03
            1343         325.330         325.330         2.19362         2.19362    -111.301E-03    -111.301E-03
            1344         325.650         325.650         2.09590         2.09590    -104.568E-03    -104.568E-03
            1345         325.940         325.940         1.99473         1.99473    -98.2365E-03    -98.2365E-03
            1346         326.202         326.202         1.89136         1.89136    -92.2288E-03    -92.2288E-03
            1347         326.439         326.439         1.78701         1.78701    -86.4856E-03    -86.4856E-03
            1348         326.653         326.653         1.68283         1.68283    -80.9631E-03    -80.9631E-03
            1349         326.848         326.848         1.57992         1.57992    -75.6291E-03    -75.6291E-03
            1350         327.023         327.023         1.47924         1.47924    -70.4610E-03    -70.4610E-03
            1351         327.181         327.181         1.38168         1.38168    -65.4424E-03    -65.4424E-03
            1352         327.323         327.323         1.28799         1.28799    -60.5616E-03    -60.5616E-03
            1353         327.451         327.451         1.19885         1.19885    -55.8093E-03    -55.8093E-03
            1354         327.565         327.565         1.11482         1.11482    -51.1777E-03    -51.1777E-03
            1355         327.666         327.666         1.03635         1.03635    -46.6590E-03    -46.6590E-03
            1356         327.756         327.756     963.851E-03     963.851E-03    -42.2441E-03    -42.2441E-03
            1357         327.835         327.835     897.619E-03     897.619E-03    -37.9224E-03    -37.9224E-03
            1358         327.903         327.903     837.902E-03     837.902E-03    -33.6809E-03    -33.6809E-03
            1359         327.962         327.962     784.892E-03     784.892E-03    -29.5036E-03    -29.5036E-03
            1360         328.012         328.012     738.734E-03     738.734E-03    -25.3713E-03    -25.3713E-03
            1361         328.054         328.054     699.535E-03     699.535E-03    -21.2613E-03    -21.2613E-03
            1362         328.087         328.087     667.372E-03     667.372E-03    -17.1468E-03    -17.1468E-03
            1363         328.113         328.113     642.298E-03     642.298E-03    -12.9969E-03    -12.9969E-03
            1364         328.131         328.131     624.350E-03     624.350E-03    -8.77620E-03    -8.77620E-03
            1365         328.142         328.142     613.526E-03     613.526E-03    -4.45419E-03    -4.45419E-03
            1366         289.734         289.734         2.22185         2.22185        -14.1210        -14.1210
            1367         297.044         297.044         2.54705         2.54705        -10.2319        -10.2319
            1368         302.557         302.557         2.62646         2.62646        -7.67283        -7.67283
            1369         306.796         306.796         2.62879         2.62879        -5.90573        -5.90573
            1370         310.116         310.116         2.61338         2.61338        -4.64473        -4.64473
            1371         312.759         312.759         2.60058         2.60058        -3.72085        -3.72085
            1372         314.895         314.895         2.59580         2.59580        -3.02972        -3.02972
            1373         316.646         316.646         2.59729         2.59729        -2.50330        -2.50330
            1374         318.099         318.099         2.60159         2.60159        -2.09616        -2.09616
            1375         319.320         319.320         2.60458         2.60458        -1.77690        -1.77690
            1376         320.358         320.358         2.60277         2.60277        -1.52337        -1.52337
            1377         321.248         321.248         2.59333         2.59333        -1.31962        -1.31962
            1378         322.020         322.020         2.57431         2.57431        -1.15395        -1.15395
            1379         322.694         322.694         2.54455         2.54455        -1.01766        -1.01766
            1380         323.288         323.288         2.50360         2.50360    -904.213E-03    -904.213E-03
            1381         323.815         323.815         2.45155         2.45155    -808.640E-03    -808.640E-03
            1382         324.285         324.285         2.38901         2.38901    -727.154E-03    -727.154E-03
            1383         324.706         324.706         2.31690         2.31690    -656.845E-03    -656.845E-03
            1384         325.085         325.085         2.23640         2.23640    -595.472E-03    -595.472E-03
            1385         325.427         325.427         2.14885         2.14885    -541.307E-03    -541.307E-03
            1386         325.736         325.736         2.05566         2.05566    -493.013E-03    -493.013E-03
            1387         326.016         326.016         1.95827         1.95827    -449.556E-03    -449.556E-03
            1388         326.270         326.270         1.85810         1.85810    -410.136E-03    -410.136E-03
            1389         326.500         326.500         1.75648         1.75648    -374.131E-03    -374.131E-03
            1390         326.708         326.708         1.65469         1.65469    -341.054E-03    -341.054E-03
            1391         326.897         326.897         1.55388         1.55388    -310.526E-03    -310.526E-03
            1392         327.067         327.067         1.45507         1.45507    -282.241E-03    -282.241E-03
            1393         327.221         327.221         1.35918         1.35918    -255.954E-03    -255.954E-03
            1394         327.359         327.359         1.26702         1.26702    -231.463E-03    -231.463E-03
            1395         327.483         327.483         1.17926         1.17926    -208.595E-03    -208.595E-03
            1396         327.593         327.593         1.09649         1.09649    -187.201E-03    -187.201E-03
            1397         327.692         327.692         1.01918         1.01918    -167.143E-03    -167.143E-03
            1398         327.779         327.779     947.720E-03     947.720E-03    -148.295E-03    -148.295E-03
            1399         327.855         327.855     882.428E-03     882.428E-03    -130.537E-03    -130.537E-03
            1400         327.922         327.922     823.551E-03     823.551E-03    -113.751E-03    -113.751E-03
            1401         327.979         327.979     771.280E-03     771.280E-03    -97.8185E-03    -97.8185E-03
            1402         328.027         328.027     725.757E-03     725.757E-03    -82.6217E-03    -82.6217E-03
            1403         328.068         328.068     687.090E-03     687.090E-03    -68.0407E-03    -68.0407E-03
            1404         328.100         328.100     655.352E-03     655.352E-03    -53.9527E-03    -53.9527E-03
            1405         328.125         328.125     630.594E-03     630.594E-03    -40.2321E-03    -40.2321E-03
            1406         328.143         328.143     612.848E-03     612.848E-03    -26.7496E-03    -26.7496E-03
            1407         328.153         328.153     602.108E-03     602.108E-03    -13.4063E-03    -13.4063E-03
            1408         305.721         305.721        -5.06354        -5.06354        -20.9007        -20.9007
            1409         307.653         307.653        -2.49157        -2.49157        -16.0264        -16.0264
            1410         309.897         309.897    -948.115E-03    -948.115E-03        -12.4566        -12.4566
            1411         312.041         312.041     32.0520E-03     32.0520E-03        -9.83097        -9.83097
            1412         313.965         313.965     688.533E-03     688.533E-03        -7.87211        -7.87211
            1413         315.649         315.649         1.14943         1.14943        -6.39087        -6.39087
            1414         317.108         317.108         1.48476         1.48476        -5.25574        -5.25574
            1415         318.370         318.370         1.73527         1.73527        -4.37521        -4.37521
            1416         319.464         319.464         1.92438         1.92438        -3.68426        -3.68426
            1417         320.417         320.417         2.06644         2.06644        -3.13621        -3.13621
            1418         321.250         321.250         2.17033         2.17033        -2.69688        -2.69688
            1419         321.983         321.983         2.24201         2.24201        -2.34102        -2.34102
            1420         322.632         322.632         2.28571         2.28571        -2.04970        -2.04970
            1421         323.210         323.210         2.30481         2.30481        -1.80863        -1.80863
            1422         323.727         323.727         2.30215         2.30215        -1.60690        -1.60690
            1423         324.191         324.191         2.28034         2.28034        -1.43617        -1.43617
            1424         324.610         324.610         2.24181         2.24181        -1.29002        -1.29002
            1425         324.989         324.989         2.18893         2.18893        -1.16348        -1.16348
            1426         325.332         325.332         2.12397         2.12397        -1.05273        -1.05273
            1427         325.644         325.644         2.04909         2.04909    -954.788E-03    -954.788E-03
            1428         325.928         325.928         1.96636         1.96636    -867.364E-03    -867.364E-03
            1429         326.186         326.186         1.87772         1.87772    -788.673E-03    -788.673E-03
            1430         326.421         326.421         1.78495         1.78495    -717.326E-03    -717.326E-03
            1431         326.634         326.634         1.68969         1.68969    -652.244E-03    -652.244E-03
            1432         326.828         326.828         1.59343         1.59343    -592.576E-03    -592.576E-03
            1433         327.003         327.003         1.49749         1.49749    -537.650E-03    -537.650E-03
            1434         327.162         327.162         1.40301         1.40301    -486.925E-03    -486.925E-03
            1435         327.305         327.305         1.31102         1.31102    -439.960E-03    -439.960E-03
            1436         327.434         327.434         1.22237         1.22237    -396.386E-03    -396.386E-03
            1437         327.550         327.550         1.13781         1.13781    -355.886E-03    -355.886E-03
            1438         327.653         327.653         1.05794         1.05794    -318.180E-03    -318.180E-03
            1439         327.745         327.745     983.263E-03     983.263E-03    -283.013E-03    -283.013E-03
            1440         327.826         327.826     914.189E-03     914.189E-03    -250.150E-03    -250.150E-03
            1441         327.898         327.898     851.042E-03     851.042E-03    -219.363E-03    -219.363E-03
            1442         327.960         327.960     794.077E-03     794.077E-03    -190.435E-03    -190.435E-03
            1443         328.013         328.013     743.487E-03     743.487E-03    -163.149E-03    -163.149E-03
            1444         328.058         328.058     699.419E-03     699.419E-03    -137.290E-03    -137.290E-03
            1445         328.096         328.096     661.979E-03     661.979E-03    -112.645E-03    -112.645E-03
            1446         328.126         328.126     631.240E-03     631.240E-03    -88.9958E-03    -88.9958E-03
            1447         328.149         328.149     607.252E-03     607.252E-03    -66.1261E-03    -66.1261E-03
            1448         328.165         328.165     590.045E-03     590.045E-03    -43.8161E-03    -43.8161E-03
            1449         328.175         328.175     579.615E-03     579.615E-03    -21.8990E-03    -21.8990E-03
            1450         322.054         322.054        -11.1551        -11.1551        -19.6240        -19.6240
            1451         319.690         319.690        -7.46798        -7.46798        -16.5200        -16.5200
            1452         318.798         318.798        -4.85052        -4.85052        -13.7010        -13.7010
            1453         318.711         318.711        -3.00164        -3.00164        -11.3311        -11.3311
            1454         319.036         319.036        -1.67146        -1.67146        -9.40129        -9.40129
            1455         319.561         319.561    -696.436E-03    -696.436E-03        -7.84680        -7.84680
            1456         320.169         320.169     31.5961E-03     31.5961E-03        -6.59796        -6.59796
            1457         320.797         320.797     582.408E-03     582.408E-03        -5.59298        -5.59298
            1458         321.413         321.413         1.00256         1.00256        -4.78103        -4.78103
            1459         322.001         322.001         1.32313         1.32313        -4.12138        -4.12138
            1460         322.552         322.552         1.56572         1.56572        -3.58189        -3.58189
            1461         323.065         323.065         1.74564         1.74564        -3.13729        -3.13729
            1462         323.540         323.540         1.87423         1.87423        -2.76777        -2.76777
            1463         323.979         323.979         1.96018         1.96018        -2.45778        -2.45778
            1464         324.383         324.383         2.01043         2.01043        -2.19516        -2.19516
            1465         324.756         324.756         2.03071         2.03071        -1.97036        -1.97036
            1466         325.100         325.100         2.02589         2.02589        -1.77591        -1.77591
            1467         325.416         325.416         2.00019         2.00019        -1.60596        -1.60596
            1468         325.707         325.707         1.95735         1.95735        -1.45595        -1.45595
            1469         325.974         325.974         1.90065         1.90065        -1.32231        -1.32231
            1470         326.219         326.219         1.83304         1.83304        -1.20225        -1.20225
            1471         326.444         326.444         1.75713         1.75713        -1.09362        -1.09362
            1472         326.650         326.650         1.67523         1.67523    -994.696E-03    -994.696E-03
            1473         326.838         326.838         1.58938         1.58938    -904.163E-03    -904.163E-03
            1474         327.009         327.009         1.50137         1.50137    -820.965E-03    -820.965E-03
            1475         327.164         327.164         1.41272         1.41272    -744.258E-03    -744.258E-03
            1476         327.305         327.305         1.32479         1.32479    -673.360E-03    -673.360E-03
            1477         327.433         327.433         1.23871         1.23871    -607.705E-03    -607.705E-03
            1478         327.548         327.548         1.15542         1.15542    -546.811E-03    -546.811E-03
            1479         327.651         327.651         1.07573         1.07573    -490.258E-03    -490.258E-03
            1480         327.743         327.743         1.00030         1.00030    -437.672E-03    -437.672E-03
            1481         327.825         327.825     929.668E-03     929.668E-03    -388.704E-03    -388.704E-03
            1482         327.897         327.897     864.255E-03     864.255E-03    -343.029E-03    -343.029E-03
            1483         327.960         327.960     804.404E-03     804.404E-03    -300.332E-03    -300.332E-03
            1484         328.016         328.016     750.378E-03     750.378E-03    -260.305E-03    -260.305E-03
            1485         328.063         328.063     702.379E-03     702.379E-03    -222.647E-03    -222.647E-03
            1486         328.103         328.103     660.554E-03     660.554E-03    -187.056E-03    -187.056E-03
            1487         328.137         328.137     625.013E-03     625.013E-03    -153.230E-03    -153.230E-03
            1488         328.163         328.163     595.830E-03     595.830E-03    -120.870E-03    -120.870E-03
            1489         328.184         328.184     573.057E-03     573.057E-03    -89.6706E-03    -89.6706E-03
            1490         328.198         328.198     556.723E-03     556.723E-03    -59.3306E-03    -59.3306E-03
            1491         328.207         328.207     546.826E-03     546.826E-03    -29.6199E-03    -29.6199E-03
            1492         333.250         333.250        -13.5179        -13.5179        -14.0015        -14.0015
            1493         329.288         329.288        -10.3316        -10.3316        -13.2866        -13.2866
            1494         326.681         326.681        -7.62275        -7.62275        -12.0248        -12.0248
            1495         325.074         325.074        -5.45195        -5.45195        -10.6130        -10.6130
            1496         324.153         324.153        -3.75530        -3.75530        -9.25609        -9.25609
            1497         323.685         323.685        -2.43465        -2.43465        -8.03658        -8.03658
            1498         323.510         323.510        -1.40609        -1.40609        -6.97704        -6.97704
            1499         323.524         323.524    -602.914E-03    -602.914E-03        -6.07260        -6.07260
            1500         323.655         323.655     24.6226E-03     24.6226E-03        -5.30727        -5.30727
            1501         323.860         323.860     513.904E-03     513.904E-03        -4.66174        -4.66174
            1502         324.106         324.106     892.761E-03     892.761E-03        -4.11697        -4.11697
            1503         324.376         324.376         1.18242         1.18242        -3.65575        -3.65575
            1504         324.654         324.654         1.39922         1.39922        -3.26321        -3.26321
            1505         324.933         324.933         1.55610         1.55610        -2.92684        -2.92684
            1506         325.206         325.206         1.66347         1.66347        -2.63631        -2.63631
            1507         325.470         325.470         1.72991         1.72991        -2.38320        -2.38320
            1508         325.723         325.723         1.76257         1.76257        -2.16070        -2.16070
            1509         325.963         325.963         1.76752         1.76752        -1.96339        -1.96339
            1510         326.188         326.188         1.74994         1.74994        -1.78693        -1.78693
            1511         326.400         326.400         1.71430         1.71430        -1.62790        -1.62790
            1512         326.596         326.596         1.66444         1.66444        -1.48361        -1.48361
            1513         326.779         326.779         1.60369         1.60369        -1.35192        -1.35192
            1514         326.947         326.947         1.53491         1.53491        -1.23117        -1.23117
            1515         327.102         327.102         1.46057         1.46057        -1.12001        -1.12001
            1516         327.244         327.244         1.38276         1.38276        -1.01740        -1.01740
            1517         327.374         327.374         1.30328         1.30328    -922.460E-03    -922.460E-03
            1518         327.492         327.492         1.22363         1.22363    -834.486E-03    -834.486E-03
            1519         327.598         327.598         1.14509         1.14509    -752.875E-03    -752.875E-03
            1520         327.695         327.695         1.06869         1.06869    -677.100E-03    -677.100E-03
            1521         327.781         327.781     995.318E-03     995.318E-03    -606.693E-03    -606.693E-03
            1522         327.858         327.858     925.665E-03     925.665E-03    -541.222E-03    -541.222E-03
            1523         327.927         327.927     860.302E-03     860.302E-03    -480.281E-03    -480.281E-03
            1524         327.987         327.987     799.680E-03     799.680E-03    -423.478E-03    -423.478E-03
            1525         328.041         328.041     744.152E-03     744.152E-03    -370.432E-03    -370.432E-03
            1526         328.087         328.087     693.989E-03     693.989E-03    -320.765E-03    -320.765E-03
            1527         328.127         328.127     649.399E-03     649.399E-03    -274.103E-03    -274.103E-03
            1528         328.160         328.160     610.532E-03     610.532E-03    -230.071E-03    -230.071E-03
            1529         328.188         328.188     577.500E-03     577.500E-03    -188.294E-03    -188.294E-03
            1530         328.210         328.210     550.379E-03     550.379E-03    -148.395E-03    -148.395E-03
            1531         328.227         328.227     529.222E-03     529.222E-03    -109.995E-03    -109.995E-03
            1532         328.240         328.240     514.064E-03     514.064E-03    -72.7179E-03    -72.7179E-03
            1533         328.247         328.247     504.905E-03     504.905E-03    -36.2798E-03    -36.2798E-03
            1534         329.666         329.666     5.81674E-03     5.81674E-03        -1.12824        -1.12824
            1535         330.767         330.767     10.0591E-03     10.0591E-03        -2.01030        -2.01030
            1536         331.874         331.874     808.768E-06     808.768E-06        -2.65760        -2.65760
            1537         333.014         333.014    -45.3863E-03    -45.3863E-03        -3.15471        -3.15471
            1538         334.222         334.222    -162.588E-03    -162.588E-03        -3.56221        -3.56221
            1539         335.543         335.543    -398.023E-03    -398.023E-03        -3.91507        -3.91507
            1540         337.026         337.026    -817.305E-03    -817.305E-03        -4.22259        -4.22259
            1541         338.731         338.731        -1.51242        -1.51242        -4.46165        -4.46165
            1542         340.715         340.715        -2.61123        -2.61123        -4.56062        -4.56062
            1543         343.017         343.017        -4.28461        -4.28461        -4.36636        -4.36636
            1544         345.592         345.592        -6.72986        -6.72986        -3.59455        -3.59455
            1545         348.161         348.161        -10.0906        -10.0906        -1.77067        -1.77067
            1546         328.271         328.271     100.698E-03     100.698E-03        -1.03750        -1.03750
            1547         329.761         329.761     277.281E-03     277.281E-03        -1.85561        -1.85561
            1548         331.102         331.102     531.871E-03     531.871E-03        -2.47594        -2.47594
            1549         332.369         332.369     831.212E-03     831.212E-03        -2.98866        -2.98866
            1550         333.629         333.629         1.14227         1.14227        -3.46325        -3.46325
            1551         334.955         334.955         1.42722         1.42722        -3.95085        -3.95085
            1552         336.426         336.426         1.63544         1.63544        -4.48809        -4.48809
            1553         338.137         338.137         1.69125         1.69125        -5.09637        -5.09637
            1554         340.213         340.213         1.47377         1.47377        -5.77262        -5.77262
            1555         342.810         342.810     783.794E-03     783.794E-03        -6.46425        -6.46425
            1556         346.112         346.112    -705.775E-03    -705.775E-03        -7.00097        -7.00097
            1557         350.261         350.261        -3.49098        -3.49098        -6.95322        -6.95322
            1558         327.099         327.099     189.011E-03     189.011E-03    -782.559E-03    -782.559E-03
            1559         328.905         328.905     526.793E-03     526.793E-03        -1.40089        -1.40089
            1560         330.419         330.419         1.03066         1.03066        -1.87793        -1.87793
            1561         331.753         331.753         1.66297         1.66297        -2.29069        -2.29069
            1562         333.001         333.001         2.40021         2.40021        -2.70166        -2.70166
            1563         334.249         334.249         3.22771         3.22771        -3.16323        -3.16323
            1564         335.587         335.587         4.13371         4.13371        -3.72462        -3.72462
            1565         337.118         337.118         5.10122         5.10122        -4.43702        -4.43702
            1566         338.984         338.984         6.09416         6.09416        -5.35739        -5.35739
            1567         341.385         341.385         7.02960         7.02960        -6.54797        -6.54797
            1568         344.643         344.643         7.71196         7.71196        -8.05922        -8.05922
            1569         349.269         349.269         7.67463         7.67463        -9.85301        -9.85301
            1570         326.344         326.344     252.275E-03     252.275E-03    -391.672E-03    -391.672E-03
            1571         328.356         328.356     705.861E-03     705.861E-03    -696.550E-03    -696.550E-03
            1572         329.973         329.973         1.39002         1.39002    -929.691E-03    -929.691E-03
            1573         331.331         331.331         2.26623         2.26623        -1.13650        -1.13650
            1574         332.540         332.540         3.32193         3.32193        -1.35481        -1.35481
            1575         333.691         333.691         4.56650         4.56650        -1.61858        -1.61858
            1576         334.871         334.871         6.02953         6.02953        -1.96318        -1.96318
            1577         336.174         336.174         7.76193         7.76193        -2.43127        -2.43127
            1578         337.721         337.721         9.83947         9.83947        -3.08057        -3.08057
            1579         339.685         339.685         12.3685         12.3685        -3.99593        -3.99593
            1580         342.357         342.357         15.4904         15.4904        -5.31481        -5.31481
            1581         346.266         346.266         19.3584         19.3584        -7.27540        -7.27540
            1582         326.147         326.147     276.115E-03     276.115E-03     77.3930E-03     77.3930E-03
            1583         328.228         328.228     773.436E-03     773.436E-03     151.740E-03     151.740E-03
            1584         329.873         329.873         1.52591         1.52591     221.804E-03     221.804E-03
            1585         331.230         331.230         2.49499         2.49499     285.292E-03     285.292E-03
            1586         332.412         332.412         3.67273         3.67273     340.587E-03     340.587E-03
            1587         333.513         333.513         5.07851         5.07851     386.442E-03     386.442E-03
            1588         334.615         334.615         6.75957         6.75957     421.925E-03     421.925E-03
            1589         335.807         335.807         8.79671         8.79671     446.458E-03     446.458E-03
            1590         337.194         337.194         11.3175         11.3175     459.718E-03     459.718E-03
            1591         338.928         338.928         14.5215         14.5215     461.714E-03     461.714E-03
            1592         341.247         341.247         18.7344         18.7344     452.857E-03     452.857E-03
            1593         344.585         344.585         24.5431         24.5431     433.303E-03     433.303E-03
            1594         326.560         326.560     255.091E-03     255.091E-03     549.049E-03     549.049E-03
            1595         328.562         328.562     714.000E-03     714.000E-03         1.00491         1.00491
            1596         330.163         330.163         1.40649         1.40649         1.38013         1.38013
            1597         331.500         331.500         2.29355         2.29355         1.71550         1.71550
            1598         332.684         332.684         3.36214         3.36214         2.04567         2.04567
            1599         333.807         333.807         4.62115         4.62115         2.40208         2.40208
            1600         334.956         334.956         6.09975         6.09975         2.81830         2.81830
            1601         336.228         336.228         7.84846         7.84846         3.33583         3.33583
            1602         337.742         337.742         9.94271         9.94271         4.01184         4.01184
            1603         339.675         339.675         12.4886         12.4886         4.93114         4.93114
            1604         342.316         342.316         15.6268         15.6268         6.23163         6.23163
            1605         346.196         346.196         19.5106         19.5106         8.15324         8.15324
            1606         327.538         327.538     194.633E-03     194.633E-03     947.698E-03     947.698E-03
            1607         329.323         329.323     543.042E-03     543.042E-03         1.72388         1.72388
            1608         330.804         330.804         1.06355         1.06355         2.34881         2.34881
            1609         332.095         332.095         1.71751         1.71751         2.89491         2.89491
            1610         333.291         333.291         2.48042         2.48042         3.42148         3.42148
            1611         334.482         334.482         3.33670         3.33670         3.97850         3.97850
            1612         335.758         335.758         4.27369         4.27369         4.61342         4.61342
            1613         337.226         337.226         5.27360         5.27360         5.37637         5.37637
            1614         339.027         339.027         6.29966         6.29966         6.32385         6.32385
            1615         341.364         341.364         7.26829         7.26829         7.51822         7.51822
            1616         344.560         344.560         7.98368         7.98368         9.01033         9.01033
            1617         349.129         349.129         7.97768         7.97768         10.7628         10.7628
            1618         328.948         328.948     109.105E-03     109.105E-03         1.21555         1.21555
            1619         330.403         330.403     301.586E-03     301.586E-03         2.20294         2.20294
            1620         331.692         331.692     581.054E-03     581.054E-03         2.98083         2.98083
            1621         332.891         332.891     912.738E-03     912.738E-03         3.63476         3.63476
            1622         334.072         334.072         1.26212         1.26212         4.23115         4.23115
            1623         335.309         335.309         1.58994         1.58994         4.81876         4.81876
            1624         336.686         336.686         1.84427         1.84427         5.43261         5.43261
            1625         338.300         338.300         1.94816         1.94816         6.09314         6.09314
            1626         340.277         340.277         1.77964         1.77964         6.79704         6.79704
            1627         342.777         342.777         1.13866         1.13866         7.49206         7.49206
            1628         345.986         345.986    -302.619E-03    -302.619E-03         8.00882         8.00882
            1629         350.046         350.046        -3.03995        -3.03995         7.91767         7.91767
            1630         330.601         330.601     16.9934E-03     16.9934E-03         1.32435         1.32435
            1631         331.650         331.650     42.3617E-03     42.3617E-03         2.39162         2.39162
            1632         332.683         332.683     66.1480E-03     66.1480E-03         3.20992         3.20992
            1633         333.728         333.728     62.8544E-03     62.8544E-03         3.85917         3.85917
            1634         334.826         334.826    -3.60372E-03    -3.60372E-03         4.39698         4.39698
            1635         336.025         336.025    -182.378E-03    -182.378E-03         4.85607         4.85607
            1636         337.379         337.379    -540.906E-03    -540.906E-03         5.24426         5.24426
            1637         338.950         338.950        -1.17286        -1.17286         5.53768         5.53768
            1638         340.801         340.801        -2.20765        -2.20765         5.66467         5.66467
            1639         342.971         342.971        -3.81751        -3.81751         5.47276         5.47276
            1640         345.421         345.421        -6.20052        -6.20052         4.67930         4.67930
            1641         347.869         347.869        -9.50017        -9.50017         2.81155         2.81155
            1642         328.330         328.330     412.727E-03     412.727E-03     44.9534E-03     44.9534E-03
            1643         328.326         328.326     420.306E-03     420.306E-03     90.1493E-03     90.1493E-03
            1644         328.319         328.319     432.898E-03     432.898E-03     136.450E-03     136.450E-03
            1645         328.309         328.309     450.497E-03     450.497E-03     184.217E-03     184.217E-03
            1646         328.297         328.297     473.073E-03     473.073E-03     233.934E-03     233.934E-03
            1647         328.281         328.281     500.574E-03     500.574E-03     286.082E-03     286.082E-03
            1648         328.262         328.262     532.927E-03     532.927E-03     341.142E-03     341.142E-03
            1649         328.240         328.240     570.024E-03     570.024E-03     399.587E-03     399.587E-03
            1650         328.214         328.214     611.718E-03     611.718E-03     461.883E-03     461.883E-03
            1651         328.183         328.183     657.804E-03     657.804E-03     528.493E-03     528.493E-03
            1652         328.149         328.149     708.012E-03     708.012E-03     599.870E-03     599.870E-03
            1653         328.109         328.109     761.982E-03     761.982E-03     676.459E-03     676.459E-03
            1654         328.065         328.065     819.252E-03     819.252E-03     758.699E-03     758.699E-03
            1655         328.015         328.015     879.230E-03     879.230E-03     847.023E-03     847.023E-03
            1656         327.960         327.960     941.166E-03     941.166E-03     941.860E-03     941.860E-03
            1657         327.899         327.899         1.00412         1.00412         1.04364         1.04364
            1658         327.831         327.831         1.06695         1.06695         1.15282         1.15282
            1659         327.758         327.758         1.12821         1.12821         1.26985         1.26985
            1660         327.679         327.679         1.18617         1.18617         1.39523         1.39523
            1661         327.593         327.593         1.23874         1.23874         1.52954         1.52954
            1662         327.502         327.502         1.28338         1.28338         1.67341         1.67341
            1663         327.407         327.407         1.31707         1.31707         1.82762         1.82762
            1664         327.308         327.308         1.33621         1.33621         1.99309         1.99309
            1665         327.208         327.208         1.33655         1.33655         2.17096         2.17096
            1666         327.109         327.109         1.31304         1.31304         2.36262         2.36262
            1667         327.014         327.014         1.25979         1.25979         2.56975         2.56975
            1668         326.929         326.929         1.16988         1.16988         2.79436         2.79436
            1669         326.860         326.860         1.03521         1.03521         3.03880         3.03880
            1670         326.814         326.814     846.367E-03     846.367E-03         3.30569         3.30569
            1671         326.804         326.804     592.400E-03     592.400E-03         3.59774         3.59774
            1672         326.843         326.843     260.654E-03     260.654E-03         3.91748         3.91748
            1673         326.950         326.950    -163.488E-03    -163.488E-03         4.26659         4.26659
            1674         327.150         327.150    -696.548E-03    -696.548E-03         4.64491         4.64491
            1675         327.474         327.474        -1.35708        -1.35708         5.04871         5.04871
            1676         327.961         327.961        -2.16462        -2.16462         5.46795         5.46795
            1677         328.664         328.664        -3.13857        -3.13857         5.88231         5.88231
            1678         329.640         329.640        -4.29334        -4.29334         6.25471         6.25471
            1679         330.961         330.961        -5.63180        -5.63180         6.52405         6.52405
            1680         332.695         332.695        -7.12837        -7.12837         6.59424         6.59424
            1681         334.892         334.892        -8.70677        -8.70677         6.33154         6.33154
            1682         337.551         337.551        -10.2034        -10.2034         5.56623         5.56623
            1683         340.581         340.581        -11.3546        -11.3546         4.14258         4.14258
            1684         328.368         328.368     366.818E-03     366.818E-03     47.0833E-03     47.0833E-03
            1685         328.365         328.365     373.638E-03     373.638E-03     94.4162E-03     94.4162E-03
            1686         328.361         328.361     384.974E-03     384.974E-03     142.927E-03     142.927E-03
            1687         328.356         328.356     400.819E-03     400.819E-03     193.000E-03     193.000E-03
            1688         328.348         328.348     421.144E-03     421.144E-03     245.147E-03     245.147E-03
            1689         328.339         328.339     445.902E-03     445.902E-03     299.882E-03     299.882E-03
            1690         328.327         328.327     475.024E-03     475.024E-03     357.710E-03     357.710E-03
            1691         328.313         328.313     508.410E-03     508.410E-03     419.132E-03     419.132E-03
            1692         328.297         328.297     545.920E-03     545.920E-03     484.638E-03     484.638E-03
            1693         328.278         328.278     587.361E-03     587.361E-03     554.708E-03     554.708E-03
            1694         328.257         328.257     632.470E-03     632.470E-03     629.808E-03     629.808E-03
            1695         328.232         328.232     680.905E-03     680.905E-03     710.391E-03     710.391E-03
            1696         328.204         328.204     732.212E-03     732.212E-03     796.889E-03     796.889E-03
            1697         328.173         328.173     785.814E-03     785.814E-03     889.718E-03     889.718E-03
            1698         328.138         328.138     840.971E-03     840.971E-03     989.272E-03     989.272E-03
            1699         328.099         328.099     896.757E-03     896.757E-03         1.09592         1.09592
            1700         328.057         328.057     952.011E-03     952.011E-03         1.21003         1.21003
            1701         328.011         328.011         1.00530         1.00530         1.33193         1.33193
            1702         327.961         327.961         1.05488         1.05488         1.46195         1.46195
            1703         327.909         327.909         1.09860         1.09860         1.60042         1.60042
            1704         327.854         327.854         1.13388         1.13388         1.74767         1.74767
            1705         327.799         327.799         1.15762         1.15762         1.90407         1.90407
            1706         327.744         327.744         1.16609         1.16609         2.07000         2.07000
            1707         327.693         327.693         1.15490         1.15490         2.24593         2.24593
            1708         327.647         327.647         1.11885         1.11885         2.43235         2.43235
            1709         327.612         327.612         1.05185         1.05185         2.62983         2.62983
            1710         327.593         327.593     946.816E-03     946.816E-03         2.83895         2.83895
            1711         327.597         327.597     795.555E-03     795.555E-03         3.06026         3.06026
            1712         327.634         327.634     588.685E-03     588.685E-03         3.29405         3.29405
            1713         327.714         327.714     315.608E-03     315.608E-03         3.54017         3.54017
            1714         327.855         327.855    -35.5311E-03    -35.5311E-03         3.79749         3.79749
            1715         328.073         328.073    -477.589E-03    -477.589E-03         4.06314         4.06314
            1716         328.393         328.393        -1.02416        -1.02416         4.33142         4.33142
            1717         328.843         328.843        -1.68852        -1.68852         4.59197         4.59197
            1718         329.456         329.456        -2.48223        -2.48223         4.82741         4.82741
            1719         330.273         330.273        -3.41170        -3.41170         5.00972         5.00972
            1720         331.334         331.334        -4.47347        -4.47347         5.09659         5.09659
            1721         332.678         332.678        -5.64471        -5.64471         5.02614         5.02614
            1722         334.331         334.331        -6.87059        -6.87059         4.71636         4.71636
            1723         336.288         336.288        -8.04696        -8.04696         4.06588         4.06588
            1724         338.497         338.497        -9.00446        -9.00446         2.97525         2.97525
            1725         340.854         340.854        -9.51829        -9.51829         1.35561         1.35561
            1726         328.405         328.405     319.334E-03     319.334E-03     48.1086E-03     48.1086E-03
            1727         328.404         328.404     325.357E-03     325.357E-03     96.4708E-03     96.4708E-03
            1728         328.403         328.403     335.371E-03     335.371E-03     146.062E-03     146.062E-03
            1729         328.401         328.401     349.369E-03     349.369E-03     197.280E-03     197.280E-03
            1730         328.399         328.399     367.325E-03     367.325E-03     250.658E-03     250.658E-03
            1731         328.396         328.396     389.198E-03     389.198E-03     306.728E-03     306.728E-03
            1732         328.392         328.392     414.926E-03     414.926E-03     366.016E-03     366.016E-03
            1733         328.388         328.388     444.417E-03     444.417E-03     429.038E-03     429.038E-03
            1734         328.382         328.382     477.544E-03     477.544E-03     496.298E-03     496.298E-03
            1735         328.375         328.375     514.126E-03     514.126E-03     568.286E-03     568.286E-03
            1736         328.368         328.368     553.922E-03     553.922E-03     645.473E-03     645.473E-03
            1737         328.359         328.359     596.606E-03     596.606E-03     728.306E-03     728.306E-03
            1738         328.348         328.348     641.754E-03     641.754E-03     817.205E-03     817.205E-03
            1739         328.336         328.336     688.812E-03     688.812E-03     912.557E-03     912.557E-03
            1740         328.323         328.323     737.076E-03     737.076E-03         1.01471         1.01471
            1741         328.308         328.308     785.651E-03     785.651E-03         1.12396         1.12396
            1742         328.291         328.291     833.414E-03     833.414E-03         1.24057         1.24057
            1743         328.274         328.274     878.973E-03     878.973E-03         1.36473         1.36473
            1744         328.256         328.256     920.607E-03     920.607E-03         1.49657         1.49657
            1745         328.237         328.237     956.212E-03     956.212E-03         1.63616         1.63616
            1746         328.220         328.220     983.235E-03     983.235E-03         1.78349         1.78349
            1747         328.205         328.205     998.595E-03     998.595E-03         1.93847         1.93847
            1748         328.194         328.194     998.608E-03     998.608E-03         2.10093         2.10093
            1749         328.190         328.190     978.898E-03     978.898E-03         2.27056         2.27056
            1750         328.197         328.197     934.316E-03     934.316E-03         2.44696         2.44696
            1751         328.218         328.218     858.853E-03     858.853E-03         2.62951         2.62951
            1752         328.259         328.259     745.583E-03     745.583E-03         2.81734         2.81734
            1753         328.328         328.328     586.605E-03     586.605E-03         3.00920         3.00920
            1754         328.434         328.434     373.080E-03     373.080E-03         3.20320         3.20320
            1755         328.589         328.589     95.2857E-03     95.2857E-03         3.39652         3.39652
            1756         328.806         328.806    -257.089E-03    -257.089E-03         3.58487         3.58487
            1757         329.104         329.104    -694.563E-03    -694.563E-03         3.76181         3.76181
            1758         329.502         329.502        -1.22693        -1.22693         3.91757         3.91757
            1759         330.024         330.024        -1.86200        -1.86200         4.03776         4.03776
            1760         330.694         330.694        -2.60315        -2.60315         4.10133         4.10133
            1761         331.540         331.540        -3.44594        -3.44594         4.07876         4.07876
            1762         332.584         332.584        -4.37250        -4.37250         3.92952         3.92952
            1763         333.839         333.839        -5.34394        -5.34394         3.60208         3.60208
            1764         335.302         335.302        -6.29120        -6.29120         3.03476         3.03476
            1765         336.937         336.937        -7.10413        -7.10413         2.16496         2.16496
            1766         338.674         338.674        -7.63175        -7.63175     940.002E-03     940.002E-03
            1767         340.392         340.392        -7.66272        -7.66272    -675.140E-03    -675.140E-03
            1768         328.438         328.438     271.396E-03     271.396E-03     47.9853E-03     47.9853E-03
            1769         328.439         328.439     276.599E-03     276.599E-03     96.2205E-03     96.2205E-03
            1770         328.441         328.441     285.251E-03     285.251E-03     145.713E-03     145.713E-03
            1771         328.444         328.444     297.347E-03     297.347E-03     196.864E-03     196.864E-03
            1772         328.447         328.447     312.863E-03     312.863E-03     250.217E-03     250.217E-03
            1773         328.451         328.451     331.766E-03     331.766E-03     306.315E-03     306.315E-03
            1774         328.455         328.455     354.001E-03     354.001E-03     365.690E-03     365.690E-03
            1775         328.460         328.460     379.490E-03     379.490E-03     428.866E-03     428.866E-03
            1776         328.465         328.465     408.116E-03     408.116E-03     496.352E-03     496.352E-03
            1777         328.472         328.472     439.722E-03     439.722E-03     568.639E-03     568.639E-03
            1778         328.478         328.478     474.087E-03     474.087E-03     646.194E-03     646.194E-03
            1779         328.485         328.485     510.918E-03     510.918E-03     729.453E-03     729.453E-03
            1780         328.493         328.493     549.824E-03     549.824E-03     818.815E-03     818.815E-03
            1781         328.501         328.501     590.298E-03     590.298E-03     914.633E-03     914.633E-03
            1782         328.510         328.510     631.687E-03     631.687E-03         1.01720         1.01720
            1783         328.520         328.520     673.156E-03     673.156E-03         1.12675         1.12675
            1784         328.530         328.530     713.655E-03     713.655E-03         1.24342         1.24342
            1785         328.542         328.542     751.873E-03     751.873E-03         1.36727         1.36727
            1786         328.556         328.556     786.185E-03     786.185E-03         1.49822         1.49822
            1787         328.573         328.573     814.592E-03     814.592E-03         1.63609         1.63609
            1788         328.593         328.593     834.663E-03     834.663E-03         1.78051         1.78051
            1789         328.619         328.619     843.459E-03     843.459E-03         1.93097         1.93097
            1790         328.651         328.651     837.460E-03     837.460E-03         2.08670         2.08670
            1791         328.693         328.693     812.491E-03     812.491E-03         2.24669         2.24669
            1792         328.749         328.749     763.651E-03     763.651E-03         2.40964         2.40964
            1793         328.821         328.821     685.262E-03     685.262E-03         2.57381         2.57381
            1794         328.916         328.916     570.832E-03     570.832E-03         2.73699         2.73699
            1795         329.041         329.041     413.091E-03     413.091E-03         2.89628         2.89628
            1796         329.204         329.204     204.069E-03     204.069E-03         3.04789         3.04789
            1797         329.416         329.416    -64.6553E-03    -64.6553E-03         3.18681         3.18681
            1798         329.688         329.688    -401.582E-03    -401.582E-03         3.30636         3.30636
            1799         330.035         330.035    -814.552E-03    -814.552E-03         3.39752         3.39752
            1800         330.474         330.474        -1.30972        -1.30972         3.44826         3.44826
            1801         331.020         331.020        -1.88980        -1.88980         3.44239         3.44239
            1802         331.692         331.692        -2.55165        -2.55165         3.35876         3.35876
            1803         332.502         332.502        -3.28279        -3.28279         3.17009         3.17009
            1804         333.460         333.460        -4.05654        -4.05654         2.84319         2.84319
            1805         334.560         334.560        -4.82681        -4.82681         2.33984         2.33984
            1806         335.780         335.780        -5.52119        -5.52119         1.62144         1.62144
            1807         337.075         337.075        -6.03904        -6.03904     656.232E-03     656.232E-03
            1808         338.365         338.365        -6.24476        -6.24476    -572.111E-03    -572.111E-03
            1809         339.531         339.531        -5.97091        -5.97091        -2.04144        -2.04144
            1810         328.467         328.467     224.164E-03     224.164E-03     46.6883E-03     46.6883E-03
            1811         328.470         328.470     228.539E-03     228.539E-03     93.6145E-03     93.6145E-03
            1812         328.475         328.475     235.818E-03     235.818E-03     141.801E-03     141.801E-03
            1813         328.481         328.481     245.994E-03     245.994E-03     191.642E-03     191.642E-03
            1814         328.490         328.490     259.051E-03     259.051E-03     243.680E-03     243.680E-03
            1815         328.501         328.501     274.959E-03     274.959E-03     298.456E-03     298.456E-03
            1816         328.513         328.513     293.675E-03     293.675E-03     356.502E-03     356.502E-03
            1817         328.528         328.528     315.132E-03     315.132E-03     418.337E-03     418.337E-03
            1818         328.545         328.545     339.233E-03     339.233E-03     484.465E-03     484.465E-03
            1819         328.564         328.564     365.839E-03     365.839E-03     555.371E-03     555.371E-03
            1820         328.585         328.585     394.763E-03     394.763E-03     631.510E-03     631.510E-03
            1821         328.609         328.609     425.746E-03     425.746E-03     713.302E-03     713.302E-03
            1822         328.635         328.635     458.445E-03     458.445E-03     801.122E-03     801.122E-03
            1823         328.664         328.664     492.410E-03     492.410E-03     895.285E-03     895.285E-03
            1824         328.696         328.696     527.060E-03     527.060E-03     996.037E-03     996.037E-03
            1825         328.731         328.731     561.646E-03     561.646E-03         1.10353         1.10353
            1826         328.769         328.769     595.224E-03     595.224E-03         1.21782         1.21782
            1827         328.811         328.811     626.604E-03     626.604E-03         1.33882         1.33882
            1828         328.857         328.857     654.311E-03     654.311E-03         1.46628         1.46628
            1829         328.909         328.909     676.522E-03     676.522E-03         1.59976         1.59976
            1830         328.967         328.967     691.013E-03     691.013E-03         1.73862         1.73862
            1831         329.033         329.033     695.091E-03     695.091E-03         1.88190         1.88190
            1832         329.108         329.108     685.529E-03     685.529E-03         2.02835         2.02835
            1833         329.195         329.195     658.505E-03     658.505E-03         2.17632         2.17632
            1834         329.296         329.296     609.548E-03     609.548E-03         2.32370         2.32370
            1835         329.416         329.416     533.506E-03     533.506E-03         2.46779         2.46779
            1836         329.559         329.559     424.560E-03     424.560E-03         2.60523         2.60523
            1837         329.732         329.732     276.282E-03     276.282E-03         2.73178         2.73178
            1838         329.940         329.940     81.8199E-03     81.8199E-03         2.84214         2.84214
            1839         330.193         330.193    -165.817E-03    -165.817E-03         2.92969         2.92969
            1840         330.500         330.500    -473.209E-03    -473.209E-03         2.98609         2.98609
            1841         330.871         330.871    -845.755E-03    -845.755E-03         3.00096         3.00096
            1842         331.319         331.319        -1.28643        -1.28643         2.96133         2.96133
            1843         331.854         331.854        -1.79410        -1.79410         2.85130         2.85130
            1844         332.485         332.485        -2.36118        -2.36118         2.65163         2.65163
            1845         333.216         333.216        -2.97054        -2.97054         2.34007         2.34007
            1846         334.045         334.045        -3.59211        -3.59211         1.89222         1.89222
            1847         334.957         334.957        -4.17866        -4.17866         1.28419         1.28419
            1848         335.922         335.922        -4.66366        -4.66366     497.132E-03     497.132E-03
            1849         336.890         336.890        -4.95823        -4.95823    -476.830E-03    -476.830E-03
            1850         337.788         337.788        -4.95391        -4.95391        -1.62223        -1.62223
            1851         338.521         338.521        -4.53115        -4.53115        -2.88827        -2.88827
            1852         328.489         328.489     178.807E-03     178.807E-03     44.2173E-03     44.2173E-03
            1853         328.494         328.494     182.367E-03     182.367E-03     88.6513E-03     88.6513E-03
            1854         328.502         328.502     188.291E-03     188.291E-03     134.320E-03     134.320E-03
            1855         328.512         328.512     196.575E-03     196.575E-03     181.602E-03     181.602E-03
            1856         328.527         328.527     207.206E-03     207.206E-03     231.025E-03     231.025E-03
            1857         328.544         328.544     220.161E-03     220.161E-03     283.116E-03     283.116E-03
            1858         328.565         328.565     235.408E-03     235.408E-03     338.394E-03     338.394E-03
            1859         328.589         328.589     252.891E-03     252.891E-03     397.365E-03     397.365E-03
            1860         328.617         328.617     272.534E-03     272.534E-03     460.518E-03     460.518E-03
            1861         328.649         328.649     294.224E-03     294.224E-03     528.322E-03     528.322E-03
            1862         328.685         328.685     317.803E-03     317.803E-03     601.215E-03     601.215E-03
            1863         328.726         328.726     343.057E-03     343.057E-03     679.596E-03     679.596E-03
            1864         328.771         328.771     369.697E-03     369.697E-03     763.812E-03     763.812E-03
            1865         328.820         328.820     397.344E-03     397.344E-03     854.146E-03     854.146E-03
            1866         328.875         328.875     425.499E-03     425.499E-03     950.798E-03     950.798E-03
            1867         328.936         328.936     453.524E-03     453.524E-03         1.05386         1.05386
            1868         329.002         329.002     480.603E-03     480.603E-03         1.16331         1.16331
            1869         329.074         329.074     505.709E-03     505.709E-03         1.27894         1.27894
            1870         329.154         329.154     527.558E-03     527.558E-03         1.40037         1.40037
            1871         329.241         329.241     544.564E-03     544.564E-03         1.52697         1.52697
            1872         329.337         329.337     554.781E-03     554.781E-03         1.65784         1.65784
            1873         329.442         329.442     555.853E-03     555.853E-03         1.79171         1.79171
            1874         329.559         329.559     544.951E-03     544.951E-03         1.92691         1.92691
            1875         329.689         329.689     518.733E-03     518.733E-03         2.06130         2.06130
            1876         329.835         329.835     473.295E-03     473.295E-03         2.19212         2.19212
            1877         329.999         329.999     404.173E-03     404.173E-03         2.31595         2.31595
            1878         330.185         330.185     306.365E-03     306.365E-03         2.42853         2.42853
            1879         330.398         330.398     174.442E-03     174.442E-03         2.52465         2.52465
            1880         330.642         330.642     2.73971E-03     2.73971E-03         2.59797         2.59797
            1881         330.924         330.924    -214.271E-03    -214.271E-03         2.64080         2.64080
            1882         331.250         331.250    -481.451E-03    -481.451E-03         2.64398         2.64398
            1883         331.627         331.627    -802.146E-03    -802.146E-03         2.59662         2.59662
            1884         332.061         332.061        -1.17703        -1.17703         2.48601         2.48601
            1885         332.558         332.558        -1.60252        -1.60252         2.29764         2.29764
            1886         333.121         333.121        -2.06875        -2.06875         2.01557         2.01557
            1887         333.746         333.746        -2.55726        -2.55726         1.62325         1.62325
            1888         334.425         334.425        -3.03827        -3.03827         1.10521         1.10521
            1889         335.139         335.139        -3.46883        -3.46883     450.039E-03     450.039E-03
            1890         335.855         335.855        -3.79098        -3.79098    -345.800E-03    -345.800E-03
            1891         336.528         336.528        -3.93302        -3.93302        -1.27113        -1.27113
            1892         337.098         337.098        -3.81393        -3.81393        -2.29332        -2.29332
            1893         337.498         337.498        -3.35340        -3.35340        -3.34902        -3.34902
            1894         328.503         328.503     136.484E-03     136.484E-03     40.5991E-03     40.5991E-03
            1895         328.509         328.509     139.261E-03     139.261E-03     81.3825E-03     81.3825E-03
            1896         328.520         328.520     143.883E-03     143.883E-03     123.347E-03     123.347E-03
            1897         328.535         328.535     150.347E-03     150.347E-03     166.839E-03     166.839E-03
            1898         328.554         328.554     158.645E-03     158.645E-03     212.362E-03     212.362E-03
            1899         328.578         328.578     168.761E-03     168.761E-03     260.416E-03     260.416E-03
            1900         328.607         328.607     180.669E-03     180.669E-03     311.493E-03     311.493E-03
            1901         328.641         328.641     194.332E-03     194.332E-03     366.074E-03     366.074E-03
            1902         328.680         328.680     209.689E-03     209.689E-03     424.625E-03     424.625E-03
            1903         328.725         328.725     226.653E-03     226.653E-03     487.588E-03     487.588E-03
            1904         328.775         328.775     245.101E-03     245.101E-03     555.377E-03     555.377E-03
            1905         328.832         328.832     264.865E-03     264.865E-03     628.366E-03     628.366E-03
            1906         328.896         328.896     285.715E-03     285.715E-03     706.875E-03     706.875E-03
            1907         328.966         328.966     307.344E-03     307.344E-03     791.156E-03     791.156E-03
            1908         329.044         329.044     329.354E-03     329.354E-03     881.374E-03     881.374E-03
            1909         329.130         329.130     351.224E-03     351.224E-03     977.580E-03     977.580E-03
            1910         329.224         329.224     372.290E-03     372.290E-03         1.07968         1.07968
            1911         329.327         329.327     391.710E-03     391.710E-03         1.18742         1.18742
            1912         329.439         329.439     408.427E-03     408.427E-03         1.30031         1.30031
            1913         329.562         329.562     421.129E-03     421.129E-03         1.41760         1.41760
            1914         329.696         329.696     428.208E-03     428.208E-03         1.53821         1.53821
            1915         329.841         329.841     427.705E-03     427.705E-03         1.66068         1.66068
            1916         330.000         330.000     417.272E-03     417.272E-03         1.78308         1.78308
            1917         330.172         330.172     394.132E-03     394.132E-03         1.90292         1.90292
            1918         330.361         330.361     355.053E-03     355.053E-03         2.01704         2.01704
            1919         330.567         330.567     296.350E-03     296.350E-03         2.12153         2.12153
            1920         330.793         330.793     213.935E-03     213.935E-03         2.21160         2.21160
            1921         331.042         331.042     103.423E-03     103.423E-03         2.28145         2.28145
            1922         331.316         331.316    -39.6475E-03    -39.6475E-03         2.32416         2.32416
            1923         331.619         331.619    -219.482E-03    -219.482E-03         2.33159         2.33159
            1924         331.953         331.953    -439.488E-03    -439.488E-03         2.29434         2.29434
            1925         332.323         332.323    -701.521E-03    -701.521E-03         2.20175         2.20175
            1926         332.730         332.730        -1.00486        -1.00486         2.04206         2.04206
            1927         333.174         333.174        -1.34483        -1.34483         1.80282         1.80282
            1928         333.653         333.653        -1.71129        -1.71129         1.47165         1.47165
            1929         334.160         334.160        -2.08675        -2.08675         1.03745         1.03745
            1930         334.683         334.683        -2.44490        -2.44490     492.440E-03     492.440E-03
            1931         335.201         335.201        -2.74920        -2.74920    -165.253E-03    -165.253E-03
            1932         335.684         335.684        -2.95315        -2.95315    -927.572E-03    -927.572E-03
            1933         336.097         336.097        -3.00218        -3.00218        -1.77248        -1.77248
            1934         336.394         336.394        -2.83885        -2.83885        -2.65867        -2.65867
            1935         336.533         336.533        -2.41269        -2.41269        -3.52208        -3.52208
            1936         328.507         328.507     98.3128E-03     98.3128E-03     35.8887E-03     35.8887E-03
            1937         328.514         328.514     100.359E-03     100.359E-03     71.9184E-03     71.9184E-03
            1938         328.528         328.528     103.769E-03     103.769E-03     109.041E-03     109.041E-03
            1939         328.546         328.546     108.537E-03     108.537E-03     147.564E-03     147.564E-03
            1940         328.571         328.571     114.658E-03     114.658E-03     187.947E-03     187.947E-03
            1941         328.601         328.601     122.124E-03     122.124E-03     230.650E-03     230.650E-03
            1942         328.637         328.637     130.917E-03     130.917E-03     276.126E-03     276.126E-03
            1943         328.680         328.680     141.012E-03     141.012E-03     324.816E-03     324.816E-03
            1944         328.730         328.730     152.366E-03     152.366E-03     377.151E-03     377.151E-03
            1945         328.787         328.787     164.917E-03     164.917E-03     433.538E-03     433.538E-03
            1946         328.852         328.852     178.575E-03     178.575E-03     494.358E-03     494.358E-03
            1947         328.924         328.924     193.217E-03     193.217E-03     559.955E-03     559.955E-03
            1948         329.006         329.006     208.671E-03     208.671E-03     630.621E-03     630.621E-03
            1949         329.097         329.097     224.710E-03     224.710E-03     706.582E-03     706.582E-03
            1950         329.197         329.197     241.031E-03     241.031E-03     787.975E-03     787.975E-03
            1951         329.308         329.308     257.242E-03     257.242E-03     874.826E-03     874.826E-03
            1952         329.430         329.430     272.835E-03     272.835E-03     967.021E-03     967.021E-03
            1953         329.563         329.563     287.165E-03     287.165E-03         1.06426         1.06426
            1954         329.708         329.708     299.421E-03     299.421E-03         1.16603         1.16603
            1955         329.867         329.867     308.589E-03     308.589E-03         1.27153         1.27153
            1956         330.038         330.038     313.422E-03     313.422E-03         1.37963         1.37963
            1957         330.224         330.224     312.400E-03     312.400E-03         1.48879         1.48879
            1958         330.424         330.424     303.695E-03     303.695E-03         1.59697         1.59697
            1959         330.640         330.640     285.148E-03     285.148E-03         1.70156         1.70156
            1960         330.871         330.871     254.243E-03     254.243E-03         1.79925         1.79925
            1961         331.119         331.119     208.126E-03     208.126E-03         1.88595         1.88595
            1962         331.385         331.385     143.645E-03     143.645E-03         1.95670         1.95670
            1963         331.668         331.668     57.4600E-03     57.4600E-03         2.00554         2.00554
            1964         331.970         331.970    -53.7740E-03    -53.7740E-03         2.02543         2.02543
            1965         332.291         332.291    -193.099E-03    -193.099E-03         2.00831         2.00831
            1966         332.630         332.630    -362.802E-03    -362.802E-03         1.94506         1.94506
            1967         332.988         332.988    -563.791E-03    -563.791E-03         1.82574         1.82574
            1968         333.361         333.361    -794.731E-03    -794.731E-03         1.63993         1.63993
            1969         333.746         333.746        -1.05105        -1.05105         1.37738         1.37738
            1970         334.138         334.138        -1.32368        -1.32368         1.02894         1.02894
            1971         334.525         334.525        -1.59796        -1.59796     588.052E-03     588.052E-03
            1972         334.894         334.894        -1.85247        -1.85247     52.5924E-03     52.5924E-03
            1973         335.225         335.225        -2.05876        -2.05876    -572.513E-03    -572.513E-03
            1974         335.495         335.495        -2.18185        -2.18185        -1.27260        -1.27260
            1975         335.677         335.677        -2.18261        -2.18261        -2.02002        -2.02002
            1976         335.740         335.740        -2.02258        -2.02258        -2.77192        -2.77192
            1977         335.661         335.661        -1.67090        -1.67090        -3.46922        -3.46922
            1978         328.498         328.498     65.3404E-03     65.3404E-03     30.1737E-03     30.1737E-03
            1979         328.508         328.508     66.7345E-03     66.7345E-03     60.4285E-03     60.4285E-03
            1980         328.523         328.523     69.0579E-03     69.0579E-03     91.6582E-03     91.6582E-03
            1981         328.545         328.545     72.3070E-03     72.3070E-03     124.109E-03     124.109E-03
            1982         328.574         328.574     76.4774E-03     76.4774E-03     158.188E-03     158.188E-03
            1983         328.610         328.610     81.5659E-03     81.5659E-03     194.297E-03     194.297E-03
            1984         328.654         328.654     87.5642E-03     87.5642E-03     232.833E-03     232.833E-03
            1985         328.705         328.705     94.4552E-03     94.4552E-03     274.186E-03     274.186E-03
            1986         328.764         328.764     102.212E-03     102.212E-03     318.735E-03     318.735E-03
            1987         328.833         328.833     110.795E-03     110.795E-03     366.842E-03     366.842E-03
            1988         328.911         328.911     120.144E-03     120.144E-03     418.845E-03     418.845E-03
            1989         328.999         328.999     130.176E-03     130.176E-03     475.050E-03     475.050E-03
            1990         329.097         329.097     140.777E-03     140.777E-03     535.718E-03     535.718E-03
            1991         329.207         329.207     151.789E-03     151.789E-03     601.048E-03     601.048E-03
            1992         329.330         329.330     163.006E-03     163.006E-03     671.162E-03     671.162E-03
            1993         329.465         329.465     174.155E-03     174.155E-03     746.078E-03     746.078E-03
            1994         329.614         329.614     184.884E-03     184.884E-03     825.681E-03     825.681E-03
            1995         329.777         329.777     194.742E-03     194.742E-03     909.689E-03     909.689E-03
            1996         329.955         329.955     203.157E-03     203.157E-03     997.608E-03     997.608E-03
            1997         330.149         330.149     209.414E-03     209.414E-03         1.08868         1.08868
            1998         330.359         330.359     212.630E-03     212.630E-03         1.18183         1.18183
            1999         330.585         330.585     211.725E-03     211.725E-03         1.27557         1.27557
            2000         330.828         330.828     205.396E-03     205.396E-03         1.36795         1.36795
            2001         331.087         331.087     192.100E-03     192.100E-03         1.45647         1.45647
            2002         331.363         331.363     170.044E-03     170.044E-03         1.53795         1.53795
            2003         331.655         331.655     137.190E-03     137.190E-03         1.60845         1.60845
            2004         331.962         331.962     91.2988E-03     91.2988E-03         1.66321         1.66321
            2005         332.282         332.282     30.0085E-03     30.0085E-03         1.69653         1.69653
            2006         332.614         332.614    -49.0132E-03    -49.0132E-03         1.70178         1.70178
            2007         332.956         332.956    -147.836E-03    -147.836E-03         1.67141         1.67141
            2008         333.303         333.303    -267.927E-03    -267.927E-03         1.59707         1.59707
            2009         333.650         333.650    -409.663E-03    -409.663E-03         1.46989         1.46989
            2010         333.994         333.994    -571.740E-03    -571.740E-03         1.28096         1.28096
            2011         334.324         334.324    -750.393E-03    -750.393E-03         1.02204         1.02204
            2012         334.632         334.632    -938.631E-03    -938.631E-03     686.633E-03     686.633E-03
            2013         334.905         334.905        -1.12539        -1.12539     271.348E-03     271.348E-03
            2014         335.130         335.130        -1.29505        -1.29505    -222.259E-03    -222.259E-03
            2015         335.287         335.287        -1.42728        -1.42728    -785.741E-03    -785.741E-03
            2016         335.360         335.360        -1.49787        -1.49787        -1.40148        -1.40148
            2017         335.329         335.329        -1.48075        -1.48075        -2.04101        -2.04101
            2018         335.178         335.178        -1.35134        -1.35134        -2.66407        -2.66407
            2019         334.898         334.898        -1.09179        -1.09179        -3.21916        -3.21916
            2020         328.477         328.477     38.5113E-03     38.5113E-03     23.5699E-03     23.5699E-03
            2021         328.487         328.487     39.3567E-03     39.3567E-03     47.1521E-03     47.1521E-03
            2022         328.505         328.505     40.7656E-03     40.7656E-03     71.5470E-03     71.5470E-03
            2023         328.530         328.530     42.7264E-03     42.7264E-03     96.9375E-03     96.9375E-03
            2024         328.563         328.563     45.2436E-03     45.2436E-03     123.658E-03     123.658E-03
            2025         328.604         328.604     48.3194E-03     48.3194E-03     152.032E-03     152.032E-03
            2026         328.654         328.654     51.9476E-03     51.9476E-03     182.386E-03     182.386E-03
            2027         328.712         328.712     56.1195E-03     56.1195E-03     215.041E-03     215.041E-03
            2028         328.780         328.780     60.8203E-03     60.8203E-03     250.310E-03     250.310E-03
            2029         328.859         328.859     66.0268E-03     66.0268E-03     288.494E-03     288.494E-03
            2030         328.949         328.949     71.7051E-03     71.7051E-03     329.876E-03     329.876E-03
            2031         329.051         329.051     77.8061E-03     77.8061E-03     374.712E-03     374.712E-03
            2032         329.165         329.165     84.2616E-03     84.2616E-03     423.223E-03     423.223E-03
            2033         329.294         329.294     90.9784E-03     90.9784E-03     475.582E-03     475.582E-03
            2034         329.437         329.437     97.8312E-03     97.8312E-03     531.897E-03     531.897E-03
            2035         329.595         329.595     104.655E-03     104.655E-03     592.189E-03     592.189E-03
            2036         329.770         329.770     111.234E-03     111.234E-03     656.368E-03     656.368E-03
            2037         329.962         329.962     117.291E-03     117.291E-03     724.204E-03     724.204E-03
            2038         330.173         330.173     122.474E-03     122.474E-03     795.283E-03     795.283E-03
            2039         330.402         330.402     126.340E-03     126.340E-03     868.965E-03     868.965E-03
            2040         330.650         330.650     128.337E-03     128.337E-03     944.330E-03     944.330E-03
            2041         330.918         330.918     127.792E-03     127.792E-03         1.02011         1.02011
            2042         331.205         331.205     123.887E-03     123.887E-03         1.09463         1.09463
            2043         331.511         331.511     115.653E-03     115.653E-03         1.16570         1.16570
            2044         331.834         331.834     101.959E-03     101.959E-03         1.23056         1.23056
            2045         332.174         332.174     81.5218E-03     81.5218E-03         1.28580         1.28580
            2046         332.527         332.527     52.9275E-03     52.9275E-03         1.32723         1.32723
            2047         332.890         332.890     14.6924E-03     14.6924E-03         1.34990         1.34990
            2048         333.260         333.260    -34.6419E-03    -34.6419E-03         1.34804         1.34804
            2049         333.630         333.630    -96.3540E-03    -96.3540E-03         1.31512         1.31512
            2050         333.994         333.994    -171.311E-03    -171.311E-03         1.24398         1.24398
            2051         334.343         334.343    -259.671E-03    -259.671E-03         1.12718         1.12718
            2052         334.668         334.668    -360.466E-03    -360.466E-03     957.422E-03     957.422E-03
            2053         334.956         334.956    -471.161E-03    -471.161E-03     728.266E-03     728.266E-03
            2054         335.194         335.194    -587.115E-03    -587.115E-03     435.123E-03     435.123E-03
            2055         335.368         335.368    -701.161E-03    -701.161E-03     76.5216E-03     76.5216E-03
            2056         335.461         335.461    -803.283E-03    -803.283E-03    -344.446E-03    -344.446E-03
            2057         335.459         335.459    -880.696E-03    -880.696E-03    -818.440E-03    -818.440E-03
            2058         335.346         335.346    -918.485E-03    -918.485E-03        -1.32843        -1.32843
            2059         335.111         335.111    -900.924E-03    -900.924E-03        -1.84860        -1.84860
            2060         334.748         334.748    -813.733E-03    -813.733E-03        -2.34422        -2.34422
            2061         334.261         334.261    -646.917E-03    -646.917E-03        -2.77296        -2.77296
            2062         328.441         328.441     18.6388E-03     18.6388E-03     16.2409E-03     16.2409E-03
            2063         328.452         328.452     19.0721E-03     19.0721E-03     32.3845E-03     32.3845E-03
            2064         328.472         328.472     19.7686E-03     19.7686E-03     49.1569E-03     49.1569E-03
            2065         328.499         328.499     20.7320E-03     20.7320E-03     66.6552E-03     66.6552E-03
            2066         328.535         328.535     21.9768E-03     21.9768E-03     85.1056E-03     85.1056E-03
            2067         328.580         328.580     23.4989E-03     23.4989E-03     104.744E-03     104.744E-03
            2068         328.635         328.635     25.2957E-03     25.2957E-03     125.806E-03     125.806E-03
            2069         328.700         328.700     27.3637E-03     27.3637E-03     148.527E-03     148.527E-03
            2070         328.775         328.775     29.6958E-03     29.6958E-03     173.134E-03     173.134E-03
            2071         328.863         328.863     32.2817E-03     32.2817E-03     199.850E-03     199.850E-03
            2072         328.963         328.963     35.1051E-03     35.1051E-03     228.883E-03     228.883E-03
            2073         329.077         329.077     38.1428E-03     38.1428E-03     260.427E-03     260.427E-03
            2074         329.206         329.206     41.3617E-03     41.3617E-03     294.650E-03     294.650E-03
            2075         329.351         329.351     44.7164E-03     44.7164E-03     331.685E-03     331.685E-03
            2076         329.512         329.512     48.1457E-03     48.1457E-03     371.622E-03     371.622E-03
            2077         329.693         329.693     51.5677E-03     51.5677E-03     414.489E-03     414.489E-03
            2078         329.892         329.892     54.8756E-03     54.8756E-03     460.233E-03     460.233E-03
            2079         330.112         330.112     57.9310E-03     57.9310E-03     508.698E-03     508.698E-03
            2080         330.354         330.354     60.5572E-03     60.5572E-03     559.596E-03     559.596E-03
            2081         330.618         330.618     62.5307E-03     62.5307E-03     612.469E-03     612.469E-03
            2082         330.905         330.905     63.5731E-03     63.5731E-03     666.650E-03     666.650E-03
            2083         331.215         331.215     63.3415E-03     63.3415E-03     721.213E-03     721.213E-03
            2084         331.548         331.548     61.4201E-03     61.4201E-03     774.915E-03     774.915E-03
            2085         331.903         331.903     57.3125E-03     57.3125E-03     826.134E-03     826.134E-03
            2086         332.278         332.278     50.4392E-03     50.4392E-03     872.804E-03     872.804E-03
            2087         332.672         332.672     40.1394E-03     40.1394E-03     912.348E-03     912.348E-03
            2088         333.079         333.079     25.6857E-03     25.6857E-03     941.615E-03     941.615E-03
            2089         333.496         333.496     6.31193E-03     6.31193E-03     956.842E-03     956.842E-03
            2090         333.915         333.915    -18.7339E-03    -18.7339E-03     953.645E-03     953.645E-03
            2091         334.329         334.329    -50.1084E-03    -50.1084E-03     927.060E-03     927.060E-03
            2092         334.727         334.727    -88.2552E-03    -88.2552E-03     871.676E-03     871.676E-03
            2093         335.096         335.096    -133.236E-03    -133.236E-03     781.865E-03     781.865E-03
            2094         335.423         335.423    -184.536E-03    -184.536E-03     652.189E-03     652.189E-03
            2095         335.692         335.692    -240.800E-03    -240.800E-03     477.947E-03     477.947E-03
            2096         335.884         335.884    -299.599E-03    -299.599E-03     255.987E-03     255.987E-03
            2097         335.980         335.980    -357.179E-03    -357.179E-03    -14.3605E-03    -14.3605E-03
            2098         335.963         335.963    -408.348E-03    -408.348E-03    -330.104E-03    -330.104E-03
            2099         335.816         335.816    -446.535E-03    -446.535E-03    -683.467E-03    -683.467E-03
            2100         335.525         335.525    -464.135E-03    -464.135E-03        -1.06084        -1.06084
            2101         335.085         335.085    -453.316E-03    -453.316E-03        -1.44220        -1.44220
            2102         334.496         334.496    -407.049E-03    -407.049E-03        -1.80126        -1.80126
            2103         333.772         333.772    -320.383E-03    -320.383E-03        -2.10632        -2.10632
            2104         328.389         328.389     6.35551E-03     6.35551E-03     8.37000E-03     8.37000E-03
            2105         328.401         328.401     6.52210E-03     6.52210E-03     16.5647E-03     16.5647E-03
            2106         328.422         328.422     6.75192E-03     6.75192E-03     25.1708E-03     25.1708E-03
            2107         328.451         328.451     7.08286E-03     7.08286E-03     34.1586E-03     34.1586E-03
            2108         328.490         328.490     7.51411E-03     7.51411E-03     43.6487E-03     43.6487E-03
            2109         328.538         328.538     8.04043E-03     8.04043E-03     53.7715E-03     53.7715E-03
            2110         328.596         328.596     8.66308E-03     8.66308E-03     64.6531E-03     64.6531E-03
            2111         328.665         328.665     9.37960E-03     9.37960E-03     76.4197E-03     76.4197E-03
            2112         328.747         328.747     10.1885E-03     10.1885E-03     89.1950E-03     89.1950E-03
            2113         328.841         328.841     11.0859E-03     11.0859E-03     103.100E-03     103.100E-03
            2114         328.950         328.950     12.0668E-03     12.0668E-03     118.248E-03     118.248E-03
            2115         329.074         329.074     13.1230E-03     13.1230E-03     134.747E-03     134.747E-03
            2116         329.215         329.215     14.2435E-03     14.2435E-03     152.692E-03     152.692E-03
            2117         329.373         329.373     15.4128E-03     15.4128E-03     172.159E-03     172.159E-03
            2118         329.552         329.552     16.6098E-03     16.6098E-03     193.203E-03     193.203E-03
            2119         329.752         329.752     17.8063E-03     17.8063E-03     215.847E-03     215.847E-03
            2120         329.974         329.974     18.9651E-03     18.9651E-03     240.070E-03     240.070E-03
            2121         330.220         330.220     20.0383E-03     20.0383E-03     265.798E-03     265.798E-03
            2122         330.491         330.491     20.9638E-03     20.9638E-03     292.886E-03     292.886E-03
            2123         330.790         330.790     21.6636E-03     21.6636E-03     321.097E-03     321.097E-03
            2124         331.115         331.115     22.0394E-03     22.0394E-03     350.082E-03     350.082E-03
            2125         331.468         331.468     21.9703E-03     21.9703E-03     379.347E-03     379.347E-03
            2126         331.849         331.849     21.3088E-03     21.3088E-03     408.229E-03     408.229E-03
            2127         332.257         332.257     19.8789E-03     19.8789E-03     435.851E-03     435.851E-03
            2128         332.689         332.689     17.4734E-03     17.4734E-03     461.090E-03     461.090E-03
            2129         333.144         333.144     13.8567E-03     13.8567E-03     482.536E-03     482.536E-03
            2130         333.616         333.616     8.76726E-03     8.76726E-03     498.458E-03     498.458E-03
            2131         334.099         334.099     1.93053E-03     1.93053E-03     506.776E-03     506.776E-03
            2132         334.585         334.585    -6.92570E-03    -6.92570E-03     505.056E-03     505.056E-03
            2133         335.063         335.063    -18.0381E-03    -18.0381E-03     490.534E-03     490.534E-03
            2134         335.520         335.520    -31.5679E-03    -31.5679E-03     460.185E-03     460.185E-03
            2135         335.938         335.938    -47.5402E-03    -47.5402E-03     410.862E-03     410.862E-03
            2136         336.299         336.299    -65.7670E-03    -65.7670E-03     339.510E-03     339.510E-03
            2137         336.582         336.582    -85.7660E-03    -85.7660E-03     243.509E-03     243.509E-03
            2138         336.762         336.762    -106.654E-03    -106.654E-03     121.095E-03     121.095E-03
            2139         336.814         336.814    -127.085E-03    -127.085E-03    -28.0579E-03    -28.0579E-03
            2140         336.715         336.715    -145.185E-03    -145.185E-03    -202.229E-03    -202.229E-03
            2141         336.444         336.444    -158.599E-03    -158.599E-03    -396.979E-03    -396.979E-03
            2142         335.984         335.984    -164.619E-03    -164.619E-03    -604.610E-03    -604.610E-03
            2143         335.330         335.330    -160.447E-03    -160.447E-03    -813.909E-03    -813.909E-03
            2144         334.487         334.487    -143.718E-03    -143.718E-03        -1.01024        -1.01024
            2145         333.475         333.475    -112.560E-03    -112.560E-03        -1.17591        -1.17591
            2146         311.067         311.067         89.8855         89.8855        -24.1252        -24.1252
            2147         314.422         314.422         81.7917         81.7917        -23.9756        -23.9756
            2148         317.682         317.682         73.6713         73.6713        -23.1764        -23.1764
            2149         320.731         320.731         65.7255         65.7255        -21.9655        -21.9655
            2150         323.498         323.498         58.1046         58.1046        -20.4025        -20.4025
            2151         325.927         325.927         50.9313         50.9313        -18.5509        -18.5509
            2152         327.982         327.982         44.3011         44.3011        -16.5058        -16.5058
            2153         329.668         329.668         38.2633         38.2633        -14.3554        -14.3554
            2154         330.990         330.990         32.8417         32.8417        -12.1845        -12.1845
            2155         331.990         331.990         28.0252         28.0252        -10.0662        -10.0662
            2156         332.698         332.698         23.7862         23.7862        -8.05132        -8.05132
            2157         333.165         333.165         20.0841         20.0841        -6.18092        -6.18092
            2158         333.428         333.428         16.8698         16.8698        -4.47365        -4.47365
            2159         333.527         333.527         14.0959         14.0959        -2.94244        -2.94244
            2160         333.495         333.495         11.7118         11.7118        -1.58543        -1.58543
            2161         333.362         333.362         9.67379         9.67379    -398.236E-03    -398.236E-03
            2162         333.150         333.150         7.93780         7.93780     631.071E-03     631.071E-03
            2163         332.880         332.880         6.46674         6.46674         1.51501         1.51501
            2164         332.566         332.566         5.22444         5.22444         2.26903         2.26903
            2165         332.222         332.222         4.18022         4.18022         2.90811         2.90811
            2166         331.858         331.858         3.30469         3.30469         3.44779         3.44779
            2167         331.482         331.482         2.57229         2.57229         3.90269         3.90269
            2168         331.102         331.102         1.95863         1.95863         4.28697         4.28697
            2169         330.724         330.724         1.44184         1.44184         4.61376         4.61376
            2170         330.354         330.354         1.00084         1.00084         4.89545         4.89545
            2171         329.998         329.998     616.011E-03     616.011E-03         5.14356         5.14356
            2172         329.663         329.663     268.082E-03     268.082E-03         5.36886         5.36886
            2173         329.356         329.356    -61.6585E-03    -61.6585E-03         5.58141         5.58141
            2174         329.086         329.086    -392.095E-03    -392.095E-03         5.79057         5.79057
            2175         328.865         328.865    -742.348E-03    -742.348E-03         6.00494         6.00494
            2176         328.707         328.707        -1.13228        -1.13228         6.23209         6.23209
            2177         328.631         328.631        -1.58270        -1.58270         6.47806         6.47806
            2178         328.661         328.661        -2.11556        -2.11556         6.74636         6.74636
            2179         328.827         328.827        -2.75406        -2.75406         7.03640         7.03640
            2180         329.171         329.171        -3.52173        -3.52173         7.34074         7.34074
            2181         329.740         329.740        -4.44138        -4.44138         7.64124         7.64124
            2182         330.596         330.596        -5.53026        -5.53026         7.90255         7.90255
            2183         331.805         331.805        -6.79364        -6.79364         8.06505         8.06505
            2184         333.437         333.437        -8.20775        -8.20775         8.03374         8.03374
            2185         335.542         335.542        -9.69779        -9.69779         7.67582         7.67582
            2186         338.116         338.116        -11.1008        -11.1008         6.82225         6.82225
            2187         341.066         341.066        -12.1529        -12.1529         5.31843         5.31843
            2188         311.978         311.978         89.6940         89.6940        -27.5799        -27.5799
            2189         315.504         315.504         81.1317         81.1317        -27.3867        -27.3867
            2190         318.887         318.887         72.5429         72.5429        -26.3952        -26.3952
            2191         322.017         322.017         64.1655         64.1655        -24.9113        -24.9113
            2192         324.798         324.798         56.1863         56.1863        -22.9889        -22.9889
            2193         327.163         327.163         48.7603         48.7603        -20.7452        -20.7452
            2194         329.101         329.101         41.9789         41.9789        -18.2911        -18.2911
            2195         330.605         330.605         35.8978         35.8978        -15.7485        -15.7485
            2196         331.726         331.726         30.5155         30.5155        -13.2230        -13.2230
            2197         332.500         332.500         25.8062         25.8062        -10.7920        -10.7920
            2198         332.993         332.993         21.7206         21.7206        -8.51925        -8.51925
            2199         333.255         333.255         18.1972         18.1972        -6.43452        -6.43452
            2200         333.339         333.339         15.1768         15.1768        -4.56059        -4.56059
            2201         333.286         333.286         12.5954         12.5954        -2.89722        -2.89722
            2202         333.133         333.133         10.3999         10.3999        -1.44168        -1.44168
            2203         332.907         332.907         8.53661         8.53661    -179.879E-03    -179.879E-03
            2204         332.632         332.632         6.96253         6.96253     902.512E-03     902.512E-03
            2205         332.324         332.324         5.63562         5.63562         1.82407         1.82407
            2206         331.997         331.997         4.52187         4.52187         2.60249         2.60249
            2207         331.661         331.661         3.58875         3.58875         3.25618         3.25618
            2208         331.324         331.324         2.80906         2.80906         3.80220         3.80220
            2209         330.992         330.992         2.15702         2.15702         4.25690         4.25690
            2210         330.670         330.670         1.61016         1.61016         4.63515         4.63515
            2211         330.363         330.363         1.14703         1.14703         4.95064         4.95064
            2212         330.077         330.077     748.116E-03     748.116E-03         5.21569         5.21569
            2213         329.815         329.815     394.447E-03     394.447E-03         5.44141         5.44141
            2214         329.584         329.584     67.9825E-03     67.9825E-03         5.63764         5.63764
            2215         329.391         329.391    -249.233E-03    -249.233E-03         5.81305         5.81305
            2216         329.246         329.246    -574.940E-03    -574.940E-03         5.97501         5.97501
            2217         329.159         329.159    -927.133E-03    -927.133E-03         6.12947         6.12947
            2218         329.145         329.145        -1.32401        -1.32401         6.28054         6.28054
            2219         329.223         329.223        -1.78397        -1.78397         6.42983         6.42983
            2220         329.414         329.414        -2.32539        -2.32539         6.57544         6.57544
            2221         329.748         329.748        -2.96565        -2.96565         6.71017         6.71017
            2222         330.256         330.256        -3.71982        -3.71982         6.81936         6.81936
            2223         330.978         330.978        -4.59730        -4.59730         6.87713         6.87713
            2224         331.953         331.953        -5.59710        -5.59710         6.84302         6.84302
            2225         333.219         333.219        -6.69845        -6.69845         6.65661         6.65661
            2226         334.802         334.802        -7.84817        -7.84817         6.23712         6.23712
            2227         336.697         336.697        -8.94329        -8.94329         5.48414         5.48414
            2228         338.848         338.848        -9.81530        -9.81530         4.29941         4.29941
            2229         341.152         341.152        -10.2402        -10.2402         2.59562         2.59562
            2230         313.173         313.173         89.4602         89.4602        -31.2251        -31.2251
            2231         316.871         316.871         80.3243         80.3243        -30.9537        -30.9537
            2232         320.414         320.414         71.1449         71.1449        -29.7374        -29.7374
            2233         323.615         323.615         62.2381         62.2381        -27.8869        -27.8869
            2234         326.371         326.371         53.8471         53.8471        -25.5354        -25.5354
            2235         328.631         328.631         46.1382         46.1382        -22.8100        -22.8100
            2236         330.361         330.361         39.2280         39.2280        -19.8846        -19.8846
            2237         331.624         331.624         33.1376         33.1376        -16.9104        -16.9104
            2238         332.455         332.455         27.8510         27.8510        -14.0060        -14.0060
            2239         332.950         332.950         23.3080         23.3080        -11.2708        -11.2708
            2240         333.172         333.172         19.4295         19.4295        -8.75092        -8.75092
            2241         333.196         333.196         16.1385         16.1385        -6.48419        -6.48419
            2242         333.075         333.075         13.3508         13.3508        -4.47191        -4.47191
            2243         332.858         332.858         10.9998         10.9998        -2.71353        -2.71353
            2244         332.578         332.578         9.01762         9.01762        -1.19132        -1.19132
            2245         332.262         332.262         7.35298         7.35298     111.773E-03     111.773E-03
            2246         331.930         331.930         5.95558         5.95558         1.21880         1.21880
            2247         331.594         331.594         4.78699         4.78699         2.15113         2.15113
            2248         331.266         331.266         3.81044         3.81044         2.93104         2.93104
            2249         330.950         330.950         2.99675         2.99675         3.57882         3.57882
            2250         330.653         330.653         2.31831         2.31831         4.11367         4.11367
            2251         330.377         330.377         1.75207         1.75207         4.55282         4.55282
            2252         330.125         330.125         1.27619         1.27619         4.91183         4.91183
            2253         329.901         329.901     871.437E-03     871.437E-03         5.20442         5.20442
            2254         329.706         329.706     519.285E-03     519.285E-03         5.44261         5.44261
            2255         329.545         329.545     202.565E-03     202.565E-03         5.63672         5.63672
            2256         329.422         329.422    -95.6178E-03    -95.6178E-03         5.79545         5.79545
            2257         329.344         329.344    -391.588E-03    -391.588E-03         5.92586         5.92586
            2258         329.319         329.319    -701.655E-03    -701.655E-03         6.03325         6.03325
            2259         329.357         329.357        -1.04190        -1.04190         6.12098         6.12098
            2260         329.470         329.470        -1.42822        -1.42822         6.19005         6.19005
            2261         329.676         329.676        -1.87590        -1.87590         6.23848         6.23848
            2262         329.993         329.993        -2.39890        -2.39890         6.26030         6.26030
            2263         330.443         330.443        -3.00855        -3.00855         6.24431         6.24431
            2264         331.052         331.052        -3.71125        -3.71125         6.17208         6.17208
            2265         331.844         331.844        -4.50512        -4.50512         6.01628         6.01628
            2266         332.841         332.841        -5.37441        -5.37441         5.73816         5.73816
            2267         334.056         334.056        -6.28198        -6.28198         5.28770         5.28770
            2268         335.483         335.483        -7.16023        -7.16023         4.60441         4.60441
            2269         337.088         337.088        -7.90008        -7.90008         3.62685         3.62685
            2270         338.800         338.800        -8.35164        -8.35164         2.30347         2.30347
            2271         340.495         340.495        -8.30529        -8.30529     600.623E-03     600.623E-03
            2272         314.696         314.696         89.1948         89.1948        -35.0872        -35.0872
            2273         318.655         318.655         79.3116         79.3116        -34.7304        -34.7304
            2274         322.346         322.346         69.3957         69.3957        -33.1796        -33.1796
            2275         325.600         325.600         59.8506         59.8506        -30.8844        -30.8844
            2276         328.286         328.286         50.9735         50.9735        -27.9647        -27.9647
            2277         330.322         330.322         42.9939         42.9939        -24.6644        -24.6644
            2278         331.768         331.768         35.9845         35.9845        -21.1948        -21.1948
            2279         332.656         332.656         29.9611         29.9611        -17.7426        -17.7426
            2280         333.124         333.124         24.8495         24.8495        -14.4647        -14.4647
            2281         333.253         333.253         20.5470         20.5470        -11.4331        -11.4331
            2282         333.157         333.157         16.9494         16.9494        -8.70990        -8.70990
            2283         332.907         332.907         13.9409         13.9409        -6.29692        -6.29692
            2284         332.567         332.567         11.4356         11.4356        -4.19635        -4.19635
            2285         332.179         332.179         9.34414         9.34414        -2.38400        -2.38400
            2286         331.777         331.777         7.60410         7.60410    -838.391E-03    -838.391E-03
            2287         331.382         331.382         6.15336         6.15336     470.143E-03     470.143E-03
            2288         331.006         331.006         4.94780         4.94780         1.56827         1.56827
            2289         330.659         330.659         3.94493         3.94493         2.48348         2.48348
            2290         330.346         330.346         3.11308         3.11308         3.24036         3.24036
            2291         330.069         330.069         2.42232         2.42232         3.86183         3.86183
            2292         329.828         329.828         1.84895         1.84895         4.36818         4.36818
            2293         329.624         329.624         1.37063         1.37063         4.77743         4.77743
            2294         329.457         329.457     968.542E-03     968.542E-03         5.10526         5.10526
            2295         329.327         329.327     624.683E-03     624.683E-03         5.36511         5.36511
            2296         329.235         329.235     322.917E-03     322.917E-03         5.56837         5.56837
            2297         329.182         329.182     47.5209E-03     47.5209E-03         5.72436         5.72436
            2298         329.172         329.172    -216.350E-03    -216.350E-03         5.84044         5.84044
            2299         329.209         329.209    -483.377E-03    -483.377E-03         5.92199         5.92199
            2300         329.300         329.300    -767.779E-03    -767.779E-03         5.97233         5.97233
            2301         329.453         329.453        -1.08348        -1.08348         5.99253         5.99253
            2302         329.678         329.678        -1.44365        -1.44365         5.98106         5.98106
            2303         329.988         329.988        -1.86020        -1.86020         5.93330         5.93330
            2304         330.398         330.398        -2.34276        -2.34276         5.84086         5.84086
            2305         330.924         330.924        -2.89703        -2.89703         5.69063         5.69063
            2306         331.581         331.581        -3.52240        -3.52240         5.46400         5.46400
            2307         332.383         332.383        -4.20851        -4.20851         5.13578         5.13578
            2308         333.336         333.336        -4.93048        -4.93048         4.67451         4.67451
            2309         334.436         334.436        -5.64370        -5.64370         4.04340         4.04340
            2310         335.659         335.659        -6.27696        -6.27696         3.20504         3.20504
            2311         336.959         336.959        -6.73072        -6.73072         2.12871         2.12871
            2312         338.256         338.256        -6.87046        -6.87046     799.117E-03     799.117E-03
            2313         339.433         339.433        -6.53035        -6.53035    -761.325E-03    -761.325E-03
            2314         316.763         316.763         88.8529         88.8529        -39.2457        -39.2457
            2315         320.952         320.952         78.0332         78.0332        -38.7065        -38.7065
            2316         324.833         324.833         67.1761         67.1761        -36.7549        -36.7549
            2317         328.092         328.092         56.8398         56.8398        -33.8060        -33.8060
            2318         330.563         330.563         47.4547         47.4547        -30.1867        -30.1867
            2319         332.276         332.276         39.2109         39.2109        -26.1758        -26.1758
            2320         333.231         333.231         32.2077         32.2077        -22.0776        -22.0776
            2321         333.638         333.638         26.3583         26.3583        -18.1448        -18.1448
            2322         333.605         333.605         21.5292         21.5292        -14.4939        -14.4939
            2323         333.304         333.304         17.5732         17.5732        -11.2294        -11.2294
            2324         332.838         332.838         14.3232         14.3232        -8.34997        -8.34997
            2325         332.293         332.293         11.6650         11.6650        -5.86103        -5.86103
            2326         331.728         331.728         9.47648         9.47648        -3.72671        -3.72671
            2327         331.179         331.179         7.68024         7.68024        -1.91795        -1.91795
            2328         330.672         330.672         6.19747         6.19747    -395.015E-03    -395.015E-03
            2329         330.217         330.217         4.97684         4.97684     876.607E-03     876.607E-03
            2330         329.822         329.822         3.96830         3.96830         1.93148         1.93148
            2331         329.488         329.488         3.13720         3.13720         2.80006         2.80006
            2332         329.215         329.215         2.45070         2.45070         3.50993         3.50993
            2333         328.999         328.999         1.88439         1.88439         4.08531         4.08531
            2334         328.836         328.836         1.41535         1.41535         4.54724         4.54724
            2335         328.724         328.724         1.02522         1.02522         4.91390         4.91390
            2336         328.659         328.659     696.627E-03     696.627E-03         5.20061         5.20061
            2337         328.638         328.638     414.596E-03     414.596E-03         5.42023         5.42023
            2338         328.661         328.661     164.677E-03     164.677E-03         5.58315         5.58315
            2339         328.725         328.725    -66.4017E-03    -66.4017E-03         5.69754         5.69754
            2340         328.834         328.834    -291.670E-03    -291.670E-03         5.76931         5.76931
            2341         328.988         328.988    -523.545E-03    -523.545E-03         5.80224         5.80224
            2342         329.193         329.193    -774.170E-03    -774.170E-03         5.79784         5.79784
            2343         329.453         329.453        -1.05498        -1.05498         5.75528         5.75528
            2344         329.777         329.777        -1.37646        -1.37646         5.67114         5.67114
            2345         330.172         330.172        -1.74730        -1.74730         5.53918         5.53918
            2346         330.650         330.650        -2.17335        -2.17335         5.34985         5.34985
            2347         331.219         331.219        -2.65587        -2.65587         5.09015         5.09015
            2348         331.887         331.887        -3.18935        -3.18935         4.74318         4.74318
            2349         332.658         332.658        -3.75839        -3.75839         4.28866         4.28866
            2350         333.528         333.528        -4.33440        -4.33440         3.70379         3.70379
            2351         334.482         334.482        -4.87133        -4.87133         2.96596         2.96596
            2352         335.489         335.489        -5.30374        -5.30374         2.05741         2.05741
            2353         336.500         336.500        -5.54360        -5.54360     971.191E-03     971.191E-03
            2354         337.440         337.440        -5.48350        -5.48350    -276.628E-03    -276.628E-03
            2355         338.216         338.216        -5.00438        -5.00438        -1.63521        -1.63521
            2356         319.461         319.461         88.4544         88.4544        -43.7212        -43.7212
            2357         324.055         324.055         76.3500         76.3500        -42.9872        -42.9872
            2358         328.061         328.061         64.2763         64.2763        -40.3445        -40.3445
            2359         331.179         331.179         53.0342         53.0342        -36.5765        -36.5765
            2360         333.312         333.312         43.0781         43.0781        -32.0006        -32.0006
            2361         334.374         334.374         34.7148         34.7148        -27.1295        -27.1295
            2362         334.685         334.685         27.8602         27.8602        -22.3776        -22.3776
            2363         334.382         334.382         22.3503         22.3503        -17.9477        -17.9477
            2364         333.751         333.751         17.9638         17.9638        -14.0232        -14.0232
            2365         332.942         332.942         14.4453         14.4453        -10.5910        -10.5910
            2366         332.079         332.079         11.6387         11.6387        -7.65883        -7.65883
            2367         331.239         331.239         9.37078         9.37078        -5.16930        -5.16930
            2368         330.465         330.465         7.54415         7.54415        -3.07985        -3.07985
            2369         329.782         329.782         6.05659         6.05659        -1.33527        -1.33527
            2370         329.200         329.200         4.84806         4.84806     110.873E-03     110.873E-03
            2371         328.721         328.721         3.85880         3.85880         1.30278         1.30278
            2372         328.342         328.342         3.05089         3.05089         2.27884         2.27884
            2373         328.055         328.055         2.38804         2.38804         3.07247         3.07247
            2374         327.852         327.852         1.84516         1.84516         3.71279         3.71279
            2375         327.726         327.726         1.39874         1.39874         4.22434         4.22434
            2376         327.668         327.668         1.03100         1.03100         4.62829         4.62829
            2377         327.671         327.671     725.318E-03     725.318E-03         4.94211         4.94211
            2378         327.728         327.728     467.984E-03     467.984E-03         5.18049         5.18049
            2379         327.834         327.834     245.936E-03     245.936E-03         5.35511         5.35511
            2380         327.985         327.985     47.5742E-03     47.5742E-03         5.47529         5.47529
            2381         328.178         328.178    -138.412E-03    -138.412E-03         5.54779         5.54779
            2382         328.413         328.413    -322.605E-03    -322.605E-03         5.57715         5.57715
            2383         328.688         328.688    -515.370E-03    -515.370E-03         5.56557         5.56557
            2384         329.007         329.007    -726.470E-03    -726.470E-03         5.51309         5.51309
            2385         329.370         329.370    -965.044E-03    -965.044E-03         5.41735         5.41735
            2386         329.784         329.784        -1.23898        -1.23898         5.27371         5.27371
            2387         330.252         330.252        -1.55426        -1.55426         5.07502         5.07502
            2388         330.779         330.779        -1.91377        -1.91377         4.81175         4.81175
            2389         331.370         331.370        -2.31588        -2.31588         4.47196         4.47196
            2390         332.025         332.025        -2.75229        -2.75229         4.04185         4.04185
            2391         332.741         332.741        -3.20595        -3.20595         3.50660         3.50660
            2392         333.509         333.509        -3.64818        -3.64818         2.85216         2.85216
            2393         334.309         334.309        -4.03706        -4.03706         2.06825         2.06825
            2394         335.109         335.109        -4.31540        -4.31540         1.15227         1.15227
            2395         335.862         335.862        -4.41231        -4.41231     116.079E-03     116.079E-03
            2396         336.511         336.511        -4.24724        -4.24724        -1.00726        -1.00726
            2397         336.986         336.986        -3.74028        -3.74028        -2.15422        -2.15422
            2398         323.346         323.346         87.8635         87.8635        -48.6995        -48.6995
            2399         328.202         328.202         74.0652         74.0652        -47.4472        -47.4472
            2400         332.294         332.294         60.4352         60.4352        -43.9568        -43.9568
            2401         335.118         335.118         48.0510         48.0510        -38.8810        -38.8810
            2402         336.389         336.389         37.7074         37.7074        -33.0919        -33.0919
            2403         336.575         336.575         29.3995         29.3995        -27.2694        -27.2694
            2404         335.832         335.832         22.9692         22.9692        -21.8058        -21.8058
            2405         334.667         334.667         18.0555         18.0555        -17.0488        -17.0488
            2406         333.320         333.320         14.2380         14.2380        -12.9481        -12.9481
            2407         331.970         331.970         11.2973         11.2973        -9.50824        -9.50824
            2408         330.720         330.720         8.97816         8.97816        -6.63220        -6.63220
            2409         329.613         329.613         7.15772         7.15772        -4.25214        -4.25214
            2410         328.677         328.677         5.70123         5.70123        -2.28915        -2.28915
            2411         327.909         327.909         4.53882         4.53882    -678.394E-03    -678.394E-03
            2412         327.306         327.306         3.59896         3.59896     637.202E-03     637.202E-03
            2413         326.852         326.852         2.84049         2.84049         1.70682         1.70682
            2414         326.535         326.535         2.22352         2.22352         2.57080         2.57080
            2415         326.337         326.337         1.72253         1.72253         3.26424         3.26424
            2416         326.244         326.244         1.31361         1.31361         3.81551         3.81551
            2417         326.243         326.243     979.839E-03     979.839E-03         4.24910         4.24910
            2418         326.320         326.320     705.481E-03     705.481E-03         4.58468         4.58468
            2419         326.464         326.464     478.282E-03     478.282E-03         4.83889         4.83889
            2420         326.666         326.666     286.684E-03     286.684E-03         5.02479         5.02479
            2421         326.919         326.919     120.842E-03     120.842E-03         5.15294         5.15294
            2422         327.215         327.215    -28.7624E-03    -28.7624E-03         5.23107         5.23107
            2423         327.550         327.550    -170.821E-03    -170.821E-03         5.26466         5.26466
            2424         327.920         327.920    -313.859E-03    -313.859E-03         5.25678         5.25678
            2425         328.324         328.324    -465.889E-03    -465.889E-03         5.20838         5.20838
            2426         328.759         328.759    -634.577E-03    -634.577E-03         5.11817         5.11817
            2427         329.227         329.227    -826.786E-03    -826.786E-03         4.98279         4.98279
            2428         329.727         329.727        -1.04826        -1.04826         4.79679         4.79679
            2429         330.260         330.260        -1.30279        -1.30279         4.55285         4.55285
            2430         330.828         330.828        -1.59137        -1.59137         4.24195         4.24195
            2431         331.428         331.428        -1.91074        -1.91074         3.85390         3.85390
            2432         332.058         332.058        -2.25198        -2.25198         3.37814         3.37814
            2433         332.710         332.710        -2.59859        -2.59859         2.80508         2.80508
            2434         333.371         333.371        -2.92518        -2.92518         2.12811         2.12811
            2435         334.021         334.021        -3.19590        -3.19590         1.34630         1.34630
            2436         334.630         334.630        -3.36492        -3.36492     468.441E-03     468.441E-03
            2437         335.162         335.162        -3.37813        -3.37813    -482.912E-03    -482.912E-03
            2438         335.573         335.573        -3.17856        -3.17856        -1.46605        -1.46605
            2439         335.819         335.819        -2.71564        -2.71564        -2.41673        -2.41673
            2440         328.618         328.618         87.0930         87.0930        -54.1131        -54.1131
            2441         334.096         334.096         70.7956         70.7956        -52.3201        -52.3201
            2442         338.036         338.036         55.0043         55.0043        -47.0870        -47.0870
            2443         339.772         339.772         41.6302         41.6302        -40.2990        -40.2990
            2444         339.858         339.858         31.0506         31.0506        -33.0002        -33.0002
            2445         338.366         338.366         23.3064         23.3064        -26.0616        -26.0616
            2446         336.309         336.309         17.7466         17.7466        -20.2107        -20.2107
            2447         334.109         334.109         13.6045         13.6045        -15.2873        -15.2873
            2448         332.011         332.011         10.5676         10.5676        -11.2704        -11.2704
            2449         330.157         330.157         8.24549         8.24549        -7.98855        -7.98855
            2450         328.576         328.576         6.48495         6.48495        -5.32558        -5.32558
            2451         327.286         327.286         5.10766         5.10766        -3.16731        -3.16731
            2452         326.264         326.264         4.03388         4.03388        -1.42018        -1.42018
            2453         325.492         325.492         3.17926         3.17926    -10.8644E-03    -10.8644E-03
            2454         324.938         324.938         2.50008         2.50008         1.12427         1.12427
            2455         324.576         324.576         1.95353         1.95353         2.03318         2.03318
            2456         324.379         324.379         1.51428         1.51428         2.75795         2.75795
            2457         324.323         324.323         1.15867         1.15867         3.33061         3.33061
            2458         324.385         324.385     871.000E-03     871.000E-03         3.77907         3.77907
            2459         324.547         324.547     636.832E-03     636.832E-03         4.12487         4.12487
            2460         324.793         324.793     445.538E-03     445.538E-03         4.38646         4.38646
            2461         325.109         325.109     287.245E-03     287.245E-03         4.57802         4.57802
            2462         325.482         325.482     153.921E-03     153.921E-03         4.71123         4.71123
            2463         325.902         325.902     37.9009E-03     37.9009E-03         4.79467         4.79467
            2464         326.362         326.362    -67.6041E-03    -67.6041E-03         4.83476         4.83476
            2465         326.854         326.854    -169.239E-03    -169.239E-03         4.83542         4.83542
            2466         327.373         327.373    -273.197E-03    -273.197E-03         4.79857         4.79857
            2467         327.914         327.914    -385.511E-03    -385.511E-03         4.72394         4.72394
            2468         328.474         328.474    -511.730E-03    -511.730E-03         4.60939         4.60939
            2469         329.049         329.049    -656.844E-03    -656.844E-03         4.45084         4.45084
            2470         329.638         329.638    -824.751E-03    -824.751E-03         4.24256         4.24256
            2471         330.236         330.236        -1.01777        -1.01777         3.97739         3.97739
            2472         330.842         330.842        -1.23574        -1.23574         3.64720         3.64720
            2473         331.449         331.449        -1.47512        -1.47512         3.24359         3.24359
            2474         332.052         332.052        -1.72768        -1.72768         2.75894         2.75894
            2475         332.639         332.639        -1.97949        -1.97949         2.18788         2.18788
            2476         333.197         333.197        -2.20973        -2.20973         1.52923         1.52923
            2477         333.706         333.706        -2.39050        -2.39050     788.646E-03     788.646E-03
            2478         334.144         334.144        -2.48722        -2.48722    -18.6823E-03    -18.6823E-03
            2479         334.483         334.483        -2.46118        -2.46118    -864.686E-03    -864.686E-03
            2480         334.695         334.695        -2.27412        -2.27412        -1.70626        -1.70626
            2481         334.755         334.755        -1.89522        -1.89522        -2.48393        -2.48393
            2482         337.071         337.071         85.6309         85.6309        -60.5515        -60.5515
            2483         342.544         342.544         65.6524         65.6524        -56.8164        -56.8164
            2484         345.397         345.397         47.4563         47.4563        -49.3533        -49.3533
            2485         345.588         345.588         32.9496         32.9496        -39.8954        -39.8954
            2486         342.719         342.719         23.1875         23.1875        -30.6383        -30.6383
            2487         339.075         339.075         16.8699         16.8699        -23.2860        -23.2860
            2488         335.479         335.479         12.4080         12.4080        -17.3514        -17.3514
            2489         332.224         332.224         9.36323         9.36323        -12.7026        -12.7026
            2490         329.489         329.489         7.12239         7.12239        -9.03448        -9.03448
            2491         327.244         327.244         5.50054         5.50054        -6.13519        -6.13519
            2492         325.480         325.480         4.26682         4.26682        -3.84222        -3.84222
            2493         324.131         324.131         3.33316         3.33316        -2.01787        -2.01787
            2494         323.149         323.149         2.60479         2.60479    -570.658E-03    -570.658E-03
            2495         322.475         322.475         2.03677         2.03677     581.494E-03     581.494E-03
            2496         322.065         322.065         1.58590         1.58590         1.49352         1.49352
            2497         321.874         321.874         1.22787         1.22787         2.21495         2.21495
            2498         321.866         321.866     940.784E-03     940.784E-03         2.78045         2.78045
            2499         322.009         322.009     710.596E-03     710.596E-03         3.22088         3.22088
            2500         322.277         322.277     524.896E-03     524.896E-03         3.55879         3.55879
            2501         322.647         322.647     374.866E-03     374.866E-03         3.81381         3.81381
            2502         323.099         323.099     252.578E-03     252.578E-03         4.00060         4.00060
            2503         323.617         323.617     151.837E-03     151.837E-03         4.13149         4.13149
            2504         324.188         324.188     66.8616E-03     66.8616E-03         4.21554         4.21554
            2505         324.800         324.800    -7.29369E-03    -7.29369E-03         4.25977         4.25977
            2506         325.443         325.443    -75.4282E-03    -75.4282E-03         4.26880         4.26880
            2507         326.109         326.109    -141.941E-03    -141.941E-03         4.24537         4.24537
            2508         326.791         326.791    -211.169E-03    -211.169E-03         4.19021         4.19021
            2509         327.482         327.482    -287.162E-03    -287.162E-03         4.10232         4.10232
            2510         328.177         328.177    -373.753E-03    -373.753E-03         3.97892         3.97892
            2511         328.870         328.870    -474.239E-03    -474.239E-03         3.81570         3.81570
            2512         329.554         329.554    -591.173E-03    -591.173E-03         3.60698         3.60698
            2513         330.225         330.225    -725.826E-03    -725.826E-03         3.34610         3.34610
            2514         330.875         330.875    -877.680E-03    -877.680E-03         3.02594         3.02594
            2515         331.495         331.495        -1.04361        -1.04361         2.63971         2.63971
            2516         332.076         332.076        -1.21720        -1.21720         2.18206         2.18206
            2517         332.605         332.605        -1.38784        -1.38784         1.65052         1.65052
            2518         333.069         333.069        -1.54032        -1.54032         1.04733         1.04733
            2519         333.450         333.450        -1.65463        -1.65463     381.471E-03     381.471E-03
            2520         333.732         333.732        -1.70688        -1.70688    -329.082E-03    -329.082E-03
            2521         333.895         333.895        -1.67120        -1.67120        -1.05564        -1.05564
            2522         333.926         333.926        -1.52328        -1.52328        -1.75771        -1.75771
            2523         333.816         333.816        -1.24532        -1.24532        -2.38346        -2.38346
            2524         349.423         349.423         83.0984         83.0984        -67.0492        -67.0492
            2525         355.063         355.063         57.4731         57.4731        -61.3089        -61.3089
            2526         356.035         356.035         35.4247         35.4247        -48.5286        -48.5286
            2527         350.287         350.287         22.2106         22.2106        -35.2100        -35.2100
            2528         343.549         343.549         15.1531         15.1531        -25.7249        -25.7249
            2529         337.588         337.588         10.4732         10.4732        -18.6279        -18.6279
            2530         332.526         332.526         7.60230         7.60230        -13.3745        -13.3745
            2531         328.523         328.523         5.58562         5.58562        -9.44289        -9.44289
            2532         325.384         325.384         4.21140         4.21140        -6.43599        -6.43599
            2533         323.021         323.021         3.20304         3.20304        -4.13759        -4.13759
            2534         321.280         321.280         2.46621         2.46621        -2.34627        -2.34627
            2535         320.066         320.066         1.90661         1.90661    -956.242E-03    -956.242E-03
            2536         319.275         319.275         1.47915         1.47915     135.442E-03     135.442E-03
            2537         318.833         318.833         1.14615         1.14615     987.070E-03     987.070E-03
            2538         318.674         318.674     884.993E-03     884.993E-03         1.65444         1.65444
            2539         318.746         318.746     678.181E-03     678.181E-03         2.17234         2.17234
            2540         319.004         319.004     513.699E-03     513.699E-03         2.57299         2.57299
            2541         319.411         319.411     382.252E-03     382.252E-03         2.87825         2.87825
            2542         319.938         319.938     276.934E-03     276.934E-03         3.10768         3.10768
            2543         320.559         320.559     192.123E-03     192.123E-03         3.27527         3.27527
            2544         321.255         321.255     123.389E-03     123.389E-03         3.39310         3.39310
            2545         322.008         322.008     66.8455E-03     66.8455E-03         3.46992         3.46992
            2546         322.804         322.804     19.2264E-03     19.2264E-03         3.51281         3.51281
            2547         323.631         323.631    -22.5531E-03    -22.5531E-03         3.52656         3.52656
            2548         324.478         324.478    -61.2624E-03    -61.2624E-03         3.51446         3.51446
            2549         325.336         325.336    -99.6405E-03    -99.6405E-03         3.47797         3.47797
            2550         326.198         326.198    -140.247E-03    -140.247E-03         3.41712         3.41712
            2551         327.054         327.054    -185.597E-03    -185.597E-03         3.33037         3.33037
            2552         327.899         327.899    -237.972E-03    -237.972E-03         3.21484         3.21484
            2553         328.722         328.722    -299.396E-03    -299.396E-03         3.06637         3.06637
            2554         329.517         329.517    -371.333E-03    -371.333E-03         2.87978         2.87978
            2555         330.273         330.273    -454.480E-03    -454.480E-03         2.64920         2.64920
            2556         330.980         330.980    -548.302E-03    -548.302E-03         2.36863         2.36863
            2557         331.627         331.627    -650.654E-03    -650.654E-03         2.03267         2.03267
            2558         332.200         332.200    -757.201E-03    -757.201E-03         1.63754         1.63754
            2559         332.685         332.685    -861.062E-03    -861.062E-03         1.18238         1.18238
            2560         333.068         333.068    -952.431E-03    -952.431E-03     670.766E-03     670.766E-03
            2561         333.333         333.333        -1.01873        -1.01873     112.362E-03     112.362E-03
            2562         333.468         333.468        -1.04520        -1.04520    -475.597E-03    -475.597E-03
            2563         333.463         333.463        -1.01625        -1.01625        -1.06715        -1.06715
            2564         333.313         333.313    -917.815E-03    -917.815E-03        -1.62758        -1.62758
            2565         333.023         333.023    -740.167E-03    -740.167E-03        -2.11426        -2.11426
            2566         374.266         374.266         76.6530         76.6530        -76.5989        -76.5989
            2567         376.687         376.687         39.7035         39.7035        -59.4132        -59.4132
            2568         363.719         363.719         19.5477         19.5477        -38.5800        -38.5800
            2569         350.383         350.383         12.2076         12.2076        -26.1205        -26.1205
            2570         340.321         340.321         7.67030         7.67030        -18.0850        -18.0850
            2571         332.502         332.502         5.28005         5.28005        -12.5311        -12.5311
            2572         326.763         326.763         3.70865         3.70865        -8.70577        -8.70577
            2573         322.511         322.511         2.70532         2.70532        -5.88330        -5.88330
            2574         319.464         319.464         2.01115         2.01115        -3.82706        -3.82706
            2575         317.325         317.325         1.51766         1.51766        -2.25881        -2.25881
            2576         315.907         315.907         1.15996         1.15996        -1.07658        -1.07658
            2577         315.050         315.050     889.872E-03     889.872E-03    -161.080E-03    -161.080E-03
            2578         314.637         314.637     686.400E-03     686.400E-03     540.231E-03     540.231E-03
            2579         314.573         314.573     527.603E-03     527.603E-03         1.08450         1.08450
            2580         314.786         314.786     404.592E-03     404.592E-03         1.50177         1.50177
            2581         315.217         315.217     306.994E-03     306.994E-03         1.82228         1.82228
            2582         315.820         315.820     230.086E-03     230.086E-03         2.06436         2.06436
            2583         316.555         316.555     168.649E-03     168.649E-03         2.24535         2.24535
            2584         317.395         317.395     119.745E-03     119.745E-03         2.37682         2.37682
            2585         318.312         318.312     80.4706E-03     80.4706E-03         2.46918         2.46918
            2586         319.289         319.289     48.7700E-03     48.7700E-03         2.52975         2.52975
            2587         320.308         320.308     22.7663E-03     22.7663E-03         2.56469         2.56469
            2588         321.355         321.355     846.611E-06     846.611E-06         2.57826         2.57826
            2589         322.419         322.419    -18.4392E-03    -18.4392E-03         2.57363         2.57363
            2590         323.491         323.491    -36.5017E-03    -36.5017E-03         2.55256         2.55256
            2591         324.560         324.560    -54.6393E-03    -54.6393E-03         2.51578         2.51578
            2592         325.619         325.619    -74.1693E-03    -74.1693E-03         2.46281         2.46281
            2593         326.658         326.658    -96.3060E-03    -96.3060E-03         2.39215         2.39215
            2594         327.670         327.670    -122.226E-03    -122.226E-03         2.30125         2.30125
            2595         328.643         328.643    -152.910E-03    -152.910E-03         2.18670         2.18670
            2596         329.567         329.567    -189.108E-03    -189.108E-03         2.04433         2.04433
            2597         330.429         330.429    -231.118E-03    -231.118E-03         1.86951         1.86951
            2598         331.215         331.215    -278.647E-03    -278.647E-03         1.65763         1.65763
            2599         331.910         331.910    -330.506E-03    -330.506E-03         1.40461         1.40461
            2600         332.497         332.497    -384.433E-03    -384.433E-03         1.10780         1.10780
            2601         332.959         332.959    -436.783E-03    -436.783E-03     766.893E-03     766.893E-03
            2602         333.278         333.278    -482.490E-03    -482.490E-03     385.151E-03     385.151E-03
            2603         333.441         333.441    -515.052E-03    -515.052E-03    -29.4777E-03    -29.4777E-03
            2604         333.436         333.436    -526.961E-03    -526.961E-03    -463.269E-03    -463.269E-03
            2605         333.257         333.257    -510.429E-03    -510.429E-03    -896.172E-03    -896.172E-03
            2606         332.909         332.909    -458.537E-03    -458.537E-03        -1.30192        -1.30192
            2607         332.407         332.407    -366.701E-03    -366.701E-03        -1.64882        -1.64882
            2608         422.175         422.175         52.0556         52.0556        -67.3545        -67.3545
            2609         386.915         386.915         14.6785         14.6785        -36.6396        -36.6396
            2610         359.115         359.115         7.77369         7.77369        -21.0282        -21.0282
            2611         342.319         342.319         4.33132         4.33132        -13.7767        -13.7767
            2612         330.762         330.762         2.68981         2.68981        -8.98917        -8.98917
            2613         322.996         322.996         1.82780         1.82780        -6.13458        -6.13458
            2614         317.628         317.628         1.24650         1.24650        -4.07278        -4.07278
            2615         314.002         314.002     919.816E-03     919.816E-03        -2.67738        -2.67738
            2616         311.613         311.613     665.241E-03     665.241E-03        -1.62777        -1.62777
            2617         310.148         310.148     508.909E-03     508.909E-03    -867.579E-03    -867.579E-03
            2618         309.375         309.375     380.816E-03     380.816E-03    -284.634E-03    -284.634E-03
            2619         309.128         309.128     294.991E-03     294.991E-03     151.963E-03     151.963E-03
            2620         309.284         309.284     223.997E-03     223.997E-03     488.497E-03     488.497E-03
            2621         309.750         309.750     172.972E-03     172.972E-03     743.154E-03     743.154E-03
            2622         310.454         310.454     130.985E-03     130.985E-03     937.894E-03     937.894E-03
            2623         311.340         311.340     99.3150E-03     99.3150E-03         1.08387         1.08387
            2624         312.363         312.363     73.5021E-03     73.5021E-03         1.19277         1.19277
            2625         313.489         313.489     53.4511E-03     53.4511E-03         1.27164         1.27164
            2626         314.691         314.691     37.2475E-03     37.2475E-03         1.32722         1.32722
            2627         315.946         315.946     24.4062E-03     24.4062E-03         1.36400         1.36400
            2628         317.237         317.237     14.0040E-03     14.0040E-03         1.38599         1.38599
            2629         318.549         318.549     5.49539E-03     5.49539E-03         1.39589         1.39589
            2630         319.872         319.872    -1.67389E-03    -1.67389E-03         1.39593         1.39593
            2631         321.194         321.194    -8.02855E-03    -8.02855E-03         1.38747         1.38747
            2632         322.509         322.509    -14.0052E-03    -14.0052E-03         1.37134         1.37134
            2633         323.807         323.807    -20.1035E-03    -20.1035E-03         1.34767         1.34767
            2634         325.080         325.080    -26.7330E-03    -26.7330E-03         1.31609         1.31609
            2635         326.321         326.321    -34.3614E-03    -34.3614E-03         1.27558         1.27558
            2636         327.520         327.520    -43.3655E-03    -43.3655E-03         1.22462         1.22462
            2637         328.665         328.665    -54.1215E-03    -54.1215E-03         1.16117         1.16117
            2638         329.743         329.743    -66.8677E-03    -66.8677E-03         1.08281         1.08281
            2639         330.739         330.739    -81.7292E-03    -81.7292E-03     986.870E-03     986.870E-03
            2640         331.634         331.634    -98.5745E-03    -98.5745E-03     870.668E-03     870.668E-03
            2641         332.409         332.409    -116.993E-03    -116.993E-03     731.885E-03     731.885E-03
            2642         333.042         333.042    -136.141E-03    -136.141E-03     568.973E-03     568.973E-03
            2643         333.511         333.511    -154.729E-03    -154.729E-03     381.776E-03     381.776E-03
            2644         333.792         333.792    -170.900E-03    -170.900E-03     172.119E-03     172.119E-03
            2645         333.869         333.869    -182.350E-03    -182.350E-03    -55.4794E-03    -55.4794E-03
            2646         333.728         333.728    -186.367E-03    -186.367E-03    -293.297E-03    -293.297E-03
            2647         333.364         333.364    -180.216E-03    -180.216E-03    -530.105E-03    -530.105E-03
            2648         332.786         332.786    -161.503E-03    -161.503E-03    -751.298E-03    -751.298E-03
            2649         332.017         332.017    -128.602E-03    -128.602E-03    -939.146E-03    -939.146E-03
            2650         347.698         347.698        -10.9018        -10.9018     882.017E-03     882.017E-03
            2651         345.441         345.441        -7.55781        -7.55781         2.96509         2.96509
            2652         343.027         343.027        -5.01999        -5.01999         3.96347         3.96347
            2653         340.795         340.795        -3.21254        -3.21254         4.32510         4.32510
            2654         338.830         338.830        -1.97850        -1.97850         4.33737         4.33737
            2655         337.124         337.124        -1.16466        -1.16466         4.16784         4.16784
            2656         335.633         335.633    -647.484E-03    -647.484E-03         3.90175         3.90175
            2657         334.306         334.306    -333.904E-03    -333.904E-03         3.57200         3.57200
            2658         333.095         333.095    -155.729E-03    -155.729E-03         3.17559         3.17559
            2659         331.961         331.961    -63.2840E-03    -63.2840E-03         2.68139         2.68139
            2660         330.869         330.869    -20.8634E-03    -20.8634E-03         2.03085         2.03085
            2661         329.798         329.798    -4.68270E-03    -4.68270E-03         1.13979         1.13979
            2662         350.071         350.071        -6.44357        -6.44357         5.40488         5.40488
            2663         346.333         346.333        -3.11820        -3.11820         6.17585         6.17585
            2664         343.147         343.147        -1.06092        -1.06092         6.09417         6.09417
            2665         340.542         340.542     111.781E-03     111.781E-03         5.66323         5.66323
            2666         338.420         338.420     706.352E-03     706.352E-03         5.12617         5.12617
            2667         336.658         336.658     936.199E-03     936.199E-03         4.58721         4.58721
            2668         335.146         335.146     942.513E-03     942.513E-03         4.07928         4.07928
            2669         333.793         333.793     818.218E-03     818.218E-03         3.59770         3.59770
            2670         332.521         332.521     626.798E-03     626.798E-03         3.11478         3.11478
            2671         331.260         331.260     415.026E-03     415.026E-03         2.58372         2.58372
            2672         329.944         329.944     221.352E-03     221.352E-03         1.93621         1.93621
            2673         328.504         328.504     81.5219E-03     81.5219E-03         1.08109         1.08109
            2674         350.339         350.339         1.65766         1.65766         9.20011         9.20011
            2675         345.678         345.678         3.53912         3.53912         8.20435         8.20435
            2676         342.218         342.218         4.17049         4.17049         7.01299         7.01299
            2677         339.613         339.613         4.13295         4.13295         5.91622         5.91622
            2678         337.585         337.585         3.75347         3.75347         4.99383         4.99383
            2679         335.933         335.933         3.21185         3.21185         4.23993         4.23993
            2680         334.512         334.512         2.60629         2.60629         3.62209         3.62209
            2681         333.211         333.211         1.99359         1.99359         3.09881         3.09881
            2682         331.937         331.937         1.41077         1.41077         2.62358         2.62358
            2683         330.603         330.603     888.222E-03     888.222E-03         2.14285         2.14285
            2684         329.114         329.114     459.045E-03     459.045E-03         1.59049         1.59049
            2685         327.360         327.360     165.886E-03     165.886E-03     883.614E-03     883.614E-03
            2686         348.364         348.364         12.2246         12.2246         10.0362         10.0362
            2687         343.791         343.791         11.1166         11.1166         7.77121         7.77121
            2688         340.651         340.651         9.59210         9.59210         6.02929         6.02929
            2689         338.376         338.376         8.02856         8.02856         4.73479         4.73479
            2690         336.623         336.623         6.56334         6.56334         3.77680         3.77680
            2691         335.182         335.182         5.23315         5.23315         3.06241         3.06241
            2692         333.911         333.911         4.04227         4.04227         2.51955         2.51955
            2693         332.703         332.703         2.98589         2.98589         2.09148         2.09148
            2694         331.464         331.464         2.06172         2.06172         1.72981         1.72981
            2695         330.100         330.100         1.27659         1.27659         1.38869         1.38869
            2696         328.499         328.499     652.544E-03     652.544E-03         1.01874         1.01874
            2697         326.523         326.523     233.920E-03     233.920E-03     562.189E-03     562.189E-03
            2698         345.583         345.583         21.6366         21.6366         6.34613         6.34613
            2699         341.811         341.811         17.1675         17.1675         4.35764         4.35764
            2700         339.259         339.259         13.6071         13.6071         3.06678         3.06678
            2701         337.389         337.389         10.7638         10.7638         2.20409         2.20409
            2702         335.916         335.916         8.45500         8.45500         1.61246         1.61246
            2703         334.670         334.670         6.54829         6.54829         1.20014         1.20014
            2704         333.531         333.531         4.95001         4.95001     908.712E-03     908.712E-03
            2705         332.408         332.408         3.59779         3.59779     698.233E-03     698.233E-03
            2706         331.211         331.211         2.45466         2.45466     539.637E-03     539.637E-03
            2707         329.846         329.846         1.50726         1.50726     409.450E-03     409.450E-03
            2708         328.198         328.198     766.912E-03     766.912E-03     287.001E-03     287.001E-03
            2709         326.116         326.116     274.750E-03     274.750E-03     152.956E-03     152.956E-03
            2710         344.479         344.479         24.8614         24.8614        -1.09852        -1.09852
            2711         341.173         341.173         18.9508         18.9508        -1.18340        -1.18340
            2712         338.879         338.879         14.6625         14.6625        -1.18238        -1.18238
            2713         337.164         337.164         11.4084         11.4084        -1.15038        -1.15038
            2714         335.791         335.791         8.85353         8.85353        -1.10133        -1.10133
            2715         334.612         334.612         6.79296         6.79296        -1.04125        -1.04125
            2716         333.520         333.520         5.09596         5.09596    -971.253E-03    -971.253E-03
            2717         332.429         332.429         3.67963         3.67963    -889.595E-03    -889.595E-03
            2718         331.255         331.255         2.49556         2.49556    -791.895E-03    -791.895E-03
            2719         329.908         329.908         1.52354         1.52354    -670.006E-03    -670.006E-03
            2720         328.274         328.274     770.835E-03     770.835E-03    -510.052E-03    -510.052E-03
            2721         326.212         326.212     274.763E-03     274.763E-03    -289.383E-03    -289.383E-03
            2722         346.305         346.305         19.1738         19.1738        -8.34004        -8.34004
            2723         342.453         342.453         15.2206         15.2206        -6.53821        -6.53821
            2724         339.813         339.813         12.1048         12.1048        -5.29868        -5.29868
            2725         337.871         337.871         9.60245         9.60245        -4.40561        -4.40561
            2726         336.346         336.346         7.55624         7.55624        -3.73860        -3.73860
            2727         335.066         335.066         5.85463         5.85463        -3.22033        -3.22033
            2728         333.912         333.912         4.42069         4.42069        -2.79717        -2.79717
            2729         332.789         332.789         3.20407         3.20407        -2.42779        -2.42779
            2730         331.614         331.614         2.17593         2.17593        -2.07586        -2.07586
            2731         330.298         330.298         1.32728         1.32728        -1.70380        -1.70380
            2732         328.739         328.739     669.791E-03     669.791E-03        -1.26578        -1.26578
            2733         326.815         326.815     237.926E-03     237.926E-03    -703.866E-03    -703.866E-03
            2734         349.190         349.190         7.66782         7.66782        -10.7597        -10.7597
            2735         344.662         344.662         7.55908         7.55908        -9.05067        -9.05067
            2736         341.489         341.489         6.82534         6.82534        -7.61456        -7.61456
            2737         339.158         339.158         5.88612         5.88612        -6.46592        -6.46592
            2738         337.355         337.355         4.90761         4.90761        -5.55028        -5.55028
            2739         335.883         335.883         3.96164         3.96164        -4.80837        -4.80837
            2740         334.604         334.604         3.07998         3.07998        -4.18548        -4.18548
            2741         333.417         333.417         2.27843         2.27843        -3.63230        -3.63230
            2742         332.232         332.232         1.56878         1.56878        -3.10032        -3.10032
            2743         330.970         330.970     965.519E-03     965.519E-03        -2.53645        -2.53645
            2744         329.545         329.545     490.350E-03     490.350E-03        -1.87556        -1.87556
            2745         327.859         327.859     175.262E-03     175.262E-03        -1.03764        -1.03764
            2746         350.037         350.037        -3.22241        -3.22241        -7.84536        -7.84536
            2747         345.997         345.997    -558.106E-03    -558.106E-03        -7.93395        -7.93395
            2748         342.815         342.815     848.266E-03     848.266E-03        -7.44192        -7.44192
            2749         340.336         340.336         1.48716         1.48716        -6.78081        -6.78081
            2750         338.372         338.372         1.67570         1.67570        -6.10915        -6.10915
            2751         336.765         336.765         1.60372         1.60372        -5.47467        -5.47467
            2752         335.394         335.394         1.38755         1.38755        -4.88012        -4.88012
            2753         334.166         334.166         1.10086         1.10086        -4.30475        -4.30475
            2754         333.001         333.001     793.434E-03     793.434E-03        -3.71320        -3.71320
            2755         331.831         331.831     502.467E-03     502.467E-03        -3.05563        -3.05563
            2756         330.594         330.594     259.252E-03     259.252E-03        -2.26427        -2.26427
            2757         329.226         329.226     93.2886E-03     93.2886E-03        -1.25254        -1.25254
            2758         347.824         347.824        -9.57304        -9.57304        -2.74921        -2.74921
            2759         345.382         345.382        -6.29757        -6.29757        -4.61267        -4.61267
            2760         342.950         342.950        -3.93487        -3.93487        -5.41150        -5.41150
            2761         340.797         340.797        -2.33511        -2.33511        -5.61600        -5.61600
            2762         338.962         338.962        -1.29967        -1.29967        -5.50485        -5.50485
            2763         337.403         337.403    -658.048E-03    -658.048E-03        -5.22699        -5.22699
            2764         336.058         336.058    -283.916E-03    -283.916E-03        -4.85178        -4.85178
            2765         334.870         334.870    -85.8949E-03    -85.8949E-03        -4.40230        -4.40230
            2766         333.786         333.786     1.54314E-03     1.54314E-03        -3.87024        -3.87024
            2767         332.762         332.762     25.6552E-03     25.6552E-03        -3.22284        -3.22284
            2768         331.762         331.762     20.4233E-03     20.4233E-03        -2.40284        -2.40284
            2769         330.764         330.764     8.69756E-03     8.69756E-03        -1.33169        -1.33169
            2770         309.679         309.679         90.2224         90.2224         16.7915         16.7915
            2771         312.773         312.773         82.8576         82.8576         16.7032         16.7032
            2772         315.803         315.803         75.4842         75.4842         16.1995         16.1995
            2773         318.691         318.691         68.2408         68.2408         15.4461         15.4461
            2774         321.385         321.385         61.2245         61.2245         14.4698         14.4698
            2775         323.841         323.841         54.5227         54.5227         13.3029         13.3029
            2776         326.026         326.026         48.2078         48.2078         11.9934         11.9934
            2777         327.924         327.924         42.3314         42.3314         10.5892         10.5892
            2778         329.528         329.528         36.9275         36.9275         9.14100         9.14100
            2779         330.846         330.846         32.0096         32.0096         7.69388         7.69388
            2780         331.893         331.893         27.5768         27.5768         6.28574         6.28574
            2781         332.691         332.691         23.6153         23.6153         4.94751         4.94751
            2782         333.264         333.264         20.1024         20.1024         3.69958         3.69958
            2783         333.640         333.640         17.0097         17.0097         2.55659         2.55659
            2784         333.842         333.842         14.3049         14.3049         1.52418         1.52418
            2785         333.898         333.898         11.9549         11.9549     604.370E-03     604.370E-03
            2786         333.827         333.827         9.92553         9.92553    -206.758E-03    -206.758E-03
            2787         333.652         333.652         8.18434         8.18434    -914.845E-03    -914.845E-03
            2788         333.389         333.389         6.69931         6.69931        -1.52878        -1.52878
            2789         333.054         333.054         5.44087         5.44087        -2.05792        -2.05792
            2790         332.660         332.660         4.38056         4.38056        -2.51306        -2.51306
            2791         332.218         332.218         3.49227         3.49227        -2.90487        -2.90487
            2792         331.739         331.739         2.75120         2.75120        -3.24448        -3.24448
            2793         331.229         331.229         2.13445         2.13445        -3.54272        -3.54272
            2794         330.697         330.697         1.62032         1.62032        -3.81063        -3.81063
            2795         330.148         330.148         1.18851         1.18851        -4.05907        -4.05907
            2796         329.587         329.587     819.555E-03     819.555E-03        -4.29924        -4.29924
            2797         329.021         329.021     494.782E-03     494.782E-03        -4.54262        -4.54262
            2798         328.453         328.453     195.785E-03     195.785E-03        -4.80141        -4.80141
            2799         327.890         327.890    -95.8749E-03    -95.8749E-03        -5.08874        -5.08874
            2800         327.340         327.340    -399.334E-03    -399.334E-03        -5.41908        -5.41908
            2801         326.811         326.811    -735.133E-03    -735.133E-03        -5.80847        -5.80847
            2802         326.319         326.319        -1.12628        -1.12628        -6.27484        -6.27484
            2803         325.883         325.883        -1.59974        -1.59974        -6.83799        -6.83799
            2804         325.534         325.534        -2.18834        -2.18834        -7.51916        -7.51916
            2805         325.317         325.317        -2.93372        -2.93372        -8.33949        -8.33949
            2806         325.302         325.302        -3.88927        -3.88927        -9.31650        -9.31650
            2807         325.594         325.594        -5.12477        -5.12477        -10.4562        -10.4562
            2808         326.351         326.351        -6.72668        -6.72668        -11.7371        -11.7371
            2809         327.806         327.806        -8.79532        -8.79532        -13.0771        -13.0771
            2810         330.272         330.272        -11.3967        -11.3967        -14.2714        -14.2714
            2811         334.106         334.106        -14.4721        -14.4721        -14.9234        -14.9234
            2812         309.177         309.177         90.3559         90.3559         12.9008         12.9008
            2813         312.171         312.171         83.2661         83.2661         12.8286         12.8286
            2814         315.107         315.107         76.1749         76.1749         12.4473         12.4473
            2815         317.925         317.925         69.1988         69.1988         11.8873         11.8873
            2816         320.577         320.577         62.4200         62.4200         11.1623         11.1623
            2817         323.024         323.024         55.9126         55.9126         10.2983         10.2983
            2818         325.236         325.236         49.7394         49.7394         9.32378         9.32378
            2819         327.193         327.193         43.9505         43.9505         8.27456         8.27456
            2820         328.885         328.885         38.5798         38.5798         7.18466         7.18466
            2821         330.309         330.309         33.6478         33.6478         6.08727         6.08727
            2822         331.476         331.476         29.1610         29.1610         5.01135         5.01135
            2823         332.397         332.397         25.1149         25.1149         3.97983         3.97983
            2824         333.091         333.091         21.4961         21.4961         3.01107         3.01107
            2825         333.578         333.578         18.2841         18.2841         2.11622         2.11622
            2826         333.880         333.880         15.4544         15.4544         1.30288         1.30288
            2827         334.018         334.018         12.9789         12.9789     572.752E-03     572.752E-03
            2828         334.013         334.013         10.8288         10.8288    -74.6473E-03    -74.6473E-03
            2829         333.885         333.885         8.97405         8.97405    -643.621E-03    -643.621E-03
            2830         333.651         333.651         7.38567         7.38567        -1.13951        -1.13951
            2831         333.327         333.327         6.03491         6.03491        -1.56974        -1.56974
            2832         332.926         332.926         4.89472         4.89472        -1.94202        -1.94202
            2833         332.460         332.460         3.93907         3.93907        -2.26506        -2.26506
            2834         331.940         331.940         3.14373         3.14373        -2.54753        -2.54753
            2835         331.374         331.374         2.48576         2.48576        -2.79857        -2.79857
            2836         330.768         330.768         1.94387         1.94387        -3.02733        -3.02733
            2837         330.128         330.128         1.49802         1.49802        -3.24341        -3.24341
            2838         329.458         329.458         1.12950         1.12950        -3.45674        -3.45674
            2839         328.759         328.759     820.607E-03     820.607E-03        -3.67808        -3.67808
            2840         328.034         328.034     554.508E-03     554.508E-03        -3.91920        -3.91920
            2841         327.282         327.282     314.828E-03     314.828E-03        -4.19348        -4.19348
            2842         326.506         326.506     85.2571E-03     85.2571E-03        -4.51640        -4.51640
            2843         325.703         325.703    -151.137E-03    -151.137E-03        -4.90640        -4.90640
            2844         324.875         324.875    -412.900E-03    -412.900E-03        -5.38575        -5.38575
            2845         324.026         324.026    -721.601E-03    -721.601E-03        -5.98185        -5.98185
            2846         323.162         323.162        -1.10427        -1.10427        -6.72864        -6.72864
            2847         322.300         322.300        -1.59664        -1.59664        -7.66836        -7.66836
            2848         321.473         321.473        -2.24927        -2.24927        -8.85311        -8.85311
            2849         320.743         320.743        -3.13533        -3.13533        -10.3457        -10.3457
            2850         320.226         320.226        -4.36594        -4.36594        -12.2166        -12.2166
            2851         320.134         320.134        -6.10722        -6.10722        -14.5314        -14.5314
            2852         320.859         320.859        -8.61137        -8.61137        -17.2993        -17.2993
            2853         323.069         323.069        -12.1813        -12.1813        -20.3561        -20.3561
            2854         308.833         308.833         90.4548         90.4548         9.12502         9.12502
            2855         311.752         311.752         83.5593         83.5593         9.06256         9.06256
            2856         314.623         314.623         76.6655         76.6655         8.78864         8.78864
            2857         317.387         317.387         69.8786         69.8786         8.39307         8.39307
            2858         320.004         320.004         63.2691         63.2691         7.88802         7.88802
            2859         322.440         322.440         56.9025         56.9025         7.28701         7.28701
            2860         324.663         324.663         50.8360         50.8360         6.61143         6.61143
            2861         326.655         326.655         45.1159         45.1159         5.88239         5.88239
            2862         328.400         328.400         39.7776         39.7776         5.12382         5.12382
            2863         329.894         329.894         34.8437         34.8437         4.35742         4.35742
            2864         331.140         331.140         30.3259         30.3259         3.60291         3.60291
            2865         332.145         332.145         26.2256         26.2256         2.87704         2.87704
            2866         332.923         332.923         22.5353         22.5353         2.19202         2.19202
            2867         333.491         333.491         19.2407         19.2407         1.55738         1.55738
            2868         333.864         333.864         16.3223         16.3223     977.937E-03     977.937E-03
            2869         334.065         334.065         13.7569         13.7569     456.564E-03     456.564E-03
            2870         334.110         334.110         11.5186         11.5186    -7.47828E-03    -7.47828E-03
            2871         334.018         334.018         9.58068         9.58068    -416.017E-03    -416.017E-03
            2872         333.808         333.808         7.91561         7.91561    -773.180E-03    -773.180E-03
            2873         333.493         333.493         6.49646         6.49646        -1.08353        -1.08353
            2874         333.089         333.089         5.29672         5.29672        -1.35290        -1.35290
            2875         332.607         332.607         4.29126         4.29126        -1.58719        -1.58719
            2876         332.057         332.057         3.45605         3.45605        -1.79294        -1.79294
            2877         331.448         331.448         2.76868         2.76868        -1.97672        -1.97672
            2878         330.786         330.786         2.20816         2.20816        -2.14551        -2.14551
            2879         330.074         330.074         1.75513         1.75513        -2.30651        -2.30651
            2880         329.316         329.316         1.39170         1.39170        -2.46750        -2.46750
            2881         328.510         328.510         1.10149         1.10149        -2.63691        -2.63691
            2882         327.654         327.654     869.484E-03     869.484E-03        -2.82434        -2.82434
            2883         326.745         326.745     681.903E-03     681.903E-03        -3.04086        -3.04086
            2884         325.773         325.773     525.999E-03     525.999E-03        -3.29978        -3.29978
            2885         324.728         324.728     389.708E-03     389.708E-03        -3.61748        -3.61748
            2886         323.596         323.596     261.161E-03     261.161E-03        -4.01467        -4.01467
            2887         322.359         322.359     127.744E-03     127.744E-03        -4.51814        -4.51814
            2888         320.994         320.994    -25.1609E-03    -25.1609E-03        -5.16335        -5.16335
            2889         319.477         319.477    -216.878E-03    -216.878E-03        -5.99809        -5.99809
            2890         317.777         317.777    -475.090E-03    -475.090E-03        -7.08829        -7.08829
            2891         315.866         315.866    -844.153E-03    -844.153E-03        -8.52623        -8.52623
            2892         313.729         313.729        -1.39726        -1.39726        -10.4441        -10.4441
            2893         311.385         311.385        -2.26521        -2.26521        -13.0316        -13.0316
            2894         308.954         308.954        -3.69009        -3.69009        -16.5667        -16.5667
            2895         306.846         306.846        -6.13962        -6.13962        -21.4098        -21.4098
            2896         308.616         308.616         90.5214         90.5214         5.42706         5.42706
            2897         311.489         311.489         83.7489         83.7489         5.37226         5.37226
            2898         314.317         314.317         76.9800         76.9800         5.19364         5.19364
            2899         317.047         317.047         70.3124         70.3124         4.94776         4.94776
            2900         319.641         319.641         63.8104         63.8104         4.63927         4.63927
            2901         322.067         322.067         57.5339         57.5339         4.27869         4.27869
            2902         324.295         324.295         51.5362         51.5362         3.87601         3.87601
            2903         326.305         326.305         45.8622         45.8622         3.44510         3.44510
            2904         328.081         328.081         40.5465         40.5465         2.99833         2.99833
            2905         329.617         329.617         35.6140         35.6140         2.54868         2.54868
            2906         330.911         330.911         31.0788         31.0788         2.10731         2.10731
            2907         331.968         331.968         26.9458         26.9458         1.68343         1.68343
            2908         332.799         332.799         23.2114         23.2114         1.28469         1.28469
            2909         333.416         333.416         19.8649         19.8649     915.757E-03     915.757E-03
            2910         333.836         333.836         16.8903         16.8903     580.206E-03     580.206E-03
            2911         334.076         334.076         14.2671         14.2671     278.857E-03     278.857E-03
            2912         334.153         334.153         11.9722         11.9722     11.9371E-03     11.9371E-03
            2913         334.086         334.086         9.98032         9.98032    -222.328E-03    -222.328E-03
            2914         333.891         333.891         8.26567         8.26567    -425.906E-03    -425.906E-03
            2915         333.584         333.584         6.80200         6.80200    -601.984E-03    -601.984E-03
            2916         333.178         333.178         5.56374         5.56374    -753.707E-03    -753.707E-03
            2917         332.685         332.685         4.52604         4.52604    -884.880E-03    -884.880E-03
            2918         332.117         332.117         3.66535         3.66535    -999.192E-03    -999.192E-03
            2919         331.480         331.480         2.95947         2.95947        -1.10070        -1.10070
            2920         330.780         330.780         2.38785         2.38785        -1.19340        -1.19340
            2921         330.021         330.021         1.93157         1.93157        -1.28164        -1.28164
            2922         329.204         329.204         1.57347         1.57347        -1.36992        -1.36992
            2923         328.326         328.326         1.29821         1.29821        -1.46324        -1.46324
            2924         327.382         327.382         1.09224         1.09224        -1.56719        -1.56719
            2925         326.363         326.363     943.916E-03     943.916E-03        -1.68836        -1.68836
            2926         325.255         325.255     843.455E-03     843.455E-03        -1.83465        -1.83465
            2927         324.039         324.039     783.008E-03     783.008E-03        -2.01596        -2.01596
            2928         322.689         322.689     756.601E-03     756.601E-03        -2.24499        -2.24499
            2929         321.169         321.169     760.168E-03     760.168E-03        -2.53856        -2.53856
            2930         319.431         319.431     791.226E-03     791.226E-03        -2.91951        -2.91951
            2931         317.411         317.411     848.739E-03     848.739E-03        -3.41986        -3.41986
            2932         315.020         315.020     931.749E-03     931.749E-03        -4.08552        -4.08552
            2933         312.137         312.137         1.03824         1.03824        -4.98494        -4.98494
            2934         308.591         308.591         1.15957         1.15957        -6.22285        -6.22285
            2935         304.138         304.138         1.27263         1.27263        -7.96857        -7.96857
            2936         298.422         298.422         1.31568         1.31568        -10.5084        -10.5084
            2937         290.920         290.920         1.11752         1.11752        -14.3808        -14.3808
            2938         308.511         308.511         90.5538         90.5538         1.77868         1.77868
            2939         311.362         311.362         83.8395         83.8395         1.73253         1.73253
            2940         314.170         314.170         77.1295         77.1295         1.64873         1.64873
            2941         316.884         316.884         70.5180         70.5180         1.54491         1.54491
            2942         319.468         319.468         64.0660         64.0660         1.42543         1.42543
            2943         321.889         321.889         57.8309         57.8309         1.29242         1.29242
            2944         324.120         324.120         51.8646         51.8646         1.15130         1.15130
            2945         326.138         326.138         46.2110         46.2110         1.00537         1.00537
            2946         327.929         327.929         40.9050         40.9050     859.586E-03     859.586E-03
            2947         329.484         329.484         35.9721         35.9721     717.344E-03     717.344E-03
            2948         330.800         330.800         31.4278         31.4278     581.979E-03     581.979E-03
            2949         331.881         331.881         27.2786         27.2786     456.089E-03     456.089E-03
            2950         332.736         332.736         23.5227         23.5227     341.129E-03     341.129E-03
            2951         333.376         333.376         20.1514         20.1514     238.497E-03     238.497E-03
            2952         333.816         333.816         17.1500         17.1500     148.142E-03     148.142E-03
            2953         334.074         334.074         14.4997         14.4997     70.3373E-03     70.3373E-03
            2954         334.166         334.166         12.1781         12.1781     4.12289E-03     4.12289E-03
            2955         334.110         334.110         10.1612         10.1612    -51.0081E-03    -51.0081E-03
            2956         333.922         333.922         8.42345         8.42345    -96.4044E-03    -96.4044E-03
            2957         333.617         333.617         6.93929         6.93929    -132.976E-03    -132.976E-03
            2958         333.211         333.211         5.68334         5.68334    -162.116E-03    -162.116E-03
            2959         332.714         332.714         4.63095         4.63095    -184.853E-03    -184.853E-03
            2960         332.136         332.136         3.75871         3.75871    -202.453E-03    -202.453E-03
            2961         331.487         331.487         3.04450         3.04450    -215.902E-03    -215.902E-03
            2962         330.771         330.771         2.46792         2.46792    -226.285E-03    -226.285E-03
            2963         329.992         329.992         2.01019         2.01019    -234.487E-03    -234.487E-03
            2964         329.149         329.149         1.65447         1.65447    -241.432E-03    -241.432E-03
            2965         328.240         328.240         1.38578         1.38578    -247.914E-03    -247.914E-03
            2966         327.258         327.258         1.19125         1.19125    -254.755E-03    -254.755E-03
            2967         326.193         326.193         1.06006         1.06006    -262.710E-03    -262.710E-03
            2968         325.027         325.027     983.780E-03     983.780E-03    -272.586E-03    -272.586E-03
            2969         323.739         323.739     956.327E-03     956.327E-03    -285.188E-03    -285.188E-03
            2970         322.297         322.297     974.460E-03     974.460E-03    -301.439E-03    -301.439E-03
            2971         320.657         320.657         1.03783         1.03783    -322.320E-03    -322.320E-03
            2972         318.760         318.760         1.14985         1.14985    -349.085E-03    -349.085E-03
            2973         316.525         316.525         1.31777         1.31777    -383.098E-03    -383.098E-03
            2974         313.835         313.835         1.55458         1.55458    -426.341E-03    -426.341E-03
            2975         310.526         310.526         1.87870         1.87870    -480.833E-03    -480.833E-03
            2976         306.350         306.350         2.31855         2.31855    -549.809E-03    -549.809E-03
            2977         300.932         300.932         2.91138         2.91138    -635.524E-03    -635.524E-03
            2978         293.657         293.657         3.71503         3.71503    -740.005E-03    -740.005E-03
            2979         283.428         283.428         4.81167         4.81167    -841.065E-03    -841.065E-03
            2980         308.510         308.510         90.5538         90.5538        -1.84820        -1.84820
            2981         311.363         311.363         83.8369         83.8369        -1.87698        -1.87698
            2982         314.173         314.173         77.1239         77.1239        -1.86215        -1.86215
            2983         316.889         316.889         70.5086         70.5086        -1.81888        -1.81888
            2984         319.475         319.475         64.0522         64.0522        -1.74925        -1.74925
            2985         321.898         321.898         57.8123         57.8123        -1.65345        -1.65345
            2986         324.130         324.130         51.8410         51.8410        -1.53565        -1.53565
            2987         326.150         326.150         46.1825         46.1825        -1.39858        -1.39858
            2988         327.941         327.941         40.8723         40.8723        -1.24740        -1.24740
            2989         329.495         329.495         35.9358         35.9358        -1.08634        -1.08634
            2990         330.810         330.810         31.3889         31.3889    -920.126E-03    -920.126E-03
            2991         331.890         331.890         27.2380         27.2380    -753.129E-03    -753.129E-03
            2992         332.742         332.742         23.4815         23.4815    -588.756E-03    -588.756E-03
            2993         333.379         333.379         20.1104         20.1104    -430.427E-03    -430.427E-03
            2994         333.817         333.817         17.1101         17.1101    -279.984E-03    -279.984E-03
            2995         334.072         334.072         14.4614         14.4614    -139.449E-03    -139.449E-03
            2996         334.162         334.162         12.1420         12.1420    -9.30568E-03    -9.30568E-03
            2997         334.103         334.103         10.1275         10.1275     109.767E-03     109.767E-03
            2998         333.913         333.913         8.39232         8.39232     218.280E-03     218.280E-03
            2999         333.608         333.608         6.91073         6.91073     316.592E-03     316.592E-03
            3000         333.201         333.201         5.65716         5.65716     405.880E-03     405.880E-03
            3001         332.704         332.704         4.60688         4.60688     487.241E-03     487.241E-03
            3002         332.129         332.129         3.73629         3.73629     562.320E-03     562.320E-03
            3003         331.482         331.482         3.02320         3.02320     632.785E-03     632.785E-03
            3004         330.771         330.771         2.44697         2.44697     700.735E-03     700.735E-03
            3005         329.997         329.997         1.98873         1.98873     768.441E-03     768.441E-03
            3006         329.162         329.162         1.63134         1.63134     838.659E-03     838.659E-03
            3007         328.263         328.263         1.35959         1.35959     914.569E-03     914.569E-03
            3008         327.295         327.295         1.16018         1.16018         1.00010         1.00010
            3009         326.247         326.247         1.02181         1.02181         1.10006         1.10006
            3010         325.104         325.104     935.264E-03     935.264E-03         1.22063         1.22063
            3011         323.846         323.846     893.487E-03     893.487E-03         1.36976         1.36976
            3012         322.444         322.444     891.668E-03     891.668E-03         1.55813         1.55813
            3013         320.858         320.858     927.380E-03     927.380E-03         1.80011         1.80011
            3014         319.037         319.037         1.00057         1.00057         2.11596         2.11596
            3015         316.907         316.907         1.11364         1.11364         2.53427         2.53427
            3016         314.369         314.369         1.27099         1.27099         3.09763         3.09763
            3017         311.284         311.284         1.47821         1.47821         3.86972         3.86972
            3018         307.455         307.455         1.73910         1.73910         4.95244         4.95244
            3019         302.594         302.594         2.04886         2.04886         6.51175         6.51175
            3020         296.271         296.271         2.37403         2.37403         8.84364         8.84364
            3021         287.871         287.871         2.57694         2.57694         12.5129         12.5129
            3022         308.615         308.615         90.5225         90.5225        -5.48637        -5.48637
            3023         311.493         311.493         83.7438         83.7438        -5.49445        -5.49445
            3024         314.326         314.326         76.9669         76.9669        -5.37410        -5.37410
            3025         317.061         317.061         70.2894         70.2894        -5.17920        -5.17920
            3026         319.661         319.661         63.7757         63.7757        -4.91234        -4.91234
            3027         322.091         322.091         57.4863         57.4863        -4.58248        -4.58248
            3028         324.324         324.324         51.4754         51.4754        -4.19850        -4.19850
            3029         326.336         326.336         45.7888         45.7888        -3.77394        -3.77394
            3030         328.113         328.113         40.4620         40.4620        -3.32141        -3.32141
            3031         329.647         329.647         35.5202         35.5202        -2.85475        -2.85475
            3032         330.939         330.939         30.9782         30.9782        -2.38638        -2.38638
            3033         331.991         331.991         26.8409         26.8409        -1.92713        -1.92713
            3034         332.816         332.816         23.1047         23.1047        -1.48634        -1.48634
            3035         333.426         333.426         19.7589         19.7589        -1.07040        -1.07040
            3036         333.838         333.838         16.7870         16.7870    -684.510E-03    -684.510E-03
            3037         334.071         334.071         14.1682         14.1682    -330.906E-03    -330.906E-03
            3038         334.141         334.141         11.8788         11.8788    -11.0278E-03    -11.0278E-03
            3039         334.068         334.068         9.89330         9.89330     275.972E-03     275.972E-03
            3040         333.869         333.869         8.18532         8.18532     531.366E-03     531.366E-03
            3041         333.558         333.558         6.72829         6.72829     757.931E-03     757.931E-03
            3042         333.152         333.152         5.49624         5.49624     958.631E-03     958.631E-03
            3043         332.661         332.661         4.46399         4.46399         1.13734         1.13734
            3044         332.096         332.096         3.60765         3.60765         1.29803         1.29803
            3045         331.467         331.467         2.90468         2.90468         1.44529         1.44529
            3046         330.778         330.778         2.33413         2.33413         1.58390         1.58390
            3047         330.034         330.034         1.87664         1.87664         1.71922         1.71922
            3048         329.237         329.237         1.51452         1.51452         1.85712         1.85712
            3049         328.385         328.385         1.23167         1.23167         2.00436         2.00436
            3050         327.475         327.475         1.01365         1.01365         2.16875         2.16875
            3051         326.500         326.500     847.484E-03     847.484E-03         2.35974         2.35974
            3052         325.449         325.449     721.655E-03     721.655E-03         2.58895         2.58895
            3053         324.309         324.309     625.821E-03     625.821E-03         2.87113         2.87113
            3054         323.059         323.059     550.495E-03     550.495E-03         3.22531         3.22531
            3055         321.674         321.674     486.469E-03     486.469E-03         3.67686         3.67686
            3056         320.121         320.121     423.708E-03     423.708E-03         4.25995         4.25995
            3057         318.358         318.358     349.624E-03     349.624E-03         5.02225         5.02225
            3058         316.334         316.334     245.408E-03     245.408E-03         6.03079         6.03079
            3059         313.987         313.987     80.1845E-03     80.1845E-03         7.38361         7.38361
            3060         311.250         311.250    -202.471E-03    -202.471E-03         9.22482         9.22482
            3061         308.065         308.065    -708.737E-03    -708.737E-03         11.7753         11.7753
            3062         304.436         304.436        -1.65605        -1.65605         15.3736         15.3736
            3063         300.592         300.592        -3.48971        -3.48971         20.5091         20.5091
            3064         308.833         308.833         90.4573         90.4573        -9.17077        -9.17077
            3065         311.758         311.758         83.5546         83.5546        -9.15559        -9.15559
            3066         314.635         314.635         76.6502         76.6502        -8.92544        -8.92544
            3067         317.406         317.406         69.8501         69.8501        -8.56792        -8.56792
            3068         320.031         320.031         63.2252         63.2252        -8.09354        -8.09354
            3069         322.473         322.473         56.8418         56.8418        -7.51449        -7.51449
            3070         324.701         324.701         50.7581         50.7581        -6.85147        -6.85147
            3071         326.695         326.695         45.0218         45.0218        -6.12540        -6.12540
            3072         328.441         328.441         39.6692         39.6692        -5.36061        -5.36061
            3073         329.934         329.934         34.7236         34.7236        -4.57963        -4.57963
            3074         331.175         331.175         30.1974         30.1974        -3.80336        -3.80336
            3075         332.174         332.174         26.0919         26.0919        -3.04985        -3.04985
            3076         332.944         332.944         22.3998         22.3998        -2.33272        -2.33272
            3077         333.501         333.501         19.1064         19.1064        -1.66280        -1.66280
            3078         333.865         333.865         16.1918         16.1918        -1.04611        -1.04611
            3079         334.056         334.056         13.6321         13.6321    -486.566E-03    -486.566E-03
            3080         334.092         334.092         11.4011         11.4011     15.7481E-03     15.7481E-03
            3081         333.993         333.993         9.47141         9.47141     462.004E-03     462.004E-03
            3082         333.777         333.777         7.81495         7.81495     855.900E-03     855.900E-03
            3083         333.458         333.458         6.40432         6.40432         1.20172         1.20172
            3084         333.053         333.053         5.21257         5.21257         1.50519         1.50519
            3085         332.573         332.573         4.21414         4.21414         1.77227         1.77227
            3086         332.029         332.029         3.38461         3.38461         2.00968         2.00968
            3087         331.429         331.429         2.70115         2.70115         2.22430         2.22430
            3088         330.780         330.780         2.14233         2.14233         2.42358         2.42358
            3089         330.086         330.086         1.68828         1.68828         2.61531         2.61531
            3090         329.352         329.352         1.32047         1.32047         2.80801         2.80801
            3091         328.578         328.578         1.02172         1.02172         3.01106         3.01106
            3092         327.764         327.764     775.949E-03     775.949E-03         3.23515         3.23515
            3093         326.907         326.907     567.987E-03     567.987E-03         3.49273         3.49273
            3094         326.003         326.003     383.169E-03     383.169E-03         3.79878         3.79878
            3095         325.047         325.047     206.816E-03     206.816E-03         4.17162         4.17162
            3096         324.032         324.032     23.4213E-03     23.4213E-03         4.63429         4.63429
            3097         322.950         322.950    -184.740E-03    -184.740E-03         5.21609         5.21609
            3098         321.794         321.794    -439.551E-03    -439.551E-03         5.95517         5.95517
            3099         320.562         320.562    -770.850E-03    -770.850E-03         6.90135         6.90135
            3100         319.258         319.258        -1.22154        -1.22154         8.12090         8.12090
            3101         317.912         317.912        -1.85853        -1.85853         9.70095         9.70095
            3102         316.590         316.590        -2.78718        -2.78718         11.7561         11.7561
            3103         315.450         315.450        -4.18402        -4.18402         14.4266         14.4266
            3104         314.827         314.827        -6.33798        -6.33798         17.8568         17.8568
            3105         315.379         315.379        -9.68857        -9.68857         22.1040         22.1040
            3106         309.177         309.177         90.3587         90.3587        -12.9326        -12.9326
            3107         312.177         312.177         83.2618         83.2618        -12.8923        -12.8923
            3108         315.119         315.119         76.1604         76.1604        -12.5398        -12.5398
            3109         317.943         317.943         69.1716         69.1716        -12.0049        -12.0049
            3110         320.602         320.602         62.3779         62.3779        -11.2997        -11.2997
            3111         323.055         323.055         55.8545         55.8545        -10.4492        -10.4492
            3112         325.272         325.272         49.6651         49.6651        -9.48153        -9.48153
            3113         327.231         327.231         43.8610         43.8610        -8.43251        -8.43251
            3114         328.922         328.922         38.4772         38.4772        -7.33660        -7.33660
            3115         330.344         330.344         33.5348         33.5348        -6.22780        -6.22780
            3116         331.506         331.506         29.0407         29.0407        -5.13599        -5.13599
            3117         332.420         332.420         24.9906         24.9906        -4.08512        -4.08512
            3118         333.106         333.106         21.3707         21.3707        -3.09455        -3.09455
            3119         333.584         333.584         18.1604         18.1604        -2.17632        -2.17632
            3120         333.876         333.876         15.3348         15.3348        -1.33882        -1.33882
            3121         334.005         334.005         12.8652         12.8652    -584.361E-03    -584.361E-03
            3122         333.992         333.992         10.7222         10.7222     87.0277E-03     87.0277E-03
            3123         333.857         333.857         8.87532         8.87532     679.317E-03     679.317E-03
            3124         333.618         333.618         7.29513         7.29513         1.19759         1.19759
            3125         333.290         333.290         5.95242         5.95242         1.64916         1.64916
            3126         332.888         332.888         4.81976         4.81976         2.04168         2.04168
            3127         332.424         332.424         3.87077         3.87077         2.38391         2.38391
            3128         331.909         331.909         3.08089         3.08089         2.68460         2.68460
            3129         331.351         331.351         2.42684         2.42684         2.95304         2.95304
            3130         330.757         330.757         1.88698         1.88698         3.19860         3.19860
            3131         330.133         330.133         1.44084         1.44084         3.43109         3.43109
            3132         329.483         329.483         1.06924         1.06924         3.66073         3.66073
            3133         328.812         328.812     753.862E-03     753.862E-03         3.89857         3.89857
            3134         328.122         328.122     477.080E-03     477.080E-03         4.15668         4.15668
            3135         327.415         327.415     221.492E-03     221.492E-03         4.44874         4.44874
            3136         326.695         326.695    -30.5687E-03    -30.5687E-03         4.79042         4.79042
            3137         325.965         325.965    -297.818E-03    -297.818E-03         5.20020         5.20020
            3138         325.232         325.232    -601.177E-03    -601.177E-03         5.70001         5.70001
            3139         324.504         324.504    -965.311E-03    -965.311E-03         6.31623         6.31623
            3140         323.801         323.801        -1.42137        -1.42137         7.08040         7.08040
            3141         323.152         323.152        -2.01020        -2.01020         8.02999         8.02999
            3142         322.610         322.610        -2.78880        -2.78880         9.20758         9.20758
            3143         322.265         322.265        -3.83664        -3.83664         10.6581         10.6581
            3144         322.266         322.266        -5.26918        -5.26918         12.4184         12.4184
            3145         322.864         322.864        -7.24282        -7.24282         14.4909         14.4909
            3146         324.460         324.460        -9.95746        -9.95746         16.7789         16.7789
            3147         327.647         327.647        -13.5846        -13.5846         18.9863         18.9863
            3148         309.678         309.678         90.2242         90.2242        -16.8086        -16.8086
            3149         312.776         312.776         82.8542         82.8542        -16.7357        -16.7357
            3150         315.810         315.810         75.4742         75.4742        -16.2460        -16.2460
            3151         318.701         318.701         68.2226         68.2226        -15.5047        -15.5047
            3152         321.400         321.400         61.1969         61.1969        -14.5378        -14.5378
            3153         323.859         323.859         54.4849         54.4849        -13.3770        -13.3770
            3154         326.047         326.047         48.1600         48.1600        -12.0700        -12.0700
            3155         327.946         327.946         42.2744         42.2744        -10.6650        -10.6650
            3156         329.549         329.549         36.8627         36.8627        -9.21284        -9.21284
            3157         330.866         330.866         31.9387         31.9387        -7.75918        -7.75918
            3158         331.909         331.909         27.5019         27.5019        -6.34248        -6.34248
            3159         332.703         332.703         23.5384         23.5384        -4.99423        -4.99423
            3160         333.270         333.270         20.0253         20.0253        -3.73531        -3.73531
            3161         333.640         333.640         16.9342         16.9342        -2.58086        -2.58086
            3162         333.836         333.836         14.2323         14.2323        -1.53681        -1.53681
            3163         333.886         333.886         11.8863         11.8863    -605.540E-03    -605.540E-03
            3164         333.810         333.810         9.86150         9.86150     216.725E-03     216.725E-03
            3165         333.631         333.631         8.12536         8.12536     935.455E-03     935.455E-03
            3166         333.364         333.364         6.64550         6.64550         1.55947         1.55947
            3167         333.027         333.027         5.39211         5.39211         2.09808         2.09808
            3168         332.633         332.633         4.33651         4.33651         2.56209         2.56209
            3169         332.192         332.192         3.45239         3.45239         2.96216         2.96216
            3170         331.716         331.716         2.71476         2.71476         3.30948         3.30948
            3171         331.211         331.211         2.10056         2.10056         3.61492         3.61492
            3172         330.686         330.686         1.58787         1.58787         3.88956         3.88956
            3173         330.146         330.146         1.15619         1.15619         4.14432         4.14432
            3174         329.598         329.598     785.794E-03     785.794E-03         4.39042         4.39042
            3175         329.047         329.047     457.700E-03     457.700E-03         4.63935         4.63935
            3176         328.499         328.499     153.105E-03     153.105E-03         4.90325         4.90325
            3177         327.961         327.961    -146.925E-03    -146.925E-03         5.19512         5.19512
            3178         327.442         327.442    -462.147E-03    -462.147E-03         5.52912         5.52912
            3179         326.954         326.954    -813.888E-03    -813.888E-03         5.92075         5.92075
            3180         326.512         326.512        -1.22607        -1.22607         6.38701         6.38701
            3181         326.140         326.140        -1.72680        -1.72680         6.94603         6.94603
            3182         325.873         325.873        -2.34996        -2.34996         7.61632         7.61632
            3183         325.760         325.760        -3.13819        -3.13819         8.41443         8.41443
            3184         325.877         325.877        -4.14466        -4.14466         9.35035         9.35035
            3185         326.335         326.335        -5.43687        -5.43687         10.4181         10.4181
            3186         327.291         327.291        -7.09212        -7.09212         11.5775         11.5775
            3187         328.968         328.968        -9.18918        -9.18918         12.7223         12.7223
            3188         331.639         331.639        -11.7522        -11.7522         13.6285         13.6285
            3189         335.591         335.591        -14.6667        -14.6667         13.8957         13.8957
            3190         341.121         341.121        -12.1276        -12.1276        -5.28696        -5.28696
            3191         338.176         338.176        -11.1057        -11.1057        -6.81567        -6.81567
            3192         335.587         335.587        -9.70826        -9.70826        -7.68862        -7.68862
            3193         333.465         333.465        -8.21407        -8.21407        -8.05410        -8.05410
            3194         331.819         331.819        -6.79413        -6.79413        -8.08528        -8.08528
            3195         330.600         330.600        -5.52665        -5.52665        -7.91905        -7.91905
            3196         329.740         329.740        -4.43584        -4.43584        -7.65336        -7.65336
            3197         329.169         329.169        -3.51575        -3.51575        -7.34913        -7.34913
            3198         328.825         328.825        -2.74844        -2.74844        -7.04190        -7.04190
            3199         328.658         328.658        -2.11069        -2.11069        -6.74980        -6.74980
            3200         328.629         328.629        -1.57866        -1.57866        -6.48007        -6.48007
            3201         328.705         328.705        -1.12905        -1.12905        -6.23315        -6.23315
            3202         328.864         328.864    -739.832E-03    -739.832E-03        -6.00538        -6.00538
            3203         329.085         329.085    -390.172E-03    -390.172E-03        -5.79062        -5.79062
            3204         329.355         329.355    -60.2046E-03    -60.2046E-03        -5.58122        -5.58122
            3205         329.663         329.663     269.167E-03     269.167E-03        -5.36852        -5.36852
            3206         329.998         329.998     616.823E-03     616.823E-03        -5.14314        -5.14314
            3207         330.354         330.354         1.00145         1.00145        -4.89498        -4.89498
            3208         330.724         330.724         1.44231         1.44231        -4.61325        -4.61325
            3209         331.102         331.102         1.95900         1.95900        -4.28644        -4.28644
            3210         331.482         331.482         2.57260         2.57260        -3.90214        -3.90214
            3211         331.858         331.858         3.30496         3.30496        -3.44722        -3.44722
            3212         332.222         332.222         4.18048         4.18048        -2.90751        -2.90751
            3213         332.566         332.566         5.22468         5.22468        -2.26840        -2.26840
            3214         332.880         332.880         6.46697         6.46697        -1.51435        -1.51435
            3215         333.150         333.150         7.93802         7.93802    -630.371E-03    -630.371E-03
            3216         333.362         333.362         9.67397         9.67397     398.970E-03     398.970E-03
            3217         333.495         333.495         11.7119         11.7119         1.58621         1.58621
            3218         333.527         333.527         14.0960         14.0960         2.94325         2.94325
            3219         333.427         333.427         16.8698         16.8698         4.47450         4.47450
            3220         333.165         333.165         20.0840         20.0840         6.18181         6.18181
            3221         332.698         332.698         23.7860         23.7860         8.05223         8.05223
            3222         331.989         331.989         28.0248         28.0248         10.0671         10.0671
            3223         330.990         330.990         32.8411         32.8411         12.1854         12.1854
            3224         329.668         329.668         38.2625         38.2625         14.3563         14.3563
            3225         327.982         327.982         44.3000         44.3000         16.5067         16.5067
            3226         325.927         325.927         50.9299         50.9299         18.5517         18.5517
            3227         323.498         323.498         58.1028         58.1028         20.4032         20.4032
            3228         320.732         320.732         65.7233         65.7233         21.9659         21.9659
            3229         317.683         317.683         73.6687         73.6687         23.1764         23.1764
            3230         314.422         314.422         81.7888         81.7888         23.9748         23.9748
            3231         311.067         311.067         89.8832         89.8832         24.1232         24.1232
            3232         341.167         341.167        -10.2022        -10.2022        -2.58314        -2.58314
            3233         338.878         338.878        -9.80177        -9.80177        -4.28880        -4.28880
            3234         336.728         336.728        -8.94251        -8.94251        -5.48372        -5.48372
            3235         334.826         334.826        -7.85051        -7.85051        -6.24439        -6.24439
            3236         333.235         333.235        -6.69972        -6.69972        -6.66722        -6.66722
            3237         331.962         331.962        -5.59627        -5.59627        -6.85381        -6.85381
            3238         330.982         330.982        -4.59482        -4.59482        -6.88643        -6.88643
            3239         330.258         330.258        -3.71650        -3.71650        -6.82667        -6.82667
            3240         329.748         329.748        -2.96212        -2.96212        -6.71561        -6.71561
            3241         329.414         329.414        -2.32205        -2.32205        -6.57931        -6.57931
            3242         329.222         329.222        -1.78103        -1.78103        -6.43250        -6.43250
            3243         329.145         329.145        -1.32153        -1.32153        -6.28232        -6.28232
            3244         329.159         329.159    -925.123E-03    -925.123E-03        -6.13061        -6.13061
            3245         329.246         329.246    -573.346E-03    -573.346E-03        -5.97571        -5.97571
            3246         329.391         329.391    -247.997E-03    -247.997E-03        -5.81344        -5.81344
            3247         329.584         329.584     68.9320E-03     68.9320E-03        -5.63782        -5.63782
            3248         329.815         329.815     395.169E-03     395.169E-03        -5.44145        -5.44145
            3249         330.077         330.077     748.670E-03     748.670E-03        -5.21565        -5.21565
            3250         330.364         330.364         1.14746         1.14746        -4.95053        -4.95053
            3251         330.670         330.670         1.61050         1.61050        -4.63499        -4.63499
            3252         330.992         330.992         2.15730         2.15730        -4.25670        -4.25670
            3253         331.324         331.324         2.80931         2.80931        -3.80197        -3.80197
            3254         331.661         331.661         3.58897         3.58897        -3.25590        -3.25590
            3255         331.997         331.997         4.52208         4.52208        -2.60218        -2.60218
            3256         332.324         332.324         5.63581         5.63581        -1.82372        -1.82372
            3257         332.632         332.632         6.96270         6.96270    -902.122E-03    -902.122E-03
            3258         332.907         332.907         8.53676         8.53676     180.317E-03     180.317E-03
            3259         333.133         333.133         10.4000         10.4000         1.44216         1.44216
            3260         333.286         333.286         12.5954         12.5954         2.89775         2.89775
            3261         333.339         333.339         15.1768         15.1768         4.56116         4.56116
            3262         333.254         333.254         18.1971         18.1971         6.43514         6.43514
            3263         332.993         332.993         21.7203         21.7203         8.51990         8.51990
            3264         332.499         332.499         25.8058         25.8058         10.7926         10.7926
            3265         331.726         331.726         30.5149         30.5149         13.2237         13.2237
            3266         330.605         330.605         35.8970         35.8970         15.7492         15.7492
            3267         329.101         329.101         41.9779         41.9779         18.2918         18.2918
            3268         327.163         327.163         48.7590         48.7590         20.7458         20.7458
            3269         324.798         324.798         56.1847         56.1847         22.9893         22.9893
            3270         322.018         322.018         64.1636         64.1636         24.9115         24.9115
            3271         318.887         318.887         72.5408         72.5408         26.3949         26.3949
            3272         315.505         315.505         81.1297         81.1297         27.3858         27.3858
            3273         311.978         311.978         89.6928         89.6928         27.5782         27.5782
            3274         340.496         340.496        -8.27566        -8.27566    -606.333E-03    -606.333E-03
            3275         338.812         338.812        -8.33372        -8.33372        -2.30048        -2.30048
            3276         337.105         337.105        -7.89243        -7.89243        -3.62488        -3.62488
            3277         335.500         335.500        -7.15803        -7.15803        -4.60616        -4.60616
            3278         334.069         334.069        -6.28151        -6.28151        -5.29242        -5.29242
            3279         332.851         332.851        -5.37382        -5.37382        -5.74421        -5.74421
            3280         331.850         331.850        -4.50386        -4.50386        -6.02236        -6.02236
            3281         331.056         331.056        -3.70941        -3.70941        -6.17744        -6.17744
            3282         330.445         330.445        -3.00641        -3.00641        -6.24866        -6.24866
            3283         329.994         329.994        -2.39673        -2.39673        -6.26365        -6.26365
            3284         329.676         329.676        -1.87387        -1.87387        -6.24094        -6.24094
            3285         329.470         329.470        -1.42643        -1.42643        -6.19178        -6.19178
            3286         329.357         329.357        -1.04039        -1.04039        -6.12215        -6.12215
            3287         329.319         329.319    -700.423E-03    -700.423E-03        -6.03400        -6.03400
            3288         329.344         329.344    -390.603E-03    -390.603E-03        -5.92631        -5.92631
            3289         329.423         329.423    -94.8456E-03    -94.8456E-03        -5.79567        -5.79567
            3290         329.545         329.545     203.166E-03     203.166E-03        -5.63678        -5.63678
            3291         329.706         329.706     519.751E-03     519.751E-03        -5.44255        -5.44255
            3292         329.901         329.901     871.804E-03     871.804E-03        -5.20429        -5.20429
            3293         330.125         330.125         1.27648         1.27648        -4.91163        -4.91163
            3294         330.377         330.377         1.75231         1.75231        -4.55258        -4.55258
            3295         330.653         330.653         2.31851         2.31851        -4.11338        -4.11338
            3296         330.950         330.950         2.99694         2.99694        -3.57849        -3.57849
            3297         331.265         331.265         3.81061         3.81061        -2.93067        -2.93067
            3298         331.594         331.594         4.78714         4.78714        -2.15072        -2.15072
            3299         331.930         331.930         5.95571         5.95571        -1.21836        -1.21836
            3300         332.262         332.262         7.35308         7.35308    -111.294E-03    -111.294E-03
            3301         332.578         332.578         9.01768         9.01768         1.19184         1.19184
            3302         332.858         332.858         10.9998         10.9998         2.71409         2.71409
            3303         333.075         333.075         13.3507         13.3507         4.47250         4.47250
            3304         333.196         333.196         16.1384         16.1384         6.48481         6.48481
            3305         333.171         333.171         19.4292         19.4292         8.75155         8.75155
            3306         332.950         332.950         23.3076         23.3076         11.2715         11.2715
            3307         332.455         332.455         27.8505         27.8505         14.0066         14.0066
            3308         331.624         331.624         33.1368         33.1368         16.9110         16.9110
            3309         330.361         330.361         39.2271         39.2271         19.8851         19.8851
            3310         328.631         328.631         46.1370         46.1370         22.8104         22.8104
            3311         326.371         326.371         53.8457         53.8457         25.5356         25.5356
            3312         323.616         323.616         62.2366         62.2366         27.8868         27.8868
            3313         320.414         320.414         71.1433         71.1433         29.7370         29.7370
            3314         316.872         316.872         80.3229         80.3229         30.9528         30.9528
            3315         313.173         313.173         89.4594         89.4594         31.2238         31.2238
            3316         339.433         339.433        -6.51443        -6.51443     747.164E-03     747.164E-03
            3317         338.261         338.261        -6.85631        -6.85631    -802.944E-03    -802.944E-03
            3318         336.968         336.968        -6.72167        -6.72167        -2.12913        -2.12913
            3319         335.669         335.669        -6.27224        -6.27224        -3.20567        -3.20567
            3320         334.445         334.445        -5.64144        -5.64144        -4.04538        -4.04538
            3321         333.344         333.344        -4.92920        -4.92920        -4.67762        -4.67762
            3322         332.389         332.389        -4.20741        -4.20741        -5.13938        -5.13938
            3323         331.586         331.586        -3.52119        -3.52119        -5.46754        -5.46754
            3324         330.927         330.927        -2.89568        -2.89568        -5.69376        -5.69376
            3325         330.400         330.400        -2.34137        -2.34137        -5.84343        -5.84343
            3326         329.990         329.990        -1.85886        -1.85886        -5.93530        -5.93530
            3327         329.679         329.679        -1.44242        -1.44242        -5.98254        -5.98254
            3328         329.453         329.453        -1.08241        -1.08241        -5.99356        -5.99356
            3329         329.301         329.301    -766.881E-03    -766.881E-03        -5.97301        -5.97301
            3330         329.210         329.210    -482.643E-03    -482.643E-03        -5.92239        -5.92239
            3331         329.172         329.172    -215.760E-03    -215.760E-03        -5.84063        -5.84063
            3332         329.182         329.182     47.9881E-03     47.9881E-03        -5.72439        -5.72439
            3333         329.235         329.235     323.287E-03     323.287E-03        -5.56829        -5.56829
            3334         329.327         329.327     624.977E-03     624.977E-03        -5.36494        -5.36494
            3335         329.457         329.457     968.779E-03     968.779E-03        -5.10502        -5.10502
            3336         329.624         329.624         1.37083         1.37083        -4.77714        -4.77714
            3337         329.828         329.828         1.84911         1.84911        -4.36785        -4.36785
            3338         330.068         330.068         2.42247         2.42247        -3.86146        -3.86146
            3339         330.346         330.346         3.11321         3.11321        -3.23995        -3.23995
            3340         330.659         330.659         3.94505         3.94505        -2.48303        -2.48303
            3341         331.006         331.006         4.94789         4.94789        -1.56780        -1.56780
            3342         331.381         331.381         6.15342         6.15342    -469.634E-03    -469.634E-03
            3343         331.777         331.777         7.60413         7.60413     838.928E-03     838.928E-03
            3344         332.179         332.179         9.34412         9.34412         2.38456         2.38456
            3345         332.566         332.566         11.4355         11.4355         4.19693         4.19693
            3346         332.907         332.907         13.9407         13.9407         6.29752         6.29752
            3347         333.157         333.157         16.9492         16.9492         8.71049         8.71049
            3348         333.253         333.253         20.5466         20.5466         11.4337         11.4337
            3349         333.123         333.123         24.8490         24.8490         14.4653         14.4653
            3350         332.656         332.656         29.9604         29.9604         17.7431         17.7431
            3351         331.768         331.768         35.9837         35.9837         21.1952         21.1952
            3352         330.322         330.322         42.9929         42.9929         24.6647         24.6647
            3353         328.287         328.287         50.9723         50.9723         27.9648         27.9648
            3354         325.600         325.600         59.8494         59.8494         30.8842         30.8842
            3355         322.346         322.346         69.3945         69.3945         33.1791         33.1791
            3356         318.656         318.656         79.3106         79.3106         34.7296         34.7296
            3357         314.697         314.697         89.1943         89.1943         35.0862         35.0862
            3358         338.219         338.219        -5.00007        -5.00007         1.62014         1.62014
            3359         337.443         337.443        -5.47531        -5.47531     269.505E-03     269.505E-03
            3360         336.504         336.504        -5.53632        -5.53632    -973.981E-03    -973.981E-03
            3361         335.495         335.495        -5.29861        -5.29861        -2.05863        -2.05863
            3362         334.488         334.488        -4.86816        -4.86816        -2.96715        -2.96715
            3363         333.534         333.534        -4.33245        -4.33245        -3.70544        -3.70544
            3364         332.663         332.663        -3.75707        -3.75707        -4.29071        -4.29071
            3365         331.891         331.891        -3.18828        -3.18828        -4.74537        -4.74537
            3366         331.222         331.222        -2.65489        -2.65489        -5.09223        -5.09223
            3367         330.652         330.652        -2.17241        -2.17241        -5.35167        -5.35167
            3368         330.174         330.174        -1.74642        -1.74642        -5.54065        -5.54065
            3369         329.778         329.778        -1.37565        -1.37565        -5.67227        -5.67227
            3370         329.454         329.454        -1.05426        -1.05426        -5.75608        -5.75608
            3371         329.193         329.193    -773.555E-03    -773.555E-03        -5.79836        -5.79836
            3372         328.988         328.988    -523.031E-03    -523.031E-03        -5.80253        -5.80253
            3373         328.834         328.834    -291.249E-03    -291.249E-03        -5.76942        -5.76942
            3374         328.726         328.726    -66.0621E-03    -66.0621E-03        -5.69751        -5.69751
            3375         328.661         328.661     164.949E-03     164.949E-03        -5.58301        -5.58301
            3376         328.638         328.638     414.816E-03     414.816E-03        -5.42001        -5.42001
            3377         328.659         328.659     696.807E-03     696.807E-03        -5.20033        -5.20033
            3378         328.724         328.724         1.02537         1.02537        -4.91357        -4.91357
            3379         328.836         328.836         1.41548         1.41548        -4.54687        -4.54687
            3380         328.998         328.998         1.88450         1.88450        -4.08490        -4.08490
            3381         329.215         329.215         2.45080         2.45080        -3.50948        -3.50948
            3382         329.488         329.488         3.13728         3.13728        -2.79958        -2.79958
            3383         329.822         329.822         3.96837         3.96837        -1.93099        -1.93099
            3384         330.217         330.217         4.97688         4.97688    -876.084E-03    -876.084E-03
            3385         330.671         330.671         6.19748         6.19748     395.558E-03     395.558E-03
            3386         331.179         331.179         7.68020         7.68020         1.91851         1.91851
            3387         331.728         331.728         9.47638         9.47638         3.72727         3.72727
            3388         332.293         332.293         11.6648         11.6648         5.86160         5.86160
            3389         332.837         332.837         14.3229         14.3229         8.35052         8.35052
            3390         333.304         333.304         17.5729         17.5729         11.2299         11.2299
            3391         333.605         333.605         21.5287         21.5287         14.4944         14.4944
            3392         333.638         333.638         26.3577         26.3577         18.1452         18.1452
            3393         333.231         333.231         32.2070         32.2070         22.0779         22.0779
            3394         332.276         332.276         39.2100         39.2100         26.1759         26.1759
            3395         330.563         330.563         47.4538         47.4538         30.1867         30.1867
            3396         328.092         328.092         56.8388         56.8388         33.8058         33.8058
            3397         324.833         324.833         67.1752         67.1752         36.7544         36.7544
            3398         320.953         320.953         78.0325         78.0325         38.7057         38.7057
            3399         316.764         316.764         88.8525         88.8525         39.2448         39.2448
            3400         336.992         336.992        -3.74303        -3.74303         2.14222         2.14222
            3401         336.514         336.514        -4.24428        -4.24428     999.804E-03     999.804E-03
            3402         335.866         335.866        -4.40767        -4.40767    -119.996E-03    -119.996E-03
            3403         335.113         335.113        -4.31114        -4.31114        -1.15425        -1.15425
            3404         334.313         334.313        -4.03382        -4.03382        -2.06948        -2.06948
            3405         333.514         333.514        -3.64595        -3.64595        -2.85328        -2.85328
            3406         332.745         332.745        -3.20442        -3.20442        -3.50783        -3.50783
            3407         332.028         332.028        -2.75121        -2.75121        -4.04317        -4.04317
            3408         331.372         331.372        -2.31505        -2.31505        -4.47325        -4.47325
            3409         330.781         330.781        -1.91309        -1.91309        -4.81291        -4.81291
            3410         330.253         330.253        -1.55366        -1.55366        -5.07599        -5.07599
            3411         329.785         329.785        -1.23845        -1.23845        -5.27446        -5.27446
            3412         329.371         329.371    -964.585E-03    -964.585E-03        -5.41788        -5.41788
            3413         329.007         329.007    -726.075E-03    -726.075E-03        -5.51342        -5.51342
            3414         328.689         328.689    -515.036E-03    -515.036E-03        -5.56573        -5.56573
            3415         328.413         328.413    -322.327E-03    -322.327E-03        -5.57716        -5.57716
            3416         328.178         328.178    -138.184E-03    -138.184E-03        -5.54769        -5.54769
            3417         327.985         327.985     47.7604E-03     47.7604E-03        -5.47510        -5.47510
            3418         327.834         327.834     246.089E-03     246.089E-03        -5.35485        -5.35485
            3419         327.728         327.728     468.111E-03     468.111E-03        -5.18017        -5.18017
            3420         327.671         327.671     725.425E-03     725.425E-03        -4.94175        -4.94175
            3421         327.668         327.668         1.03110         1.03110        -4.62789        -4.62789
            3422         327.726         327.726         1.39882         1.39882        -4.22391        -4.22391
            3423         327.852         327.852         1.84523         1.84523        -3.71233        -3.71233
            3424         328.055         328.055         2.38810         2.38810        -3.07199        -3.07199
            3425         328.341         328.341         3.05093         3.05093        -2.27834        -2.27834
            3426         328.721         328.721         3.85883         3.85883        -1.30226        -1.30226
            3427         329.200         329.200         4.84806         4.84806    -110.338E-03    -110.338E-03
            3428         329.782         329.782         6.05655         6.05655         1.33581         1.33581
            3429         330.464         330.464         7.54406         7.54406         3.08039         3.08039
            3430         331.239         331.239         9.37063         9.37063         5.16983         5.16983
            3431         332.079         332.079         11.6385         11.6385         7.65933         7.65933
            3432         332.942         332.942         14.4450         14.4450         10.5915         10.5915
            3433         333.751         333.751         17.9634         17.9634         14.0236         14.0236
            3434         334.382         334.382         22.3498         22.3498         17.9480         17.9480
            3435         334.685         334.685         27.8596         27.8596         22.3778         22.3778
            3436         334.374         334.374         34.7141         34.7141         27.1295         27.1295
            3437         333.312         333.312         43.0774         43.0774         32.0005         32.0005
            3438         331.180         331.180         53.0335         53.0335         36.5762         36.5762
            3439         328.062         328.062         64.2757         64.2757         40.3440         40.3440
            3440         324.055         324.055         76.3495         76.3495         42.9865         42.9865
            3441         319.461         319.461         88.4542         88.4542         43.7204         43.7204
            3442         335.826         335.826        -2.72159        -2.72159         2.40878         2.40878
            3443         335.576         335.576        -3.17892        -3.17892         1.45997         1.45997
            3444         335.164         335.164        -3.37582        -3.37582     478.954E-03     478.954E-03
            3445         334.632         334.632        -3.36186        -3.36186    -470.805E-03    -470.805E-03
            3446         334.023         334.023        -3.19312        -3.19312        -1.34776        -1.34776
            3447         333.373         333.373        -2.92301        -2.92301        -2.12914        -2.12914
            3448         332.712         332.712        -2.59705        -2.59705        -2.80596        -2.80596
            3449         332.060         332.060        -2.25090        -2.25090        -3.37897        -3.37897
            3450         331.430         331.430        -1.90999        -1.90999        -3.85467        -3.85467
            3451         330.829         330.829        -1.59082        -1.59082        -4.24263        -4.24263
            3452         330.261         330.261        -1.30237        -1.30237        -4.55341        -4.55341
            3453         329.728         329.728        -1.04792        -1.04792        -4.79721        -4.79721
            3454         329.227         329.227    -826.505E-03    -826.505E-03        -4.98306        -4.98306
            3455         328.760         328.760    -634.341E-03    -634.341E-03        -5.11830        -5.11830
            3456         328.324         328.324    -465.690E-03    -465.690E-03        -5.20839        -5.20839
            3457         327.920         327.920    -313.692E-03    -313.692E-03        -5.25669        -5.25669
            3458         327.550         327.550    -170.682E-03    -170.682E-03        -5.26448        -5.26448
            3459         327.215         327.215    -28.6470E-03    -28.6470E-03        -5.23082        -5.23082
            3460         326.919         326.919     120.938E-03     120.938E-03        -5.15264        -5.15264
            3461         326.666         326.666     286.766E-03     286.766E-03        -5.02445        -5.02445
            3462         326.464         326.464     478.353E-03     478.353E-03        -4.83851        -4.83851
            3463         326.319         326.319     705.542E-03     705.542E-03        -4.58427        -4.58427
            3464         326.242         326.242     979.893E-03     979.893E-03        -4.24867        -4.24867
            3465         326.244         326.244         1.31366         1.31366        -3.81505        -3.81505
            3466         326.337         326.337         1.72257         1.72257        -3.26377        -3.26377
            3467         326.535         326.535         2.22354         2.22354        -2.57030        -2.57030
            3468         326.852         326.852         2.84050         2.84050        -1.70632        -1.70632
            3469         327.306         327.306         3.59895         3.59895    -636.692E-03    -636.692E-03
            3470         327.909         327.909         4.53877         4.53877     678.905E-03     678.905E-03
            3471         328.676         328.676         5.70114         5.70114         2.28965         2.28965
            3472         329.613         329.613         7.15759         7.15759         4.25262         4.25262
            3473         330.719         330.719         8.97797         8.97797         6.63265         6.63265
            3474         331.970         331.970         11.2970         11.2970         9.50864         9.50864
            3475         333.320         333.320         14.2377         14.2377         12.9484         12.9484
            3476         334.667         334.667         18.0551         18.0551         17.0490         17.0490
            3477         335.832         335.832         22.9688         22.9688         21.8060         21.8060
            3478         336.576         336.576         29.3990         29.3990         27.2694         27.2694
            3479         336.389         336.389         37.7068         37.7068         33.0918         33.0918
            3480         335.118         335.118         48.0504         48.0504         38.8806         38.8806
            3481         332.294         332.294         60.4347         60.4347         43.9564         43.9564
            3482         328.203         328.203         74.0648         74.0648         47.4466         47.4466
            3483         323.346         323.346         87.8633         87.8633         48.6988         48.6988
            3484         334.761         334.761        -1.90183        -1.90183         2.47961         2.47961
            3485         334.698         334.698        -2.27602        -2.27602         1.70199         1.70199
            3486         334.485         334.485        -2.46036        -2.46036     861.312E-03     861.312E-03
            3487         334.145         334.145        -2.48524        -2.48524     16.2760E-03     16.2760E-03
            3488         333.708         333.708        -2.38834        -2.38834    -790.261E-03    -790.261E-03
            3489         333.198         333.198        -2.20789        -2.20789        -1.53032        -1.53032
            3490         332.640         332.640        -1.97809        -1.97809        -2.18865        -2.18865
            3491         332.053         332.053        -1.72670        -1.72670        -2.75952        -2.75952
            3492         331.451         331.451        -1.47446        -1.47446        -3.24405        -3.24405
            3493         330.843         330.843        -1.23530        -1.23530        -3.64755        -3.64755
            3494         330.237         330.237        -1.01747        -1.01747        -3.97764        -3.97764
            3495         329.638         329.638    -824.537E-03    -824.537E-03        -4.24271        -4.24271
            3496         329.049         329.049    -656.682E-03    -656.682E-03        -4.45089        -4.45089
            3497         328.474         328.474    -511.603E-03    -511.603E-03        -4.60935        -4.60935
            3498         327.914         327.914    -385.406E-03    -385.406E-03        -4.72383        -4.72383
            3499         327.373         327.373    -273.110E-03    -273.110E-03        -4.79839        -4.79839
            3500         326.854         326.854    -169.165E-03    -169.165E-03        -4.83519        -4.83519
            3501         326.362         326.362    -67.5410E-03    -67.5410E-03        -4.83448        -4.83448
            3502         325.902         325.902     37.9552E-03     37.9552E-03        -4.79435        -4.79435
            3503         325.481         325.481     153.968E-03     153.968E-03        -4.71087        -4.71087
            3504         325.108         325.108     287.287E-03     287.287E-03        -4.57764        -4.57764
            3505         324.793         324.793     445.576E-03     445.576E-03        -4.38605        -4.38605
            3506         324.547         324.547     636.866E-03     636.866E-03        -4.12445        -4.12445
            3507         324.384         324.384     871.029E-03     871.029E-03        -3.77863        -3.77863
            3508         324.322         324.322         1.15870         1.15870        -3.33016        -3.33016
            3509         324.379         324.379         1.51430         1.51430        -2.75749        -2.75749
            3510         324.576         324.576         1.95354         1.95354        -2.03271        -2.03271
            3511         324.938         324.938         2.50006         2.50006        -1.12380        -1.12380
            3512         325.492         325.492         3.17922         3.17922     11.3312E-03     11.3312E-03
            3513         326.264         326.264         4.03381         4.03381         1.42064         1.42064
            3514         327.286         327.286         5.10756         5.10756         3.16774         3.16774
            3515         328.576         328.576         6.48480         6.48480         5.32597         5.32597
            3516         330.157         330.157         8.24529         8.24529         7.98889         7.98889
            3517         332.011         332.011         10.5673         10.5673         11.2706         11.2706
            3518         334.109         334.109         13.6041         13.6041         15.2875         15.2875
            3519         336.309         336.309         17.7462         17.7462         20.2108         20.2108
            3520         338.366         338.366         23.3060         23.3060         26.0616         26.0616
            3521         339.858         339.858         31.0502         31.0502         33.0000         33.0000
            3522         339.773         339.773         41.6298         41.6298         40.2986         40.2986
            3523         338.036         338.036         55.0040         55.0040         47.0866         47.0866
            3524         334.096         334.096         70.7953         70.7953         52.3196         52.3196
            3525         328.618         328.618         87.0929         87.0929         54.1126         54.1126
            3526         333.820         333.820        -1.25109        -1.25109         2.38182         2.38182
            3527         333.928         333.928        -1.52540        -1.52540         1.75501         1.75501
            3528         333.896         333.896        -1.67106        -1.67106         1.05294         1.05294
            3529         333.732         333.732        -1.70564        -1.70564     326.841E-03     326.841E-03
            3530         333.451         333.451        -1.65310        -1.65310    -383.131E-03    -383.131E-03
            3531         333.069         333.069        -1.53891        -1.53891        -1.04846        -1.04846
            3532         332.606         332.606        -1.38673        -1.38673        -1.65125        -1.65125
            3533         332.076         332.076        -1.21640        -1.21640        -2.18251        -2.18251
            3534         331.495         331.495        -1.04308        -1.04308        -2.63997        -2.63997
            3535         330.875         330.875    -877.342E-03    -877.342E-03        -3.02608        -3.02608
            3536         330.225         330.225    -725.618E-03    -725.618E-03        -3.34614        -3.34614
            3537         329.554         329.554    -591.043E-03    -591.043E-03        -3.60695        -3.60695
            3538         328.869         328.869    -474.155E-03    -474.155E-03        -3.81561        -3.81561
            3539         328.176         328.176    -373.693E-03    -373.693E-03        -3.97877        -3.97877
            3540         327.482         327.482    -287.116E-03    -287.116E-03        -4.10212        -4.10212
            3541         326.790         326.790    -211.131E-03    -211.131E-03        -4.18997        -4.18997
            3542         326.108         326.108    -141.909E-03    -141.909E-03        -4.24510        -4.24510
            3543         325.442         325.442    -75.3997E-03    -75.3997E-03        -4.26850        -4.26850
            3544         324.799         324.799    -7.26793E-03    -7.26793E-03        -4.25945        -4.25945
            3545         324.187         324.187     66.8853E-03     66.8853E-03        -4.21519        -4.21519
            3546         323.617         323.617     151.859E-03     151.859E-03        -4.13113        -4.13113
            3547         323.098         323.098     252.599E-03     252.599E-03        -4.00022        -4.00022
            3548         322.646         322.646     374.885E-03     374.885E-03        -3.81342        -3.81342
            3549         322.277         322.277     524.913E-03     524.913E-03        -3.55839        -3.55839
            3550         322.009         322.009     710.609E-03     710.609E-03        -3.22048        -3.22048
            3551         321.866         321.866     940.791E-03     940.791E-03        -2.78004        -2.78004
            3552         321.874         321.874         1.22787         1.22787        -2.21453        -2.21453
            3553         322.065         322.065         1.58589         1.58589        -1.49310        -1.49310
            3554         322.475         322.475         2.03674         2.03674    -581.084E-03    -581.084E-03
            3555         323.149         323.149         2.60474         2.60474     571.052E-03     571.052E-03
            3556         324.131         324.131         3.33308         3.33308         2.01824         2.01824
            3557         325.480         325.480         4.26671         4.26671         3.84255         3.84255
            3558         327.244         327.244         5.50040         5.50040         6.13548         6.13548
            3559         329.489         329.489         7.12221         7.12221         9.03470         9.03470
            3560         332.224         332.224         9.36301         9.36301         12.7028         12.7028
            3561         335.479         335.479         12.4078         12.4078         17.3514         17.3514
            3562         339.075         339.075         16.8696         16.8696         23.2859         23.2859
            3563         342.719         342.719         23.1872         23.1872         30.6381         30.6381
            3564         345.588         345.588         32.9493         32.9493         39.8951         39.8951
            3565         345.397         345.397         47.4560         47.4560         49.3529         49.3529
            3566         342.544         342.544         65.6522         65.6522         56.8159         56.8159
            3567         337.072         337.072         85.6307         85.6307         60.5509         60.5509
            3568         333.025         333.025    -744.289E-03    -744.289E-03         2.11414         2.11414
            3569         333.314         333.314    -919.343E-03    -919.343E-03         1.62584         1.62584
            3570         333.464         333.464        -1.01626        -1.01626         1.06497         1.06497
            3571         333.468         333.468        -1.04446        -1.04446     473.591E-03     473.591E-03
            3572         333.333         333.333        -1.01774        -1.01774    -113.923E-03    -113.923E-03
            3573         333.067         333.067    -951.485E-03    -951.485E-03    -671.852E-03    -671.852E-03
            3574         332.685         332.685    -860.295E-03    -860.295E-03        -1.18306        -1.18306
            3575         332.199         332.199    -756.649E-03    -756.649E-03        -1.63790        -1.63790
            3576         331.626         331.626    -650.287E-03    -650.287E-03        -2.03282        -2.03282
            3577         330.980         330.980    -548.078E-03    -548.078E-03        -2.36864        -2.36864
            3578         330.272         330.272    -454.350E-03    -454.350E-03        -2.64911        -2.64911
            3579         329.516         329.516    -371.263E-03    -371.263E-03        -2.87963        -2.87963
            3580         328.721         328.721    -299.358E-03    -299.358E-03        -3.06618        -3.06618
            3581         327.898         327.898    -237.951E-03    -237.951E-03        -3.21463        -3.21463
            3582         327.053         327.053    -185.583E-03    -185.583E-03        -3.33013        -3.33013
            3583         326.197         326.197    -140.236E-03    -140.236E-03        -3.41686        -3.41686
            3584         325.335         325.335    -99.6311E-03    -99.6311E-03        -3.47770        -3.47770
            3585         324.477         324.477    -61.2532E-03    -61.2532E-03        -3.51418        -3.51418
            3586         323.630         323.630    -22.5437E-03    -22.5437E-03        -3.52627        -3.52627
            3587         322.803         322.803     19.2359E-03     19.2359E-03        -3.51251        -3.51251
            3588         322.007         322.007     66.8552E-03     66.8552E-03        -3.46961        -3.46961
            3589         321.254         321.254     123.399E-03     123.399E-03        -3.39278        -3.39278
            3590         320.559         320.559     192.132E-03     192.132E-03        -3.27494        -3.27494
            3591         319.937         319.937     276.942E-03     276.942E-03        -3.10734        -3.10734
            3592         319.410         319.410     382.258E-03     382.258E-03        -2.87791        -2.87791
            3593         319.003         319.003     513.702E-03     513.702E-03        -2.57265        -2.57265
            3594         318.746         318.746     678.179E-03     678.179E-03        -2.17199        -2.17199
            3595         318.674         318.674     884.984E-03     884.984E-03        -1.65410        -1.65410
            3596         318.833         318.833         1.14614         1.14614    -986.734E-03    -986.734E-03
            3597         319.274         319.274         1.47912         1.47912    -135.120E-03    -135.120E-03
            3598         320.066         320.066         1.90656         1.90656     956.542E-03     956.542E-03
            3599         321.281         321.281         2.46615         2.46615         2.34654         2.34654
            3600         323.021         323.021         3.20295         3.20295         4.13781         4.13781
            3601         325.384         325.384         4.21128         4.21128         6.43615         6.43615
            3602         328.524         328.524         5.58548         5.58548         9.44299         9.44299
            3603         332.526         332.526         7.60214         7.60214         13.3745         13.3745
            3604         337.588         337.588         10.4730         10.4730         18.6278         18.6278
            3605         343.549         343.549         15.1529         15.1529         25.7247         25.7247
            3606         350.288         350.288         22.2105         22.2105         35.2097         35.2097
            3607         356.036         356.036         35.4246         35.4246         48.5283         48.5283
            3608         355.064         355.064         57.4729         57.4729         61.3085         61.3085
            3609         349.423         349.423         83.0983         83.0983         67.0488         67.0488
            3610         332.408         332.408    -368.892E-03    -368.892E-03         1.64903         1.64903
            3611         332.910         332.910    -459.244E-03    -459.244E-03         1.30056         1.30056
            3612         333.257         333.257    -510.404E-03    -510.404E-03     894.403E-03     894.403E-03
            3613         333.435         333.435    -526.558E-03    -526.558E-03     461.630E-03     461.630E-03
            3614         333.440         333.440    -514.516E-03    -514.516E-03     28.1844E-03     28.1844E-03
            3615         333.277         333.277    -481.971E-03    -481.971E-03    -386.040E-03    -386.040E-03
            3616         332.957         332.957    -436.362E-03    -436.362E-03    -767.426E-03    -767.426E-03
            3617         332.496         332.496    -384.126E-03    -384.126E-03        -1.10805        -1.10805
            3618         331.909         331.909    -330.307E-03    -330.307E-03        -1.40467        -1.40467
            3619         331.214         331.214    -278.526E-03    -278.526E-03        -1.65756        -1.65756
            3620         330.427         330.427    -231.053E-03    -231.053E-03        -1.86938        -1.86938
            3621         329.565         329.565    -189.076E-03    -189.076E-03        -2.04415        -2.04415
            3622         328.641         328.641    -152.897E-03    -152.897E-03        -2.18650        -2.18650
            3623         327.668         327.668    -122.222E-03    -122.222E-03        -2.30104        -2.30104
            3624         326.657         326.657    -96.3051E-03    -96.3051E-03        -2.39193        -2.39193
            3625         325.618         325.618    -74.1692E-03    -74.1692E-03        -2.46259        -2.46259
            3626         324.559         324.559    -54.6388E-03    -54.6388E-03        -2.51556        -2.51556
            3627         323.490         323.490    -36.5005E-03    -36.5005E-03        -2.55233        -2.55233
            3628         322.418         322.418    -18.4371E-03    -18.4371E-03        -2.57340        -2.57340
            3629         321.354         321.354     849.360E-06     849.360E-06        -2.57802        -2.57802
            3630         320.307         320.307     22.7696E-03     22.7696E-03        -2.56445        -2.56445
            3631         319.288         319.288     48.7738E-03     48.7738E-03        -2.52951        -2.52951
            3632         318.312         318.312     80.4745E-03     80.4745E-03        -2.46894        -2.46894
            3633         317.394         317.394     119.748E-03     119.748E-03        -2.37657        -2.37657
            3634         316.555         316.555     168.651E-03     168.651E-03        -2.24509        -2.24509
            3635         315.819         315.819     230.087E-03     230.087E-03        -2.06411        -2.06411
            3636         315.217         315.217     306.993E-03     306.993E-03        -1.82203        -1.82203
            3637         314.786         314.786     404.587E-03     404.587E-03        -1.50152        -1.50152
            3638         314.573         314.573     527.593E-03     527.593E-03        -1.08425        -1.08425
            3639         314.637         314.637     686.384E-03     686.384E-03    -539.997E-03    -539.997E-03
            3640         315.050         315.050     889.847E-03     889.847E-03     161.296E-03     161.296E-03
            3641         315.908         315.908         1.15993         1.15993         1.07677         1.07677
            3642         317.325         317.325         1.51761         1.51761         2.25896         2.25896
            3643         319.464         319.464         2.01109         2.01109         3.82718         3.82718
            3644         322.511         322.511         2.70525         2.70525         5.88337         5.88337
            3645         326.764         326.764         3.70857         3.70857         8.70577         8.70577
            3646         332.502         332.502         5.27996         5.27996         12.5311         12.5311
            3647         340.322         340.322         7.67021         7.67021         18.0849         18.0849
            3648         350.384         350.384         12.2075         12.2075         26.1203         26.1203
            3649         363.719         363.719         19.5476         19.5476         38.5797         38.5797
            3650         376.687         376.687         39.7034         39.7034         59.4128         59.4128
            3651         374.266         374.266         76.6529         76.6529         76.5984         76.5984
            3652         332.018         332.018    -129.299E-03    -129.299E-03     939.056E-03     939.056E-03
            3653         332.788         332.788    -161.679E-03    -161.679E-03     750.338E-03     750.338E-03
            3654         333.365         333.365    -180.186E-03    -180.186E-03     529.006E-03     529.006E-03
            3655         333.728         333.728    -186.209E-03    -186.209E-03     292.305E-03     292.305E-03
            3656         333.868         333.868    -182.144E-03    -182.144E-03     54.7121E-03     54.7121E-03
            3657         333.791         333.791    -170.705E-03    -170.705E-03    -172.640E-03    -172.640E-03
            3658         333.509         333.509    -154.568E-03    -154.568E-03    -382.073E-03    -382.073E-03
            3659         333.040         333.040    -136.027E-03    -136.027E-03    -569.100E-03    -569.100E-03
            3660         332.407         332.407    -116.918E-03    -116.918E-03    -731.892E-03    -731.892E-03
            3661         331.632         331.632    -98.5308E-03    -98.5308E-03    -870.603E-03    -870.603E-03
            3662         330.736         330.736    -81.7062E-03    -81.7062E-03    -986.762E-03    -986.762E-03
            3663         329.741         329.741    -66.8576E-03    -66.8576E-03        -1.08269        -1.08269
            3664         328.663         328.663    -54.1184E-03    -54.1184E-03        -1.16104        -1.16104
            3665         327.518         327.518    -43.3654E-03    -43.3654E-03        -1.22449        -1.22449
            3666         326.320         326.320    -34.3626E-03    -34.3626E-03        -1.27545        -1.27545
            3667         325.079         325.079    -26.7341E-03    -26.7341E-03        -1.31596        -1.31596
            3668         323.805         323.805    -20.1045E-03    -20.1045E-03        -1.34754        -1.34754
            3669         322.507         322.507    -14.0055E-03    -14.0055E-03        -1.37121        -1.37121
            3670         321.193         321.193    -8.02851E-03    -8.02851E-03        -1.38734        -1.38734
            3671         319.870         319.870    -1.67336E-03    -1.67336E-03        -1.39580        -1.39580
            3672         318.548         318.548     5.49618E-03     5.49618E-03        -1.39576        -1.39576
            3673         317.236         317.236     14.0050E-03     14.0050E-03        -1.38585        -1.38585
            3674         315.945         315.945     24.4074E-03     24.4074E-03        -1.36387        -1.36387
            3675         314.690         314.690     37.2486E-03     37.2486E-03        -1.32709        -1.32709
            3676         313.489         313.489     53.4520E-03     53.4520E-03        -1.27150        -1.27150
            3677         312.363         312.363     73.5024E-03     73.5024E-03        -1.19263        -1.19263
            3678         311.340         311.340     99.3145E-03     99.3145E-03        -1.08373        -1.08373
            3679         310.454         310.454     130.983E-03     130.983E-03    -937.758E-03    -937.758E-03
            3680         309.750         309.750     172.969E-03     172.969E-03    -743.022E-03    -743.022E-03
            3681         309.284         309.284     223.991E-03     223.991E-03    -488.371E-03    -488.371E-03
            3682         309.128         309.128     294.982E-03     294.982E-03    -151.846E-03    -151.846E-03
            3683         309.375         309.375     380.804E-03     380.804E-03     284.737E-03     284.737E-03
            3684         310.148         310.148     508.892E-03     508.892E-03     867.663E-03     867.663E-03
            3685         311.614         311.614     665.221E-03     665.221E-03         1.62783         1.62783
            3686         314.002         314.002     919.791E-03     919.791E-03         2.67741         2.67741
            3687         317.629         317.629         1.24647         1.24647         4.07277         4.07277
            3688         322.996         322.996         1.82777         1.82777         6.13454         6.13454
            3689         330.763         330.763         2.68978         2.68978         8.98908         8.98908
            3690         342.319         342.319         4.33128         4.33128         13.7766         13.7766
            3691         359.115         359.115         7.77365         7.77365         21.0280         21.0280
            3692         386.915         386.915         14.6785         14.6785         36.6394         36.6394
            3693         422.175         422.175         52.0555         52.0555         67.3542         67.3542
            3694         19.1666         19.1666        -148.376        -148.376        -17.9350        -17.9350
            3695         69.6410         69.6410        -60.8079        -60.8079        -47.6003        -47.6003
            3696         135.553         135.553        -19.0986        -19.0986        -51.9548        -51.9548
            3697         197.534         197.534        -3.26119        -3.26119        -43.0153        -43.0153
            3698         245.974         245.974         1.06363         1.06363        -30.4890        -30.4890
            3699         61.1633         61.1633        -110.076        -110.076        -41.3546        -41.3546
            3700         135.193         135.193        -60.9231        -60.9231        -83.3143        -83.3143
            3701         201.194         201.194        -35.8888        -35.8888        -82.9938        -82.9938
            3702         250.347         250.347        -22.3110        -22.3110        -64.6057        -64.6057
            3703         283.098         283.098        -14.1180        -14.1180        -43.9234        -43.9234
            3704         131.286         131.286        -63.7242        -63.7242        -68.8215        -68.8215
            3705         223.373         223.373        -61.4994        -61.4994        -97.8260        -97.8260
            3706         277.557         277.557        -51.4109        -51.4109        -85.0667        -85.0667
            3707         305.599         305.599        -37.7430        -37.7430        -60.9429        -60.9429
            3708         319.137         319.137        -25.3806        -25.3806        -39.1283        -39.1283
            3709         223.795         223.795        -22.6196        -22.6196        -92.0905        -92.0905
            3710         310.286         310.286        -59.3622        -59.3622        -88.7071        -88.7071
            3711         339.548         339.548        -56.7223        -56.7223        -65.5916        -65.5916
            3712         344.769         344.769        -42.2934        -42.2934        -42.8448        -42.8448
            3713         342.195         342.195        -28.0432        -28.0432        -25.7731        -25.7731
            3714         369.057         369.057         41.7224         41.7224         15.0620         15.0620
            3715         399.291         399.291         64.3244         64.3244         17.7884         17.7884
            3716         453.597         453.597         87.7350         87.7350         13.0819         13.0819
            3717         548.352         548.352         100.190         100.190        -8.70865        -8.70865
            3718         703.480         703.480         82.5213         82.5213        -58.6946        -58.6946
            3719         373.364         373.364         15.5067         15.5067         18.1165         18.1165
            3720         401.586         401.586         28.3189         28.3189         21.7076         21.7076
            3721         446.119         446.119         46.6427         46.6427         15.2191         15.2191
            3722         516.186         516.186         67.4797         67.4797        -17.8464        -17.8464
            3723         625.871         625.871         80.4428         80.4428        -100.535        -100.535
            3724         372.244         372.244        -8.12894        -8.12894         9.83966         9.83966
            3725         397.259         397.259        -7.15202        -7.15202         10.8592         10.8592
            3726         431.450         431.450     657.437E-03     657.437E-03         3.37008         3.37008
            3727         473.587         473.587         23.3044         23.3044        -29.5247        -29.5247
            3728         522.934         522.934         68.0552         68.0552        -118.832        -118.832
            3729         364.592         364.592        -20.8581        -20.8581        -1.93091        -1.93091
            3730         384.546         384.546        -29.0755        -29.0755        -6.14941        -6.14941
            3731         408.774         408.774        -33.3383        -33.3383        -17.1593        -17.1593
            3732         427.483         427.483        -19.2112        -19.2112        -45.8355        -45.8355
            3733         417.586         417.586         42.1703         42.1703        -118.026        -118.026
            3734         239.270         239.270        -16.3568        -16.3568         95.5669         95.5669
            3735         323.558         323.558        -58.8269        -58.8269         86.3223         86.3223
            3736         348.415         348.415        -57.0499        -57.0499         61.8099         61.8099
            3737         350.058         350.058        -42.5015        -42.5015         39.5577         39.5577
            3738         345.156         345.156        -28.0696        -28.0696         23.4248         23.4248
            3739         158.834         158.834        -48.9207        -48.9207         77.5968         77.5968
            3740         253.281         253.281        -61.5879        -61.5879         98.3172         98.3172
            3741         301.034         301.034        -55.0927        -55.0927         81.3505         81.3505
            3742         321.451         321.451        -41.0736        -41.0736         56.4788         56.4788
            3743         328.953         328.953        -27.6186        -27.6186         35.4320         35.4320
            3744         91.6516         91.6516        -87.6093        -87.6093         54.7141         54.7141
            3745         176.981         176.981        -61.5515        -61.5515         94.4176         94.4176
            3746         239.523         239.523        -44.7483        -44.7483         88.7276         88.7276
            3747         279.291         279.291        -31.5323        -31.5323         66.5326         66.5326
            3748         302.562         302.562        -21.0907        -21.0907         44.0425         44.0425
            3749         42.9778         42.9778        -126.136        -126.136         32.4780         32.4780
            3750         108.465         108.465        -61.2405        -61.2405         74.0026         74.0026
            3751         175.407         175.407        -29.8436        -29.8436         76.9243         76.9243
            3752         230.256         230.256        -15.6260        -15.6260         61.6782         61.6782
            3753         269.311         269.311        -8.94231        -8.94231         42.7721         42.7721
            3754         14.3870         14.3870        -155.254        -155.254         14.3892         14.3892
            3755         61.1186         61.1186        -61.5495        -61.5495         40.5579         40.5579
            3756         126.067         126.067        -16.8316        -16.8316         45.0015         45.0015
            3757         189.230         189.230    -155.468E-03    -155.468E-03         37.7361         37.7361
            3758         239.789         239.789         3.75552         3.75552         27.0292         27.0292
            3759         364.996         364.996        -21.4288        -21.4288         2.70271         2.70271
            3760         384.917         384.917        -29.5651        -29.5651         6.73294         6.73294
            3761         409.111         409.111        -33.7384        -33.7384         17.5937         17.5937
            3762         427.865         427.865        -19.5239        -19.5239         46.1698         46.1698
            3763         418.075         418.075         41.9636         41.9636         118.312         118.312
            3764         372.545         372.545        -8.56223        -8.56223        -9.10827        -9.10827
            3765         397.538         397.538        -7.50067        -7.50067        -10.3001        -10.3001
            3766         431.712         431.712     414.350E-03     414.350E-03        -2.95183        -2.95183
            3767         473.890         473.890         23.1787         23.1787         29.8256         29.8256
            3768         523.402         523.402         68.0929         68.0929         119.103         119.103
            3769         373.557         373.557         15.2292         15.2292        -17.4108        -17.4108
            3770         401.761         401.761         28.1223         28.1223        -21.1453        -21.1453
            3771         446.278         446.278         46.5493         46.5493        -14.7794        -14.7794
            3772         516.381         516.381         67.5131         67.5131         18.1926         18.1926
            3773         626.254         626.254         80.5591         80.5591         100.826         100.826
            3774         369.148         369.148         41.5931         41.5931        -14.3597        -14.3597
            3775         399.368         399.368         64.2470         64.2470        -17.2015        -17.2015
            3776         453.662         453.662         87.7293         87.7293        -12.5858        -12.5858
            3777         548.446         548.446         100.253         100.253         9.12690         9.12690
            3778         703.700         703.700         82.6032         82.6032         58.9937         58.9937
            3779         400.867         400.867         37.7222         37.7222        -117.311        -117.311
            3780         420.147         420.147        -25.7233        -25.7233        -48.8744        -48.8744
            3781         405.049         405.049        -38.3072        -38.3072        -21.0580        -21.0580
            3782         382.499         382.499        -32.2787        -32.2787        -9.54360        -9.54360
            3783         363.507         363.507        -22.8998        -22.8998        -4.61366        -4.61366
            3784         487.682         487.682         61.8549         61.8549        -121.404        -121.404
            3785         458.879         458.879         8.42183         8.42183        -34.5171        -34.5171
            3786         425.394         425.394        -13.1654        -13.1654        -2.90989        -2.90989
            3787         394.576         394.576        -17.1353        -17.1353         5.07139         5.07139
            3788         370.957         370.957        -14.5959        -14.5959         5.27745         5.27745
            3789         577.360         577.360         76.6599         76.6599        -113.971        -113.971
            3790         496.320         496.320         46.5656         46.5656        -23.5352        -23.5352
            3791         440.331         440.331         23.0203         23.0203         10.9631         10.9631
            3792         401.145         401.145         8.93456         8.93456         17.7170         17.7170
            3793         374.326         374.326         1.90734         1.90734         14.6475         14.6475
            3794         658.060         658.060         82.1889         82.1889        -90.5627        -90.5627
            3795         529.583         529.583         80.8892         80.8892        -15.2328        -15.2328
            3796         449.832         449.832         62.4965         62.4965         16.0365         16.0365
            3797         401.637         401.637         41.5677         41.5677         22.3876         22.3876
            3798         372.614         372.614         24.7275         24.7275         18.5799         18.5799
            3799         715.192         715.192         82.0943         82.0943        -50.6776        -50.6776
            3800         553.468         553.468         104.229         104.229        -7.80157        -7.80157
            3801         454.874         454.874         93.5581         93.5581         11.2153         11.2153
            3802         398.847         398.847         69.8539         69.8539         15.4530         15.4530
            3803         368.213         368.213         45.9601         45.9601         13.0360         13.0360
            3804         364.530         364.530        -20.9246        -20.9246         1.99719         1.99719
            3805         384.457         384.457        -29.1715        -29.1715         6.24934         6.24934
            3806         408.645         408.645        -33.4533        -33.4533         17.2905         17.2905
            3807         427.340         427.340        -19.3625        -19.3625         45.9718         45.9718
            3808         417.447         417.447         41.9220         41.9220         118.062         118.062
            3809         372.211         372.211        -8.22893        -8.22893        -9.77488        -9.77488
            3810         397.203         397.203        -7.27505        -7.27505        -10.7593        -10.7593
            3811         431.351         431.351     527.527E-03     527.527E-03        -3.23776        -3.23776
            3812         473.417         473.417         23.1672         23.1672         29.6345         29.6345
            3813         522.694         522.694         67.9651         67.9651         118.842         118.842
            3814         373.366         373.366         15.3783         15.3783        -18.0570        -18.0570
            3815         401.560         401.560         28.1858         28.1858        -21.6025        -21.6025
            3816         446.038         446.038         46.5174         46.5174        -15.0909        -15.0909
            3817         515.996         515.996         67.3861         67.3861         17.9737         17.9737
            3818         625.502         625.502         80.3787         80.3787         100.596         100.596
            3819         369.099         369.099         41.5792         41.5792        -15.0290        -15.0290
            3820         399.311         399.311         64.1696         64.1696        -17.7051        -17.7051
            3821         453.534         453.534         87.6277         87.6277        -12.9468        -12.9468
            3822         548.159         548.159         100.183         100.183         8.84500         8.84500
            3823         703.001         703.001         82.5763         82.5763         58.7472         58.7472
            3824         239.707         239.707        -16.5677        -16.5677         95.7618         95.7618
            3825         324.101         324.101        -59.2434        -59.2434         86.5693         86.5693
            3826         348.983         348.983        -57.5538        -57.5538         62.1395         62.1395
            3827         350.665         350.665        -43.0924        -43.0924         40.0214         40.0214
            3828         345.823         345.823        -28.7784        -28.7784         24.0860         24.0860
            3829         159.147         159.147        -49.2769        -49.2769         77.7558         77.7558
            3830         253.761         253.761        -62.0755        -62.0755         98.5789         98.5789
            3831         301.591         301.591        -55.6501        -55.6501         81.6733         81.6733
            3832         322.083         322.083        -41.7098        -41.7098         56.8906         56.8906
            3833         329.687         329.687        -28.3753        -28.3753         35.9950         35.9950
            3834         91.8405         91.8405        -88.1262        -88.1262         54.8262         54.8262
            3835         177.347         177.347        -62.0951        -62.0951         94.6727         94.6727
            3836         240.018         240.018        -45.3340        -45.3340         89.0342         89.0342
            3837         279.910         279.910        -32.1946        -32.1946         66.8901         66.8901
            3838         303.333         303.333        -21.8807        -21.8807         44.5003         44.5003
            3839         43.0606         43.0606        -126.812        -126.812         32.5485         32.5485
            3840         108.699         108.699        -61.8245        -61.8245         74.2152         74.2152
            3841         175.803         175.803        -30.4323        -30.4323         77.1821         77.1821
            3842         230.824         230.824        -16.2899        -16.2899         61.9605         61.9605
            3843         270.084         270.084        -9.74534        -9.74534         43.1088         43.1088
            3844         14.3980         14.3980        -156.053        -156.053         14.4297         14.4297
            3845         61.2404         61.2404        -62.1596        -62.1596         40.6922         40.6922
            3846         126.365         126.365        -17.4096        -17.4096         45.1642         45.1642
            3847         189.736         189.736    -805.210E-03    -805.210E-03         37.9061         37.9061
            3848         240.542         240.542         2.95579         2.95579         27.2183         27.2183
            3849         342.849         342.849        -28.7485        -28.7485        -26.4142        -26.4142
            3850         345.333         345.333        -42.8688        -42.8688        -43.2992        -43.2992
            3851         340.024         340.024        -57.1972        -57.1972        -65.9109        -65.9109
            3852         310.695         310.695        -59.7693        -59.7693        -88.8987        -88.8987
            3853         224.112         224.112        -22.9202        -22.9202        -92.1687        -92.1687
            3854         319.860         319.860        -26.1378        -26.1378        -39.6424        -39.6424
            3855         306.175         306.175        -38.3678        -38.3678        -61.3218        -61.3218
            3856         278.013         278.013        -51.9579        -51.9579        -85.3526        -85.3526
            3857         223.722         223.722        -62.0166        -62.0166        -98.0303        -98.0303
            3858         131.470         131.470        -64.2184        -64.2184        -68.8861        -68.8861
            3859         283.840         283.840        -14.9005        -14.9005        -44.2913        -44.2913
            3860         250.888         250.888        -22.9542        -22.9542        -64.8893        -64.8893
            3861         201.568         201.568        -36.4619        -36.4619        -83.2270        -83.2270
            3862         135.410         135.410        -61.5000        -61.5000        -83.4864        -83.4864
            3863         61.2306         61.2306        -110.748        -110.748        -41.3794        -41.3794
            3864         246.710         246.710     274.961E-03     274.961E-03        -30.6780        -30.6780
            3865         198.022         198.022        -3.90048        -3.90048        -43.1641        -43.1641
            3866         135.833         135.833        -19.6693        -19.6693        -52.0790        -52.0790
            3867         69.7460         69.7460        -61.4176        -61.4176        -47.6864        -47.6864
            3868         19.1641         19.1641        -149.181        -149.181        -17.9302        -17.9302


  Minimum               -5.40555        -5.40555        -233.821        -233.821        -183.746        -183.746
         At Node              28              28              28              28             590             590

  Maximum                839.867         839.867         112.298         112.298         182.686         182.686
         At Node              27              27             585             585             574             574

           Total     1.27480E+06     1.27480E+06     20.4555E+03     20.4555E+03         615.571         615.571


