********************************************************************************
Field Output Report, written Thu Feb 22 21:47:41 2024

Source 1
---------

   ODB: C:/Users/Isabel Haycock/OneDrive - Imperial College London/Fourth Year/FYP/Isabel Haycock/06 - FE models/Specimen_2/Plate_hole_1.odb
   Step: load
   Frame: Increment      7: Step Time =   0.7000

Loc 1 : Nodal values at shell < composite > < elset = ASSEMBLY_PLATE_1-1_COMPOSITELAYUP-1-1 > from source 1 : SNEG, (fraction = -1.0), Layer = 1
Loc 2 : Nodal values at shell < composite > < elset = ASSEMBLY_PLATE_1-1_COMPOSITELAYUP-1-1 > from source 1 : SPOS, (fraction = 1.0), Layer = 8

Output sorted by column "Node Label".

Field Output reported at nodes for part: PLATE_1-1
   Computation algorithm: EXTRAPOLATE_COMPUTE_AVERAGE
   Averaged at nodes
   Averaging regions: ODB_REGIONS

      Node Label           S.S11           S.S11           S.S22           S.S22           S.S12           S.S12
                          @Loc 1          @Loc 2          @Loc 1          @Loc 2          @Loc 1          @Loc 2
-----------------------------------------------------------------------------------------------------------------
               1     1.20479E+03     1.20479E+03        -55.8908        -55.8908        -24.9531        -24.9531
               2     1.14620E+03     1.14620E+03         1.54398         1.54398    -70.9065E-03    -70.9065E-03
               3     1.14640E+03     1.14640E+03     7.75735E-03     7.75735E-03    -7.96892E-03    -7.96892E-03
               4     1.15916E+03     1.15916E+03    -71.5461E-03    -71.5461E-03         2.41626         2.41626
               5     1.20528E+03     1.20528E+03        -55.6944        -55.6944         24.0585         24.0585
               6     1.14620E+03     1.14620E+03         1.54421         1.54421     70.8999E-03     70.8999E-03
               7         923.720         923.720         25.5710         25.5710        -3.54451        -3.54451
               8     1.15497E+03     1.15497E+03    -87.4603E-03    -87.4603E-03        -2.03512        -2.03512
               9     1.20723E+03     1.20723E+03        -58.2065        -58.2065         27.3369         27.3369
              10     1.22651E+03     1.22651E+03         120.371         120.371         1.36702         1.36702
              11     1.15939E+03     1.15939E+03    -74.5520E-03    -74.5520E-03        -2.41595        -2.41595
              12     1.14640E+03     1.14640E+03     7.75906E-03     7.75906E-03     7.97070E-03     7.97070E-03
              13     1.07775E+03     1.07775E+03         327.712         327.712        -71.3927        -71.3927
              14     1.75150E+03     1.75150E+03         242.050         242.050        -282.918        -282.918
              15     1.20592E+03     1.20592E+03        -58.5722        -58.5722        -28.9379        -28.9379
              16     1.15512E+03     1.15512E+03    -91.2660E-03    -91.2660E-03         2.03704         2.03704
              17     1.22605E+03     1.22605E+03         121.889         121.889        -3.47788        -3.47788
              18     1.07775E+03     1.07775E+03         327.703         327.703         71.3762         71.3762
              19         927.139         927.139         22.2627         22.2627        -3.53980        -3.53980
              20     1.75150E+03     1.75150E+03         242.050         242.050         282.918         282.918
              21        -18.9172        -18.9172        -806.294        -806.294     670.166E-03     670.166E-03
              22         951.415         951.415         219.298         219.298        -467.242        -467.242
              23     2.92153E+03     2.92153E+03         184.670         184.670     326.828E-03     326.828E-03
              24         966.104         966.104         225.647         225.647         473.737         473.737
              25         967.838         967.838         225.913         225.913         474.668         474.668
              26         934.189         934.189         216.307         216.307        -462.313        -462.313
              27     2.92725E+03     2.92725E+03         182.651         182.651         13.6560         13.6560
              28        -19.0505        -19.0505        -809.781        -809.781     729.829E-03     729.829E-03
              29     1.18236E+03     1.18236E+03        -44.8322        -44.8322        -29.1124        -29.1124
              30     1.16934E+03     1.16934E+03        -37.7003        -37.7003        -31.8649        -31.8649
              31     1.15903E+03     1.15903E+03        -30.2188        -30.2188        -31.9460        -31.9460
              32     1.15136E+03     1.15136E+03        -23.3614        -23.3614        -30.4398        -30.4398
              33     1.14591E+03     1.14591E+03        -17.4592        -17.4592        -28.1530        -28.1530
              34     1.14218E+03     1.14218E+03        -12.5496        -12.5496        -25.6016        -25.6016
              35     1.13974E+03     1.13974E+03        -8.53252        -8.53252        -23.0735        -23.0735
              36     1.13822E+03     1.13822E+03        -5.28073        -5.28073        -20.7108        -20.7108
              37     1.13737E+03     1.13737E+03        -2.66800        -2.66800        -18.5729        -18.5729
              38     1.13700E+03     1.13700E+03    -585.230E-03    -585.230E-03        -16.6723        -16.6723
              39     1.13697E+03     1.13697E+03         1.05963         1.05963        -14.9981        -14.9981
              40     1.13716E+03     1.13716E+03         2.34224         2.34224        -13.5281        -13.5281
              41     1.13752E+03     1.13752E+03         3.32497         3.32497        -12.2368        -12.2368
              42     1.13798E+03     1.13798E+03         4.05929         4.05929        -11.0988        -11.0988
              43     1.13850E+03     1.13850E+03         4.58801         4.58801        -10.0909        -10.0909
              44     1.13905E+03     1.13905E+03         4.94696         4.94696        -9.19263        -9.19263
              45     1.13962E+03     1.13962E+03         5.16635         5.16635        -8.38692        -8.38692
              46     1.14019E+03     1.14019E+03         5.27180         5.27180        -7.65943        -7.65943
              47     1.14074E+03     1.14074E+03         5.28507         5.28507        -6.99851        -6.99851
              48     1.14127E+03     1.14127E+03         5.22469         5.22469        -6.39477        -6.39477
              49     1.14178E+03     1.14178E+03         5.10646         5.10646        -5.84067        -5.84067
              50     1.14225E+03     1.14225E+03         4.94380         4.94380        -5.33018        -5.33018
              51     1.14270E+03     1.14270E+03         4.74812         4.74812        -4.85849        -4.85849
              52     1.14311E+03     1.14311E+03         4.52904         4.52904        -4.42171        -4.42171
              53     1.14349E+03     1.14349E+03         4.29466         4.29466        -4.01667        -4.01667
              54     1.14384E+03     1.14384E+03         4.05179         4.05179        -3.64072        -3.64072
              55     1.14416E+03     1.14416E+03         3.80605         3.80605        -3.29160        -3.29160
              56     1.14445E+03     1.14445E+03         3.56211         3.56211        -2.96734        -2.96734
              57     1.14471E+03     1.14471E+03         3.32377         3.32377        -2.66613        -2.66613
              58     1.14494E+03     1.14494E+03         3.09415         3.09415        -2.38633        -2.38633
              59     1.14515E+03     1.14515E+03         2.87572         2.87572        -2.12634        -2.12634
              60     1.14533E+03     1.14533E+03         2.67047         2.67047        -1.88462        -1.88462
              61     1.14550E+03     1.14550E+03         2.47995         2.47995        -1.65967        -1.65967
              62     1.14564E+03     1.14564E+03         2.30536         2.30536        -1.44999        -1.44999
              63     1.14576E+03     1.14576E+03         2.14761         2.14761        -1.25406        -1.25406
              64     1.14587E+03     1.14587E+03         2.00738         2.00738        -1.07040        -1.07040
              65     1.14596E+03     1.14596E+03         1.88517         1.88517    -897.476E-03    -897.476E-03
              66     1.14603E+03     1.14603E+03         1.78133         1.78133    -733.779E-03    -733.779E-03
              67     1.14609E+03     1.14609E+03         1.69612         1.69612    -577.779E-03    -577.779E-03
              68     1.14614E+03     1.14614E+03         1.62970         1.62970    -427.942E-03    -427.942E-03
              69     1.14617E+03     1.14617E+03         1.58217         1.58217    -282.735E-03    -282.735E-03
              70     1.14619E+03     1.14619E+03         1.55356         1.55356    -141.002E-03    -141.002E-03
              71     1.14633E+03     1.14633E+03         1.39007         1.39007    -76.8485E-03    -76.8485E-03
              72     1.14646E+03     1.14646E+03         1.23576         1.23576    -80.4692E-03    -80.4692E-03
              73     1.14658E+03     1.14658E+03         1.07619         1.07619    -82.2242E-03    -82.2242E-03
              74     1.14669E+03     1.14669E+03     915.101E-03     915.101E-03    -82.0192E-03    -82.0192E-03
              75     1.14678E+03     1.14678E+03     756.384E-03     756.384E-03    -79.8184E-03    -79.8184E-03
              76     1.14686E+03     1.14686E+03     603.956E-03     603.956E-03    -75.6187E-03    -75.6187E-03
              77     1.14690E+03     1.14690E+03     461.688E-03     461.688E-03    -69.4747E-03    -69.4747E-03
              78     1.14691E+03     1.14691E+03     333.308E-03     333.308E-03    -61.4745E-03    -61.4745E-03
              79     1.14688E+03     1.14688E+03     222.293E-03     222.293E-03    -51.7864E-03    -51.7864E-03
              80     1.14680E+03     1.14680E+03     131.786E-03     131.786E-03    -40.5847E-03    -40.5847E-03
              81     1.14668E+03     1.14668E+03     64.4242E-03     64.4242E-03    -28.2088E-03    -28.2088E-03
              82     1.14650E+03     1.14650E+03     22.2878E-03     22.2878E-03    -14.8852E-03    -14.8852E-03
              83     1.14641E+03     1.14641E+03     7.91823E-03     7.91823E-03    -14.6155E-03    -14.6155E-03
              84     1.14646E+03     1.14646E+03     8.14744E-03     8.14744E-03    -28.6338E-03    -28.6338E-03
              85     1.14653E+03     1.14653E+03     8.37713E-03     8.37713E-03    -43.6128E-03    -43.6128E-03
              86     1.14663E+03     1.14663E+03     8.76668E-03     8.76668E-03    -59.2309E-03    -59.2309E-03
              87     1.14676E+03     1.14676E+03     9.26821E-03     9.26821E-03    -75.7666E-03    -75.7666E-03
              88     1.14693E+03     1.14693E+03     9.87936E-03     9.87936E-03    -93.4488E-03    -93.4488E-03
              89     1.14713E+03     1.14713E+03     10.6027E-03     10.6027E-03    -112.513E-03    -112.513E-03
              90     1.14738E+03     1.14738E+03     11.4316E-03     11.4316E-03    -133.190E-03    -133.190E-03
              91     1.14766E+03     1.14766E+03     12.3660E-03     12.3660E-03    -155.709E-03    -155.709E-03
              92     1.14800E+03     1.14800E+03     13.3982E-03     13.3982E-03    -180.297E-03    -180.297E-03
              93     1.14838E+03     1.14838E+03     14.5225E-03     14.5225E-03    -207.170E-03    -207.170E-03
              94     1.14882E+03     1.14882E+03     15.7269E-03     15.7269E-03    -236.531E-03    -236.531E-03
              95     1.14932E+03     1.14932E+03     16.9974E-03     16.9974E-03    -268.567E-03    -268.567E-03
              96     1.14988E+03     1.14988E+03     18.3133E-03     18.3133E-03    -303.433E-03    -303.433E-03
              97     1.15052E+03     1.15052E+03     19.6474E-03     19.6474E-03    -341.247E-03    -341.247E-03
              98     1.15124E+03     1.15124E+03     20.9644E-03     20.9644E-03    -382.072E-03    -382.072E-03
              99     1.15204E+03     1.15204E+03     22.2162E-03     22.2162E-03    -425.897E-03    -425.897E-03
             100     1.15293E+03     1.15293E+03     23.3443E-03     23.3443E-03    -472.616E-03    -472.616E-03
             101     1.15391E+03     1.15391E+03     24.2686E-03     24.2686E-03    -521.996E-03    -521.996E-03
             102     1.15500E+03     1.15500E+03     24.8960E-03     24.8960E-03    -573.643E-03    -573.643E-03
             103     1.15619E+03     1.15619E+03     25.0985E-03     25.0985E-03    -626.954E-03    -626.954E-03
             104     1.15748E+03     1.15748E+03     24.7354E-03     24.7354E-03    -681.070E-03    -681.070E-03
             105     1.15889E+03     1.15889E+03     23.6117E-03     23.6117E-03    -734.812E-03    -734.812E-03
             106     1.16039E+03     1.16039E+03     21.5277E-03     21.5277E-03    -786.612E-03    -786.612E-03
             107     1.16200E+03     1.16200E+03     18.2043E-03     18.2043E-03    -834.436E-03    -834.436E-03
             108     1.16369E+03     1.16369E+03     13.3827E-03     13.3827E-03    -875.713E-03    -875.713E-03
             109     1.16546E+03     1.16546E+03     6.70100E-03     6.70100E-03    -907.256E-03    -907.256E-03
             110     1.16727E+03     1.16727E+03    -2.12799E-03    -2.12799E-03    -925.207E-03    -925.207E-03
             111     1.16911E+03     1.16911E+03    -13.4962E-03    -13.4962E-03    -925.022E-03    -925.022E-03
             112     1.17092E+03     1.17092E+03    -27.6231E-03    -27.6231E-03    -901.485E-03    -901.485E-03
             113     1.17265E+03     1.17265E+03    -44.7694E-03    -44.7694E-03    -848.868E-03    -848.868E-03
             114     1.17425E+03     1.17425E+03    -64.8848E-03    -64.8848E-03    -761.114E-03    -761.114E-03
             115     1.17563E+03     1.17563E+03    -87.7666E-03    -87.7666E-03    -632.340E-03    -632.340E-03
             116     1.17671E+03     1.17671E+03    -112.766E-03    -112.766E-03    -457.333E-03    -457.333E-03
             117     1.17739E+03     1.17739E+03    -138.722E-03    -138.722E-03    -232.541E-03    -232.541E-03
             118     1.17758E+03     1.17758E+03    -164.001E-03    -164.001E-03     43.0364E-03     43.0364E-03
             119     1.17717E+03     1.17717E+03    -186.064E-03    -186.064E-03     366.433E-03     366.433E-03
             120     1.17608E+03     1.17608E+03    -202.132E-03    -202.132E-03     729.615E-03     729.615E-03
             121     1.17425E+03     1.17425E+03    -208.527E-03    -208.527E-03         1.11832         1.11832
             122     1.17164E+03     1.17164E+03    -201.972E-03    -201.972E-03         1.51147         1.51147
             123     1.16827E+03     1.16827E+03    -179.444E-03    -179.444E-03         1.88179         1.88179
             124     1.16423E+03     1.16423E+03    -138.879E-03    -138.879E-03         2.19495         2.19495
             125     1.16016E+03     1.16016E+03    -208.692E-03    -208.692E-03         4.45622         4.45622
             126     1.16236E+03     1.16236E+03    -609.452E-03    -609.452E-03         8.01451         8.01451
             127     1.16495E+03     1.16495E+03        -1.26978        -1.26978         10.6511         10.6511
             128     1.16788E+03     1.16788E+03        -2.23241        -2.23241         12.5808         12.5808
             129     1.17117E+03     1.17117E+03        -3.59545        -3.59545         13.9420         13.9420
             130     1.17487E+03     1.17487E+03        -5.50794        -5.50794         14.7783         14.7783
             131     1.17902E+03     1.17902E+03        -8.16979        -8.16979         15.0279         15.0279
             132     1.18367E+03     1.18367E+03        -11.8279        -11.8279         14.5003         14.5003
             133     1.18875E+03     1.18875E+03        -16.7589        -16.7589         12.8276         12.8276
             134     1.19398E+03     1.19398E+03        -23.1965        -23.1965         9.42165         9.42165
             135     1.19866E+03     1.19866E+03        -31.1872        -31.1872         3.44668         3.44668
             136     1.20135E+03     1.20135E+03        -40.2572        -40.2572        -5.98017        -5.98017
             137     1.18297E+03     1.18297E+03        -44.7132        -44.7132         28.2158         28.2158
             138     1.17005E+03     1.17005E+03        -37.7406        -37.7406         31.1310         31.1310
             139     1.15975E+03     1.15975E+03        -30.3758        -30.3758         31.3986         31.3986
             140     1.15205E+03     1.15205E+03        -23.5771        -23.5771         30.0693         30.0693
             141     1.14652E+03     1.14652E+03        -17.6864        -17.6864         27.9241         27.9241
             142     1.14269E+03     1.14269E+03        -12.7603        -12.7603         25.4748         25.4748
             143     1.14016E+03     1.14016E+03        -8.71532        -8.71532         23.0145         23.0145
             144     1.13856E+03     1.13856E+03        -5.43370        -5.43370         20.6955         20.6955
             145     1.13765E+03     1.13765E+03        -2.79322        -2.79322         18.5844         18.5844
             146     1.13723E+03     1.13723E+03    -686.619E-03    -686.619E-03         16.6995         16.6995
             147     1.13715E+03     1.13715E+03     978.030E-03     978.030E-03         15.0338         15.0338
             148     1.13731E+03     1.13731E+03         2.27661         2.27661         13.5676         13.5676
             149     1.13764E+03     1.13764E+03         3.27209         3.27209         12.2773         12.2773
             150     1.13808E+03     1.13808E+03         4.01648         4.01648         11.1385         11.1385
             151     1.13858E+03     1.13858E+03         4.55311         4.55311         10.1287         10.1287
             152     1.13912E+03     1.13912E+03         4.91830         4.91830         9.22800         9.22800
             153     1.13968E+03     1.13968E+03         5.14261         5.14261         8.41949         8.41949
             154     1.14024E+03     1.14024E+03         5.25196         5.25196         7.68910         7.68910
             155     1.14078E+03     1.14078E+03         5.26834         5.26834         7.02530         7.02530
             156     1.14131E+03     1.14131E+03         5.21048         5.21048         6.41876         6.41876
             157     1.14181E+03     1.14181E+03         5.09430         5.09430         5.86200         5.86200
             158     1.14228E+03     1.14228E+03         4.93335         4.93335         5.34903         5.34903
             159     1.14272E+03     1.14272E+03         4.73910         4.73910         4.87505         4.87505
             160     1.14313E+03     1.14313E+03         4.52123         4.52123         4.43617         4.43617
             161     1.14351E+03     1.14351E+03         4.28791         4.28791         4.02921         4.02921
             162     1.14385E+03     1.14385E+03         4.04595         4.04595         3.65153         3.65153
             163     1.14417E+03     1.14417E+03         3.80100         3.80100         3.30086         3.30086
             164     1.14446E+03     1.14446E+03         3.55776         3.55776         2.97521         2.97521
             165     1.14471E+03     1.14471E+03         3.32005         3.32005         2.67278         2.67278
             166     1.14495E+03     1.14495E+03         3.09098         3.09098         2.39190         2.39190
             167     1.14515E+03     1.14515E+03         2.87304         2.87304         2.13096         2.13096
             168     1.14534E+03     1.14534E+03         2.66822         2.66822         1.88842         1.88842
             169     1.14550E+03     1.14550E+03         2.47808         2.47808         1.66275         1.66275
             170     1.14564E+03     1.14564E+03         2.30383         2.30383         1.45245         1.45245
             171     1.14577E+03     1.14577E+03         2.14638         2.14638         1.25601         1.25601
             172     1.14587E+03     1.14587E+03         2.00641         2.00641         1.07190         1.07190
             173     1.14596E+03     1.14596E+03         1.88444         1.88444     898.607E-03     898.607E-03
             174     1.14603E+03     1.14603E+03         1.78083         1.78083     734.604E-03     734.604E-03
             175     1.14609E+03     1.14609E+03         1.69581         1.69581     578.354E-03     578.354E-03
             176     1.14614E+03     1.14614E+03         1.62957         1.62957     428.314E-03     428.314E-03
             177     1.14617E+03     1.14617E+03         1.58221         1.58221     282.939E-03     282.939E-03
             178     1.14619E+03     1.14619E+03         1.55373         1.55373     141.062E-03     141.062E-03
             179     1.14606E+03     1.14606E+03         1.70022         1.70022     62.0685E-03     62.0685E-03
             180     1.14592E+03     1.14592E+03         1.84099         1.84099     50.7173E-03     50.7173E-03
             181     1.14582E+03     1.14582E+03         1.95116         1.95116     37.5829E-03     37.5829E-03
             182     1.14574E+03     1.14574E+03         2.02683         2.02683     23.1263E-03     23.1263E-03
             183     1.14571E+03     1.14571E+03         2.06533         2.06533     7.85208E-03     7.85208E-03
             184     1.14571E+03     1.14571E+03         2.06530         2.06530    -7.70596E-03    -7.70596E-03
             185     1.14574E+03     1.14574E+03         2.02675         2.02675    -23.0015E-03    -23.0015E-03
             186     1.14582E+03     1.14582E+03         1.95105         1.95105    -37.5041E-03    -37.5041E-03
             187     1.14592E+03     1.14592E+03         1.84083         1.84083    -50.6887E-03    -50.6887E-03
             188     1.14606E+03     1.14606E+03         1.70001         1.70001    -62.0566E-03    -62.0566E-03
             189         949.050         949.050         13.3073         13.3073         62.6732         62.6732
             190     1.01711E+03     1.01711E+03        -17.6725        -17.6725         98.5728         98.5728
             191     1.09235E+03     1.09235E+03        -46.9039        -46.9039         100.455         100.455
             192     1.15064E+03     1.15064E+03        -62.4332        -62.4332         80.0253         80.0253
             193     1.18532E+03     1.18532E+03        -63.7735        -63.7735         52.6697         52.6697
             194     1.17898E+03     1.17898E+03        -63.6612        -63.6612        -58.1028        -58.1028
             195     1.12904E+03     1.12904E+03        -57.0892        -57.0892        -88.7701        -88.7701
             196     1.04855E+03     1.04855E+03        -30.1782        -30.1782        -100.758        -100.758
             197         964.026         964.026         6.40526         6.40526        -70.6506        -70.6506
             198     1.15606E+03     1.15606E+03    -255.130E-03    -255.130E-03        -3.71559        -3.71559
             199     1.15850E+03     1.15850E+03    -743.894E-03    -743.894E-03        -6.57888        -6.57888
             200     1.16143E+03     1.16143E+03        -1.54196        -1.54196        -8.57876        -8.57876
             201     1.16478E+03     1.16478E+03        -2.68334        -2.68334        -9.94597        -9.94597
             202     1.16856E+03     1.16856E+03        -4.25761        -4.25761        -10.8288        -10.8288
             203     1.17278E+03     1.17278E+03        -6.40553        -6.40553        -11.2781        -11.2781
             204     1.17750E+03     1.17750E+03        -9.31928        -9.31928        -11.2365        -11.2365
             205     1.18273E+03     1.18273E+03        -13.2383        -13.2383        -10.5155        -10.5155
             206     1.18839E+03     1.18839E+03        -18.4325        -18.4325        -8.74671        -8.74671
             207     1.19419E+03     1.19419E+03        -25.1291        -25.1291        -5.33811        -5.33811
             208     1.19940E+03     1.19940E+03        -33.3686        -33.3686     552.240E-03     552.240E-03
             209     1.20258E+03     1.20258E+03        -42.6776        -42.6776         9.82753         9.82753
             210     1.23220E+03     1.23220E+03        -50.9777        -50.9777         2.78779         2.78779
             211     1.24809E+03     1.24809E+03        -23.5514        -23.5514        -24.0808        -24.0808
             212     1.24809E+03     1.24809E+03         30.3191         30.3191        -43.3565        -43.3565
             213     1.23493E+03     1.23493E+03         91.8924         91.8924        -35.3861        -35.3861
             214     1.23463E+03     1.23463E+03         92.4203         92.4203         38.1443         38.1443
             215     1.24746E+03     1.24746E+03         31.3898         31.3898         46.1991         46.1991
             216     1.24714E+03     1.24714E+03        -21.9457        -21.9457         27.0838         27.0838
             217     1.23089E+03     1.23089E+03        -48.8729        -48.8729     440.074E-03     440.074E-03
             218     1.15283E+03     1.15283E+03     29.3920E-03     29.3920E-03         2.47732         2.47732
             219     1.14623E+03     1.14623E+03     148.092E-03     148.092E-03         2.27577         2.27577
             220     1.14061E+03     1.14061E+03     257.995E-03     257.995E-03         1.77322         1.77322
             221     1.13673E+03     1.13673E+03     335.616E-03     335.616E-03         1.02305         1.02305
             222     1.13512E+03     1.13512E+03     362.715E-03     362.715E-03     134.397E-03     134.397E-03
             223     1.13598E+03     1.13598E+03     332.317E-03     332.317E-03    -749.607E-03    -749.607E-03
             224     1.13908E+03     1.13908E+03     251.409E-03     251.409E-03        -1.48582        -1.48582
             225     1.14387E+03     1.14387E+03     138.288E-03     138.288E-03        -1.96515        -1.96515
             226     1.14957E+03     1.14957E+03     16.3834E-03     16.3834E-03        -2.13416        -2.13416
             227     1.20116E+03     1.20116E+03        -40.3406        -40.3406         6.11038         6.11038
             228     1.19852E+03     1.19852E+03        -31.2739        -31.2739        -3.35251        -3.35251
             229     1.19387E+03     1.19387E+03        -23.2893        -23.2893        -9.34091        -9.34091
             230     1.18867E+03     1.18867E+03        -16.8583        -16.8583        -12.7560        -12.7560
             231     1.18362E+03     1.18362E+03        -11.9299        -11.9299        -14.4395        -14.4395
             232     1.17900E+03     1.17900E+03        -8.26774        -8.26774        -14.9797        -14.9797
             233     1.17487E+03     1.17487E+03        -5.59474        -5.59474        -14.7428        -14.7428
             234     1.17120E+03     1.17120E+03        -3.66578        -3.66578        -13.9167        -13.9167
             235     1.16794E+03     1.16794E+03        -2.28383        -2.28383        -12.5626        -12.5626
             236     1.16504E+03     1.16504E+03        -1.30244        -1.30244        -10.6373        -10.6373
             237     1.16250E+03     1.16250E+03    -626.640E-03    -626.640E-03        -8.00416        -8.00416
             238     1.16035E+03     1.16035E+03    -215.522E-03    -215.522E-03        -4.45182        -4.45182
             239     1.16430E+03     1.16430E+03    -138.701E-03    -138.701E-03        -2.19251        -2.19251
             240     1.16833E+03     1.16833E+03    -179.605E-03    -179.605E-03        -1.87873        -1.87873
             241     1.17169E+03     1.17169E+03    -201.994E-03    -201.994E-03        -1.50833        -1.50833
             242     1.17430E+03     1.17430E+03    -208.587E-03    -208.587E-03        -1.11518        -1.11518
             243     1.17612E+03     1.17612E+03    -202.070E-03    -202.070E-03    -726.551E-03    -726.551E-03
             244     1.17721E+03     1.17721E+03    -185.993E-03    -185.993E-03    -363.562E-03    -363.562E-03
             245     1.17761E+03     1.17761E+03    -163.874E-03    -163.874E-03    -40.4119E-03    -40.4119E-03
             246     1.17742E+03     1.17742E+03    -138.585E-03    -138.585E-03     234.859E-03     234.859E-03
             247     1.17673E+03     1.17673E+03    -112.621E-03    -112.621E-03     459.340E-03     459.340E-03
             248     1.17564E+03     1.17564E+03    -87.6243E-03    -87.6243E-03     634.034E-03     634.034E-03
             249     1.17426E+03     1.17426E+03    -64.7607E-03    -64.7607E-03     762.524E-03     762.524E-03
             250     1.17266E+03     1.17266E+03    -44.6559E-03    -44.6559E-03     850.025E-03     850.025E-03
             251     1.17093E+03     1.17093E+03    -27.5339E-03    -27.5339E-03     902.431E-03     902.431E-03
             252     1.16912E+03     1.16912E+03    -13.4181E-03    -13.4181E-03     925.792E-03     925.792E-03
             253     1.16728E+03     1.16728E+03    -2.07023E-03    -2.07023E-03     925.836E-03     925.836E-03
             254     1.16546E+03     1.16546E+03     6.75106E-03     6.75106E-03     907.772E-03     907.772E-03
             255     1.16370E+03     1.16370E+03     13.4186E-03     13.4186E-03     876.141E-03     876.141E-03
             256     1.16200E+03     1.16200E+03     18.2360E-03     18.2360E-03     834.793E-03     834.793E-03
             257     1.16040E+03     1.16040E+03     21.5503E-03     21.5503E-03     786.912E-03     786.912E-03
             258     1.15889E+03     1.15889E+03     23.6324E-03     23.6324E-03     735.067E-03     735.067E-03
             259     1.15748E+03     1.15748E+03     24.7504E-03     24.7504E-03     681.289E-03     681.289E-03
             260     1.15619E+03     1.15619E+03     25.1128E-03     25.1128E-03     627.142E-03     627.142E-03
             261     1.15500E+03     1.15500E+03     24.9067E-03     24.9067E-03     573.806E-03     573.806E-03
             262     1.15391E+03     1.15391E+03     24.2789E-03     24.2789E-03     522.137E-03     522.137E-03
             263     1.15293E+03     1.15293E+03     23.3523E-03     23.3523E-03     472.739E-03     472.739E-03
             264     1.15204E+03     1.15204E+03     22.2240E-03     22.2240E-03     426.004E-03     426.004E-03
             265     1.15124E+03     1.15124E+03     20.9705E-03     20.9705E-03     382.165E-03     382.165E-03
             266     1.15052E+03     1.15052E+03     19.6534E-03     19.6534E-03     341.328E-03     341.328E-03
             267     1.14988E+03     1.14988E+03     18.3182E-03     18.3182E-03     303.504E-03     303.504E-03
             268     1.14932E+03     1.14932E+03     17.0021E-03     17.0021E-03     268.628E-03     268.628E-03
             269     1.14882E+03     1.14882E+03     15.7308E-03     15.7308E-03     236.585E-03     236.585E-03
             270     1.14838E+03     1.14838E+03     14.5262E-03     14.5262E-03     207.216E-03     207.216E-03
             271     1.14799E+03     1.14799E+03     13.4013E-03     13.4013E-03     180.337E-03     180.337E-03
             272     1.14766E+03     1.14766E+03     12.3689E-03     12.3689E-03     155.743E-03     155.743E-03
             273     1.14738E+03     1.14738E+03     11.4341E-03     11.4341E-03     133.218E-03     133.218E-03
             274     1.14713E+03     1.14713E+03     10.6052E-03     10.6052E-03     112.537E-03     112.537E-03
             275     1.14693E+03     1.14693E+03     9.88156E-03     9.88156E-03     93.4687E-03     93.4687E-03
             276     1.14676E+03     1.14676E+03     9.27032E-03     9.27032E-03     75.7827E-03     75.7827E-03
             277     1.14663E+03     1.14663E+03     8.76863E-03     8.76863E-03     59.2435E-03     59.2435E-03
             278     1.14653E+03     1.14653E+03     8.37902E-03     8.37902E-03     43.6220E-03     43.6220E-03
             279     1.14645E+03     1.14645E+03     8.14926E-03     8.14926E-03     28.6399E-03     28.6399E-03
             280     1.14641E+03     1.14641E+03     7.92001E-03     7.92001E-03     14.6186E-03     14.6186E-03
             281     1.14650E+03     1.14650E+03     22.2927E-03     22.2927E-03     14.8884E-03     14.8884E-03
             282     1.14668E+03     1.14668E+03     64.4382E-03     64.4382E-03     28.2149E-03     28.2149E-03
             283     1.14680E+03     1.14680E+03     131.814E-03     131.814E-03     40.5933E-03     40.5933E-03
             284     1.14688E+03     1.14688E+03     222.341E-03     222.341E-03     51.7973E-03     51.7973E-03
             285     1.14691E+03     1.14691E+03     333.378E-03     333.378E-03     61.4872E-03     61.4872E-03
             286     1.14690E+03     1.14690E+03     461.785E-03     461.785E-03     69.4888E-03     69.4888E-03
             287     1.14686E+03     1.14686E+03     604.082E-03     604.082E-03     75.6338E-03     75.6338E-03
             288     1.14678E+03     1.14678E+03     756.539E-03     756.539E-03     79.8336E-03     79.8336E-03
             289     1.14669E+03     1.14669E+03     915.286E-03     915.286E-03     82.0345E-03     82.0345E-03
             290     1.14658E+03     1.14658E+03         1.07640         1.07640     82.2371E-03     82.2371E-03
             291     1.14646E+03     1.14646E+03         1.23600         1.23600     80.4807E-03     80.4807E-03
             292     1.14633E+03     1.14633E+03         1.39031         1.39031     76.8369E-03     76.8369E-03
             293     1.08339E+03     1.08339E+03         314.303         314.303        -71.8498        -71.8498
             294     1.09469E+03     1.09469E+03         287.302         287.302        -71.4420        -71.4420
             295     1.10567E+03     1.10567E+03         260.268         260.268        -69.1497        -69.1497
             296     1.11607E+03     1.11607E+03         233.760         233.760        -65.7402        -65.7402
             297     1.12563E+03     1.12563E+03         208.206         208.206        -61.2999        -61.2999
             298     1.13420E+03     1.13420E+03         183.979         183.979        -56.0431        -56.0431
             299     1.14166E+03     1.14166E+03         161.353         161.353        -50.1729        -50.1729
             300     1.14795E+03     1.14795E+03         140.529         140.529        -43.9486        -43.9486
             301     1.15311E+03     1.15311E+03         121.595         121.595        -37.5965        -37.5965
             302     1.15718E+03     1.15718E+03         104.573         104.573        -31.3212        -31.3212
             303     1.16028E+03     1.16028E+03         89.4103         89.4103        -25.2932        -25.2932
             304     1.16249E+03     1.16249E+03         76.0157         76.0157        -19.6251        -19.6251
             305     1.16396E+03     1.16396E+03         64.2690         64.2690        -14.4073        -14.4073
             306     1.16478E+03     1.16478E+03         54.0291         54.0291        -9.67380        -9.67380
             307     1.16506E+03     1.16506E+03         45.1598         45.1598        -5.44842        -5.44842
             308     1.16491E+03     1.16491E+03         37.5150         37.5150        -1.71592        -1.71592
             309     1.16440E+03     1.16440E+03         30.9662         30.9662         1.54095         1.54095
             310     1.16360E+03     1.16360E+03         25.3814         25.3814         4.36150         4.36150
             311     1.16258E+03     1.16258E+03         20.6477         20.6477         6.78293         6.78293
             312     1.16138E+03     1.16138E+03         16.6525         16.6525         8.85268         8.85268
             313     1.16005E+03     1.16005E+03         13.2987         13.2987         10.6145         10.6145
             314     1.15862E+03     1.15862E+03         10.4914         10.4914         12.1157         12.1157
             315     1.15712E+03     1.15712E+03         8.14720         8.14720         13.3998         13.3998
             316     1.15557E+03     1.15557E+03         6.18478         6.18478         14.5109         14.5109
             317     1.15401E+03     1.15401E+03         4.53085         4.53085         15.4899         15.4899
             318     1.15245E+03     1.15245E+03         3.11348         3.11348         16.3776         16.3776
             319     1.15091E+03     1.15091E+03         1.86540         1.86540         17.2128         17.2128
             320     1.14943E+03     1.14943E+03     719.316E-03     719.316E-03         18.0345         18.0345
             321     1.14802E+03     1.14802E+03    -390.715E-03    -390.715E-03         18.8808         18.8808
             322     1.14672E+03     1.14672E+03        -1.53285        -1.53285         19.7906         19.7906
             323     1.14558E+03     1.14558E+03        -2.77768        -2.77768         20.8027         20.8027
             324     1.14465E+03     1.14465E+03        -4.20144        -4.20144         21.9553         21.9553
             325     1.14401E+03     1.14401E+03        -5.88782        -5.88782         23.2842         23.2842
             326     1.14376E+03     1.14376E+03        -7.93082        -7.93082         24.8191         24.8191
             327     1.14405E+03     1.14405E+03        -10.4379        -10.4379         26.5755         26.5755
             328     1.14507E+03     1.14507E+03        -13.5294        -13.5294         28.5421         28.5421
             329     1.14707E+03     1.14707E+03        -17.3390        -17.3390         30.6581         30.6581
             330     1.15040E+03     1.15040E+03        -21.9936        -21.9936         32.7756         32.7756
             331     1.15548E+03     1.15548E+03        -27.5844        -27.5844         34.6053         34.6053
             332     1.16277E+03     1.16277E+03        -34.0601        -34.0601         35.6376         35.6376
             333     1.17268E+03     1.17268E+03        -41.0829        -41.0829         35.0931         35.0931
             334     1.18525E+03     1.18525E+03        -47.6917        -47.6917         31.9209         31.9209
             335     1.15918E+03     1.15918E+03    -157.234E-03    -157.234E-03        -1.77552        -1.77552
             336     1.16235E+03     1.16235E+03    -199.909E-03    -199.909E-03        -1.42210        -1.42210
             337     1.16476E+03     1.16476E+03    -224.661E-03    -224.661E-03        -1.00667        -1.00667
             338     1.16632E+03     1.16632E+03    -233.211E-03    -233.211E-03    -563.593E-03    -563.593E-03
             339     1.16700E+03     1.16700E+03    -229.022E-03    -229.022E-03    -120.082E-03    -120.082E-03
             340     1.16682E+03     1.16682E+03    -214.805E-03    -214.805E-03     302.810E-03     302.810E-03
             341     1.16584E+03     1.16584E+03    -194.869E-03    -194.869E-03     690.791E-03     690.791E-03
             342     1.16413E+03     1.16413E+03    -171.153E-03    -171.153E-03         1.03579         1.03579
             343     1.16178E+03     1.16178E+03    -147.147E-03    -147.147E-03         1.33468         1.33468
             344     1.15889E+03     1.15889E+03    -123.159E-03    -123.159E-03         1.58827         1.58827
             345     1.15553E+03     1.15553E+03    -101.909E-03    -101.909E-03         1.79977         1.79977
             346     1.15179E+03     1.15179E+03    -81.8516E-03    -81.8516E-03         1.97393         1.97393
             347     1.14774E+03     1.14774E+03    -65.8462E-03    -65.8462E-03         2.11602         2.11602
             348     1.14344E+03     1.14344E+03    -50.2493E-03    -50.2493E-03         2.23132         2.23132
             349     1.13892E+03     1.13892E+03    -39.3481E-03    -39.3481E-03         2.32456         2.32456
             350     1.13424E+03     1.13424E+03    -26.6858E-03    -26.6858E-03         2.39971         2.39971
             351     1.12943E+03     1.12943E+03    -19.6409E-03    -19.6409E-03         2.45981         2.45981
             352     1.12451E+03     1.12451E+03    -7.38188E-03    -7.38188E-03         2.50686         2.50686
             353     1.11951E+03     1.11951E+03    -2.79816E-03    -2.79816E-03         2.54181         2.54181
             354     1.11445E+03     1.11445E+03     12.2171E-03     12.2171E-03         2.56451         2.56451
             355     1.10935E+03     1.10935E+03     15.3619E-03     15.3619E-03         2.57379         2.57379
             356     1.10426E+03     1.10426E+03     37.1089E-03     37.1089E-03         2.56715         2.56715
             357     1.09920E+03     1.09920E+03     39.1507E-03     39.1507E-03         2.54121         2.54121
             358     1.09421E+03     1.09421E+03     73.1453E-03     73.1453E-03         2.49073         2.49073
             359     1.08935E+03     1.08935E+03     73.4120E-03     73.4120E-03         2.40974         2.40974
             360     1.08469E+03     1.08469E+03     128.194E-03     128.194E-03         2.28908         2.28908
             361     1.08032E+03     1.08032E+03     124.464E-03     124.464E-03         2.11947         2.11947
             362     1.07634E+03     1.07634E+03     214.584E-03     214.584E-03         1.88489         1.88489
             363     1.07291E+03     1.07291E+03     201.960E-03     201.960E-03         1.57161         1.57161
             364     1.07020E+03     1.07020E+03     354.572E-03     354.572E-03         1.14935         1.14935
             365     1.06845E+03     1.06845E+03     322.742E-03     322.742E-03     598.885E-03     598.885E-03
             366     1.06798E+03     1.06798E+03     594.092E-03     594.092E-03    -144.510E-03    -144.510E-03
             367     1.06919E+03     1.06919E+03     519.504E-03     519.504E-03        -1.10364        -1.10364
             368     1.07266E+03     1.07266E+03         1.04254         1.04254        -2.43813        -2.43813
             369     1.07917E+03     1.07917E+03     862.555E-03     862.555E-03        -4.15693        -4.15693
             370     1.08986E+03     1.08986E+03         2.00928         2.00928        -6.72054        -6.72054
             371     1.10646E+03     1.10646E+03         1.52597         1.52597        -10.0380        -10.0380
             372     1.13182E+03     1.13182E+03         4.59831         4.59831        -15.7178        -15.7178
             373     1.17043E+03     1.17043E+03         3.06631         3.06631        -23.1749        -23.1749
             374     1.23283E+03     1.23283E+03         14.5915         14.5915        -40.1085        -40.1085
             375     1.33626E+03     1.33626E+03         8.54986         8.54986        -63.6326        -63.6326
             376     1.57603E+03     1.57603E+03         112.662         112.662        -178.289        -178.289
             377     1.53346E+03     1.53346E+03         294.694         294.694        -301.015        -301.015
             378     1.28054E+03     1.28054E+03         340.126         340.126        -281.517        -281.517
             379     1.21107E+03     1.21107E+03         334.072         334.072        -236.797        -236.797
             380     1.16347E+03     1.16347E+03         333.718         333.718        -212.898        -212.898
             381     1.13803E+03     1.13803E+03         331.380         331.380        -188.223        -188.223
             382     1.11941E+03     1.11941E+03         330.211         330.211        -169.599        -169.599
             383     1.10740E+03     1.10740E+03         329.256         329.256        -151.650        -151.650
             384     1.09825E+03     1.09825E+03         328.607         328.607        -136.277        -136.277
             385     1.09181E+03     1.09181E+03         328.232         328.232        -121.614        -121.614
             386     1.08676E+03     1.08676E+03         327.940         327.940        -108.308        -108.308
             387     1.08304E+03     1.08304E+03         327.818         327.818        -95.5716        -95.5716
             388     1.08008E+03     1.08008E+03         327.710         327.710        -83.6395        -83.6395
             389     1.20210E+03     1.20210E+03        -42.8695        -42.8695        -10.4403        -10.4403
             390     1.19911E+03     1.19911E+03        -33.6989        -33.6989        -1.13108        -1.13108
             391     1.19407E+03     1.19407E+03        -25.5351        -25.5351         4.86367         4.86367
             392     1.18839E+03     1.18839E+03        -18.8450        -18.8450         8.40005         8.40005
             393     1.18279E+03     1.18279E+03        -13.6091        -13.6091         10.2853         10.2853
             394     1.17759E+03     1.17759E+03        -9.62534        -9.62534         11.0967         11.0967
             395     1.17287E+03     1.17287E+03        -6.64252        -6.64252         11.2020         11.2020
             396     1.16864E+03     1.16864E+03        -4.43039        -4.43039         10.7948         10.7948
             397     1.16486E+03     1.16486E+03        -2.80065        -2.80065         9.93786         9.93786
             398     1.16151E+03     1.16151E+03        -1.61346        -1.61346         8.58447         8.58447
             399     1.15860E+03     1.15860E+03    -779.618E-03    -779.618E-03         6.58870         6.58870
             400     1.15618E+03     1.15618E+03    -267.207E-03    -267.207E-03         3.72140         3.72140
             401     1.15009E+03     1.15009E+03     3.55961E-03     3.55961E-03         2.15294         2.15294
             402     1.14479E+03     1.14479E+03     114.051E-03     114.051E-03         2.04233         2.04233
             403     1.14012E+03     1.14012E+03     222.525E-03     222.525E-03         1.66821         1.66821
             404     1.13669E+03     1.13669E+03     308.541E-03     308.541E-03         1.05965         1.05965
             405     1.13501E+03     1.13501E+03     361.940E-03     361.940E-03     283.202E-03     283.202E-03
             406     1.13539E+03     1.13539E+03     360.576E-03     360.576E-03    -554.127E-03    -554.127E-03
             407     1.13779E+03     1.13779E+03     312.107E-03     312.107E-03        -1.32987        -1.32987
             408     1.14195E+03     1.14195E+03     233.085E-03     233.085E-03        -1.95167        -1.95167
             409     1.14739E+03     1.14739E+03     126.977E-03     126.977E-03        -2.35116        -2.35116
             410     1.15350E+03     1.15350E+03     18.2123E-03     18.2123E-03        -2.49446        -2.49446
             411     1.23204E+03     1.23204E+03         102.788         102.788         32.0572         32.0572
             412     1.24493E+03     1.24493E+03         52.4931         52.4931         46.1630         46.1630
             413     1.25129E+03     1.25129E+03    -212.961E-03    -212.961E-03         37.0195         37.0195
             414     1.24508E+03     1.24508E+03        -36.8701        -36.8701         15.2164         15.2164
             415     1.22899E+03     1.22899E+03        -53.9977        -53.9977        -7.13547        -7.13547
             416     1.23073E+03     1.23073E+03        -49.0705        -49.0705    -254.098E-03    -254.098E-03
             417     1.24706E+03     1.24706E+03        -22.3224        -22.3224        -26.8898        -26.8898
             418     1.24754E+03     1.24754E+03         30.8061         30.8061        -46.1032        -46.1032
             419     1.23485E+03     1.23485E+03         91.7159         91.7159        -38.3045        -38.3045
             420     1.08340E+03     1.08340E+03         314.296         314.296         71.8295         71.8295
             421     1.09469E+03     1.09469E+03         287.301         287.301         71.4126         71.4126
             422     1.10567E+03     1.10567E+03         260.275         260.275         69.1102         69.1102
             423     1.11606E+03     1.11606E+03         233.776         233.776         65.6916         65.6916
             424     1.12562E+03     1.12562E+03         208.233         208.233         61.2440         61.2440
             425     1.13418E+03     1.13418E+03         184.016         184.016         55.9831         55.9831
             426     1.14164E+03     1.14164E+03         161.400         161.400         50.1113         50.1113
             427     1.14793E+03     1.14793E+03         140.587         140.587         43.8888         43.8888
             428     1.15309E+03     1.15309E+03         121.659         121.659         37.5407         37.5407
             429     1.15717E+03     1.15717E+03         104.643         104.643         31.2716         31.2716
             430     1.16027E+03     1.16027E+03         89.4843         89.4843         25.2514         25.2514
             431     1.16248E+03     1.16248E+03         76.0914         76.0914         19.5921         19.5921
             432     1.16396E+03     1.16396E+03         64.3444         64.3444         14.3838         14.3838
             433     1.16478E+03     1.16478E+03         54.1026         54.1026         9.65983         9.65983
             434     1.16508E+03     1.16508E+03         45.2302         45.2302         5.44412         5.44412
             435     1.16493E+03     1.16493E+03         37.5812         37.5812         1.72083         1.72083
             436     1.16442E+03     1.16442E+03         31.0276         31.0276        -1.52704        -1.52704
             437     1.16363E+03     1.16363E+03         25.4377         25.4377        -4.33928        -4.33928
             438     1.16261E+03     1.16261E+03         20.6989         20.6989        -6.75274        -6.75274
             439     1.16141E+03     1.16141E+03         16.6985         16.6985        -8.81524        -8.81524
             440     1.16008E+03     1.16008E+03         13.3402         13.3402        -10.5702        -10.5702
             441     1.15865E+03     1.15865E+03         10.5288         10.5288        -12.0652        -12.0652
             442     1.15714E+03     1.15714E+03         8.18135         8.18135        -13.3434        -13.3434
             443     1.15559E+03     1.15559E+03         6.21652         6.21652        -14.4492        -14.4492
             444     1.15403E+03     1.15403E+03         4.56142         4.56142        -15.4234        -15.4234
             445     1.15246E+03     1.15246E+03         3.14416         3.14416        -16.3068        -16.3068
             446     1.15091E+03     1.15091E+03         1.89788         1.89788        -17.1382        -17.1382
             447     1.14941E+03     1.14941E+03     755.443E-03     755.443E-03        -17.9567        -17.9567
             448     1.14798E+03     1.14798E+03    -348.566E-03    -348.566E-03        -18.8008        -18.8008
             449     1.14666E+03     1.14666E+03        -1.48198        -1.48198        -19.7098        -19.7098
             450     1.14549E+03     1.14549E+03        -2.71475        -2.71475        -20.7229        -20.7229
             451     1.14452E+03     1.14452E+03        -4.12269        -4.12269        -21.8797        -21.8797
             452     1.14383E+03     1.14383E+03        -5.78877        -5.78877        -23.2175        -23.2175
             453     1.14353E+03     1.14353E+03        -7.80692        -7.80692        -24.7684        -24.7684
             454     1.14375E+03     1.14375E+03        -10.2845        -10.2845        -26.5519        -26.5519
             455     1.14468E+03     1.14468E+03        -13.3440        -13.3440        -28.5625        -28.5625
             456     1.14659E+03     1.14659E+03        -17.1226        -17.1226        -30.7465        -30.7465
             457     1.14982E+03     1.14982E+03        -21.7571        -21.7571        -32.9662        -32.9662
             458     1.15481E+03     1.15481E+03        -27.3547        -27.3547        -34.9371        -34.9371
             459     1.16205E+03     1.16205E+03        -33.8838        -33.8838        -36.1448        -36.1448
             460     1.17198E+03     1.17198E+03        -41.0168        -41.0168        -35.7814        -35.7814
             461     1.18466E+03     1.18466E+03        -47.7789        -47.7789        -32.7595        -32.7595
             462     1.18154E+03     1.18154E+03        -66.5177        -66.5177        -60.9169        -60.9169
             463     1.13202E+03     1.13202E+03        -60.1589        -60.1589        -91.0069        -91.0069
             464     1.05180E+03     1.05180E+03        -33.3893        -33.3893        -102.325        -102.325
             465         967.397         967.397         3.12541         3.12541        -71.4505        -71.4505
             466         952.477         952.477         9.99305         9.99305         63.4119         63.4119
             467     1.02048E+03     1.02048E+03        -20.9539        -20.9539         99.9524         99.9524
             468     1.09556E+03     1.09556E+03        -50.0955        -50.0955         102.405         102.405
             469     1.15356E+03     1.15356E+03        -65.4729        -65.4729         82.4873         82.4873
             470     1.18784E+03     1.18784E+03        -66.6128        -66.6128         55.5878         55.5878
             471     1.07572E+03     1.07572E+03         327.700         327.700        -58.2456        -58.2456
             472     1.07416E+03     1.07416E+03         327.721         327.721        -44.7859        -44.7859
             473     1.07308E+03     1.07308E+03         327.742         327.742        -31.7481        -31.7481
             474     1.07241E+03     1.07241E+03         327.766         327.766        -18.9582        -18.9582
             475     1.07208E+03     1.07208E+03         327.774         327.774        -6.34597        -6.34597
             476     1.07208E+03     1.07208E+03         327.769         327.769         6.23822         6.23822
             477     1.07241E+03     1.07241E+03         327.752         327.752         18.8635         18.8635
             478     1.07309E+03     1.07309E+03         327.724         327.724         31.6729         31.6729
             479     1.07417E+03     1.07417E+03         327.702         327.702         44.7331         44.7331
             480     1.07573E+03     1.07573E+03         327.685         327.685         58.2139         58.2139
             481     1.08008E+03     1.08008E+03         327.705         327.705         83.6298         83.6298
             482     1.08304E+03     1.08304E+03         327.816         327.816         95.5649         95.5649
             483     1.08677E+03     1.08677E+03         327.939         327.939         108.302         108.302
             484     1.09181E+03     1.09181E+03         328.231         328.231         121.610         121.610
             485     1.09825E+03     1.09825E+03         328.607         328.607         136.274         136.274
             486     1.10741E+03     1.10741E+03         329.256         329.256         151.647         151.647
             487     1.11941E+03     1.11941E+03         330.211         330.211         169.596         169.596
             488     1.13803E+03     1.13803E+03         331.380         331.380         188.221         188.221
             489     1.16347E+03     1.16347E+03         333.718         333.718         212.896         212.896
             490     1.21107E+03     1.21107E+03         334.072         334.072         236.796         236.796
             491     1.28054E+03     1.28054E+03         340.126         340.126         281.515         281.515
             492     1.53346E+03     1.53346E+03         294.694         294.694         301.014         301.014
             493     1.57603E+03     1.57603E+03         112.662         112.662         178.288         178.288
             494     1.33626E+03     1.33626E+03         8.54982         8.54982         63.6322         63.6322
             495     1.23283E+03     1.23283E+03         14.5915         14.5915         40.1082         40.1082
             496     1.17044E+03     1.17044E+03         3.06627         3.06627         23.1747         23.1747
             497     1.13182E+03     1.13182E+03         4.59827         4.59827         15.7176         15.7176
             498     1.10646E+03     1.10646E+03         1.52593         1.52593         10.0380         10.0380
             499     1.08987E+03     1.08987E+03         2.00925         2.00925         6.72053         6.72053
             500     1.07917E+03     1.07917E+03     862.523E-03     862.523E-03         4.15699         4.15699
             501     1.07266E+03     1.07266E+03         1.04251         1.04251         2.43824         2.43824
             502     1.06919E+03     1.06919E+03     519.483E-03     519.483E-03         1.10380         1.10380
             503     1.06798E+03     1.06798E+03     594.076E-03     594.076E-03     144.699E-03     144.699E-03
             504     1.06845E+03     1.06845E+03     322.731E-03     322.731E-03    -598.672E-03    -598.672E-03
             505     1.07020E+03     1.07020E+03     354.564E-03     354.564E-03        -1.14912        -1.14912
             506     1.07291E+03     1.07291E+03     201.955E-03     201.955E-03        -1.57137        -1.57137
             507     1.07634E+03     1.07634E+03     214.581E-03     214.581E-03        -1.88464        -1.88464
             508     1.08032E+03     1.08032E+03     124.464E-03     124.464E-03        -2.11922        -2.11922
             509     1.08469E+03     1.08469E+03     128.194E-03     128.194E-03        -2.28883        -2.28883
             510     1.08935E+03     1.08935E+03     73.4133E-03     73.4133E-03        -2.40949        -2.40949
             511     1.09421E+03     1.09421E+03     73.1480E-03     73.1480E-03        -2.49049        -2.49049
             512     1.09920E+03     1.09920E+03     39.1519E-03     39.1519E-03        -2.54096        -2.54096
             513     1.10426E+03     1.10426E+03     37.1128E-03     37.1128E-03        -2.56691        -2.56691
             514     1.10935E+03     1.10935E+03     15.3622E-03     15.3622E-03        -2.57355        -2.57355
             515     1.11444E+03     1.11444E+03     12.2219E-03     12.2219E-03        -2.56428        -2.56428
             516     1.11950E+03     1.11950E+03    -2.79938E-03    -2.79938E-03        -2.54157        -2.54157
             517     1.12450E+03     1.12450E+03    -7.37599E-03    -7.37599E-03        -2.50661        -2.50661
             518     1.12942E+03     1.12942E+03    -19.6441E-03    -19.6441E-03        -2.45956        -2.45956
             519     1.13424E+03     1.13424E+03    -26.6783E-03    -26.6783E-03        -2.39946        -2.39946
             520     1.13892E+03     1.13892E+03    -39.3523E-03    -39.3523E-03        -2.32430        -2.32430
             521     1.14343E+03     1.14343E+03    -50.2376E-03    -50.2376E-03        -2.23106        -2.23106
             522     1.14773E+03     1.14773E+03    -65.8446E-03    -65.8446E-03        -2.11576        -2.11576
             523     1.15179E+03     1.15179E+03    -81.8253E-03    -81.8253E-03        -1.97368        -1.97368
             524     1.15552E+03     1.15552E+03    -101.879E-03    -101.879E-03        -1.79956        -1.79956
             525     1.15888E+03     1.15888E+03    -123.090E-03    -123.090E-03        -1.58814        -1.58814
             526     1.16177E+03     1.16177E+03    -147.041E-03    -147.041E-03        -1.33470        -1.33470
             527     1.16412E+03     1.16412E+03    -171.001E-03    -171.001E-03        -1.03603        -1.03603
             528     1.16583E+03     1.16583E+03    -194.639E-03    -194.639E-03    -691.391E-03    -691.391E-03
             529     1.16682E+03     1.16682E+03    -214.563E-03    -214.563E-03    -303.851E-03    -303.851E-03
             530     1.16700E+03     1.16700E+03    -228.715E-03    -228.715E-03     118.514E-03     118.514E-03
             531     1.16632E+03     1.16632E+03    -233.025E-03    -233.025E-03     561.547E-03     561.547E-03
             532     1.16477E+03     1.16477E+03    -224.559E-03    -224.559E-03         1.00434         1.00434
             533     1.16236E+03     1.16236E+03    -200.072E-03    -200.072E-03         1.41982         1.41982
             534     1.15919E+03     1.15919E+03    -157.832E-03    -157.832E-03         1.77462         1.77462
             535         18.5787         18.5787        -569.462        -569.462        -2.69395        -2.69395
             536         157.990         157.990        -210.471        -210.471        -7.19923        -7.19923
             537         380.898         380.898        -39.5169        -39.5169        -8.18147        -8.18147
             538         610.155         610.155         20.9985         20.9985        -7.11756        -7.11756
             539         800.123         800.123         30.7168         30.7168        -5.12304        -5.12304
             540     1.23763E+03     1.23763E+03        -89.1602        -89.1602        -46.5178        -46.5178
             541     1.28265E+03     1.28265E+03        -134.037        -134.037        -83.3687        -83.3687
             542     1.32512E+03     1.32512E+03        -175.261        -175.261        -142.866        -142.866
             543     1.31500E+03     1.31500E+03        -161.852        -161.852        -235.828        -235.828
             544     1.11933E+03     1.11933E+03         43.7352         43.7352        -379.721        -379.721
             545         564.404         564.404         43.7598         43.7598        -301.548        -301.548
             546         263.277         263.277        -210.719        -210.719        -140.078        -140.078
             547         85.6276         85.6276        -490.944        -490.944        -25.8706        -25.8706
             548         3.12354         3.12354        -713.639        -713.639         14.6820         14.6820
             549     1.27988E+03     1.27988E+03         185.907         185.907         1.20185         1.20185
             550     1.38948E+03     1.38948E+03         276.246         276.246         1.02984         1.02984
             551     1.59567E+03     1.59567E+03         359.172         359.172     899.732E-03     899.732E-03
             552     1.96219E+03     1.96219E+03         383.427         383.427     762.552E-03     762.552E-03
             553     2.55804E+03     2.55804E+03         278.687         278.687     504.147E-03     504.147E-03
             554     2.78419E+03     2.78419E+03         216.728         216.728        -323.866        -323.866
             555     2.41558E+03     2.41558E+03         288.588         288.588        -553.723        -553.723
             556     1.91776E+03     1.91776E+03         339.227         339.227        -641.995        -641.995
             557     1.40343E+03     1.40343E+03         316.788         316.788        -597.348        -597.348
             558     1.13224E+03     1.13224E+03         47.5034         47.5034         382.000         382.000
             559     1.32381E+03     1.32381E+03        -160.982        -160.982         233.026         233.026
             560     1.33008E+03     1.33008E+03        -174.765        -174.765         139.503         139.503
             561     1.28518E+03     1.28518E+03        -133.583        -133.583         80.7709         80.7709
             562     1.23883E+03     1.23883E+03        -88.7551        -88.7551         44.7733         44.7733
             563        -4.67242        -4.67242        -751.766        -751.766        -17.1691        -17.1691
             564         46.6074         46.6074        -584.241        -584.241     520.793E-03     520.793E-03
             565         155.897         155.897        -355.711        -355.711         70.9731         70.9731
             566         343.233         343.233        -118.756        -118.756         188.542         188.542
             567         618.155         618.155         82.5996         82.5996         329.273         329.273
             568     1.24082E+03     1.24082E+03        -90.9155        -90.9155         47.2324         47.2324
             569     1.28707E+03     1.28707E+03        -135.349        -135.349         82.4650         82.4650
             570     1.33191E+03     1.33191E+03        -176.198        -176.198         140.629         140.629
             571     1.32569E+03     1.32569E+03        -162.038        -162.038         233.788         233.788
             572     1.13408E+03     1.13408E+03         47.2253         47.2253         382.783         382.783
             573     1.40527E+03     1.40527E+03         316.320         316.320         598.290         598.290
             574     1.91979E+03     1.91979E+03         339.700         339.700         643.016         643.016
             575     2.41739E+03     2.41739E+03         289.019         289.019         554.659         554.659
             576     2.78526E+03     2.78526E+03         216.968         216.968         324.611         324.611
             577     1.10712E+03     1.10712E+03         39.3367         39.3367        -378.273        -378.273
             578     1.30968E+03     1.30968E+03        -166.888        -166.888        -238.876        -238.876
             579     1.32266E+03     1.32266E+03        -178.919        -178.919        -146.884        -146.884
             580     1.28184E+03     1.28184E+03        -136.848        -136.848        -87.2352        -87.2352
             581     1.23795E+03     1.23795E+03        -91.7429        -91.7429        -50.3629        -50.3629
             582     1.27951E+03     1.27951E+03         187.776         187.776        -3.75653        -3.75653
             583     1.38954E+03     1.38954E+03         278.206         278.206        -3.96823        -3.96823
             584     1.59669E+03     1.59669E+03         360.649         360.649        -2.75012        -2.75012
             585     1.96466E+03     1.96466E+03         383.948         383.948         1.01920         1.01920
             586     2.56254E+03     2.56254E+03         277.675         277.675         8.66526         8.66526
             587     2.83893E+03     2.83893E+03         204.621         204.621        -278.358        -278.358
             588     2.56911E+03     2.56911E+03         263.336         263.336        -498.535        -498.535
             589     2.18193E+03     2.18193E+03         323.091         323.091        -623.592        -623.592
             590     1.74541E+03     1.74541E+03         346.371         346.371        -646.901        -646.901
             591     1.32144E+03     1.32144E+03         310.687         310.687        -585.157        -585.157
             592     1.40292E+03     1.40292E+03         315.711         315.711         597.158         597.158
             593     1.91685E+03     1.91685E+03         339.101         339.101         641.803         641.803
             594     2.41398E+03     2.41398E+03         288.365         288.365         553.708         553.708
             595     2.78181E+03     2.78181E+03         216.995         216.995         323.817         323.817
             596         802.643         802.643         28.0118         28.0118        -5.09252        -5.09252
             597         611.766         611.766         18.8203         18.8203        -7.05631        -7.05631
             598         381.747         381.747        -41.4594        -41.4594        -8.09308        -8.09308
             599         158.227         158.227        -212.584        -212.584        -7.10180        -7.10180
             600         18.5015         18.5015        -572.366        -572.366        -2.61629        -2.61629
             601        -4.74901        -4.74901        -754.979        -754.979        -17.2613        -17.2613
             602         46.6526         46.6526        -586.799        -586.799     409.900E-03     409.900E-03
             603         156.194         156.194        -357.422        -357.422         70.9972         70.9972
             604         343.891         343.891        -119.638        -119.638         188.849         188.849
             605         619.336         619.336         82.4263         82.4263         329.872         329.872
             606         565.221         565.221         43.0192         43.0192        -301.660        -301.660
             607         263.519         263.519        -212.348        -212.348        -139.961        -139.961
             608         85.6149         85.6149        -493.488        -493.488        -25.5990        -25.5990
             609         3.00409         3.00409        -716.886        -716.886         14.9147         14.9147
             610     1.18903E+03     1.18903E+03        -39.3175        -39.3175        -14.9196        -14.9196
             611     1.17844E+03     1.17844E+03        -35.3280        -35.3280        -19.8373        -19.8373
             612     1.16911E+03     1.16911E+03        -30.1045        -30.1045        -22.4562        -22.4562
             613     1.16140E+03     1.16140E+03        -24.5913        -24.5913        -23.3018        -23.3018
             614     1.15534E+03     1.15534E+03        -19.3753        -19.3753        -22.9802        -22.9802
             615     1.15074E+03     1.15074E+03        -14.7256        -14.7256        -21.9696        -21.9696
             616     1.14736E+03     1.14736E+03        -10.7275        -10.7275        -20.6121        -20.6121
             617     1.14493E+03     1.14493E+03        -7.36526        -7.36526        -19.1216        -19.1216
             618     1.14326E+03     1.14326E+03        -4.58439        -4.58439        -17.6255        -17.6255
             619     1.14216E+03     1.14216E+03        -2.31485        -2.31485        -16.1922        -16.1922
             620     1.14148E+03     1.14148E+03    -487.076E-03    -487.076E-03        -14.8544        -14.8544
             621     1.14113E+03     1.14113E+03     964.156E-03     964.156E-03        -13.6234        -13.6234
             622     1.14101E+03     1.14101E+03         2.09667         2.09667        -12.4983        -12.4983
             623     1.14106E+03     1.14106E+03         2.96134         2.96134        -11.4723        -11.4723
             624     1.14122E+03     1.14122E+03         3.60210         3.60210        -10.5360        -10.5360
             625     1.14147E+03     1.14147E+03         4.05689         4.05689        -9.67947        -9.67947
             626     1.14177E+03     1.14177E+03         4.35827         4.35827        -8.89321        -8.89321
             627     1.14211E+03     1.14211E+03         4.53417         4.53417        -8.16889        -8.16889
             628     1.14245E+03     1.14245E+03         4.60844         4.60844        -7.49933        -7.49933
             629     1.14280E+03     1.14280E+03         4.60142         4.60142        -6.87856        -6.87856
             630     1.14315E+03     1.14315E+03         4.53040         4.53040        -6.30167        -6.30167
             631     1.14348E+03     1.14348E+03         4.41002         4.41002        -5.76464        -5.76464
             632     1.14379E+03     1.14379E+03         4.25263         4.25263        -5.26416        -5.26416
             633     1.14409E+03     1.14409E+03         4.06858         4.06858        -4.79752        -4.79752
             634     1.14436E+03     1.14436E+03         3.86651         3.86651        -4.36240        -4.36240
             635     1.14462E+03     1.14462E+03         3.65361         3.65361        -3.95678        -3.95678
             636     1.14485E+03     1.14485E+03         3.43578         3.43578        -3.57887        -3.57887
             637     1.14506E+03     1.14506E+03         3.21788         3.21788        -3.22699        -3.22699
             638     1.14525E+03     1.14525E+03         3.00383         3.00383        -2.89956        -2.89956
             639     1.14542E+03     1.14542E+03         2.79681         2.79681        -2.59503        -2.59503
             640     1.14557E+03     1.14557E+03         2.59935         2.59935        -2.31187        -2.31187
             641     1.14571E+03     1.14571E+03         2.41343         2.41343        -2.04852        -2.04852
             642     1.14583E+03     1.14583E+03         2.24061         2.24061        -1.80344        -1.80344
             643     1.14593E+03     1.14593E+03         2.08209         2.08209        -1.57504        -1.57504
             644     1.14602E+03     1.14602E+03         1.93876         1.93876        -1.36172        -1.36172
             645     1.14610E+03     1.14610E+03         1.81130         1.81130        -1.16186        -1.16186
             646     1.14616E+03     1.14616E+03         1.70019         1.70019    -973.824E-03    -973.824E-03
             647     1.14621E+03     1.14621E+03         1.60577         1.60577    -795.944E-03    -795.944E-03
             648     1.14626E+03     1.14626E+03         1.52829         1.52829    -626.549E-03    -626.549E-03
             649     1.14629E+03     1.14629E+03         1.46790         1.46790    -463.954E-03    -463.954E-03
             650     1.14631E+03     1.14631E+03         1.42471         1.42471    -306.474E-03    -306.474E-03
             651     1.14633E+03     1.14633E+03         1.39875         1.39875    -152.825E-03    -152.825E-03
             652     1.19001E+03     1.19001E+03        -32.9912        -32.9912        -5.22147        -5.22147
             653     1.18175E+03     1.18175E+03        -31.1850        -31.1850        -10.8021        -10.8021
             654     1.17401E+03     1.17401E+03        -27.8423        -27.8423        -14.5507        -14.5507
             655     1.16715E+03     1.16715E+03        -23.7348        -23.7348        -16.7628        -16.7628
             656     1.16137E+03     1.16137E+03        -19.4604        -19.4604        -17.7819        -17.7819
             657     1.15668E+03     1.15668E+03        -15.3860        -15.3860        -17.9674        -17.9674
             658     1.15298E+03     1.15298E+03        -11.7022        -11.7022        -17.6099        -17.6099
             659     1.15015E+03     1.15015E+03        -8.48602        -8.48602        -16.9279        -16.9279
             660     1.14803E+03     1.14803E+03        -5.74632        -5.74632        -16.0691        -16.0691
             661     1.14648E+03     1.14648E+03        -3.45826        -3.45826        -15.1304        -15.1304
             662     1.14538E+03     1.14538E+03        -1.57987        -1.57987        -14.1710        -14.1710
             663     1.14464E+03     1.14464E+03    -63.8660E-03    -63.8660E-03        -13.2259        -13.2259
             664     1.14416E+03     1.14416E+03         1.13767         1.13767        -12.3139        -12.3139
             665     1.14389E+03     1.14389E+03         2.06981         2.06981        -11.4441        -11.4441
             666     1.14377E+03     1.14377E+03         2.77388         2.77388        -10.6197        -10.6197
             667     1.14377E+03     1.14377E+03         3.28674         3.28674        -9.84095        -9.84095
             668     1.14384E+03     1.14384E+03         3.64093         3.64093        -9.10634        -9.10634
             669     1.14396E+03     1.14396E+03         3.86476         3.86476        -8.41377        -8.41377
             670     1.14412E+03     1.14412E+03         3.98273         3.98273        -7.76097        -7.76097
             671     1.14431E+03     1.14431E+03         4.01582         4.01582        -7.14584        -7.14584
             672     1.14450E+03     1.14450E+03         3.98194         3.98194        -6.56646        -6.56646
             673     1.14469E+03     1.14469E+03         3.89620         3.89620        -6.02116        -6.02116
             674     1.14488E+03     1.14488E+03         3.77135         3.77135        -5.50846        -5.50846
             675     1.14506E+03     1.14506E+03         3.61804         3.61804        -5.02701        -5.02701
             676     1.14523E+03     1.14523E+03         3.44511         3.44511        -4.57557        -4.57557
             677     1.14539E+03     1.14539E+03         3.25987         3.25987        -4.15291        -4.15291
             678     1.14554E+03     1.14554E+03         3.06829         3.06829        -3.75782        -3.75782
             679     1.14567E+03     1.14567E+03         2.87525         2.87525        -3.38906        -3.38906
             680     1.14579E+03     1.14579E+03         2.68469         2.68469        -3.04532        -3.04532
             681     1.14590E+03     1.14590E+03         2.49974         2.49974        -2.72525        -2.72525
             682     1.14599E+03     1.14599E+03         2.32289         2.32289        -2.42743        -2.42743
             683     1.14608E+03     1.14608E+03         2.15611         2.15611        -2.15038        -2.15038
             684     1.14615E+03     1.14615E+03         2.00090         2.00090        -1.89254        -1.89254
             685     1.14621E+03     1.14621E+03         1.85841         1.85841        -1.65231        -1.65231
             686     1.14627E+03     1.14627E+03         1.72951         1.72951        -1.42803        -1.42803
             687     1.14632E+03     1.14632E+03         1.61484         1.61484        -1.21803        -1.21803
             688     1.14636E+03     1.14636E+03         1.51486         1.51486        -1.02058        -1.02058
             689     1.14639E+03     1.14639E+03         1.42990         1.42990    -833.914E-03    -833.914E-03
             690     1.14641E+03     1.14641E+03         1.36017         1.36017    -656.272E-03    -656.272E-03
             691     1.14643E+03     1.14643E+03         1.30582         1.30582    -485.863E-03    -485.863E-03
             692     1.14645E+03     1.14645E+03         1.26696         1.26696    -320.891E-03    -320.891E-03
             693     1.14645E+03     1.14645E+03         1.24358         1.24358    -160.005E-03    -160.005E-03
             694     1.18846E+03     1.18846E+03        -26.6035        -26.6035         1.87946         1.87946
             695     1.18242E+03     1.18242E+03        -26.4585        -26.4585        -3.70311        -3.70311
             696     1.17631E+03     1.17631E+03        -24.6002        -24.6002        -7.92320        -7.92320
             697     1.17058E+03     1.17058E+03        -21.7568        -21.7568        -10.9057        -10.9057
             698     1.16546E+03     1.16546E+03        -18.4508        -18.4508        -12.8322        -12.8322
             699     1.16107E+03     1.16107E+03        -15.0680        -15.0680        -13.9218        -13.9218
             700     1.15743E+03     1.15743E+03        -11.8489        -11.8489        -14.3927        -14.3927
             701     1.15448E+03     1.15448E+03        -8.92774        -8.92774        -14.4266        -14.4266
             702     1.15215E+03     1.15215E+03        -6.36481        -6.36481        -14.1660        -14.1660
             703     1.15035E+03     1.15035E+03        -4.17355        -4.17355        -13.7139        -13.7139
             704     1.14897E+03     1.14897E+03        -2.34055        -2.34055        -13.1433        -13.1433
             705     1.14795E+03     1.14795E+03    -837.417E-03    -837.417E-03        -12.5038        -12.5038
             706     1.14720E+03     1.14720E+03     370.738E-03     370.738E-03        -11.8285        -11.8285
             707     1.14667E+03     1.14667E+03         1.32099         1.32099        -11.1394        -11.1394
             708     1.14630E+03     1.14630E+03         2.04950         2.04950        -10.4508        -10.4508
             709     1.14607E+03     1.14607E+03         2.59015         2.59015        -9.77217        -9.77217
             710     1.14593E+03     1.14593E+03         2.97370         2.97370        -9.10967        -9.10967
             711     1.14586E+03     1.14586E+03         3.22753         3.22753        -8.46741        -8.46741
             712     1.14584E+03     1.14584E+03         3.37561         3.37561        -7.84818        -7.84818
             713     1.14586E+03     1.14586E+03         3.43868         3.43868        -7.25388        -7.25388
             714     1.14590E+03     1.14590E+03         3.43448         3.43448        -6.68583        -6.68583
             715     1.14595E+03     1.14595E+03         3.37807         3.37807        -6.14485        -6.14485
             716     1.14601E+03     1.14601E+03         3.28208         3.28208        -5.63145        -5.63145
             717     1.14607E+03     1.14607E+03         3.15709         3.15709        -5.14581        -5.14581
             718     1.14613E+03     1.14613E+03         3.01184         3.01184        -4.68784        -4.68784
             719     1.14619E+03     1.14619E+03         2.85351         2.85351        -4.25723        -4.25723
             720     1.14625E+03     1.14625E+03         2.68796         2.68796        -3.85342        -3.85342
             721     1.14630E+03     1.14630E+03         2.51995         2.51995        -3.47564        -3.47564
             722     1.14635E+03     1.14635E+03         2.35329         2.35329        -3.12293        -3.12293
             723     1.14639E+03     1.14639E+03         2.19099         2.19099        -2.79419        -2.79419
             724     1.14642E+03     1.14642E+03         2.03546         2.03546        -2.48814        -2.48814
             725     1.14645E+03     1.14645E+03         1.88855         1.88855        -2.20338        -2.20338
             726     1.14648E+03     1.14648E+03         1.75169         1.75169        -1.93842        -1.93842
             727     1.14650E+03     1.14650E+03         1.62596         1.62596        -1.69166        -1.69166
             728     1.14652E+03     1.14652E+03         1.51218         1.51218        -1.46143        -1.46143
             729     1.14654E+03     1.14654E+03         1.41094         1.41094        -1.24601        -1.24601
             730     1.14655E+03     1.14655E+03         1.32265         1.32265        -1.04361        -1.04361
             731     1.14656E+03     1.14656E+03         1.24762         1.24762    -852.439E-03    -852.439E-03
             732     1.14657E+03     1.14657E+03         1.18605         1.18605    -670.649E-03    -670.649E-03
             733     1.14657E+03     1.14657E+03         1.13806         1.13806    -496.385E-03    -496.385E-03
             734     1.14658E+03     1.14658E+03         1.10373         1.10373    -327.779E-03    -327.779E-03
             735     1.14658E+03     1.14658E+03         1.08309         1.08309    -163.441E-03    -163.441E-03
             736     1.18552E+03     1.18552E+03        -20.7631        -20.7631         6.69142         6.69142
             737     1.18139E+03     1.18139E+03        -21.6784        -21.6784         1.59370         1.59370
             738     1.17684E+03     1.17684E+03        -20.9354        -20.9354        -2.65264        -2.65264
             739     1.17229E+03     1.17229E+03        -19.1148        -19.1148        -5.97661        -5.97661
             740     1.16801E+03     1.16801E+03        -16.6870        -16.6870        -8.43765        -8.43765
             741     1.16415E+03     1.16415E+03        -14.0013        -14.0013        -10.1477        -10.1477
             742     1.16080E+03     1.16080E+03        -11.3099        -11.3099        -11.2431        -11.2431
             743     1.15798E+03     1.15798E+03        -8.77246        -8.77246        -11.8589        -11.8589
             744     1.15564E+03     1.15564E+03        -6.48047        -6.48047        -12.1122        -12.1122
             745     1.15374E+03     1.15374E+03        -4.47592        -4.47592        -12.0987        -12.0987
             746     1.15222E+03     1.15222E+03        -2.76832        -2.76832        -11.8923        -11.8923
             747     1.15101E+03     1.15101E+03        -1.34706        -1.34706        -11.5493        -11.5493
             748     1.15007E+03     1.15007E+03    -189.892E-03    -189.892E-03        -11.1113        -11.1113
             749     1.14934E+03     1.14934E+03     731.051E-03     731.051E-03        -10.6092        -10.6092
             750     1.14878E+03     1.14878E+03         1.44569         1.44569        -10.0660        -10.0660
             751     1.14835E+03     1.14835E+03         1.98349         1.98349        -9.49885        -9.49885
             752     1.14802E+03     1.14802E+03         2.37224         2.37224        -8.92053        -8.92053
             753     1.14777E+03     1.14777E+03         2.63720         2.63720        -8.34085        -8.34085
             754     1.14758E+03     1.14758E+03         2.80085         2.80085        -7.76731        -7.76731
             755     1.14743E+03     1.14743E+03         2.88282         2.88282        -7.20567        -7.20567
             756     1.14732E+03     1.14732E+03         2.90002         2.90002        -6.66032        -6.66032
             757     1.14723E+03     1.14723E+03         2.86680         2.86680        -6.13459        -6.13459
             758     1.14716E+03     1.14716E+03         2.79528         2.79528        -5.63092        -5.63092
             759     1.14710E+03     1.14710E+03         2.69553         2.69553        -5.15102        -5.15102
             760     1.14705E+03     1.14705E+03         2.57587         2.57587        -4.69598        -4.69598
             761     1.14701E+03     1.14701E+03         2.44313         2.44313        -4.26637        -4.26637
             762     1.14697E+03     1.14697E+03         2.30287         2.30287        -3.86230        -3.86230
             763     1.14694E+03     1.14694E+03         2.15954         2.15954        -3.48350        -3.48350
             764     1.14691E+03     1.14691E+03         2.01672         2.01672        -3.12938        -3.12938
             765     1.14688E+03     1.14688E+03         1.87724         1.87724        -2.79906        -2.79906
             766     1.14685E+03     1.14685E+03         1.74330         1.74330        -2.49146        -2.49146
             767     1.14683E+03     1.14683E+03         1.61662         1.61662        -2.20529        -2.20529
             768     1.14681E+03     1.14681E+03         1.49851         1.49851        -1.93912        -1.93912
             769     1.14679E+03     1.14679E+03         1.38995         1.38995        -1.69139        -1.69139
             770     1.14677E+03     1.14677E+03         1.29168         1.29168        -1.46044        -1.46044
             771     1.14675E+03     1.14675E+03         1.20423         1.20423        -1.24455        -1.24455
             772     1.14673E+03     1.14673E+03         1.12797         1.12797        -1.04191        -1.04191
             773     1.14672E+03     1.14672E+03         1.06316         1.06316    -850.693E-03    -850.693E-03
             774     1.14671E+03     1.14671E+03         1.00997         1.00997    -669.036E-03    -669.036E-03
             775     1.14670E+03     1.14670E+03     968.527E-03     968.527E-03    -495.048E-03    -495.048E-03
             776     1.14669E+03     1.14669E+03     938.884E-03     938.884E-03    -326.827E-03    -326.827E-03
             777     1.14669E+03     1.14669E+03     921.060E-03     921.060E-03    -162.970E-03    -162.970E-03
             778     1.18204E+03     1.18204E+03        -15.7778        -15.7778         9.69979         9.69979
             779     1.17942E+03     1.17942E+03        -17.2199        -17.2199         5.29264         5.29264
             780     1.17624E+03     1.17624E+03        -17.2096        -17.2096         1.32048         1.32048
             781     1.17283E+03     1.17283E+03        -16.1654        -16.1654        -2.04530        -2.04530
             782     1.16943E+03     1.16943E+03        -14.4647        -14.4647        -4.75421        -4.75421
             783     1.16622E+03     1.16622E+03        -12.4166        -12.4166        -6.83606        -6.83606
             784     1.16332E+03     1.16332E+03        -10.2520        -10.2520        -8.35838        -8.35838
             785     1.16076E+03     1.16076E+03        -8.13478        -8.13478        -9.40613        -9.40613
             786     1.15856E+03     1.15856E+03        -6.16864        -6.16864        -10.0658        -10.0658
             787     1.15669E+03     1.15669E+03        -4.41207        -4.41207        -10.4159        -10.4159
             788     1.15513E+03     1.15513E+03        -2.89029        -2.89029        -10.5239        -10.5239
             789     1.15384E+03     1.15384E+03        -1.60630        -1.60630        -10.4456        -10.4456
             790     1.15277E+03     1.15277E+03    -548.914E-03    -548.914E-03        -10.2261        -10.2261
             791     1.15189E+03     1.15189E+03     301.206E-03     301.206E-03        -9.90151        -9.90151
             792     1.15117E+03     1.15117E+03     967.348E-03     967.348E-03        -9.50050        -9.50050
             793     1.15057E+03     1.15057E+03         1.47404         1.47404        -9.04594        -9.04594
             794     1.15008E+03     1.15008E+03         1.84523         1.84523        -8.55603        -8.55603
             795     1.14966E+03     1.14966E+03         2.10328         2.10328        -8.04523        -8.04523
             796     1.14931E+03     1.14931E+03         2.26836         2.26836        -7.52506        -7.52506
             797     1.14901E+03     1.14901E+03         2.35831         2.35831        -7.00461        -7.00461
             798     1.14875E+03     1.14875E+03         2.38856         2.38856        -6.49104        -6.49104
             799     1.14852E+03     1.14852E+03         2.37228         2.37228        -5.98989        -5.98989
             800     1.14832E+03     1.14832E+03         2.32056         2.32056        -5.50534        -5.50534
             801     1.14814E+03     1.14814E+03         2.24264         2.24264        -5.04050        -5.04050
             802     1.14798E+03     1.14798E+03         2.14614         2.14614        -4.59750        -4.59750
             803     1.14783E+03     1.14783E+03         2.03730         2.03730        -4.17773        -4.17773
             804     1.14770E+03     1.14770E+03         1.92116         1.92116        -3.78191        -3.78191
             805     1.14758E+03     1.14758E+03         1.80176         1.80176        -3.41023        -3.41023
             806     1.14747E+03     1.14747E+03         1.68232         1.68232        -3.06242        -3.06242
             807     1.14737E+03     1.14737E+03         1.56538         1.56538        -2.73786        -2.73786
             808     1.14728E+03     1.14728E+03         1.45291         1.45291        -2.43563        -2.43563
             809     1.14719E+03     1.14719E+03         1.34644         1.34644        -2.15457        -2.15457
             810     1.14712E+03     1.14712E+03         1.24711         1.24711        -1.89333        -1.89333
             811     1.14706E+03     1.14706E+03         1.15579         1.15579        -1.65039        -1.65039
             812     1.14700E+03     1.14700E+03         1.07311         1.07311        -1.42415        -1.42415
             813     1.14695E+03     1.14695E+03     999.540E-03     999.540E-03        -1.21290        -1.21290
             814     1.14690E+03     1.14690E+03     935.389E-03     935.389E-03        -1.01485        -1.01485
             815     1.14687E+03     1.14687E+03     880.878E-03     880.878E-03    -828.198E-03    -828.198E-03
             816     1.14684E+03     1.14684E+03     836.151E-03     836.151E-03    -651.073E-03    -651.073E-03
             817     1.14681E+03     1.14681E+03     801.298E-03     801.298E-03    -481.595E-03    -481.595E-03
             818     1.14680E+03     1.14680E+03     776.374E-03     776.374E-03    -317.867E-03    -317.867E-03
             819     1.14679E+03     1.14679E+03     761.391E-03     761.391E-03    -158.511E-03    -158.511E-03
             820     1.17850E+03     1.17850E+03        -11.6899        -11.6899         11.3599         11.3599
             821     1.17705E+03     1.17705E+03        -13.2735        -13.2735         7.67489         7.67489
             822     1.17502E+03     1.17502E+03        -13.6683        -13.6683         4.12039         4.12039
             823     1.17263E+03     1.17263E+03        -13.1573        -13.1573     913.783E-03     913.783E-03
             824     1.17010E+03     1.17010E+03        -12.0239        -12.0239        -1.83427        -1.83427
             825     1.16758E+03     1.16758E+03        -10.5179        -10.5179        -4.08727        -4.08727
             826     1.16519E+03     1.16519E+03        -8.84099        -8.84099        -5.85962        -5.85962
             827     1.16300E+03     1.16300E+03        -7.14191        -7.14191        -7.19287        -7.19287
             828     1.16102E+03     1.16102E+03        -5.52376        -5.52376        -8.14236        -8.14236
             829     1.15928E+03     1.15928E+03        -4.04984        -4.04984        -8.76695        -8.76695
             830     1.15777E+03     1.15777E+03        -2.75368        -2.75368        -9.12298        -9.12298
             831     1.15645E+03     1.15645E+03        -1.64688        -1.64688        -9.26152        -9.26152
             832     1.15531E+03     1.15531E+03    -726.440E-03    -726.440E-03        -9.22702        -9.22702
             833     1.15433E+03     1.15433E+03     19.7990E-03     19.7990E-03        -9.05747        -9.05747
             834     1.15348E+03     1.15348E+03     609.100E-03     609.100E-03        -8.78477        -8.78477
             835     1.15274E+03     1.15274E+03         1.06093         1.06093        -8.43548        -8.43548
             836     1.15209E+03     1.15209E+03         1.39511         1.39511        -8.03147        -8.03147
             837     1.15152E+03     1.15152E+03         1.63053         1.63053        -7.59069        -7.59069
             838     1.15101E+03     1.15101E+03         1.78458         1.78458        -7.12769        -7.12769
             839     1.15056E+03     1.15056E+03         1.87272         1.87272        -6.65418        -6.65418
             840     1.15015E+03     1.15015E+03         1.90842         1.90842        -6.17947        -6.17947
             841     1.14979E+03     1.14979E+03         1.90321         1.90321        -5.71088        -5.71088
             842     1.14946E+03     1.14946E+03         1.86682         1.86682        -5.25399        -5.25399
             843     1.14915E+03     1.14915E+03         1.80734         1.80734        -4.81300        -4.81300
             844     1.14888E+03     1.14888E+03         1.73145         1.73145        -4.39092        -4.39092
             845     1.14863E+03     1.14863E+03         1.64456         1.64456        -3.98976        -3.98976
             846     1.14840E+03     1.14840E+03         1.55107         1.55107        -3.61075        -3.61075
             847     1.14819E+03     1.14819E+03         1.45449         1.45449        -3.25445        -3.25445
             848     1.14800E+03     1.14800E+03         1.35758         1.35758        -2.92086        -2.92086
             849     1.14783E+03     1.14783E+03         1.26253         1.26253        -2.60958        -2.60958
             850     1.14767E+03     1.14767E+03         1.17101         1.17101        -2.31982        -2.31982
             851     1.14753E+03     1.14753E+03         1.08431         1.08431        -2.05056        -2.05056
             852     1.14741E+03     1.14741E+03         1.00342         1.00342        -1.80053        -1.80053
             853     1.14730E+03     1.14730E+03     929.042E-03     929.042E-03        -1.56829        -1.56829
             854     1.14720E+03     1.14720E+03     861.716E-03     861.716E-03        -1.35229        -1.35229
             855     1.14712E+03     1.14712E+03     801.813E-03     801.813E-03        -1.15089        -1.15089
             856     1.14705E+03     1.14705E+03     749.593E-03     749.593E-03    -962.349E-03    -962.349E-03
             857     1.14699E+03     1.14699E+03     705.230E-03     705.230E-03    -784.902E-03    -784.902E-03
             858     1.14694E+03     1.14694E+03     668.837E-03     668.837E-03    -616.737E-03    -616.737E-03
             859     1.14690E+03     1.14690E+03     640.483E-03     640.483E-03    -456.019E-03    -456.019E-03
             860     1.14688E+03     1.14688E+03     620.208E-03     620.208E-03    -300.902E-03    -300.902E-03
             861     1.14686E+03     1.14686E+03     608.025E-03     608.025E-03    -150.066E-03    -150.066E-03
             862     1.17515E+03     1.17515E+03        -8.41832        -8.41832         12.0118         12.0118
             863     1.17463E+03     1.17463E+03        -9.89143        -9.89143         8.99133         8.99133
             864     1.17354E+03     1.17354E+03        -10.4467        -10.4467         5.90303         5.90303
             865     1.17206E+03     1.17206E+03        -10.2636        -10.2636         2.96862         2.96862
             866     1.17034E+03     1.17034E+03        -9.54380        -9.54380     330.070E-03     330.070E-03
             867     1.16851E+03     1.16851E+03        -8.47801        -8.47801        -1.93802        -1.93802
             868     1.16666E+03     1.16666E+03        -7.22812        -7.22812        -3.80955        -3.80955
             869     1.16487E+03     1.16487E+03        -5.92110        -5.92110        -5.29289        -5.29289
             870     1.16318E+03     1.16318E+03        -4.64796        -4.64796        -6.41669        -6.41669
             871     1.16162E+03     1.16162E+03        -3.46904        -3.46904        -7.22081        -7.22081
             872     1.16019E+03     1.16019E+03        -2.41896        -2.41896        -7.74941        -7.74941
             873     1.15890E+03     1.15890E+03        -1.51338        -1.51338        -8.04648        -8.04648
             874     1.15773E+03     1.15773E+03    -754.258E-03    -754.258E-03        -8.15338        -8.15338
             875     1.15667E+03     1.15667E+03    -134.750E-03    -134.750E-03        -8.10742        -8.10742
             876     1.15571E+03     1.15571E+03     357.315E-03     357.315E-03        -7.94142        -7.94142
             877     1.15484E+03     1.15484E+03     736.748E-03     736.748E-03        -7.68363        -7.68363
             878     1.15405E+03     1.15405E+03         1.01919         1.01919        -7.35800        -7.35800
             879     1.15333E+03     1.15333E+03         1.21991         1.21991        -6.98450        -6.98450
             880     1.15268E+03     1.15268E+03         1.35313         1.35313        -6.57964        -6.57964
             881     1.15208E+03     1.15208E+03         1.43161         1.43161        -6.15677        -6.15677
             882     1.15153E+03     1.15153E+03         1.46652         1.46652        -5.72666        -5.72666
             883     1.15102E+03     1.15102E+03         1.46745         1.46745        -5.29773        -5.29773
             884     1.15056E+03     1.15056E+03         1.44246         1.44246        -4.87653        -4.87653
             885     1.15013E+03     1.15013E+03         1.39830         1.39830        -4.46796        -4.46796
             886     1.14974E+03     1.14974E+03         1.34049         1.34049        -4.07559        -4.07559
             887     1.14939E+03     1.14939E+03         1.27351         1.27351        -3.70188        -3.70188
             888     1.14906E+03     1.14906E+03         1.20099         1.20099        -3.34836        -3.34836
             889     1.14877E+03     1.14877E+03         1.12579         1.12579        -3.01586        -3.01586
             890     1.14850E+03     1.14850E+03         1.05019         1.05019        -2.70457        -2.70457
             891     1.14825E+03     1.14825E+03     975.955E-03     975.955E-03        -2.41423        -2.41423
             892     1.14804E+03     1.14804E+03     904.441E-03     904.441E-03        -2.14420        -2.14420
             893     1.14784E+03     1.14784E+03     836.689E-03     836.689E-03        -1.89355        -1.89355
             894     1.14767E+03     1.14767E+03     773.475E-03     773.475E-03        -1.66110        -1.66110
             895     1.14751E+03     1.14751E+03     715.370E-03     715.370E-03        -1.44552        -1.44552
             896     1.14738E+03     1.14738E+03     662.789E-03     662.789E-03        -1.24534        -1.24534
             897     1.14726E+03     1.14726E+03     616.022E-03     616.022E-03        -1.05899        -1.05899
             898     1.14716E+03     1.14716E+03     575.268E-03     575.268E-03    -884.841E-03    -884.841E-03
             899     1.14708E+03     1.14708E+03     540.657E-03     540.657E-03    -721.209E-03    -721.209E-03
             900     1.14701E+03     1.14701E+03     512.272E-03     512.272E-03    -566.373E-03    -566.373E-03
             901     1.14696E+03     1.14696E+03     490.160E-03     490.160E-03    -418.593E-03    -418.593E-03
             902     1.14693E+03     1.14693E+03     474.351E-03     474.351E-03    -276.116E-03    -276.116E-03
             903     1.14691E+03     1.14691E+03     464.857E-03     464.857E-03    -137.730E-03    -137.730E-03
             904     1.17212E+03     1.17212E+03        -5.83517        -5.83517         11.8709         11.8709
             905     1.17236E+03     1.17236E+03        -7.05543        -7.05543         9.42744         9.42744
             906     1.17210E+03     1.17210E+03        -7.60536        -7.60536         6.80261         6.80261
             907     1.17143E+03     1.17143E+03        -7.59494        -7.59494         4.20250         4.20250
             908     1.17045E+03     1.17045E+03        -7.15975        -7.15975         1.77518         1.77518
             909     1.16926E+03     1.16926E+03        -6.43673        -6.43673    -384.605E-03    -384.605E-03
             910     1.16795E+03     1.16795E+03        -5.54797        -5.54797        -2.22762        -2.22762
             911     1.16657E+03     1.16657E+03        -4.59243        -4.59243        -3.73837        -3.73837
             912     1.16519E+03     1.16519E+03        -3.64442        -3.64442        -4.92582        -4.92582
             913     1.16383E+03     1.16383E+03        -2.75458        -2.75458        -5.81409        -5.81409
             914     1.16251E+03     1.16251E+03        -1.95407        -1.95407        -6.43600        -6.43600
             915     1.16125E+03     1.16125E+03        -1.25836        -1.25836        -6.82806        -6.82806
             916     1.16006E+03     1.16006E+03    -671.738E-03    -671.738E-03        -7.02702        -7.02702
             917     1.15893E+03     1.15893E+03    -190.744E-03    -190.744E-03        -7.06779        -7.06779
             918     1.15788E+03     1.15788E+03     192.793E-03     192.793E-03        -6.98219        -6.98219
             919     1.15689E+03     1.15689E+03     489.607E-03     489.607E-03        -6.79837        -6.79837
             920     1.15596E+03     1.15596E+03     711.407E-03     711.407E-03        -6.54064        -6.54064
             921     1.15509E+03     1.15509E+03     869.847E-03     869.847E-03        -6.22960        -6.22960
             922     1.15429E+03     1.15429E+03     975.880E-03     975.880E-03        -5.88236        -5.88236
             923     1.15354E+03     1.15354E+03         1.03940         1.03940        -5.51295        -5.51295
             924     1.15284E+03     1.15284E+03         1.06911         1.06911        -5.13261        -5.13261
             925     1.15220E+03     1.15220E+03         1.07246         1.07246        -4.75025        -4.75025
             926     1.15160E+03     1.15160E+03         1.05574         1.05574        -4.37275        -4.37275
             927     1.15105E+03     1.15105E+03         1.02419         1.02419        -4.00530        -4.00530
             928     1.15055E+03     1.15055E+03     982.093E-03     982.093E-03        -3.65165        -3.65165
             929     1.15009E+03     1.15009E+03     932.919E-03     932.919E-03        -3.31445        -3.31445
             930     1.14967E+03     1.14967E+03     879.452E-03     879.452E-03        -2.99535        -2.99535
             931     1.14929E+03     1.14929E+03     823.901E-03     823.901E-03        -2.69529        -2.69529
             932     1.14894E+03     1.14894E+03     767.995E-03     767.995E-03        -2.41455        -2.41455
             933     1.14863E+03     1.14863E+03     713.079E-03     713.079E-03        -2.15298        -2.15298
             934     1.14835E+03     1.14835E+03     660.181E-03     660.181E-03        -1.91003        -1.91003
             935     1.14810E+03     1.14810E+03     610.079E-03     610.079E-03        -1.68484        -1.68484
             936     1.14788E+03     1.14788E+03     563.353E-03     563.353E-03        -1.47637        -1.47637
             937     1.14768E+03     1.14768E+03     520.425E-03     520.425E-03        -1.28338        -1.28338
             938     1.14751E+03     1.14751E+03     481.599E-03     481.599E-03        -1.10452        -1.10452
             939     1.14736E+03     1.14736E+03     447.083E-03     447.083E-03    -938.353E-03    -938.353E-03
             940     1.14724E+03     1.14724E+03     417.021E-03     417.021E-03    -783.366E-03    -783.366E-03
             941     1.14714E+03     1.14714E+03     391.501E-03     391.501E-03    -638.014E-03    -638.014E-03
             942     1.14705E+03     1.14705E+03     370.578E-03     370.578E-03    -500.718E-03    -500.718E-03
             943     1.14699E+03     1.14699E+03     354.283E-03     354.283E-03    -369.880E-03    -369.880E-03
             944     1.14694E+03     1.14694E+03     342.631E-03     342.631E-03    -243.896E-03    -243.896E-03
             945     1.14692E+03     1.14692E+03     335.637E-03     335.637E-03    -121.696E-03    -121.696E-03
             946     1.16947E+03     1.16947E+03        -3.81625        -3.81625         11.0394         11.0394
             947     1.17042E+03     1.17042E+03        -4.72006        -4.72006         9.09152         9.09152
             948     1.17090E+03     1.17090E+03        -5.16825        -5.16825         6.91376         6.91376
             949     1.17098E+03     1.17098E+03        -5.22455        -5.22455         4.68642         4.68642
             950     1.17069E+03     1.17069E+03        -4.97535        -4.97535         2.54922         2.54922
             951     1.17010E+03     1.17010E+03        -4.51218        -4.51218     600.022E-03     600.022E-03
             952     1.16929E+03     1.16929E+03        -3.91965        -3.91965        -1.10132        -1.10132
             953     1.16830E+03     1.16830E+03        -3.26863        -3.26863        -2.52692        -2.52692
             954     1.16720E+03     1.16720E+03        -2.61343        -2.61343        -3.67273        -3.67273
             955     1.16603E+03     1.16603E+03        -1.99241        -1.99241        -4.55180        -4.55180
             956     1.16481E+03     1.16481E+03        -1.42965        -1.42965        -5.18771        -5.18771
             957     1.16359E+03     1.16359E+03    -938.043E-03    -938.043E-03        -5.60989        -5.60989
             958     1.16236E+03     1.16236E+03    -521.899E-03    -521.899E-03        -5.84989        -5.84989
             959     1.16116E+03     1.16116E+03    -179.738E-03    -179.738E-03        -5.93889        -5.93889
             960     1.16000E+03     1.16000E+03     93.6811E-03     93.6811E-03        -5.90608        -5.90608
             961     1.15888E+03     1.15888E+03     305.644E-03     305.644E-03        -5.77778        -5.77778
             962     1.15781E+03     1.15781E+03     464.318E-03     464.318E-03        -5.57703        -5.57703
             963     1.15679E+03     1.15679E+03     577.930E-03     577.930E-03        -5.32349        -5.32349
             964     1.15583E+03     1.15583E+03     654.269E-03     654.269E-03        -5.03359        -5.03359
             965     1.15492E+03     1.15492E+03     700.396E-03     700.396E-03        -4.72081        -4.72081
             966     1.15408E+03     1.15408E+03     722.520E-03     722.520E-03        -4.39599        -4.39599
             967     1.15330E+03     1.15330E+03     725.973E-03     725.973E-03        -4.06770        -4.06770
             968     1.15257E+03     1.15257E+03     715.243E-03     715.243E-03        -3.74253        -3.74253
             969     1.15190E+03     1.15190E+03     694.051E-03     694.051E-03        -3.42544        -3.42544
             970     1.15128E+03     1.15128E+03     665.440E-03     665.440E-03        -3.12006        -3.12006
             971     1.15072E+03     1.15072E+03     631.867E-03     631.867E-03        -2.82888        -2.82888
             972     1.15021E+03     1.15021E+03     595.292E-03     595.292E-03        -2.55349        -2.55349
             973     1.14974E+03     1.14974E+03     557.265E-03     557.265E-03        -2.29478        -2.29478
             974     1.14932E+03     1.14932E+03     518.994E-03     518.994E-03        -2.05307        -2.05307
             975     1.14894E+03     1.14894E+03     481.414E-03     481.414E-03        -1.82821        -1.82821
             976     1.14860E+03     1.14860E+03     445.234E-03     445.234E-03        -1.61972        -1.61972
             977     1.14830E+03     1.14830E+03     410.988E-03     410.988E-03        -1.42687        -1.42687
             978     1.14803E+03     1.14803E+03     379.073E-03     379.073E-03        -1.24870        -1.24870
             979     1.14780E+03     1.14780E+03     349.772E-03     349.772E-03        -1.08412        -1.08412
             980     1.14759E+03     1.14759E+03     323.288E-03     323.288E-03    -931.935E-03    -931.935E-03
             981     1.14742E+03     1.14742E+03     299.761E-03     299.761E-03    -790.868E-03    -790.868E-03
             982     1.14727E+03     1.14727E+03     279.280E-03     279.280E-03    -659.590E-03    -659.590E-03
             983     1.14715E+03     1.14715E+03     261.906E-03     261.906E-03    -536.737E-03    -536.737E-03
             984     1.14705E+03     1.14705E+03     247.666E-03     247.666E-03    -420.930E-03    -420.930E-03
             985     1.14697E+03     1.14697E+03     236.572E-03     236.572E-03    -310.764E-03    -310.764E-03
             986     1.14692E+03     1.14692E+03     228.639E-03     228.639E-03    -204.831E-03    -204.831E-03
             987     1.14689E+03     1.14689E+03     223.879E-03     223.879E-03    -102.267E-03    -102.267E-03
             988     1.16726E+03     1.16726E+03        -2.26358        -2.26358         9.52316         9.52316
             989     1.16893E+03     1.16893E+03        -2.84697        -2.84697         8.01684         8.01684
             990     1.17016E+03     1.17016E+03        -3.15191        -3.15191         6.28312         6.28312
             991     1.17094E+03     1.17094E+03        -3.21321        -3.21321         4.47056         4.47056
             992     1.17129E+03     1.17129E+03        -3.08101        -3.08101         2.69947         2.69947
             993     1.17126E+03     1.17126E+03        -2.81051        -2.81051         1.05886         1.05886
             994     1.17090E+03     1.17090E+03        -2.45403        -2.45403    -393.192E-03    -393.192E-03
             995     1.17026E+03     1.17026E+03        -2.05626        -2.05626        -1.62539        -1.62539
             996     1.16940E+03     1.16940E+03        -1.65214        -1.65214        -2.62816        -2.62816
             997     1.16837E+03     1.16837E+03        -1.26660        -1.26660        -3.40765        -3.40765
             998     1.16721E+03     1.16721E+03    -915.753E-03    -915.753E-03        -3.98073        -3.98073
             999     1.16598E+03     1.16598E+03    -608.317E-03    -608.317E-03        -4.37041        -4.37041
            1000     1.16469E+03     1.16469E+03    -347.591E-03    -347.591E-03        -4.60256        -4.60256
            1001     1.16339E+03     1.16339E+03    -132.950E-03    -132.950E-03        -4.70343        -4.70343
            1002     1.16210E+03     1.16210E+03     38.6757E-03     38.6757E-03        -4.69801        -4.69801
            1003     1.16082E+03     1.16082E+03     171.775E-03     171.775E-03        -4.60905        -4.60905
            1004     1.15959E+03     1.15959E+03     271.440E-03     271.440E-03        -4.45659        -4.45659
            1005     1.15841E+03     1.15841E+03     342.840E-03     342.840E-03        -4.25778        -4.25778
            1006     1.15728E+03     1.15728E+03     390.885E-03     390.885E-03        -4.02697        -4.02697
            1007     1.15622E+03     1.15622E+03     420.027E-03     420.027E-03        -3.77592        -3.77592
            1008     1.15522E+03     1.15522E+03     434.184E-03     434.184E-03        -3.51407        -3.51407
            1009     1.15429E+03     1.15429E+03     436.710E-03     436.710E-03        -3.24882        -3.24882
            1010     1.15343E+03     1.15343E+03     430.426E-03     430.426E-03        -2.98588        -2.98588
            1011     1.15264E+03     1.15264E+03     417.662E-03     417.662E-03        -2.72951        -2.72951
            1012     1.15191E+03     1.15191E+03     400.319E-03     400.319E-03        -2.48277        -2.48277
            1013     1.15125E+03     1.15125E+03     379.924E-03     379.924E-03        -2.24779        -2.24779
            1014     1.15065E+03     1.15065E+03     357.695E-03     357.695E-03        -2.02589        -2.02589
            1015     1.15010E+03     1.15010E+03     334.587E-03     334.587E-03        -1.81780        -1.81780
            1016     1.14961E+03     1.14961E+03     311.343E-03     311.343E-03        -1.62377        -1.62377
            1017     1.14917E+03     1.14917E+03     288.534E-03     288.534E-03        -1.44365        -1.44365
            1018     1.14878E+03     1.14878E+03     266.591E-03     266.591E-03        -1.27702        -1.27702
            1019     1.14843E+03     1.14843E+03     245.839E-03     245.839E-03        -1.12326        -1.12326
            1020     1.14812E+03     1.14812E+03     226.513E-03     226.513E-03    -981.547E-03    -981.547E-03
            1021     1.14785E+03     1.14785E+03     208.784E-03     208.784E-03    -850.979E-03    -850.979E-03
            1022     1.14762E+03     1.14762E+03     192.771E-03     192.771E-03    -730.553E-03    -730.553E-03
            1023     1.14742E+03     1.14742E+03     178.554E-03     178.554E-03    -619.210E-03    -619.210E-03
            1024     1.14725E+03     1.14725E+03     166.187E-03     166.187E-03    -515.853E-03    -515.853E-03
            1025     1.14711E+03     1.14711E+03     155.700E-03     155.700E-03    -419.363E-03    -419.363E-03
            1026     1.14700E+03     1.14700E+03     147.116E-03     147.116E-03    -328.605E-03    -328.605E-03
            1027     1.14691E+03     1.14691E+03     140.428E-03     140.428E-03    -242.451E-03    -242.451E-03
            1028     1.14685E+03     1.14685E+03     135.622E-03     135.622E-03    -159.745E-03    -159.745E-03
            1029     1.14681E+03     1.14681E+03     132.739E-03     132.739E-03    -79.8444E-03    -79.8444E-03
            1030     1.16557E+03     1.16557E+03        -1.12223        -1.12223         7.23977         7.23977
            1031     1.16806E+03     1.16806E+03        -1.42788        -1.42788         6.16729         6.16729
            1032     1.17008E+03     1.17008E+03        -1.59240        -1.59240         4.91130         4.91130
            1033     1.17157E+03     1.17157E+03        -1.63219        -1.63219         3.58245         3.58245
            1034     1.17254E+03     1.17254E+03        -1.57191        -1.57191         2.27190         2.27190
            1035     1.17301E+03     1.17301E+03        -1.43921        -1.43921         1.04869         1.04869
            1036     1.17303E+03     1.17303E+03        -1.26081        -1.26081    -40.6317E-03    -40.6317E-03
            1037     1.17265E+03     1.17265E+03        -1.05982        -1.05982    -969.912E-03    -969.912E-03
            1038     1.17195E+03     1.17195E+03    -854.422E-03    -854.422E-03        -1.72961        -1.72961
            1039     1.17098E+03     1.17098E+03    -657.797E-03    -657.797E-03        -2.32284        -2.32284
            1040     1.16982E+03     1.16982E+03    -478.424E-03    -478.424E-03        -2.76120        -2.76120
            1041     1.16851E+03     1.16851E+03    -321.050E-03    -321.050E-03        -3.06155        -3.06155
            1042     1.16710E+03     1.16710E+03    -187.469E-03    -187.469E-03        -3.24314        -3.24314
            1043     1.16565E+03     1.16565E+03    -77.4685E-03    -77.4685E-03        -3.32577        -3.32577
            1044     1.16418E+03     1.16418E+03     10.5013E-03     10.5013E-03        -3.32838        -3.32838
            1045     1.16272E+03     1.16272E+03     78.7249E-03     78.7249E-03        -3.26823        -3.26823
            1046     1.16130E+03     1.16130E+03     129.821E-03     129.821E-03        -3.16056        -3.16056
            1047     1.15993E+03     1.15993E+03     166.453E-03     166.453E-03        -3.01835        -3.01835
            1048     1.15862E+03     1.15862E+03     191.147E-03     191.147E-03        -2.85245        -2.85245
            1049     1.15739E+03     1.15739E+03     206.198E-03     206.198E-03        -2.67170        -2.67170
            1050     1.15624E+03     1.15624E+03     213.617E-03     213.617E-03        -2.48317        -2.48317
            1051     1.15516E+03     1.15516E+03     215.125E-03     215.125E-03        -2.29236        -2.29236
            1052     1.15417E+03     1.15417E+03     212.165E-03     212.165E-03        -2.10349        -2.10349
            1053     1.15326E+03     1.15326E+03     205.926E-03     205.926E-03        -1.91966        -1.91966
            1054     1.15242E+03     1.15242E+03     197.375E-03     197.375E-03        -1.74311        -1.74311
            1055     1.15167E+03     1.15167E+03     187.286E-03     187.286E-03        -1.57535        -1.57535
            1056     1.15098E+03     1.15098E+03     176.276E-03     176.276E-03        -1.41730        -1.41730
            1057     1.15036E+03     1.15036E+03     164.824E-03     164.824E-03        -1.26944        -1.26944
            1058     1.14980E+03     1.14980E+03     153.305E-03     153.305E-03        -1.13192        -1.13192
            1059     1.14931E+03     1.14931E+03     142.004E-03     142.004E-03        -1.00459        -1.00459
            1060     1.14886E+03     1.14886E+03     131.136E-03     131.136E-03    -887.115E-03    -887.115E-03
            1061     1.14847E+03     1.14847E+03     120.862E-03     120.862E-03    -778.991E-03    -778.991E-03
            1062     1.14813E+03     1.14813E+03     111.298E-03     111.298E-03    -679.619E-03    -679.619E-03
            1063     1.14783E+03     1.14783E+03     102.528E-03     102.528E-03    -588.312E-03    -588.312E-03
            1064     1.14757E+03     1.14757E+03     94.6106E-03     94.6106E-03    -504.331E-03    -504.331E-03
            1065     1.14735E+03     1.14735E+03     87.5836E-03     87.5836E-03    -426.900E-03    -426.900E-03
            1066     1.14717E+03     1.14717E+03     81.4735E-03     81.4735E-03    -355.217E-03    -355.217E-03
            1067     1.14701E+03     1.14701E+03     76.2946E-03     76.2946E-03    -288.468E-03    -288.468E-03
            1068     1.14689E+03     1.14689E+03     72.0571E-03     72.0571E-03    -225.831E-03    -225.831E-03
            1069     1.14679E+03     1.14679E+03     68.7759E-03     68.7759E-03    -166.487E-03    -166.487E-03
            1070     1.14673E+03     1.14673E+03     66.4035E-03     66.4035E-03    -109.654E-03    -109.654E-03
            1071     1.14669E+03     1.14669E+03     64.9277E-03     64.9277E-03    -54.9886E-03    -54.9886E-03
            1072     1.16455E+03     1.16455E+03    -394.728E-03    -394.728E-03         4.04285         4.04285
            1073     1.16804E+03     1.16804E+03    -506.446E-03    -506.446E-03         3.46092         3.46092
            1074     1.17094E+03     1.17094E+03    -567.618E-03    -567.618E-03         2.77447         2.77447
            1075     1.17317E+03     1.17317E+03    -584.057E-03    -584.057E-03         2.04541         2.04541
            1076     1.17472E+03     1.17472E+03    -564.278E-03    -564.278E-03         1.32450         1.32450
            1077     1.17562E+03     1.17562E+03    -518.078E-03    -518.078E-03     650.455E-03     650.455E-03
            1078     1.17591E+03     1.17591E+03    -455.106E-03    -455.106E-03     49.5999E-03     49.5999E-03
            1079     1.17569E+03     1.17569E+03    -383.662E-03    -383.662E-03    -463.092E-03    -463.092E-03
            1080     1.17502E+03     1.17502E+03    -310.406E-03    -310.406E-03    -882.132E-03    -882.132E-03
            1081     1.17400E+03     1.17400E+03    -240.091E-03    -240.091E-03        -1.20906        -1.20906
            1082     1.17271E+03     1.17271E+03    -175.864E-03    -175.864E-03        -1.45038        -1.45038
            1083     1.17123E+03     1.17123E+03    -119.443E-03    -119.443E-03        -1.61546        -1.61546
            1084     1.16962E+03     1.16962E+03    -71.5182E-03    -71.5182E-03        -1.71512        -1.71512
            1085     1.16795E+03     1.16795E+03    -32.0209E-03    -32.0209E-03        -1.76040        -1.76040
            1086     1.16624E+03     1.16624E+03    -405.296E-06    -405.296E-06        -1.76189        -1.76189
            1087     1.16456E+03     1.16456E+03     24.1443E-03     24.1443E-03        -1.72919        -1.72919
            1088     1.16291E+03     1.16291E+03     42.5694E-03     42.5694E-03        -1.67076        -1.67076
            1089     1.16133E+03     1.16133E+03     55.8221E-03     55.8221E-03        -1.59377        -1.59377
            1090     1.15983E+03     1.15983E+03     64.8118E-03     64.8118E-03        -1.50418        -1.50418
            1091     1.15841E+03     1.15841E+03     70.3577E-03     70.3577E-03        -1.40682        -1.40682
            1092     1.15710E+03     1.15710E+03     73.1812E-03     73.1812E-03        -1.30552        -1.30552
            1093     1.15587E+03     1.15587E+03     73.8959E-03     73.8959E-03        -1.20327        -1.20327
            1094     1.15475E+03     1.15475E+03     73.0170E-03     73.0170E-03        -1.10232        -1.10232
            1095     1.15372E+03     1.15372E+03     70.9677E-03     70.9677E-03        -1.00431        -1.00431
            1096     1.15279E+03     1.15279E+03     68.0916E-03     68.0916E-03    -910.414E-03    -910.414E-03
            1097     1.15194E+03     1.15194E+03     64.6638E-03     64.6638E-03    -821.411E-03    -821.411E-03
            1098     1.15118E+03     1.15118E+03     60.9021E-03     60.9021E-03    -737.767E-03    -737.767E-03
            1099     1.15049E+03     1.15049E+03     56.9771E-03     56.9771E-03    -659.711E-03    -659.711E-03
            1100     1.14988E+03     1.14988E+03     53.0206E-03     53.0206E-03    -587.285E-03    -587.285E-03
            1101     1.14933E+03     1.14933E+03     49.1334E-03     49.1334E-03    -520.389E-03    -520.389E-03
            1102     1.14885E+03     1.14885E+03     45.3914E-03     45.3914E-03    -458.818E-03    -458.818E-03
            1103     1.14843E+03     1.14843E+03     41.8514E-03     41.8514E-03    -402.289E-03    -402.289E-03
            1104     1.14806E+03     1.14806E+03     38.5542E-03     38.5542E-03    -350.463E-03    -350.463E-03
            1105     1.14773E+03     1.14773E+03     35.5298E-03     35.5298E-03    -302.961E-03    -302.961E-03
            1106     1.14746E+03     1.14746E+03     32.7980E-03     32.7980E-03    -259.379E-03    -259.379E-03
            1107     1.14722E+03     1.14722E+03     30.3739E-03     30.3739E-03    -219.295E-03    -219.295E-03
            1108     1.14702E+03     1.14702E+03     28.2642E-03     28.2642E-03    -182.276E-03    -182.276E-03
            1109     1.14686E+03     1.14686E+03     26.4786E-03     26.4786E-03    -147.883E-03    -147.883E-03
            1110     1.14673E+03     1.14673E+03     25.0141E-03     25.0141E-03    -115.679E-03    -115.679E-03
            1111     1.14663E+03     1.14663E+03     23.8893E-03     23.8893E-03    -85.2115E-03    -85.2115E-03
            1112     1.14656E+03     1.14656E+03     23.1078E-03     23.1078E-03    -56.0614E-03    -56.0614E-03
            1113     1.14651E+03     1.14651E+03     22.5416E-03     22.5416E-03    -28.3272E-03    -28.3272E-03
            1114     1.16822E+03     1.16822E+03        -47.2899        -47.2899         45.4786         45.4786
            1115     1.15408E+03     1.15408E+03        -36.7850        -36.7850         44.1573         44.1573
            1116     1.14438E+03     1.14438E+03        -27.5450        -27.5450         40.6446         40.6446
            1117     1.13810E+03     1.13810E+03        -19.9540        -19.9540         36.3258         36.3258
            1118     1.13429E+03     1.13429E+03        -13.9241        -13.9241         31.9695         31.9695
            1119     1.13215E+03     1.13215E+03        -9.18469        -9.18469         27.9388         27.9388
            1120     1.13114E+03     1.13114E+03        -5.47449        -5.47449         24.3702         24.3702
            1121     1.13088E+03     1.13088E+03        -2.56954        -2.56954         21.2840         21.2840
            1122     1.13110E+03     1.13110E+03    -298.080E-03    -298.080E-03         18.6477         18.6477
            1123     1.13162E+03     1.13162E+03         1.47278         1.47278         16.4083         16.4083
            1124     1.13233E+03     1.13233E+03         2.84307         2.84307         14.5079         14.5079
            1125     1.13316E+03     1.13316E+03         3.89006         3.89006         12.8919         12.8919
            1126     1.13403E+03     1.13403E+03         4.67349         4.67349         11.5114         11.5114
            1127     1.13493E+03     1.13493E+03         5.24086         5.24086         10.3248         10.3248
            1128     1.13582E+03     1.13582E+03         5.63031         5.63031         9.29727         9.29727
            1129     1.13670E+03     1.13670E+03         5.87324         5.87324         8.40019         8.40019
            1130     1.13754E+03     1.13754E+03         5.99574         5.99574         7.61033         7.61033
            1131     1.13834E+03     1.13834E+03         6.01984         6.01984         6.90901         6.90901
            1132     1.13909E+03     1.13909E+03         5.96426         5.96426         6.28133         6.28133
            1133     1.13980E+03     1.13980E+03         5.84501         5.84501         5.71547         5.71547
            1134     1.14047E+03     1.14047E+03         5.67585         5.67585         5.20206         5.20206
            1135     1.14108E+03     1.14108E+03         5.46858         5.46858         4.73373         4.73373
            1136     1.14165E+03     1.14165E+03         5.23330         5.23330         4.30461         4.30461
            1137     1.14217E+03     1.14217E+03         4.97867         4.97867         3.91005         3.91005
            1138     1.14265E+03     1.14265E+03         4.71205         4.71205         3.54629         3.54629
            1139     1.14309E+03     1.14309E+03         4.43967         4.43967         3.21029         3.21029
            1140     1.14349E+03     1.14349E+03         4.16675         4.16675         2.89950         2.89950
            1141     1.14385E+03     1.14385E+03         3.89768         3.89768         2.61174         2.61174
            1142     1.14418E+03     1.14418E+03         3.63607         3.63607         2.34511         2.34511
            1143     1.14447E+03     1.14447E+03         3.38489         3.38489         2.09793         2.09793
            1144     1.14473E+03     1.14473E+03         3.14654         3.14654         1.86860         1.86860
            1145     1.14496E+03     1.14496E+03         2.92297         2.92297         1.65564         1.65564
            1146     1.14517E+03     1.14517E+03         2.71569         2.71569         1.45763         1.45763
            1147     1.14535E+03     1.14535E+03         2.52591         2.52591         1.27318         1.27318
            1148     1.14551E+03     1.14551E+03         2.35454         2.35454         1.10093         1.10093
            1149     1.14564E+03     1.14564E+03         2.20229         2.20229     939.516E-03     939.516E-03
            1150     1.14575E+03     1.14575E+03         2.06965         2.06965     787.592E-03     787.592E-03
            1151     1.14585E+03     1.14585E+03         1.95701         1.95701     643.813E-03     643.813E-03
            1152     1.14592E+03     1.14592E+03         1.86462         1.86462     506.834E-03     506.834E-03
            1153     1.14598E+03     1.14598E+03         1.79268         1.79268     375.310E-03     375.310E-03
            1154     1.14602E+03     1.14602E+03         1.74129         1.74129     247.894E-03     247.894E-03
            1155     1.14605E+03     1.14605E+03         1.71049         1.71049     123.558E-03     123.558E-03
            1156     1.13999E+03     1.13999E+03        -43.2128        -43.2128         63.5109         63.5109
            1157     1.12851E+03     1.12851E+03        -30.2799        -30.2799         55.5021         55.5021
            1158     1.12252E+03     1.12252E+03        -20.5341        -20.5341         47.2651         47.2651
            1159     1.11993E+03     1.11993E+03        -13.3744        -13.3744         39.8044         39.8044
            1160     1.11936E+03     1.11936E+03        -8.11091        -8.11091         33.4417         33.4417
            1161     1.11992E+03     1.11992E+03        -4.20942        -4.20942         28.1594         28.1594
            1162     1.12111E+03     1.12111E+03        -1.28061        -1.28061         23.8270         23.8270
            1163     1.12261E+03     1.12261E+03     938.202E-03     938.202E-03         20.2882         20.2882
            1164     1.12423E+03     1.12423E+03         2.62978         2.62978         17.3974         17.3974
            1165     1.12589E+03     1.12589E+03         3.91892         3.91892         15.0288         15.0288
            1166     1.12751E+03     1.12751E+03         4.89433         4.89433         13.0786         13.0786
            1167     1.12906E+03     1.12906E+03         5.61952         5.61952         11.4625         11.4625
            1168     1.13054E+03     1.13054E+03         6.14191         6.14191         10.1132         10.1132
            1169     1.13192E+03     1.13192E+03         6.49773         6.49773         8.97692         8.97692
            1170     1.13322E+03     1.13322E+03         6.71573         6.71573         8.01112         8.01112
            1171     1.13443E+03     1.13443E+03         6.81933         6.81933         7.18218         7.18218
            1172     1.13555E+03     1.13555E+03         6.82812         6.82812         6.46364         6.46364
            1173     1.13658E+03     1.13658E+03         6.75881         6.75881         5.83468         5.83468
            1174     1.13754E+03     1.13754E+03         6.62586         6.62586         5.27898         5.27898
            1175     1.13843E+03     1.13843E+03         6.44187         6.44187         4.78377         4.78377
            1176     1.13925E+03     1.13925E+03         6.21787         6.21787         4.33904         4.33904
            1177     1.14000E+03     1.14000E+03         5.96355         5.96355         3.93695         3.93695
            1178     1.14068E+03     1.14068E+03         5.68738         5.68738         3.57137         3.57137
            1179     1.14131E+03     1.14131E+03         5.39674         5.39674         3.23744         3.23744
            1180     1.14189E+03     1.14189E+03         5.09802         5.09802         2.93129         2.93129
            1181     1.14241E+03     1.14241E+03         4.79672         4.79672         2.64981         2.64981
            1182     1.14288E+03     1.14288E+03         4.49756         4.49756         2.39045         2.39045
            1183     1.14331E+03     1.14331E+03         4.20450         4.20450         2.15108         2.15108
            1184     1.14370E+03     1.14370E+03         3.92090         3.92090         1.92987         1.92987
            1185     1.14404E+03     1.14404E+03         3.64953         3.64953         1.72522         1.72522
            1186     1.14435E+03     1.14435E+03         3.39265         3.39265         1.53569         1.53569
            1187     1.14463E+03     1.14463E+03         3.15212         3.15212         1.35994         1.35994
            1188     1.14487E+03     1.14487E+03         2.92941         2.92941         1.19671         1.19671
            1189     1.14508E+03     1.14508E+03         2.72568         2.72568         1.04481         1.04481
            1190     1.14527E+03     1.14527E+03         2.54185         2.54185     903.067E-03     903.067E-03
            1191     1.14543E+03     1.14543E+03         2.37859         2.37859     770.338E-03     770.338E-03
            1192     1.14557E+03     1.14557E+03         2.23642         2.23642     645.497E-03     645.497E-03
            1193     1.14568E+03     1.14568E+03         2.11573         2.11573     527.428E-03     527.428E-03
            1194     1.14577E+03     1.14577E+03         2.01677         2.01677     415.022E-03     415.022E-03
            1195     1.14584E+03     1.14584E+03         1.93974         1.93974     307.175E-03     307.175E-03
            1196     1.14589E+03     1.14589E+03         1.88478         1.88478     202.787E-03     202.787E-03
            1197     1.14591E+03     1.14591E+03         1.85191         1.85191     101.019E-03     101.019E-03
            1198     1.09701E+03     1.09701E+03        -29.5352        -29.5352         74.6864         74.6864
            1199     1.09468E+03     1.09468E+03        -17.5925        -17.5925         59.7100         59.7100
            1200     1.09634E+03     1.09634E+03        -9.79105        -9.79105         47.6143         47.6143
            1201     1.09972E+03     1.09972E+03        -4.61795        -4.61795         38.1737         38.1737
            1202     1.10366E+03     1.10366E+03        -1.08363        -1.08363         30.8736         30.8736
            1203     1.10762E+03     1.10762E+03         1.41046         1.41046         25.2221         25.2221
            1204     1.11137E+03     1.11137E+03         3.21612         3.21612         20.8200         20.8200
            1205     1.11481E+03     1.11481E+03         4.55070         4.55070         17.3663         17.3663
            1206     1.11793E+03     1.11793E+03         5.54700         5.54700         14.6333         14.6333
            1207     1.12073E+03     1.12073E+03         6.29045         6.29045         12.4523         12.4523
            1208     1.12324E+03     1.12324E+03         6.83658         6.83658         10.6956         10.6956
            1209     1.12550E+03     1.12550E+03         7.22359         7.22359         9.26756         9.26756
            1210     1.12754E+03     1.12754E+03         7.47873         7.47873         8.09507         8.09507
            1211     1.12937E+03     1.12937E+03         7.62274         7.62274         7.12259         7.12259
            1212     1.13103E+03     1.13103E+03         7.67221         7.67221         6.30738         6.30738
            1213     1.13254E+03     1.13254E+03         7.64108         7.64108         5.61660         5.61660
            1214     1.13391E+03     1.13391E+03         7.54154         7.54154         5.02485         5.02485
            1215     1.13515E+03     1.13515E+03         7.38450         7.38450         4.51252         4.51252
            1216     1.13629E+03     1.13629E+03         7.17988         7.17988         4.06440         4.06440
            1217     1.13732E+03     1.13732E+03         6.93673         6.93673         3.66870         3.66870
            1218     1.13827E+03     1.13827E+03         6.66335         6.66335         3.31628         3.31628
            1219     1.13913E+03     1.13913E+03         6.36726         6.36726         3.00001         3.00001
            1220     1.13991E+03     1.13991E+03         6.05529         6.05529         2.71433         2.71433
            1221     1.14063E+03     1.14063E+03         5.73356         5.73356         2.45489         2.45489
            1222     1.14128E+03     1.14128E+03         5.40749         5.40749         2.21823         2.21823
            1223     1.14186E+03     1.14186E+03         5.08187         5.08187         2.00160         2.00160
            1224     1.14240E+03     1.14240E+03         4.76087         4.76087         1.80275         1.80275
            1225     1.14288E+03     1.14288E+03         4.44805         4.44805         1.61983         1.61983
            1226     1.14331E+03     1.14331E+03         4.14648         4.14648         1.45129         1.45129
            1227     1.14370E+03     1.14370E+03         3.85872         3.85872         1.29576         1.29576
            1228     1.14405E+03     1.14405E+03         3.58690         3.58690         1.15204         1.15204
            1229     1.14436E+03     1.14436E+03         3.33276         3.33276         1.01904         1.01904
            1230     1.14463E+03     1.14463E+03         3.09771         3.09771     895.759E-03     895.759E-03
            1231     1.14487E+03     1.14487E+03         2.88287         2.88287     781.228E-03     781.228E-03
            1232     1.14508E+03     1.14508E+03         2.68912         2.68912     674.536E-03     674.536E-03
            1233     1.14526E+03     1.14526E+03         2.51713         2.51713     574.796E-03     574.796E-03
            1234     1.14541E+03     1.14541E+03         2.36740         2.36740     481.140E-03     481.140E-03
            1235     1.14554E+03     1.14554E+03         2.24031         2.24031     392.718E-03     392.718E-03
            1236     1.14564E+03     1.14564E+03         2.13614         2.13614     308.690E-03     308.690E-03
            1237     1.14572E+03     1.14572E+03         2.05506         2.05506     228.227E-03     228.227E-03
            1238     1.14577E+03     1.14577E+03         1.99722         1.99722     150.508E-03     150.508E-03
            1239     1.14581E+03     1.14581E+03         1.96264         1.96264     74.9075E-03     74.9075E-03
            1240     1.04560E+03     1.04560E+03        -8.07621        -8.07621         69.6032         69.6032
            1241     1.05846E+03     1.05846E+03        -1.36763        -1.36763         51.6843         51.6843
            1242     1.07048E+03     1.07048E+03         2.28433         2.28433         39.1136         39.1136
            1243     1.08088E+03     1.08088E+03         4.40324         4.40324         30.1779         30.1779
            1244     1.08966E+03     1.08966E+03         5.72585         5.72585         23.6987         23.6987
            1245     1.09702E+03     1.09702E+03         6.60650         6.60650         18.9090         18.9090
            1246     1.10321E+03     1.10321E+03         7.22701         7.22701         15.3099         15.3099
            1247     1.10842E+03     1.10842E+03         7.68001         7.68001         12.5632         12.5632
            1248     1.11286E+03     1.11286E+03         8.01455         8.01455         10.4389         10.4389
            1249     1.11665E+03     1.11665E+03         8.25609         8.25609         8.77482         8.77482
            1250     1.11992E+03     1.11992E+03         8.41853         8.41853         7.45591         7.45591
            1251     1.12277E+03     1.12277E+03         8.50991         8.50991         6.39833         6.39833
            1252     1.12526E+03     1.12526E+03         8.53582         8.53582         5.54069         5.54069
            1253     1.12746E+03     1.12746E+03         8.50093         8.50093         4.83717         4.83717
            1254     1.12941E+03     1.12941E+03         8.40995         8.40995         4.25345         4.25345
            1255     1.13115E+03     1.13115E+03         8.26785         8.26785         3.76349         3.76349
            1256     1.13271E+03     1.13271E+03         8.08003         8.08003         3.34751         3.34751
            1257     1.13411E+03     1.13411E+03         7.85220         7.85220         2.99036         2.99036
            1258     1.13538E+03     1.13538E+03         7.59031         7.59031         2.68043         2.68043
            1259     1.13652E+03     1.13652E+03         7.30035         7.30035         2.40878         2.40878
            1260     1.13756E+03     1.13756E+03         6.98826         6.98826         2.16852         2.16852
            1261     1.13851E+03     1.13851E+03         6.65976         6.65976         1.95429         1.95429
            1262     1.13936E+03     1.13936E+03         6.32028         6.32028         1.76194         1.76194
            1263     1.14014E+03     1.14014E+03         5.97489         5.97489         1.58823         1.58823
            1264     1.14084E+03     1.14084E+03         5.62821         5.62821         1.43060         1.43060
            1265     1.14148E+03     1.14148E+03         5.28442         5.28442         1.28700         1.28700
            1266     1.14206E+03     1.14206E+03         4.94724         4.94724         1.15579         1.15579
            1267     1.14258E+03     1.14258E+03         4.61990         4.61990         1.03561         1.03561
            1268     1.14304E+03     1.14304E+03         4.30521         4.30521     925.312E-03     925.312E-03
            1269     1.14346E+03     1.14346E+03         4.00555         4.00555     823.932E-03     823.932E-03
            1270     1.14384E+03     1.14384E+03         3.72294         3.72294     730.607E-03     730.607E-03
            1271     1.14417E+03     1.14417E+03         3.45901         3.45901     644.568E-03     644.568E-03
            1272     1.14447E+03     1.14447E+03         3.21512         3.21512     565.107E-03     565.107E-03
            1273     1.14473E+03     1.14473E+03         2.99234         2.99234     491.567E-03     491.567E-03
            1274     1.14495E+03     1.14495E+03         2.79152         2.79152     423.322E-03     423.322E-03
            1275     1.14514E+03     1.14514E+03         2.61331         2.61331     359.777E-03     359.777E-03
            1276     1.14531E+03     1.14531E+03         2.45819         2.45819     300.356E-03     300.356E-03
            1277     1.14544E+03     1.14544E+03         2.32654         2.32654     244.501E-03     244.501E-03
            1278     1.14555E+03     1.14555E+03         2.21862         2.21862     191.667E-03     191.667E-03
            1279     1.14564E+03     1.14564E+03         2.13461         2.13461     141.324E-03     141.324E-03
            1280     1.14570E+03     1.14570E+03         2.07466         2.07466     92.9545E-03     92.9545E-03
            1281     1.14573E+03     1.14573E+03         2.03877         2.03877     46.1628E-03     46.1628E-03
            1282     1.00157E+03     1.00157E+03         12.8037         12.8037         42.5278         42.5278
            1283     1.03013E+03     1.03013E+03         12.5229         12.5229         29.7917         29.7917
            1284     1.05141E+03     1.05141E+03         11.8157         11.8157         21.6865         21.6865
            1285     1.06756E+03     1.06756E+03         11.1422         11.1422         16.2530         16.2530
            1286     1.08008E+03     1.08008E+03         10.6070         10.6070         12.4668         12.4668
            1287     1.08995E+03     1.08995E+03         10.2152         10.2152         9.75373         9.75373
            1288     1.09788E+03     1.09788E+03         9.94188         9.94188         7.76200         7.76200
            1289     1.10433E+03     1.10433E+03         9.75399         9.75399         6.27230         6.27230
            1290     1.10966E+03     1.10966E+03         9.62075         9.62075         5.13849         5.13849
            1291     1.11411E+03     1.11411E+03         9.51574         9.51574         4.26306         4.26306
            1292     1.11788E+03     1.11788E+03         9.41826         9.41826         3.57760         3.57760
            1293     1.12110E+03     1.12110E+03         9.31258         9.31258         3.03414         3.03414
            1294     1.12389E+03     1.12389E+03         9.18774         9.18774         2.59781         2.59781
            1295     1.12631E+03     1.12631E+03         9.03659         9.03659         2.24328         2.24328
            1296     1.12844E+03     1.12844E+03         8.85526         8.85526         1.95171         1.95171
            1297     1.13033E+03     1.13033E+03         8.64241         8.64241         1.70907         1.70907
            1298     1.13201E+03     1.13201E+03         8.39877         8.39877         1.50479         1.50479
            1299     1.13351E+03     1.13351E+03         8.12653         8.12653         1.33086         1.33086
            1300     1.13485E+03     1.13485E+03         7.82897         7.82897         1.18119         1.18119
            1301     1.13607E+03     1.13607E+03         7.51005         7.51005         1.05113         1.05113
            1302     1.13716E+03     1.13716E+03         7.17417         7.17417     937.088E-03     937.088E-03
            1303     1.13816E+03     1.13816E+03         6.82590         6.82590     836.315E-03     836.315E-03
            1304     1.13905E+03     1.13905E+03         6.46976         6.46976     746.667E-03     746.667E-03
            1305     1.13987E+03     1.13987E+03         6.11013         6.11013     666.471E-03     666.471E-03
            1306     1.14060E+03     1.14060E+03         5.75114         5.75114     594.407E-03     594.407E-03
            1307     1.14127E+03     1.14127E+03         5.39657         5.39657     529.419E-03     529.419E-03
            1308     1.14187E+03     1.14187E+03         5.04984         5.04984     470.654E-03     470.654E-03
            1309     1.14241E+03     1.14241E+03         4.71400         4.71400     417.405E-03     417.405E-03
            1310     1.14290E+03     1.14290E+03         4.39167         4.39167     369.082E-03     369.082E-03
            1311     1.14333E+03     1.14333E+03         4.08513         4.08513     325.178E-03     325.178E-03
            1312     1.14372E+03     1.14372E+03         3.79630         3.79630     285.249E-03     285.249E-03
            1313     1.14407E+03     1.14407E+03         3.52677         3.52677     248.902E-03     248.902E-03
            1314     1.14438E+03     1.14438E+03         3.27784         3.27784     215.782E-03     215.782E-03
            1315     1.14465E+03     1.14465E+03         3.05054         3.05054     185.560E-03     185.560E-03
            1316     1.14488E+03     1.14488E+03         2.84570         2.84570     157.936E-03     157.936E-03
            1317     1.14508E+03     1.14508E+03         2.66395         2.66395     132.628E-03     132.628E-03
            1318     1.14525E+03     1.14525E+03         2.50576         2.50576     109.372E-03     109.372E-03
            1319     1.14539E+03     1.14539E+03         2.37150         2.37150     87.9210E-03     87.9210E-03
            1320     1.14551E+03     1.14551E+03         2.26142         2.26142     68.0421E-03     68.0421E-03
            1321     1.14560E+03     1.14560E+03         2.17568         2.17568     49.5188E-03     49.5188E-03
            1322     1.14566E+03     1.14566E+03         2.11441         2.11441     32.1503E-03     32.1503E-03
            1323     1.14569E+03     1.14569E+03         2.07762         2.07762     15.7914E-03     15.7914E-03
            1324         986.231         986.231         20.4708         20.4708        -2.89428        -2.89428
            1325     1.02108E+03     1.02108E+03         17.1314         17.1314        -2.52500        -2.52500
            1326     1.04563E+03     1.04563E+03         14.7880         14.7880        -2.14515        -2.14515
            1327     1.06369E+03     1.06369E+03         13.1474         13.1474        -1.82983        -1.82983
            1328     1.07739E+03     1.07739E+03         12.0009         12.0009        -1.57179        -1.57179
            1329     1.08804E+03     1.08804E+03         11.2100         11.2100        -1.36286        -1.36286
            1330     1.09648E+03     1.09648E+03         10.6651         10.6651        -1.19177        -1.19177
            1331     1.10328E+03     1.10328E+03         10.2893         10.2893        -1.05148        -1.05148
            1332     1.10886E+03     1.10886E+03         10.0223         10.0223    -935.258E-03    -935.258E-03
            1333     1.11350E+03     1.11350E+03         9.82110         9.82110    -838.579E-03    -838.579E-03
            1334     1.11740E+03     1.11740E+03         9.65302         9.65302    -757.482E-03    -757.482E-03
            1335     1.12073E+03     1.12073E+03         9.49521         9.49521    -689.064E-03    -689.064E-03
            1336     1.12359E+03     1.12359E+03         9.33130         9.33130    -630.854E-03    -630.854E-03
            1337     1.12607E+03     1.12607E+03         9.15070         9.15070    -580.932E-03    -580.932E-03
            1338     1.12825E+03     1.12825E+03         8.94692         8.94692    -537.686E-03    -537.686E-03
            1339     1.13017E+03     1.13017E+03         8.71686         8.71686    -499.823E-03    -499.823E-03
            1340     1.13187E+03     1.13187E+03         8.45987         8.45987    -466.273E-03    -466.273E-03
            1341     1.13340E+03     1.13340E+03         8.17719         8.17719    -436.173E-03    -436.173E-03
            1342     1.13476E+03     1.13476E+03         7.87136         7.87136    -408.821E-03    -408.821E-03
            1343     1.13599E+03     1.13599E+03         7.54584         7.54584    -383.657E-03    -383.657E-03
            1344     1.13710E+03     1.13710E+03         7.20462         7.20462    -360.234E-03    -360.234E-03
            1345     1.13810E+03     1.13810E+03         6.85195         6.85195    -338.208E-03    -338.208E-03
            1346     1.13901E+03     1.13901E+03         6.49215         6.49215    -317.310E-03    -317.310E-03
            1347     1.13983E+03     1.13983E+03         6.12945         6.12945    -297.339E-03    -297.339E-03
            1348     1.14057E+03     1.14057E+03         5.76784         5.76784    -278.148E-03    -278.148E-03
            1349     1.14124E+03     1.14124E+03         5.41102         5.41102    -259.627E-03    -259.627E-03
            1350     1.14185E+03     1.14185E+03         5.06234         5.06234    -241.700E-03    -241.700E-03
            1351     1.14239E+03     1.14239E+03         4.72479         4.72479    -224.312E-03    -224.312E-03
            1352     1.14288E+03     1.14288E+03         4.40096         4.40096    -207.423E-03    -207.423E-03
            1353     1.14332E+03     1.14332E+03         4.09311         4.09311    -191.001E-03    -191.001E-03
            1354     1.14371E+03     1.14371E+03         3.80311         3.80311    -175.020E-03    -175.020E-03
            1355     1.14406E+03     1.14406E+03         3.53256         3.53256    -159.452E-03    -159.452E-03
            1356     1.14437E+03     1.14437E+03         3.28272         3.28272    -144.265E-03    -144.265E-03
            1357     1.14464E+03     1.14464E+03         3.05463         3.05463    -129.422E-03    -129.422E-03
            1358     1.14488E+03     1.14488E+03         2.84909         2.84909    -114.876E-03    -114.876E-03
            1359     1.14508E+03     1.14508E+03         2.66672         2.66672    -100.572E-03    -100.572E-03
            1360     1.14525E+03     1.14525E+03         2.50800         2.50800    -86.4429E-03    -86.4429E-03
            1361     1.14539E+03     1.14539E+03         2.37326         2.37326    -72.4079E-03    -72.4079E-03
            1362     1.14551E+03     1.14551E+03         2.26274         2.26274    -58.3741E-03    -58.3741E-03
            1363     1.14559E+03     1.14559E+03         2.17660         2.17660    -44.2335E-03    -44.2335E-03
            1364     1.14566E+03     1.14566E+03         2.11495         2.11495    -29.8626E-03    -29.8626E-03
            1365     1.14569E+03     1.14569E+03         2.07778         2.07778    -15.1544E-03    -15.1544E-03
            1366     1.01215E+03     1.01215E+03         7.76456         7.76456        -48.9133        -48.9133
            1367     1.03761E+03     1.03761E+03         8.86346         8.86346        -35.4265        -35.4265
            1368     1.05680E+03     1.05680E+03         9.12427         9.12427        -26.5574        -26.5574
            1369     1.07155E+03     1.07155E+03         9.12477         9.12477        -20.4360        -20.4360
            1370     1.08310E+03     1.08310E+03         9.06684         9.06684        -16.0695        -16.0695
            1371     1.09229E+03     1.09229E+03         9.01911         9.01911        -12.8713        -12.8713
            1372     1.09972E+03     1.09972E+03         8.99948         8.99948        -10.4794        -10.4794
            1373     1.10581E+03     1.10581E+03         9.00129         9.00129        -8.65788        -8.65788
            1374     1.11086E+03     1.11086E+03         9.01242         9.01242        -7.24927        -7.24927
            1375     1.11511E+03     1.11511E+03         9.01851         9.01851        -6.14470        -6.14470
            1376     1.11871E+03     1.11871E+03         9.00753         9.00753        -5.26755        -5.26755
            1377     1.12181E+03     1.12181E+03         8.96975         8.96975        -4.56250        -4.56250
            1378     1.12449E+03     1.12449E+03         8.89862         8.89862        -3.98910        -3.98910
            1379     1.12683E+03     1.12683E+03         8.79020         8.79020        -3.51725        -3.51725
            1380     1.12890E+03     1.12890E+03         8.64304         8.64304        -3.12433        -3.12433
            1381     1.13073E+03     1.13073E+03         8.45767         8.45767        -2.79320        -2.79320
            1382     1.13236E+03     1.13236E+03         8.23622         8.23622        -2.51076        -2.51076
            1383     1.13382E+03     1.13382E+03         7.98202         7.98202        -2.26698        -2.26698
            1384     1.13514E+03     1.13514E+03         7.69921         7.69921        -2.05411        -2.05411
            1385     1.13632E+03     1.13632E+03         7.39248         7.39248        -1.86621        -1.86621
            1386     1.13739E+03     1.13739E+03         7.06676         7.06676        -1.69866        -1.69866
            1387     1.13836E+03     1.13836E+03         6.72704         6.72704        -1.54791        -1.54791
            1388     1.13924E+03     1.13924E+03         6.37822         6.37822        -1.41119        -1.41119
            1389     1.14004E+03     1.14004E+03         6.02493         6.02493        -1.28637        -1.28637
            1390     1.14076E+03     1.14076E+03         5.67151         5.67151        -1.17176        -1.17176
            1391     1.14141E+03     1.14141E+03         5.32191         5.32191        -1.06605        -1.06605
            1392     1.14200E+03     1.14200E+03         4.97967         4.97967    -968.192E-03    -968.192E-03
            1393     1.14253E+03     1.14253E+03         4.64791         4.64791    -877.333E-03    -877.333E-03
            1394     1.14300E+03     1.14300E+03         4.32934         4.32934    -792.769E-03    -792.769E-03
            1395     1.14343E+03     1.14343E+03         4.02626         4.02626    -713.898E-03    -713.898E-03
            1396     1.14381E+03     1.14381E+03         3.74063         3.74063    -640.196E-03    -640.196E-03
            1397     1.14415E+03     1.14415E+03         3.47405         3.47405    -571.187E-03    -571.187E-03
            1398     1.14445E+03     1.14445E+03         3.22782         3.22782    -506.427E-03    -506.427E-03
            1399     1.14471E+03     1.14471E+03         3.00298         3.00298    -445.491E-03    -445.491E-03
            1400     1.14494E+03     1.14494E+03         2.80034         2.80034    -387.966E-03    -387.966E-03
            1401     1.14514E+03     1.14514E+03         2.62053         2.62053    -333.439E-03    -333.439E-03
            1402     1.14530E+03     1.14530E+03         2.46400         2.46400    -281.496E-03    -281.496E-03
            1403     1.14544E+03     1.14544E+03         2.33110         2.33110    -231.716E-03    -231.716E-03
            1404     1.14555E+03     1.14555E+03         2.22205         2.22205    -183.672E-03    -183.672E-03
            1405     1.14564E+03     1.14564E+03         2.13700         2.13700    -136.923E-03    -136.923E-03
            1406     1.14570E+03     1.14570E+03         2.07606         2.07606    -91.0185E-03    -91.0185E-03
            1407     1.14573E+03     1.14573E+03         2.03918         2.03918    -45.6111E-03    -45.6111E-03
            1408     1.06737E+03     1.06737E+03        -17.2697        -17.2697        -72.5746        -72.5746
            1409     1.07423E+03     1.07423E+03        -8.43552        -8.43552        -55.5999        -55.5999
            1410     1.08212E+03     1.08212E+03        -3.13998        -3.13998        -43.1877        -43.1877
            1411     1.08964E+03     1.08964E+03     220.286E-03     220.286E-03        -34.0680        -34.0680
            1412     1.09637E+03     1.09637E+03         2.46933         2.46933        -27.2698        -27.2698
            1413     1.10225E+03     1.10225E+03         4.04722         4.04722        -22.1323        -22.1323
            1414     1.10735E+03     1.10735E+03         5.19414         5.19414        -18.1971        -18.1971
            1415     1.11175E+03     1.11175E+03         6.04971         6.04971        -15.1457        -15.1457
            1416     1.11557E+03     1.11557E+03         6.69412         6.69412        -12.7518        -12.7518
            1417     1.11889E+03     1.11889E+03         7.17661         7.17661        -10.8532        -10.8532
            1418     1.12179E+03     1.12179E+03         7.52753         7.52753        -9.33140        -9.33140
            1419     1.12434E+03     1.12434E+03         7.76743         7.76743        -8.09862        -8.09862
            1420     1.12660E+03     1.12660E+03         7.91090         7.91090        -7.08928        -7.08928
            1421     1.12861E+03     1.12861E+03         7.96959         7.96959        -6.25383        -6.25383
            1422     1.13041E+03     1.13041E+03         7.95339         7.95339        -5.55454        -5.55454
            1423     1.13202E+03     1.13202E+03         7.87137         7.87137        -4.96252        -4.96252
            1424     1.13348E+03     1.13348E+03         7.73204         7.73204        -4.45556        -4.45556
            1425     1.13479E+03     1.13479E+03         7.54361         7.54361        -4.01652        -4.01652
            1426     1.13599E+03     1.13599E+03         7.31395         7.31395        -3.63217        -3.63217
            1427     1.13707E+03     1.13707E+03         7.05062         7.05062        -3.29227        -3.29227
            1428     1.13805E+03     1.13805E+03         6.76074         6.76074        -2.98887        -2.98887
            1429     1.13895E+03     1.13895E+03         6.45100         6.45100        -2.71582        -2.71582
            1430     1.13976E+03     1.13976E+03         6.12759         6.12759        -2.46835        -2.46835
            1431     1.14050E+03     1.14050E+03         5.79615         5.79615        -2.24271        -2.24271
            1432     1.14117E+03     1.14117E+03         5.46175         5.46175        -2.03597        -2.03597
            1433     1.14177E+03     1.14177E+03         5.12892         5.12892        -1.84580        -1.84580
            1434     1.14232E+03     1.14232E+03         4.80162         4.80162        -1.67033        -1.67033
            1435     1.14282E+03     1.14282E+03         4.48328         4.48328        -1.50803        -1.50803
            1436     1.14326E+03     1.14326E+03         4.17685         4.17685        -1.35760        -1.35760
            1437     1.14366E+03     1.14366E+03         3.88479         3.88479        -1.21795        -1.21795
            1438     1.14402E+03     1.14402E+03         3.60918         3.60918        -1.08808        -1.08808
            1439     1.14433E+03     1.14433E+03         3.35169         3.35169    -967.112E-03    -967.112E-03
            1440     1.14461E+03     1.14461E+03         3.11369         3.11369    -854.212E-03    -854.212E-03
            1441     1.14486E+03     1.14486E+03         2.89626         2.89626    -748.588E-03    -748.588E-03
            1442     1.14507E+03     1.14507E+03         2.70022         2.70022    -649.468E-03    -649.468E-03
            1443     1.14525E+03     1.14525E+03         2.52621         2.52621    -556.097E-03    -556.097E-03
            1444     1.14541E+03     1.14541E+03         2.37470         2.37470    -467.721E-03    -467.721E-03
            1445     1.14553E+03     1.14553E+03         2.24603         2.24603    -383.590E-03    -383.590E-03
            1446     1.14564E+03     1.14564E+03         2.14042         2.14042    -302.947E-03    -302.947E-03
            1447     1.14572E+03     1.14572E+03         2.05803         2.05803    -225.031E-03    -225.031E-03
            1448     1.14577E+03     1.14577E+03         1.99895         1.99895    -149.077E-03    -149.077E-03
            1449     1.14581E+03     1.14581E+03         1.96314         1.96314    -74.4993E-03    -74.4993E-03
            1450     1.12397E+03     1.12397E+03        -38.3014        -38.3014        -68.4265        -68.4265
            1451     1.11589E+03     1.11589E+03        -25.5824        -25.5824        -57.5058        -57.5058
            1452     1.11290E+03     1.11290E+03        -16.5676        -16.5676        -47.6354        -47.6354
            1453     1.11268E+03     1.11268E+03        -10.2076        -10.2076        -39.3603        -39.3603
            1454     1.11388E+03     1.11388E+03        -5.63617        -5.63617        -32.6345        -32.6345
            1455     1.11576E+03     1.11576E+03        -2.28833        -2.28833        -27.2238        -27.2238
            1456     1.11791E+03     1.11791E+03     209.179E-03     209.179E-03        -22.8812        -22.8812
            1457     1.12012E+03     1.12012E+03         2.09666         2.09666        -19.3890        -19.3890
            1458     1.12229E+03     1.12229E+03         3.53446         3.53446        -16.5691        -16.5691
            1459     1.12435E+03     1.12435E+03         4.62947         4.62947        -14.2789        -14.2789
            1460     1.12628E+03     1.12628E+03         5.45608         5.45608        -12.4062        -12.4062
            1461     1.12807E+03     1.12807E+03         6.06696         6.06696        -10.8631        -10.8631
            1462     1.12973E+03     1.12973E+03         6.50124         6.50124        -9.58042        -9.58042
            1463     1.13126E+03     1.13126E+03         6.78885         6.78885        -8.50431        -8.50431
            1464     1.13267E+03     1.13267E+03         6.95380         6.95380        -7.59246        -7.59246
            1465     1.13397E+03     1.13397E+03         7.01587         7.01587        -6.81178        -6.81178
            1466     1.13517E+03     1.13517E+03         6.99191         6.99191        -6.13637        -6.13637
            1467     1.13627E+03     1.13627E+03         6.89655         6.89655        -5.54600        -5.54600
            1468     1.13728E+03     1.13728E+03         6.74265         6.74265        -5.02485        -5.02485
            1469     1.13820E+03     1.13820E+03         6.54163         6.54163        -4.56059        -4.56059
            1470     1.13906E+03     1.13906E+03         6.30360         6.30360        -4.14361        -4.14361
            1471     1.13984E+03     1.13984E+03         6.03759         6.03759        -3.76641        -3.76641
            1472     1.14055E+03     1.14055E+03         5.75154         5.75154        -3.42311        -3.42311
            1473     1.14120E+03     1.14120E+03         5.45245         5.45245        -3.10911        -3.10911
            1474     1.14179E+03     1.14179E+03         5.14643         5.14643        -2.82076        -2.82076
            1475     1.14233E+03     1.14233E+03         4.83878         4.83878        -2.55513        -2.55513
            1476     1.14281E+03     1.14281E+03         4.53404         4.53404        -2.30984        -2.30984
            1477     1.14325E+03     1.14325E+03         4.23608         4.23608        -2.08293        -2.08293
            1478     1.14365E+03     1.14365E+03         3.94814         3.94814        -1.87271        -1.87271
            1479     1.14400E+03     1.14400E+03         3.67292         3.67292        -1.67771        -1.67771
            1480     1.14432E+03     1.14432E+03         3.41264         3.41264        -1.49660        -1.49660
            1481     1.14460E+03     1.14460E+03         3.16910         3.16910        -1.32817        -1.32817
            1482     1.14485E+03     1.14485E+03         2.94374         2.94374        -1.17127        -1.17127
            1483     1.14507E+03     1.14507E+03         2.73768         2.73768        -1.02480        -1.02480
            1484     1.14526E+03     1.14526E+03         2.55178         2.55178    -887.666E-03    -887.666E-03
            1485     1.14542E+03     1.14542E+03         2.38670         2.38670    -758.816E-03    -758.816E-03
            1486     1.14556E+03     1.14556E+03         2.24293         2.24293    -637.191E-03    -637.191E-03
            1487     1.14567E+03     1.14567E+03         2.12080         2.12080    -521.737E-03    -521.737E-03
            1488     1.14576E+03     1.14576E+03         2.02056         2.02056    -411.399E-03    -411.399E-03
            1489     1.14583E+03     1.14583E+03         1.94235         1.94235    -305.118E-03    -305.118E-03
            1490     1.14588E+03     1.14588E+03         1.88627         1.88627    -201.838E-03    -201.838E-03
            1491     1.14591E+03     1.14591E+03         1.85230         1.85230    -100.753E-03    -100.753E-03
            1492     1.16296E+03     1.16296E+03        -46.5752        -46.5752        -49.1391        -49.1391
            1493     1.14924E+03     1.14924E+03        -35.5279        -35.5279        -46.4865        -46.4865
            1494     1.14025E+03     1.14025E+03        -26.1596        -26.1596        -41.9812        -41.9812
            1495     1.13473E+03     1.13473E+03        -18.6662        -18.6662        -36.9945        -36.9945
            1496     1.13160E+03     1.13160E+03        -12.8182        -12.8182        -32.2263        -32.2263
            1497     1.13002E+03     1.13002E+03        -8.27186        -8.27186        -27.9545        -27.9545
            1498     1.12946E+03     1.12946E+03        -4.73520        -4.73520        -24.2508        -24.2508
            1499     1.12954E+03     1.12954E+03        -1.97676        -1.97676        -21.0939        -21.0939
            1500     1.13003E+03     1.13003E+03     175.666E-03     175.666E-03        -18.4255        -18.4255
            1501     1.13077E+03     1.13077E+03         1.85136         1.85136        -16.1763        -16.1763
            1502     1.13164E+03     1.13164E+03         3.14649         3.14649        -14.2792        -14.2792
            1503     1.13259E+03     1.13259E+03         4.13437         4.13437        -12.6736        -12.6736
            1504     1.13357E+03     1.13357E+03         4.87146         4.87146        -11.3073        -11.3073
            1505     1.13455E+03     1.13455E+03         5.40247         5.40247        -10.1366        -10.1366
            1506     1.13551E+03     1.13551E+03         5.76335         5.76335        -9.12539        -9.12539
            1507     1.13643E+03     1.13643E+03         5.98372         5.98372        -8.24443        -8.24443
            1508     1.13732E+03     1.13732E+03         6.08830         6.08830        -7.47005        -7.47005
            1509     1.13815E+03     1.13815E+03         6.09804         6.09804        -6.78336        -6.78336
            1510     1.13894E+03     1.13894E+03         6.03085         6.03085        -6.16935        -6.16935
            1511     1.13967E+03     1.13967E+03         5.90211         5.90211        -5.61616        -5.61616
            1512     1.14035E+03     1.14035E+03         5.72508         5.72508        -5.11441        -5.11441
            1513     1.14099E+03     1.14099E+03         5.51121         5.51121        -4.65675        -4.65675
            1514     1.14157E+03     1.14157E+03         5.27033         5.27033        -4.23735        -4.23735
            1515     1.14211E+03     1.14211E+03         5.01089         5.01089        -3.85159        -3.85159
            1516     1.14260E+03     1.14260E+03         4.74009         4.74009        -3.49578        -3.49578
            1517     1.14305E+03     1.14305E+03         4.46405         4.46405        -3.16690        -3.16690
            1518     1.14345E+03     1.14345E+03         4.18791         4.18791        -2.86247        -2.86247
            1519     1.14382E+03     1.14382E+03         3.91600         3.91600        -2.58037        -2.58037
            1520     1.14415E+03     1.14415E+03         3.65186         3.65186        -2.31875        -2.31875
            1521     1.14445E+03     1.14445E+03         3.39845         3.39845        -2.07597        -2.07597
            1522     1.14471E+03     1.14471E+03         3.15812         3.15812        -1.85049        -1.85049
            1523     1.14495E+03     1.14495E+03         2.93279         2.93279        -1.64089        -1.64089
            1524     1.14516E+03     1.14516E+03         2.72396         2.72396        -1.44578        -1.44578
            1525     1.14534E+03     1.14534E+03         2.53281         2.53281        -1.26382        -1.26382
            1526     1.14550E+03     1.14550E+03         2.36023         2.36023        -1.09368        -1.09368
            1527     1.14564E+03     1.14564E+03         2.20691         2.20691    -934.049E-03    -934.049E-03
            1528     1.14575E+03     1.14575E+03         2.07333         2.07333    -783.601E-03    -783.601E-03
            1529     1.14585E+03     1.14585E+03         1.95984         1.95984    -641.026E-03    -641.026E-03
            1530     1.14592E+03     1.14592E+03         1.86670         1.86670    -505.004E-03    -505.004E-03
            1531     1.14598E+03     1.14598E+03         1.79406         1.79406    -374.215E-03    -374.215E-03
            1532     1.14602E+03     1.14602E+03         1.74203         1.74203    -247.340E-03    -247.340E-03
            1533     1.14605E+03     1.14605E+03         1.71059         1.71059    -123.387E-03    -123.387E-03
            1534     1.15146E+03     1.15146E+03     32.9897E-03     32.9897E-03        -3.90495        -3.90495
            1535     1.15525E+03     1.15525E+03     55.4351E-03     55.4351E-03        -6.95791        -6.95791
            1536     1.15907E+03     1.15907E+03     24.8863E-03     24.8863E-03        -9.19703        -9.19703
            1537     1.16302E+03     1.16302E+03    -139.310E-03    -139.310E-03        -10.9127        -10.9127
            1538     1.16721E+03     1.16721E+03    -555.040E-03    -555.040E-03        -12.3124        -12.3124
            1539     1.17179E+03     1.17179E+03        -1.38616        -1.38616        -13.5146        -13.5146
            1540     1.17695E+03     1.17695E+03        -2.86035        -2.86035        -14.5478        -14.5478
            1541     1.18288E+03     1.18288E+03        -5.29642        -5.29642        -15.3273        -15.3273
            1542     1.18977E+03     1.18977E+03        -9.13648        -9.13648        -15.5984        -15.5984
            1543     1.19776E+03     1.19776E+03        -14.9688        -14.9688        -14.8225        -14.8225
            1544     1.20667E+03     1.20667E+03        -23.4680        -23.4680        -12.0063        -12.0063
            1545     1.21550E+03     1.21550E+03        -35.1136        -35.1136        -5.50425        -5.50425
            1546     1.14660E+03     1.14660E+03     372.512E-03     372.512E-03        -3.59940        -3.59940
            1547     1.15174E+03     1.15174E+03         1.00194         1.00194        -6.43858        -6.43858
            1548     1.15638E+03     1.15638E+03         1.89464         1.89464        -8.59166        -8.59166
            1549     1.16077E+03     1.16077E+03         2.93649         2.93649        -10.3695        -10.3695
            1550     1.16515E+03     1.16515E+03         4.01334         4.01334        -12.0115        -12.0115
            1551     1.16976E+03     1.16976E+03         4.99374         4.99374        -13.6930        -13.6930
            1552     1.17489E+03     1.17489E+03         5.70128         5.70128        -15.5382        -15.5382
            1553     1.18086E+03     1.18086E+03         5.87203         5.87203        -17.6171        -17.6171
            1554     1.18810E+03     1.18810E+03         5.08503         5.08503        -19.9128        -19.9128
            1555     1.19716E+03     1.19716E+03         2.64816         2.64816        -22.2322        -22.2322
            1556     1.20866E+03     1.20866E+03        -2.57134        -2.57134        -23.9688        -23.9688
            1557     1.22309E+03     1.22309E+03        -12.2832        -12.2832        -23.6109        -23.6109
            1558     1.14251E+03     1.14251E+03     688.485E-03     688.485E-03        -2.72033        -2.72033
            1559     1.14875E+03     1.14875E+03         1.88627         1.88627        -4.87102        -4.87102
            1560     1.15399E+03     1.15399E+03         3.65276         3.65276        -6.53133        -6.53133
            1561     1.15862E+03     1.15862E+03         5.85921         5.85921        -7.96752        -7.96752
            1562     1.16296E+03     1.16296E+03         8.42504         8.42504        -9.39549        -9.39549
            1563     1.16730E+03     1.16730E+03         11.2997         11.2997        -10.9960        -10.9960
            1564     1.17197E+03     1.17197E+03         14.4417         14.4417        -12.9383        -12.9383
            1565     1.17732E+03     1.17732E+03         17.7909         17.7909        -15.3975        -15.3975
            1566     1.18385E+03     1.18385E+03         21.2197         21.2197        -18.5670        -18.5670
            1567     1.19226E+03     1.19226E+03         24.4364         24.4364        -22.6553        -22.6553
            1568     1.20367E+03     1.20367E+03         26.7572         26.7572        -27.8223        -27.8223
            1569     1.21985E+03     1.21985E+03         26.5578         26.5578        -33.9084        -33.9084
            1570     1.13987E+03     1.13987E+03     914.768E-03     914.768E-03        -1.36544        -1.36544
            1571     1.14683E+03     1.14683E+03         2.52106         2.52106        -2.42957        -2.42957
            1572     1.15243E+03     1.15243E+03         4.92007         4.92007        -3.24455        -3.24455
            1573     1.15714E+03     1.15714E+03         7.98056         7.98056        -3.96750        -3.96750
            1574     1.16134E+03     1.16134E+03         11.6606         11.6606        -4.72940        -4.72940
            1575     1.16535E+03     1.16535E+03         15.9937         15.9937        -5.64769        -5.64769
            1576     1.16947E+03     1.16947E+03         21.0829         21.0829        -6.84455        -6.84455
            1577     1.17403E+03     1.17403E+03         27.1049         27.1049        -8.46717        -8.46717
            1578     1.17945E+03     1.17945E+03         34.3216         34.3216        -10.7142        -10.7142
            1579     1.18636E+03     1.18636E+03         43.1001         43.1001        -13.8769        -13.8769
            1580     1.19575E+03     1.19575E+03         53.9259         53.9259        -18.4260        -18.4260
            1581     1.20949E+03     1.20949E+03         67.3227         67.3227        -25.1712        -25.1712
            1582     1.13917E+03     1.13917E+03     999.888E-03     999.888E-03     263.316E-03     263.316E-03
            1583     1.14637E+03     1.14637E+03         2.76030         2.76030     516.273E-03     516.273E-03
            1584     1.15207E+03     1.15207E+03         5.39883         5.39883     754.693E-03     754.693E-03
            1585     1.15678E+03     1.15678E+03         8.78435         8.78435     970.782E-03     970.782E-03
            1586     1.16089E+03     1.16089E+03         12.8912         12.8912         1.15905         1.15905
            1587     1.16472E+03     1.16472E+03         17.7881         17.7881         1.31524         1.31524
            1588     1.16857E+03     1.16857E+03         23.6398         23.6398         1.43619         1.43619
            1589     1.17274E+03     1.17274E+03         30.7273         30.7273         1.51993         1.51993
            1590     1.17762E+03     1.17762E+03         39.4934         39.4934         1.56533         1.56533
            1591     1.18372E+03     1.18372E+03         50.6301         50.6301         1.57243         1.57243
            1592     1.19189E+03     1.19189E+03         65.2665         65.2665         1.54263         1.54263
            1593     1.20366E+03     1.20366E+03         85.4329         85.4329         1.47645         1.47645
            1594     1.14061E+03     1.14061E+03     924.350E-03     924.350E-03         1.90095         1.90095
            1595     1.14753E+03     1.14753E+03         2.54874         2.54874         3.47886         3.47886
            1596     1.15308E+03     1.15308E+03         4.97607         4.97607         4.77736         4.77736
            1597     1.15771E+03     1.15771E+03         8.07343         8.07343         5.93796         5.93796
            1598     1.16183E+03     1.16183E+03         11.7973         11.7973         7.08075         7.08075
            1599     1.16574E+03     1.16574E+03         16.1795         16.1795         8.31463         8.31463
            1600     1.16976E+03     1.16976E+03         21.3217         21.3217         9.75568         9.75568
            1601     1.17421E+03     1.17421E+03         27.3991         27.3991         11.5470         11.5470
            1602     1.17953E+03     1.17953E+03         34.6726         34.6726         13.8855         13.8855
            1603     1.18632E+03     1.18632E+03         43.5083         43.5083         17.0622         17.0622
            1604     1.19561E+03     1.19561E+03         54.3895         54.3895         21.5493         21.5493
            1605     1.20926E+03     1.20926E+03         67.8401         67.8401         28.1624         28.1624
            1606     1.14401E+03     1.14401E+03     707.597E-03     707.597E-03         3.28245         3.28245
            1607     1.15018E+03     1.15018E+03         1.94149         1.94149         5.97048         5.97048
            1608     1.15531E+03     1.15531E+03         3.76451         3.76451         8.13433         8.13433
            1609     1.15979E+03     1.15979E+03         6.04455         6.04455         10.0246         10.0246
            1610     1.16395E+03     1.16395E+03         8.69769         8.69769         11.8464         11.8464
            1611     1.16810E+03     1.16810E+03         11.6702         11.6702         13.7722         13.7722
            1612     1.17256E+03     1.17256E+03         14.9177         14.9177         15.9652         15.9652
            1613     1.17769E+03     1.17769E+03         18.3772         18.3772         18.5970         18.5970
            1614     1.18400E+03     1.18400E+03         21.9188         21.9188         21.8593         21.8593
            1615     1.19219E+03     1.19219E+03         25.2486         25.2486         25.9610         25.9610
            1616     1.20339E+03     1.20339E+03         27.6818         27.6818         31.0633         31.0633
            1617     1.21938E+03     1.21938E+03         27.5892         27.5892         37.0094         37.0094
            1618     1.14892E+03     1.14892E+03     401.052E-03     401.052E-03         4.20581         4.20581
            1619     1.15394E+03     1.15394E+03         1.08448         1.08448         7.62156         7.62156
            1620     1.15840E+03     1.15840E+03         2.06171         2.06171         10.3114         10.3114
            1621     1.16256E+03     1.16256E+03         3.21352         3.21352         12.5705         12.5705
            1622     1.16666E+03     1.16666E+03         4.42072         4.42072         14.6277         14.6277
            1623     1.17098E+03     1.17098E+03         5.54705         5.54705         16.6503         16.6503
            1624     1.17578E+03     1.17578E+03         6.41157         6.41157         18.7569         18.7569
            1625     1.18142E+03     1.18142E+03         6.74615         6.74615         21.0143         21.0143
            1626     1.18832E+03     1.18832E+03         6.12606         6.12606         23.4047         23.4047
            1627     1.19705E+03     1.19705E+03         3.85627         3.85627         25.7363         25.7363
            1628     1.20823E+03     1.20823E+03        -1.19843        -1.19843         27.4056         27.4056
            1629     1.22235E+03     1.22235E+03        -10.7467        -10.7467         26.9006         26.9006
            1630     1.15466E+03     1.15466E+03     70.8562E-03     70.8562E-03         4.57334         4.57334
            1631     1.15827E+03     1.15827E+03     165.014E-03     165.014E-03         8.25762         8.25762
            1632     1.16184E+03     1.16184E+03     246.712E-03     246.712E-03         11.0798         11.0798
            1633     1.16546E+03     1.16546E+03     228.391E-03     228.391E-03         13.3144         13.3144
            1634     1.16928E+03     1.16928E+03    -14.6807E-03    -14.6807E-03         15.1588         15.1588
            1635     1.17345E+03     1.17345E+03    -652.878E-03    -652.878E-03         16.7236         16.7236
            1636     1.17816E+03     1.17816E+03        -1.92009        -1.92009         18.0324         18.0324
            1637     1.18363E+03     1.18363E+03        -4.14087        -4.14087         18.9978         18.9978
            1638     1.19007E+03     1.19007E+03        -7.76254        -7.76254         19.3652         19.3652
            1639     1.19760E+03     1.19760E+03        -13.3781        -13.3781         18.5980         18.5980
            1640     1.20608E+03     1.20608E+03        -21.6648        -21.6648         15.7091         15.7091
            1641     1.21450E+03     1.21450E+03        -33.1017        -33.1017         9.05870         9.05870
            1642     1.14633E+03     1.14633E+03         1.39901         1.39901     152.823E-03     152.823E-03
            1643     1.14631E+03     1.14631E+03         1.42501         1.42501     306.505E-03     306.505E-03
            1644     1.14629E+03     1.14629E+03         1.46821         1.46821     464.029E-03     464.029E-03
            1645     1.14626E+03     1.14626E+03         1.52860         1.52860     626.661E-03     626.661E-03
            1646     1.14621E+03     1.14621E+03         1.60610         1.60610     796.089E-03     796.089E-03
            1647     1.14616E+03     1.14616E+03         1.70053         1.70053     974.000E-03     974.000E-03
            1648     1.14610E+03     1.14610E+03         1.81166         1.81166         1.16207         1.16207
            1649     1.14602E+03     1.14602E+03         1.93915         1.93915         1.36196         1.36196
            1650     1.14593E+03     1.14593E+03         2.08251         2.08251         1.57530         1.57530
            1651     1.14583E+03     1.14583E+03         2.24107         2.24107         1.80374         1.80374
            1652     1.14571E+03     1.14571E+03         2.41393         2.41393         2.04886         2.04886
            1653     1.14557E+03     1.14557E+03         2.59991         2.59991         2.31226         2.31226
            1654     1.14542E+03     1.14542E+03         2.79743         2.79743         2.59547         2.59547
            1655     1.14525E+03     1.14525E+03         3.00452         3.00452         2.90006         2.90006
            1656     1.14506E+03     1.14506E+03         3.21865         3.21865         3.22755         3.22755
            1657     1.14485E+03     1.14485E+03         3.43663         3.43663         3.57950         3.57950
            1658     1.14461E+03     1.14461E+03         3.65455         3.65455         3.95749         3.95749
            1659     1.14436E+03     1.14436E+03         3.86754         3.86754         4.36319         4.36319
            1660     1.14409E+03     1.14409E+03         4.06969         4.06969         4.79841         4.79841
            1661     1.14379E+03     1.14379E+03         4.25383         4.25383         5.26515         5.26515
            1662     1.14348E+03     1.14348E+03         4.41129         4.41129         5.76571         5.76571
            1663     1.14314E+03     1.14314E+03         4.53171         4.53171         6.30284         6.30284
            1664     1.14280E+03     1.14280E+03         4.60274         4.60274         6.87980         6.87980
            1665     1.14245E+03     1.14245E+03         4.60971         4.60971         7.50061         7.50061
            1666     1.14210E+03     1.14210E+03         4.53532         4.53532         8.17015         8.17015
            1667     1.14177E+03     1.14177E+03         4.35920         4.35920         8.89436         8.89436
            1668     1.14147E+03     1.14147E+03         4.05746         4.05746         9.68034         9.68034
            1669     1.14122E+03     1.14122E+03         3.60212         3.60212         10.5364         10.5364
            1670     1.14105E+03     1.14105E+03         2.96062         2.96062         11.4718         11.4718
            1671     1.14101E+03     1.14101E+03         2.09496         2.09496         12.4963         12.4963
            1672     1.14113E+03     1.14113E+03     961.239E-03     961.239E-03         13.6191         13.6191
            1673     1.14148E+03     1.14148E+03    -491.352E-03    -491.352E-03         14.8466         14.8466
            1674     1.14216E+03     1.14216E+03        -2.32036        -2.32036         16.1791         16.1791
            1675     1.14326E+03     1.14326E+03        -4.59059        -4.59059         17.6048         17.6048
            1676     1.14493E+03     1.14493E+03        -7.37056        -7.37056         19.0904         19.0904
            1677     1.14734E+03     1.14734E+03        -10.7289        -10.7289         20.5673         20.5673
            1678     1.15071E+03     1.15071E+03        -14.7174        -14.7174         21.9087         21.9087
            1679     1.15528E+03     1.15528E+03        -19.3495        -19.3495         22.9050         22.9050
            1680     1.16129E+03     1.16129E+03        -24.5405        -24.5405         23.2238         23.2238
            1681     1.16893E+03     1.16893E+03        -30.0317        -30.0317         22.4001         22.4001
            1682     1.17820E+03     1.17820E+03        -35.2610        -35.2610         19.8395         19.8395
            1683     1.18880E+03     1.18880E+03        -39.3165        -39.3165         14.9914         14.9914
            1684     1.14645E+03     1.14645E+03         1.24382         1.24382     160.026E-03     160.026E-03
            1685     1.14645E+03     1.14645E+03         1.26721         1.26721     320.938E-03     320.938E-03
            1686     1.14643E+03     1.14643E+03         1.30609         1.30609     485.944E-03     485.944E-03
            1687     1.14641E+03     1.14641E+03         1.36045         1.36045     656.389E-03     656.389E-03
            1688     1.14639E+03     1.14639E+03         1.43019         1.43019     834.064E-03     834.064E-03
            1689     1.14635E+03     1.14635E+03         1.51517         1.51517         1.02076         1.02076
            1690     1.14632E+03     1.14632E+03         1.61517         1.61517         1.21825         1.21825
            1691     1.14627E+03     1.14627E+03         1.72986         1.72986         1.42828         1.42828
            1692     1.14621E+03     1.14621E+03         1.85879         1.85879         1.65259         1.65259
            1693     1.14615E+03     1.14615E+03         2.00131         2.00131         1.89286         1.89286
            1694     1.14608E+03     1.14608E+03         2.15657         2.15657         2.15074         2.15074
            1695     1.14599E+03     1.14599E+03         2.32341         2.32341         2.42784         2.42784
            1696     1.14589E+03     1.14589E+03         2.50031         2.50031         2.72571         2.72571
            1697     1.14579E+03     1.14579E+03         2.68532         2.68532         3.04583         3.04583
            1698     1.14567E+03     1.14567E+03         2.87596         2.87596         3.38963         3.38963
            1699     1.14553E+03     1.14553E+03         3.06907         3.06907         3.75846         3.75846
            1700     1.14539E+03     1.14539E+03         3.26073         3.26073         4.15362         4.15362
            1701     1.14523E+03     1.14523E+03         3.44606         3.44606         4.57635         4.57635
            1702     1.14506E+03     1.14506E+03         3.61907         3.61907         5.02787         5.02787
            1703     1.14488E+03     1.14488E+03         3.77246         3.77246         5.50939         5.50939
            1704     1.14469E+03     1.14469E+03         3.89739         3.89739         6.02216         6.02216
            1705     1.14449E+03     1.14449E+03         3.98318         3.98318         6.56752         6.56752
            1706     1.14430E+03     1.14430E+03         4.01711         4.01711         7.14692         7.14692
            1707     1.14412E+03     1.14412E+03         3.98402         3.98402         7.76204         7.76204
            1708     1.14396E+03     1.14396E+03         3.86601         3.86601         8.41474         8.41474
            1709     1.14384E+03     1.14384E+03         3.64208         3.64208         9.10711         9.10711
            1710     1.14376E+03     1.14376E+03         3.28773         3.28773         9.84133         9.84133
            1711     1.14377E+03     1.14377E+03         2.77462         2.77462         10.6195         10.6195
            1712     1.14389E+03     1.14389E+03         2.07024         2.07024         11.4428         11.4428
            1713     1.14416E+03     1.14416E+03         1.13775         1.13775         12.3112         12.3112
            1714     1.14463E+03     1.14463E+03    -64.1120E-03    -64.1120E-03         13.2210         13.2210
            1715     1.14538E+03     1.14538E+03        -1.58023        -1.58023         14.1630         14.1630
            1716     1.14647E+03     1.14647E+03        -3.45827        -3.45827         15.1181         15.1181
            1717     1.14802E+03     1.14802E+03        -5.74500        -5.74500         16.0512         16.0512
            1718     1.15013E+03     1.15013E+03        -8.48174        -8.48174         16.9031         16.9031
            1719     1.15295E+03     1.15295E+03        -11.6924        -11.6924         17.5778         17.5778
            1720     1.15663E+03     1.15663E+03        -15.3673        -15.3673         17.9294         17.9294
            1721     1.16129E+03     1.16129E+03        -19.4304        -19.4304         17.7436         17.7436
            1722     1.16704E+03     1.16704E+03        -23.6953        -23.6953         16.7346         16.7346
            1723     1.17387E+03     1.17387E+03        -27.8042        -27.8042         14.5470         14.5470
            1724     1.18160E+03     1.18160E+03        -31.1715        -31.1715         10.8291         10.8291
            1725     1.18988E+03     1.18988E+03        -33.0173        -33.0173         5.26266         5.26266
            1726     1.14658E+03     1.14658E+03         1.08331         1.08331     163.468E-03     163.468E-03
            1727     1.14658E+03     1.14658E+03         1.10396         1.10396     327.835E-03     327.835E-03
            1728     1.14657E+03     1.14657E+03         1.13829         1.13829     496.473E-03     496.473E-03
            1729     1.14657E+03     1.14657E+03         1.18629         1.18629     670.772E-03     670.772E-03
            1730     1.14656E+03     1.14656E+03         1.24788         1.24788     852.597E-03     852.597E-03
            1731     1.14655E+03     1.14655E+03         1.32292         1.32292         1.04381         1.04381
            1732     1.14654E+03     1.14654E+03         1.41123         1.41123         1.24624         1.24624
            1733     1.14652E+03     1.14652E+03         1.51250         1.51250         1.46170         1.46170
            1734     1.14650E+03     1.14650E+03         1.62631         1.62631         1.69197         1.69197
            1735     1.14648E+03     1.14648E+03         1.75207         1.75207         1.93877         1.93877
            1736     1.14645E+03     1.14645E+03         1.88897         1.88897         2.20378         2.20378
            1737     1.14642E+03     1.14642E+03         2.03592         2.03592         2.48859         2.48859
            1738     1.14639E+03     1.14639E+03         2.19151         2.19151         2.79470         2.79470
            1739     1.14635E+03     1.14635E+03         2.35386         2.35386         3.12350         3.12350
            1740     1.14630E+03     1.14630E+03         2.52059         2.52059         3.47628         3.47628
            1741     1.14625E+03     1.14625E+03         2.68868         2.68868         3.85413         3.85413
            1742     1.14619E+03     1.14619E+03         2.85430         2.85430         4.25803         4.25803
            1743     1.14613E+03     1.14613E+03         3.01271         3.01271         4.68872         4.68872
            1744     1.14607E+03     1.14607E+03         3.15805         3.15805         5.14677         5.14677
            1745     1.14601E+03     1.14601E+03         3.28312         3.28312         5.63250         5.63250
            1746     1.14595E+03     1.14595E+03         3.37919         3.37919         6.14599         6.14599
            1747     1.14589E+03     1.14589E+03         3.43568         3.43568         6.68703         6.68703
            1748     1.14586E+03     1.14586E+03         3.43995         3.43995         7.25513         7.25513
            1749     1.14584E+03     1.14584E+03         3.37694         3.37694         7.84942         7.84942
            1750     1.14586E+03     1.14586E+03         3.22891         3.22891         8.46858         8.46858
            1751     1.14593E+03     1.14593E+03         2.97511         2.97511         9.11067         9.11067
            1752     1.14607E+03     1.14607E+03         2.59159         2.59159         9.77284         9.77284
            1753     1.14630E+03     1.14630E+03         2.05096         2.05096         10.4509         10.4509
            1754     1.14666E+03     1.14666E+03         1.32253         1.32253         11.1386         11.1386
            1755     1.14719E+03     1.14719E+03     372.425E-03     372.425E-03         11.8265         11.8265
            1756     1.14794E+03     1.14794E+03    -835.377E-03    -835.377E-03         12.5001         12.5001
            1757     1.14896E+03     1.14896E+03        -2.33782        -2.33782         13.1374         13.1374
            1758     1.15033E+03     1.15033E+03        -4.16954        -4.16954         13.7050         13.7050
            1759     1.15213E+03     1.15213E+03        -6.35864        -6.35864         14.1537         14.1537
            1760     1.15446E+03     1.15446E+03        -8.91819        -8.91819         14.4109         14.4109
            1761     1.15739E+03     1.15739E+03        -11.8346        -11.8346         14.3745         14.3745
            1762     1.16102E+03     1.16102E+03        -15.0481        -15.0481         13.9038         13.9038
            1763     1.16539E+03     1.16539E+03        -18.4263        -18.4263         12.8189         12.8189
            1764     1.17049E+03     1.17049E+03        -21.7324        -21.7324         10.9031         10.9031
            1765     1.17622E+03     1.17622E+03        -24.5855        -24.5855         7.93483         7.93483
            1766     1.18232E+03     1.18232E+03        -26.4617        -26.4617         3.72471         3.72471
            1767     1.18837E+03     1.18837E+03        -26.6249        -26.6249        -1.85800        -1.85800
            1768     1.14669E+03     1.14669E+03     921.247E-03     921.247E-03     163.000E-03     163.000E-03
            1769     1.14669E+03     1.14669E+03     939.076E-03     939.076E-03     326.888E-03     326.888E-03
            1770     1.14670E+03     1.14670E+03     968.726E-03     968.726E-03     495.141E-03     495.141E-03
            1771     1.14671E+03     1.14671E+03         1.01018         1.01018     669.163E-03     669.163E-03
            1772     1.14672E+03     1.14672E+03         1.06338         1.06338     850.855E-03     850.855E-03
            1773     1.14673E+03     1.14673E+03         1.12820         1.12820         1.04211         1.04211
            1774     1.14675E+03     1.14675E+03         1.20448         1.20448         1.24478         1.24478
            1775     1.14677E+03     1.14677E+03         1.29196         1.29196         1.46072         1.46072
            1776     1.14678E+03     1.14678E+03         1.39025         1.39025         1.69172         1.69172
            1777     1.14681E+03     1.14681E+03         1.49884         1.49884         1.93949         1.93949
            1778     1.14683E+03     1.14683E+03         1.61698         1.61698         2.20572         2.20572
            1779     1.14685E+03     1.14685E+03         1.74371         1.74371         2.49194         2.49194
            1780     1.14688E+03     1.14688E+03         1.87769         1.87769         2.79960         2.79960
            1781     1.14691E+03     1.14691E+03         2.01723         2.01723         3.12999         3.12999
            1782     1.14694E+03     1.14694E+03         2.16011         2.16011         3.48419         3.48419
            1783     1.14697E+03     1.14697E+03         2.30350         2.30350         3.86307         3.86307
            1784     1.14701E+03     1.14701E+03         2.44384         2.44384         4.26723         4.26723
            1785     1.14705E+03     1.14705E+03         2.57664         2.57664         4.69694         4.69694
            1786     1.14710E+03     1.14710E+03         2.69638         2.69638         5.15207         5.15207
            1787     1.14716E+03     1.14716E+03         2.79622         2.79622         5.63207         5.63207
            1788     1.14723E+03     1.14723E+03         2.86784         2.86784         6.13584         6.13584
            1789     1.14732E+03     1.14732E+03         2.90114         2.90114         6.66166         6.66166
            1790     1.14743E+03     1.14743E+03         2.88405         2.88405         7.20708         7.20708
            1791     1.14758E+03     1.14758E+03         2.80219         2.80219         7.76876         7.76876
            1792     1.14777E+03     1.14777E+03         2.63866         2.63866         8.34228         8.34228
            1793     1.14802E+03     1.14802E+03         2.37385         2.37385         8.92185         8.92185
            1794     1.14834E+03     1.14834E+03         1.98528         1.98528         9.49997         9.49997
            1795     1.14877E+03     1.14877E+03         1.44771         1.44771         10.0668         10.0668
            1796     1.14934E+03     1.14934E+03     733.421E-03     733.421E-03         10.6094         10.6094
            1797     1.15006E+03     1.15006E+03    -187.013E-03    -187.013E-03         11.1106         11.1106
            1798     1.15101E+03     1.15101E+03        -1.34343        -1.34343         11.5476         11.5476
            1799     1.15221E+03     1.15221E+03        -2.76357        -2.76357         11.8893         11.8893
            1800     1.15372E+03     1.15372E+03        -4.46957        -4.46957         12.0941         12.0941
            1801     1.15562E+03     1.15562E+03        -6.47189        -6.47189         12.1062         12.1062
            1802     1.15795E+03     1.15795E+03        -8.76107        -8.76107         11.8521         11.8521
            1803     1.16077E+03     1.16077E+03        -11.2954        -11.2954         11.2367         11.2367
            1804     1.16411E+03     1.16411E+03        -13.9843        -13.9843         10.1439         10.1439
            1805     1.16795E+03     1.16795E+03        -16.6695        -16.6695         8.43919         8.43919
            1806     1.17222E+03     1.17222E+03        -19.1012        -19.1012         5.98544         5.98544
            1807     1.17677E+03     1.17677E+03        -20.9302        -20.9302         2.66801         2.66801
            1808     1.18132E+03     1.18132E+03        -21.6843        -21.6843        -1.57564        -1.57564
            1809     1.18545E+03     1.18545E+03        -20.7773        -20.7773        -6.67587        -6.67587
            1810     1.14679E+03     1.14679E+03     761.548E-03     761.548E-03     158.542E-03     158.542E-03
            1811     1.14680E+03     1.14680E+03     776.534E-03     776.534E-03     317.928E-03     317.928E-03
            1812     1.14681E+03     1.14681E+03     801.464E-03     801.464E-03     481.688E-03     481.688E-03
            1813     1.14684E+03     1.14684E+03     836.326E-03     836.326E-03     651.200E-03     651.200E-03
            1814     1.14687E+03     1.14687E+03     881.063E-03     881.063E-03     828.360E-03     828.360E-03
            1815     1.14690E+03     1.14690E+03     935.587E-03     935.587E-03         1.01505         1.01505
            1816     1.14695E+03     1.14695E+03     999.753E-03     999.753E-03         1.21313         1.21313
            1817     1.14700E+03     1.14700E+03         1.07334         1.07334         1.42443         1.42443
            1818     1.14705E+03     1.14705E+03         1.15604         1.15604         1.65072         1.65072
            1819     1.14712E+03     1.14712E+03         1.24739         1.24739         1.89370         1.89370
            1820     1.14719E+03     1.14719E+03         1.34675         1.34675         2.15500         2.15500
            1821     1.14728E+03     1.14728E+03         1.45326         1.45326         2.43612         2.43612
            1822     1.14737E+03     1.14737E+03         1.56577         1.56577         2.73842         2.73842
            1823     1.14747E+03     1.14747E+03         1.68275         1.68275         3.06305         3.06305
            1824     1.14758E+03     1.14758E+03         1.80224         1.80224         3.41094         3.41094
            1825     1.14770E+03     1.14770E+03         1.92170         1.92170         3.78271         3.78271
            1826     1.14783E+03     1.14783E+03         2.03791         2.03791         4.17862         4.17862
            1827     1.14797E+03     1.14797E+03         2.14682         2.14682         4.59850         4.59850
            1828     1.14814E+03     1.14814E+03         2.24339         2.24339         5.04160         5.04160
            1829     1.14832E+03     1.14832E+03         2.32140         2.32140         5.50657         5.50657
            1830     1.14852E+03     1.14852E+03         2.37321         2.37321         5.99123         5.99123
            1831     1.14874E+03     1.14874E+03         2.38960         2.38960         6.49250         6.49250
            1832     1.14901E+03     1.14901E+03         2.35947         2.35947         7.00617         7.00617
            1833     1.14931E+03     1.14931E+03         2.26966         2.26966         7.52670         7.52670
            1834     1.14966E+03     1.14966E+03         2.10475         2.10475         8.04693         8.04693
            1835     1.15007E+03     1.15007E+03         1.84693         1.84693         8.55773         8.55773
            1836     1.15057E+03     1.15057E+03         1.47602         1.47602         9.04758         9.04758
            1837     1.15117E+03     1.15117E+03     969.702E-03     969.702E-03         9.50200         9.50200
            1838     1.15189E+03     1.15189E+03     304.070E-03     304.070E-03         9.90276         9.90276
            1839     1.15277E+03     1.15277E+03    -545.365E-03    -545.365E-03         10.2270         10.2270
            1840     1.15383E+03     1.15383E+03        -1.60182        -1.60182         10.4461         10.4461
            1841     1.15512E+03     1.15512E+03        -2.88460        -2.88460         10.5239         10.5239
            1842     1.15668E+03     1.15668E+03        -4.40482        -4.40482         10.4155         10.4155
            1843     1.15854E+03     1.15854E+03        -6.15955        -6.15955         10.0655         10.0655
            1844     1.16074E+03     1.16074E+03        -8.12373        -8.12373         9.40653         9.40653
            1845     1.16329E+03     1.16329E+03        -10.2393        -10.2393         8.36058         8.36058
            1846     1.16619E+03     1.16619E+03        -12.4033        -12.4033         6.84143         6.84143
            1847     1.16938E+03     1.16938E+03        -14.4529        -14.4529         4.76385         4.76385
            1848     1.17278E+03     1.17278E+03        -16.1575        -16.1575         2.05930         2.05930
            1849     1.17619E+03     1.17619E+03        -17.2079        -17.2079        -1.30351        -1.30351
            1850     1.17937E+03     1.17937E+03        -17.2247        -17.2247        -5.27556        -5.27556
            1851     1.18199E+03     1.18199E+03        -15.7874        -15.7874        -9.68481        -9.68481
            1852     1.14686E+03     1.14686E+03     608.152E-03     608.152E-03     150.095E-03     150.095E-03
            1853     1.14688E+03     1.14688E+03     620.338E-03     620.338E-03     300.961E-03     300.961E-03
            1854     1.14690E+03     1.14690E+03     640.617E-03     640.617E-03     456.110E-03     456.110E-03
            1855     1.14694E+03     1.14694E+03     668.978E-03     668.978E-03     616.861E-03     616.861E-03
            1856     1.14699E+03     1.14699E+03     705.380E-03     705.380E-03     785.059E-03     785.059E-03
            1857     1.14705E+03     1.14705E+03     749.753E-03     749.753E-03     962.542E-03     962.542E-03
            1858     1.14712E+03     1.14712E+03     801.986E-03     801.986E-03         1.15112         1.15112
            1859     1.14720E+03     1.14720E+03     861.905E-03     861.905E-03         1.35257         1.35257
            1860     1.14730E+03     1.14730E+03     929.249E-03     929.249E-03         1.56861         1.56861
            1861     1.14741E+03     1.14741E+03         1.00365         1.00365         1.80089         1.80089
            1862     1.14753E+03     1.14753E+03         1.08457         1.08457         2.05098         2.05098
            1863     1.14767E+03     1.14767E+03         1.17129         1.17129         2.32031         2.32031
            1864     1.14783E+03     1.14783E+03         1.26284         1.26284         2.61012         2.61012
            1865     1.14800E+03     1.14800E+03         1.35794         1.35794         2.92148         2.92148
            1866     1.14819E+03     1.14819E+03         1.45489         1.45489         3.25515         3.25515
            1867     1.14840E+03     1.14840E+03         1.55152         1.55152         3.61155         3.61155
            1868     1.14863E+03     1.14863E+03         1.64507         1.64507         3.99066         3.99066
            1869     1.14888E+03     1.14888E+03         1.73201         1.73201         4.39192         4.39192
            1870     1.14915E+03     1.14915E+03         1.80798         1.80798         4.81413         4.81413
            1871     1.14945E+03     1.14945E+03         1.86754         1.86754         5.25524         5.25524
            1872     1.14979E+03     1.14979E+03         1.90402         1.90402         5.71226         5.71226
            1873     1.15015E+03     1.15015E+03         1.90933         1.90933         6.18100         6.18100
            1874     1.15056E+03     1.15056E+03         1.87376         1.87376         6.65584         6.65584
            1875     1.15101E+03     1.15101E+03         1.78578         1.78578         7.12949         7.12949
            1876     1.15152E+03     1.15152E+03         1.63193         1.63193         7.59262         7.59262
            1877     1.15209E+03     1.15209E+03         1.39676         1.39676         8.03352         8.03352
            1878     1.15274E+03     1.15274E+03         1.06292         1.06292         8.43762         8.43762
            1879     1.15348E+03     1.15348E+03     611.524E-03     611.524E-03         8.78699         8.78699
            1880     1.15433E+03     1.15433E+03     22.7881E-03     22.7881E-03         9.05976         9.05976
            1881     1.15531E+03     1.15531E+03    -722.718E-03    -722.718E-03         9.22937         9.22937
            1882     1.15644E+03     1.15644E+03        -1.64223        -1.64223         9.26399         9.26399
            1883     1.15776E+03     1.15776E+03        -2.74791        -2.74791         9.12569         9.12569
            1884     1.15927E+03     1.15927E+03        -4.04279        -4.04279         8.77016         8.77016
            1885     1.16101E+03     1.16101E+03        -5.51536        -5.51536         8.14648         8.14648
            1886     1.16298E+03     1.16298E+03        -7.13235        -7.13235         7.19851         7.19851
            1887     1.16517E+03     1.16517E+03        -8.83079        -8.83079         5.86751         5.86751
            1888     1.16755E+03     1.16755E+03        -10.5081        -10.5081         4.09807         4.09807
            1889     1.17007E+03     1.17007E+03        -12.0159        -12.0159         1.84822         1.84822
            1890     1.17260E+03     1.17260E+03        -13.1525        -13.1525    -897.132E-03    -897.132E-03
            1891     1.17498E+03     1.17498E+03        -13.6676        -13.6676        -4.10243        -4.10243
            1892     1.17702E+03     1.17702E+03        -13.2768        -13.2768        -7.65740        -7.65740
            1893     1.17846E+03     1.17846E+03        -11.6963        -11.6963        -11.3443        -11.3443
            1894     1.14691E+03     1.14691E+03     464.954E-03     464.954E-03     137.758E-03     137.758E-03
            1895     1.14693E+03     1.14693E+03     474.451E-03     474.451E-03     276.172E-03     276.172E-03
            1896     1.14696E+03     1.14696E+03     490.264E-03     490.264E-03     418.678E-03     418.678E-03
            1897     1.14701E+03     1.14701E+03     512.380E-03     512.380E-03     566.488E-03     566.488E-03
            1898     1.14708E+03     1.14708E+03     540.772E-03     540.772E-03     721.356E-03     721.356E-03
            1899     1.14716E+03     1.14716E+03     575.391E-03     575.391E-03     885.022E-03     885.022E-03
            1900     1.14726E+03     1.14726E+03     616.156E-03     616.156E-03         1.05921         1.05921
            1901     1.14738E+03     1.14738E+03     662.935E-03     662.935E-03         1.24559         1.24559
            1902     1.14751E+03     1.14751E+03     715.532E-03     715.532E-03         1.44582         1.44582
            1903     1.14767E+03     1.14767E+03     773.654E-03     773.654E-03         1.66145         1.66145
            1904     1.14784E+03     1.14784E+03     836.889E-03     836.889E-03         1.89395         1.89395
            1905     1.14804E+03     1.14804E+03     904.665E-03     904.665E-03         2.14466         2.14466
            1906     1.14825E+03     1.14825E+03     976.205E-03     976.205E-03         2.41475         2.41475
            1907     1.14850E+03     1.14850E+03         1.05047         1.05047         2.70516         2.70516
            1908     1.14877E+03     1.14877E+03         1.12611         1.12611         3.01653         3.01653
            1909     1.14906E+03     1.14906E+03         1.20134         1.20134         3.34913         3.34913
            1910     1.14939E+03     1.14939E+03         1.27391         1.27391         3.70274         3.70274
            1911     1.14974E+03     1.14974E+03         1.34094         1.34094         4.07657         4.07657
            1912     1.15013E+03     1.15013E+03         1.39881         1.39881         4.46906         4.46906
            1913     1.15056E+03     1.15056E+03         1.44304         1.44304         4.87776         4.87776
            1914     1.15102E+03     1.15102E+03         1.46811         1.46811         5.29911         5.29911
            1915     1.15153E+03     1.15153E+03         1.46729         1.46729         5.72819         5.72819
            1916     1.15208E+03     1.15208E+03         1.43250         1.43250         6.15848         6.15848
            1917     1.15268E+03     1.15268E+03         1.35417         1.35417         6.58152         6.58152
            1918     1.15333E+03     1.15333E+03         1.22115         1.22115         6.98659         6.98659
            1919     1.15405E+03     1.15405E+03         1.02068         1.02068         7.36029         7.36029
            1920     1.15484E+03     1.15484E+03     738.576E-03     738.576E-03         7.68616         7.68616
            1921     1.15571E+03     1.15571E+03     359.568E-03     359.568E-03         7.94422         7.94422
            1922     1.15667E+03     1.15667E+03    -131.953E-03    -131.953E-03         8.11054         8.11054
            1923     1.15772E+03     1.15772E+03    -750.790E-03    -750.790E-03         8.15690         8.15690
            1924     1.15890E+03     1.15890E+03        -1.50910        -1.50910         8.05053         8.05053
            1925     1.16019E+03     1.16019E+03        -2.41377        -2.41377         7.75419         7.75419
            1926     1.16161E+03     1.16161E+03        -3.46287        -3.46287         7.22660         7.22660
            1927     1.16317E+03     1.16317E+03        -4.64091        -4.64091         6.42386         6.42386
            1928     1.16486E+03     1.16486E+03        -5.91343        -5.91343         5.30189         5.30189
            1929     1.16664E+03     1.16664E+03        -7.22039        -7.22039         3.82078         3.82078
            1930     1.16849E+03     1.16849E+03        -8.47098        -8.47098         1.95172         1.95172
            1931     1.17032E+03     1.17032E+03        -9.53839        -9.53839    -313.996E-03    -313.996E-03
            1932     1.17205E+03     1.17205E+03        -10.2605        -10.2605        -2.95077        -2.95077
            1933     1.17352E+03     1.17352E+03        -10.4461        -10.4461        -5.88442        -5.88442
            1934     1.17461E+03     1.17461E+03        -9.89316        -9.89316        -8.97331        -8.97331
            1935     1.17513E+03     1.17513E+03        -8.42235        -8.42235        -11.9956        -11.9956
            1936     1.14692E+03     1.14692E+03     335.708E-03     335.708E-03     121.721E-03     121.721E-03
            1937     1.14694E+03     1.14694E+03     342.703E-03     342.703E-03     243.947E-03     243.947E-03
            1938     1.14699E+03     1.14699E+03     354.358E-03     354.358E-03     369.956E-03     369.956E-03
            1939     1.14705E+03     1.14705E+03     370.657E-03     370.657E-03     500.821E-03     500.821E-03
            1940     1.14714E+03     1.14714E+03     391.586E-03     391.586E-03     638.146E-03     638.146E-03
            1941     1.14724E+03     1.14724E+03     417.112E-03     417.112E-03     783.528E-03     783.528E-03
            1942     1.14736E+03     1.14736E+03     447.181E-03     447.181E-03     938.548E-03     938.548E-03
            1943     1.14751E+03     1.14751E+03     481.706E-03     481.706E-03         1.10475         1.10475
            1944     1.14768E+03     1.14768E+03     520.544E-03     520.544E-03         1.28365         1.28365
            1945     1.14788E+03     1.14788E+03     563.485E-03     563.485E-03         1.47669         1.47669
            1946     1.14810E+03     1.14810E+03     610.226E-03     610.226E-03         1.68520         1.68520
            1947     1.14835E+03     1.14835E+03     660.345E-03     660.345E-03         1.91044         1.91044
            1948     1.14863E+03     1.14863E+03     713.264E-03     713.264E-03         2.15346         2.15346
            1949     1.14894E+03     1.14894E+03     768.203E-03     768.203E-03         2.41510         2.41510
            1950     1.14929E+03     1.14929E+03     824.136E-03     824.136E-03         2.69591         2.69591
            1951     1.14967E+03     1.14967E+03     879.718E-03     879.718E-03         2.99606         2.99606
            1952     1.15009E+03     1.15009E+03     933.219E-03     933.219E-03         3.31525         3.31525
            1953     1.15055E+03     1.15055E+03     982.434E-03     982.434E-03         3.65256         3.65256
            1954     1.15105E+03     1.15105E+03         1.02458         1.02458         4.00632         4.00632
            1955     1.15160E+03     1.15160E+03         1.05619         1.05619         4.37391         4.37391
            1956     1.15220E+03     1.15220E+03         1.07297         1.07297         4.75156         4.75156
            1957     1.15284E+03     1.15284E+03         1.06970         1.06970         5.13408         5.13408
            1958     1.15354E+03     1.15354E+03         1.04010         1.04010         5.51461         5.51461
            1959     1.15429E+03     1.15429E+03     976.718E-03     976.718E-03         5.88424         5.88424
            1960     1.15509E+03     1.15509E+03     870.859E-03     870.859E-03         6.23172         6.23172
            1961     1.15596E+03     1.15596E+03     712.646E-03     712.646E-03         6.54304         6.54304
            1962     1.15689E+03     1.15689E+03     491.135E-03     491.135E-03         6.80110         6.80110
            1963     1.15788E+03     1.15788E+03     194.692E-03     194.692E-03         6.98533         6.98533
            1964     1.15893E+03     1.15893E+03    -188.386E-03    -188.386E-03         7.07142         7.07142
            1965     1.16006E+03     1.16006E+03    -668.824E-03    -668.824E-03         7.03127         7.03127
            1966     1.16125E+03     1.16125E+03        -1.25481        -1.25481         6.83311         6.83311
            1967     1.16251E+03     1.16251E+03        -1.94982        -1.94982         6.44205         6.44205
            1968     1.16382E+03     1.16382E+03        -2.74967        -2.74967         5.82139         5.82139
            1969     1.16518E+03     1.16518E+03        -3.63896        -3.63896         4.93468         4.93468
            1970     1.16657E+03     1.16657E+03        -4.58672        -4.58672         3.74906         3.74906
            1971     1.16794E+03     1.16794E+03        -5.54242        -5.54242         2.24033         2.24033
            1972     1.16926E+03     1.16926E+03        -6.43191        -6.43191     399.370E-03     399.370E-03
            1973     1.17045E+03     1.17045E+03        -7.15615        -7.15615        -1.75860        -1.75860
            1974     1.17142E+03     1.17142E+03        -7.59295        -7.59295        -4.18456        -4.18456
            1975     1.17210E+03     1.17210E+03        -7.60485        -7.60485        -6.78408        -6.78408
            1976     1.17236E+03     1.17236E+03        -7.05607        -7.05607        -9.40923        -9.40923
            1977     1.17212E+03     1.17212E+03        -5.83666        -5.83666        -11.8546        -11.8546
            1978     1.14689E+03     1.14689E+03     223.926E-03     223.926E-03     102.289E-03     102.289E-03
            1979     1.14692E+03     1.14692E+03     228.688E-03     228.688E-03     204.873E-03     204.873E-03
            1980     1.14697E+03     1.14697E+03     236.623E-03     236.623E-03     310.829E-03     310.829E-03
            1981     1.14705E+03     1.14705E+03     247.719E-03     247.719E-03     421.018E-03     421.018E-03
            1982     1.14715E+03     1.14715E+03     261.963E-03     261.963E-03     536.849E-03     536.849E-03
            1983     1.14727E+03     1.14727E+03     279.341E-03     279.341E-03     659.728E-03     659.728E-03
            1984     1.14742E+03     1.14742E+03     299.827E-03     299.827E-03     791.035E-03     791.035E-03
            1985     1.14759E+03     1.14759E+03     323.361E-03     323.361E-03     932.133E-03     932.133E-03
            1986     1.14780E+03     1.14780E+03     349.852E-03     349.852E-03         1.08435         1.08435
            1987     1.14803E+03     1.14803E+03     379.162E-03     379.162E-03         1.24897         1.24897
            1988     1.14830E+03     1.14830E+03     411.088E-03     411.088E-03         1.42718         1.42718
            1989     1.14860E+03     1.14860E+03     445.346E-03     445.346E-03         1.62008         1.62008
            1990     1.14894E+03     1.14894E+03     481.540E-03     481.540E-03         1.82862         1.82862
            1991     1.14932E+03     1.14932E+03     519.136E-03     519.136E-03         2.05354         2.05354
            1992     1.14974E+03     1.14974E+03     557.425E-03     557.425E-03         2.29532         2.29532
            1993     1.15021E+03     1.15021E+03     595.474E-03     595.474E-03         2.55410         2.55410
            1994     1.15072E+03     1.15072E+03     632.073E-03     632.073E-03         2.82957         2.82957
            1995     1.15128E+03     1.15128E+03     665.676E-03     665.676E-03         3.12086         3.12086
            1996     1.15190E+03     1.15190E+03     694.321E-03     694.321E-03         3.42635         3.42635
            1997     1.15257E+03     1.15257E+03     715.554E-03     715.554E-03         3.74355         3.74355
            1998     1.15330E+03     1.15330E+03     726.335E-03     726.335E-03         4.06886         4.06886
            1999     1.15408E+03     1.15408E+03     722.945E-03     722.945E-03         4.39732         4.39732
            2000     1.15493E+03     1.15493E+03     700.902E-03     700.902E-03         4.72232         4.72232
            2001     1.15583E+03     1.15583E+03     654.879E-03     654.879E-03         5.03532         5.03532
            2002     1.15679E+03     1.15679E+03     578.677E-03     578.677E-03         5.32548         5.32548
            2003     1.15781E+03     1.15781E+03     465.239E-03     465.239E-03         5.57934         5.57934
            2004     1.15888E+03     1.15888E+03     306.791E-03     306.791E-03         5.78047         5.78047
            2005     1.16000E+03     1.16000E+03     95.1101E-03     95.1101E-03         5.90924         5.90924
            2006     1.16117E+03     1.16117E+03    -177.961E-03    -177.961E-03         5.94262         5.94262
            2007     1.16237E+03     1.16237E+03    -519.714E-03    -519.714E-03         5.85435         5.85435
            2008     1.16359E+03     1.16359E+03    -935.399E-03    -935.399E-03         5.61524         5.61524
            2009     1.16482E+03     1.16482E+03        -1.42654        -1.42654         5.19415         5.19415
            2010     1.16603E+03     1.16603E+03        -1.98887        -1.98887         4.55955         4.55955
            2011     1.16721E+03     1.16721E+03        -2.60959        -2.60959         3.68200         3.68200
            2012     1.16831E+03     1.16831E+03        -3.26471        -3.26471         2.53785         2.53785
            2013     1.16929E+03     1.16929E+03        -3.91596        -3.91596         1.11400         1.11400
            2014     1.17010E+03     1.17010E+03        -4.50907        -4.50907    -585.683E-03    -585.683E-03
            2015     1.17069E+03     1.17069E+03        -4.97315        -4.97315        -2.53346        -2.53346
            2016     1.17098E+03     1.17098E+03        -5.22338        -5.22338        -4.66962        -4.66962
            2017     1.17091E+03     1.17091E+03        -5.16798        -5.16798        -6.89632        -6.89632
            2018     1.17043E+03     1.17043E+03        -4.71998        -4.71998        -9.07405        -9.07405
            2019     1.16948E+03     1.16948E+03        -3.81557        -3.81557        -11.0233        -11.0233
            2020     1.14681E+03     1.14681E+03     132.767E-03     132.767E-03     79.8612E-03     79.8612E-03
            2021     1.14685E+03     1.14685E+03     135.652E-03     135.652E-03     159.778E-03     159.778E-03
            2022     1.14691E+03     1.14691E+03     140.458E-03     140.458E-03     242.502E-03     242.502E-03
            2023     1.14699E+03     1.14699E+03     147.148E-03     147.148E-03     328.674E-03     328.674E-03
            2024     1.14711E+03     1.14711E+03     155.734E-03     155.734E-03     419.451E-03     419.451E-03
            2025     1.14725E+03     1.14725E+03     166.223E-03     166.223E-03     515.962E-03     515.962E-03
            2026     1.14742E+03     1.14742E+03     178.594E-03     178.594E-03     619.341E-03     619.341E-03
            2027     1.14762E+03     1.14762E+03     192.814E-03     192.814E-03     730.709E-03     730.709E-03
            2028     1.14785E+03     1.14785E+03     208.832E-03     208.832E-03     851.163E-03     851.163E-03
            2029     1.14812E+03     1.14812E+03     226.567E-03     226.567E-03     981.761E-03     981.761E-03
            2030     1.14843E+03     1.14843E+03     245.899E-03     245.899E-03         1.12350         1.12350
            2031     1.14878E+03     1.14878E+03     266.659E-03     266.659E-03         1.27731         1.27731
            2032     1.14917E+03     1.14917E+03     288.609E-03     288.609E-03         1.44397         1.44397
            2033     1.14961E+03     1.14961E+03     311.429E-03     311.429E-03         1.62414         1.62414
            2034     1.15010E+03     1.15010E+03     334.684E-03     334.684E-03         1.81823         1.81823
            2035     1.15065E+03     1.15065E+03     357.805E-03     357.805E-03         2.02638         2.02638
            2036     1.15125E+03     1.15125E+03     380.050E-03     380.050E-03         2.24835         2.24835
            2037     1.15191E+03     1.15191E+03     400.462E-03     400.462E-03         2.48341         2.48341
            2038     1.15264E+03     1.15264E+03     417.827E-03     417.827E-03         2.73024         2.73024
            2039     1.15343E+03     1.15343E+03     430.617E-03     430.617E-03         2.98672         2.98672
            2040     1.15429E+03     1.15429E+03     436.934E-03     436.934E-03         3.24978         3.24978
            2041     1.15522E+03     1.15522E+03     434.449E-03     434.449E-03         3.51517         3.51517
            2042     1.15622E+03     1.15622E+03     420.346E-03     420.346E-03         3.77719         3.77719
            2043     1.15728E+03     1.15728E+03     391.272E-03     391.272E-03         4.02844         4.02844
            2044     1.15841E+03     1.15841E+03     343.318E-03     343.318E-03         4.25948         4.25948
            2045     1.15959E+03     1.15959E+03     272.034E-03     272.034E-03         4.45859         4.45859
            2046     1.16083E+03     1.16083E+03     172.518E-03     172.518E-03         4.61142         4.61142
            2047     1.16210E+03     1.16210E+03     39.6056E-03     39.6056E-03         4.70084         4.70084
            2048     1.16340E+03     1.16340E+03    -131.795E-03    -131.795E-03         4.70683         4.70683
            2049     1.16470E+03     1.16470E+03    -346.172E-03    -346.172E-03         4.60666         4.60666
            2050     1.16598E+03     1.16598E+03    -606.613E-03    -606.613E-03         4.37536         4.37536
            2051     1.16722E+03     1.16722E+03    -913.761E-03    -913.761E-03         3.98670         3.98670
            2052     1.16838E+03     1.16838E+03        -1.26437        -1.26437         3.41481         3.41481
            2053     1.16941E+03     1.16941E+03        -1.64975        -1.64975         2.63664         2.63664
            2054     1.17027E+03     1.17027E+03        -2.05387        -2.05387         1.63529         1.63529
            2055     1.17091E+03     1.17091E+03        -2.45183        -2.45183     404.501E-03     404.501E-03
            2056     1.17128E+03     1.17128E+03        -2.80873        -2.80873        -1.04625        -1.04625
            2057     1.17131E+03     1.17131E+03        -3.07980        -3.07980        -2.68581        -2.68581
            2058     1.17096E+03     1.17096E+03        -3.21269        -3.21269        -4.45613        -4.45613
            2059     1.17018E+03     1.17018E+03        -3.15191        -3.15191        -6.26821        -6.26821
            2060     1.16895E+03     1.16895E+03        -2.84687        -2.84687        -8.00152        -8.00152
            2061     1.16729E+03     1.16729E+03        -2.26178        -2.26178        -9.50826        -9.50826
            2062     1.14669E+03     1.14669E+03     64.9418E-03     64.9418E-03     55.0003E-03     55.0003E-03
            2063     1.14673E+03     1.14673E+03     66.4179E-03     66.4179E-03     109.677E-03     109.677E-03
            2064     1.14679E+03     1.14679E+03     68.7908E-03     68.7908E-03     166.523E-03     166.523E-03
            2065     1.14689E+03     1.14689E+03     72.0728E-03     72.0728E-03     225.879E-03     225.879E-03
            2066     1.14701E+03     1.14701E+03     76.3114E-03     76.3114E-03     288.530E-03     288.530E-03
            2067     1.14716E+03     1.14716E+03     81.4915E-03     81.4915E-03     355.292E-03     355.292E-03
            2068     1.14735E+03     1.14735E+03     87.6032E-03     87.6032E-03     426.991E-03     426.991E-03
            2069     1.14757E+03     1.14757E+03     94.6321E-03     94.6321E-03     504.440E-03     504.440E-03
            2070     1.14783E+03     1.14783E+03     102.552E-03     102.552E-03     588.440E-03     588.440E-03
            2071     1.14813E+03     1.14813E+03     111.325E-03     111.325E-03     679.767E-03     679.767E-03
            2072     1.14847E+03     1.14847E+03     120.891E-03     120.891E-03     779.164E-03     779.164E-03
            2073     1.14886E+03     1.14886E+03     131.169E-03     131.169E-03     887.314E-03     887.314E-03
            2074     1.14931E+03     1.14931E+03     142.041E-03     142.041E-03         1.00482         1.00482
            2075     1.14980E+03     1.14980E+03     153.347E-03     153.347E-03         1.13219         1.13219
            2076     1.15036E+03     1.15036E+03     164.872E-03     164.872E-03         1.26975         1.26975
            2077     1.15098E+03     1.15098E+03     176.330E-03     176.330E-03         1.41764         1.41764
            2078     1.15167E+03     1.15167E+03     187.349E-03     187.349E-03         1.57574         1.57574
            2079     1.15242E+03     1.15242E+03     197.446E-03     197.446E-03         1.74357         1.74357
            2080     1.15326E+03     1.15326E+03     206.008E-03     206.008E-03         1.92018         1.92018
            2081     1.15417E+03     1.15417E+03     212.260E-03     212.260E-03         2.10409         2.10409
            2082     1.15516E+03     1.15516E+03     215.237E-03     215.237E-03         2.29305         2.29305
            2083     1.15624E+03     1.15624E+03     213.750E-03     213.750E-03         2.48396         2.48396
            2084     1.15739E+03     1.15739E+03     206.360E-03     206.360E-03         2.67262         2.67262
            2085     1.15862E+03     1.15862E+03     191.344E-03     191.344E-03         2.85352         2.85352
            2086     1.15993E+03     1.15993E+03     166.698E-03     166.698E-03         3.01961         3.01961
            2087     1.16130E+03     1.16130E+03     130.128E-03     130.128E-03         3.16205         3.16205
            2088     1.16272E+03     1.16272E+03     79.1105E-03     79.1105E-03         3.27002         3.27002
            2089     1.16418E+03     1.16418E+03     10.9848E-03     10.9848E-03         3.33053         3.33053
            2090     1.16565E+03     1.16565E+03    -76.8659E-03    -76.8659E-03         3.32838         3.32838
            2091     1.16711E+03     1.16711E+03    -186.731E-03    -186.731E-03         3.24632         3.24632
            2092     1.16851E+03     1.16851E+03    -320.165E-03    -320.165E-03         3.06540         3.06540
            2093     1.16982E+03     1.16982E+03    -477.398E-03    -477.398E-03         2.76587         2.76587
            2094     1.17099E+03     1.17099E+03    -656.653E-03    -656.653E-03         2.32843         2.32843
            2095     1.17196E+03     1.17196E+03    -853.218E-03    -853.218E-03         1.73623         1.73623
            2096     1.17267E+03     1.17267E+03        -1.05863        -1.05863     977.580E-03     977.580E-03
            2097     1.17305E+03     1.17305E+03        -1.25974        -1.25974     49.3257E-03     49.3257E-03
            2098     1.17303E+03     1.17303E+03        -1.43837        -1.43837        -1.03909        -1.03909
            2099     1.17257E+03     1.17257E+03        -1.57141        -1.57141        -2.26159        -2.26159
            2100     1.17160E+03     1.17160E+03        -1.63204        -1.63204        -3.57168        -3.57168
            2101     1.17011E+03     1.17011E+03        -1.59257        -1.59257        -4.90028        -4.90028
            2102     1.16810E+03     1.16810E+03        -1.42804        -1.42804        -6.15607        -6.15607
            2103     1.16561E+03     1.16561E+03        -1.12079        -1.12079        -7.22837        -7.22837
            2104     1.14651E+03     1.14651E+03     22.5466E-03     22.5466E-03     28.3333E-03     28.3333E-03
            2105     1.14655E+03     1.14655E+03     23.1129E-03     23.1129E-03     56.0733E-03     56.0733E-03
            2106     1.14662E+03     1.14662E+03     23.8946E-03     23.8946E-03     85.2295E-03     85.2295E-03
            2107     1.14672E+03     1.14672E+03     25.0197E-03     25.0197E-03     115.704E-03     115.704E-03
            2108     1.14685E+03     1.14685E+03     26.4845E-03     26.4845E-03     147.915E-03     147.915E-03
            2109     1.14702E+03     1.14702E+03     28.2705E-03     28.2705E-03     182.315E-03     182.315E-03
            2110     1.14722E+03     1.14722E+03     30.3807E-03     30.3807E-03     219.342E-03     219.342E-03
            2111     1.14745E+03     1.14745E+03     32.8055E-03     32.8055E-03     259.435E-03     259.435E-03
            2112     1.14773E+03     1.14773E+03     35.5381E-03     35.5381E-03     303.027E-03     303.027E-03
            2113     1.14806E+03     1.14806E+03     38.5634E-03     38.5634E-03     350.539E-03     350.539E-03
            2114     1.14843E+03     1.14843E+03     41.8617E-03     41.8617E-03     402.378E-03     402.378E-03
            2115     1.14885E+03     1.14885E+03     45.4029E-03     45.4029E-03     458.921E-03     458.921E-03
            2116     1.14933E+03     1.14933E+03     49.1464E-03     49.1464E-03     520.508E-03     520.508E-03
            2117     1.14988E+03     1.14988E+03     53.0352E-03     53.0352E-03     587.422E-03     587.422E-03
            2118     1.15049E+03     1.15049E+03     56.9937E-03     56.9937E-03     659.868E-03     659.868E-03
            2119     1.15118E+03     1.15118E+03     60.9210E-03     60.9210E-03     737.947E-03     737.947E-03
            2120     1.15194E+03     1.15194E+03     64.6853E-03     64.6853E-03     821.617E-03     821.617E-03
            2121     1.15279E+03     1.15279E+03     68.1162E-03     68.1162E-03     910.651E-03     910.651E-03
            2122     1.15372E+03     1.15372E+03     70.9961E-03     70.9961E-03         1.00458         1.00458
            2123     1.15475E+03     1.15475E+03     73.0502E-03     73.0502E-03         1.10263         1.10263
            2124     1.15588E+03     1.15588E+03     73.9349E-03     73.9349E-03         1.20364         1.20364
            2125     1.15710E+03     1.15710E+03     73.2278E-03     73.2278E-03         1.30594         1.30594
            2126     1.15842E+03     1.15842E+03     70.4142E-03     70.4142E-03         1.40730         1.40730
            2127     1.15983E+03     1.15983E+03     64.8813E-03     64.8813E-03         1.50475         1.50475
            2128     1.16133E+03     1.16133E+03     55.9087E-03     55.9087E-03         1.59445         1.59445
            2129     1.16292E+03     1.16292E+03     42.6781E-03     42.6781E-03         1.67157         1.67157
            2130     1.16456E+03     1.16456E+03     24.2815E-03     24.2815E-03         1.73017         1.73017
            2131     1.16625E+03     1.16625E+03    -232.589E-06    -232.589E-06         1.76307         1.76307
            2132     1.16795E+03     1.16795E+03    -31.8057E-03    -31.8057E-03         1.76184         1.76184
            2133     1.16963E+03     1.16963E+03    -71.2542E-03    -71.2542E-03         1.71688         1.71688
            2134     1.17124E+03     1.17124E+03    -119.128E-03    -119.128E-03         1.61762         1.61762
            2135     1.17273E+03     1.17273E+03    -175.499E-03    -175.499E-03         1.45300         1.45300
            2136     1.17402E+03     1.17402E+03    -239.688E-03    -239.688E-03         1.21220         1.21220
            2137     1.17504E+03     1.17504E+03    -309.982E-03    -309.982E-03     885.836E-03     885.836E-03
            2138     1.17571E+03     1.17571E+03    -383.253E-03    -383.253E-03     467.385E-03     467.385E-03
            2139     1.17594E+03     1.17594E+03    -454.741E-03    -454.741E-03    -44.7552E-03    -44.7552E-03
            2140     1.17565E+03     1.17565E+03    -517.812E-03    -517.812E-03    -645.121E-03    -645.121E-03
            2141     1.17476E+03     1.17476E+03    -564.123E-03    -564.123E-03        -1.31881        -1.31881
            2142     1.17321E+03     1.17321E+03    -584.075E-03    -584.075E-03        -2.03951        -2.03951
            2143     1.17098E+03     1.17098E+03    -567.727E-03    -567.727E-03        -2.76854        -2.76854
            2144     1.16809E+03     1.16809E+03    -506.655E-03    -506.655E-03        -3.45504        -3.45504
            2145     1.16461E+03     1.16461E+03    -394.210E-03    -394.210E-03        -4.03723        -4.03723
            2146     1.08603E+03     1.08603E+03         313.663         313.663        -84.1127        -84.1127
            2147     1.09778E+03     1.09778E+03         285.322         285.322        -83.5460        -83.5460
            2148     1.10918E+03     1.10918E+03         256.903         256.903        -80.7039        -80.7039
            2149     1.11985E+03     1.11985E+03         229.112         229.112        -76.4242        -76.4242
            2150     1.12951E+03     1.12951E+03         202.475         202.475        -70.9185        -70.9185
            2151     1.13798E+03     1.13798E+03         177.420         177.420        -64.4136        -64.4136
            2152     1.14515E+03     1.14515E+03         154.277         154.277        -57.2441        -57.2441
            2153     1.15101E+03     1.15101E+03         133.216         133.216        -49.7196        -49.7196
            2154     1.15561E+03     1.15561E+03         114.315         114.315        -42.1372        -42.1372
            2155     1.15907E+03     1.15907E+03         97.5336         97.5336        -34.7505        -34.7505
            2156     1.16153E+03     1.16153E+03         82.7711         82.7711        -27.7358        -27.7358
            2157     1.16314E+03     1.16314E+03         69.8836         69.8836        -21.2339        -21.2339
            2158     1.16404E+03     1.16404E+03         58.6987         58.6987        -15.3082        -15.3082
            2159     1.16438E+03     1.16438E+03         49.0492         49.0492        -10.0013        -10.0013
            2160     1.16426E+03     1.16426E+03         40.7584         40.7584        -5.30514        -5.30514
            2161     1.16379E+03     1.16379E+03         33.6730         33.6730        -1.20271        -1.20271
            2162     1.16304E+03     1.16304E+03         27.6394         27.6394         2.34889         2.34889
            2163     1.16210E+03     1.16210E+03         22.5280         22.5280         5.39437         5.39437
            2164     1.16101E+03     1.16101E+03         18.2130         18.2130         7.98844         7.98844
            2165     1.15981E+03     1.15981E+03         14.5874         14.5874         10.1840         10.1840
            2166     1.15854E+03     1.15854E+03         11.5490         11.5490         12.0356         12.0356
            2167     1.15723E+03     1.15723E+03         9.00893         9.00893         13.5945         13.5945
            2168     1.15591E+03     1.15591E+03         6.88241         6.88241         14.9104         14.9104
            2169     1.15460E+03     1.15460E+03         5.09346         5.09346         16.0290         16.0290
            2170     1.15331E+03     1.15331E+03         3.56892         3.56892         16.9937         16.9937
            2171     1.15207E+03     1.15207E+03         2.24072         2.24072         17.8444         17.8444
            2172     1.15090E+03     1.15090E+03         1.04198         1.04198         18.6189         18.6189
            2173     1.14983E+03     1.14983E+03    -92.1694E-03    -92.1694E-03         19.3520         19.3520
            2174     1.14888E+03     1.14888E+03        -1.22724        -1.22724         20.0765         20.0765
            2175     1.14811E+03     1.14811E+03        -2.42958        -2.42958         20.8224         20.8224
            2176     1.14754E+03     1.14754E+03        -3.76810        -3.76810         21.6163         21.6163
            2177     1.14727E+03     1.14727E+03        -5.31516        -5.31516         22.4796         22.4796
            2178     1.14735E+03     1.14735E+03        -7.14711        -7.14711         23.4253         23.4253
            2179     1.14791E+03     1.14791E+03        -9.34487        -9.34487         24.4523         24.4523
            2180     1.14908E+03     1.14908E+03        -11.9908        -11.9908         25.5361         25.5361
            2181     1.15104E+03     1.15104E+03        -15.1654        -15.1654         26.6157         26.6157
            2182     1.15399E+03     1.15399E+03        -18.9303        -18.9303         27.5702         27.5702
            2183     1.15817E+03     1.15817E+03        -23.3070        -23.3070         28.1949         28.1949
            2184     1.16384E+03     1.16384E+03        -28.2176        -28.2176         28.1610         28.1610
            2185     1.17116E+03     1.17116E+03        -33.4080        -33.4080         27.0068         27.0068
            2186     1.18014E+03     1.18014E+03        -38.3186        -38.3186         24.1400         24.1400
            2187     1.19046E+03     1.19046E+03        -42.0364        -42.0364         19.0138         19.0138
            2188     1.08922E+03     1.08922E+03         312.972         312.972        -96.1563        -96.1563
            2189     1.10156E+03     1.10156E+03         282.991         282.991        -95.4265        -95.4265
            2190     1.11340E+03     1.11340E+03         252.936         252.936        -91.9019        -91.9019
            2191     1.12433E+03     1.12433E+03         223.642         223.642        -86.6572        -86.6572
            2192     1.13404E+03     1.13404E+03         195.763         195.763        -79.8888        -79.8888
            2193     1.14228E+03     1.14228E+03         169.835         169.835        -72.0097        -72.0097
            2194     1.14902E+03     1.14902E+03         146.177         146.177        -63.4112        -63.4112
            2195     1.15425E+03     1.15425E+03         124.976         124.976        -54.5203        -54.5203
            2196     1.15814E+03     1.15814E+03         106.223         106.223        -45.7051        -45.7051
            2197     1.16081E+03     1.16081E+03         89.8238         89.8238        -37.2341        -37.2341
            2198     1.16251E+03     1.16251E+03         75.6023         75.6023        -29.3272        -29.3272
            2199     1.16341E+03     1.16341E+03         63.3424         63.3424        -22.0856        -22.0856
            2200     1.16369E+03     1.16369E+03         52.8354         52.8354        -15.5858        -15.5858
            2201     1.16350E+03     1.16350E+03         43.8575         43.8575        -9.82489        -9.82489
            2202     1.16296E+03     1.16296E+03         36.2233         36.2233        -4.79108        -4.79108
            2203     1.16217E+03     1.16217E+03         29.7454         29.7454    -433.586E-03    -433.586E-03
            2204     1.16121E+03     1.16121E+03         24.2738         24.2738         3.29885         3.29885
            2205     1.16014E+03     1.16014E+03         19.6622         19.6622         6.47207         6.47207
            2206     1.15900E+03     1.15900E+03         15.7923         15.7923         9.14848         9.14848
            2207     1.15784E+03     1.15784E+03         12.5509         12.5509         11.3929         11.3929
            2208     1.15667E+03     1.15667E+03         9.84359         9.84359         13.2652         13.2652
            2209     1.15551E+03     1.15551E+03         7.58071         7.58071         14.8227         14.8227
            2210     1.15440E+03     1.15440E+03         5.68431         5.68431         16.1172         16.1172
            2211     1.15333E+03     1.15333E+03         4.07991         4.07991         17.1968         17.1968
            2212     1.15234E+03     1.15234E+03         2.69983         2.69983         18.1043         18.1043
            2213     1.15143E+03     1.15143E+03         1.47823         1.47823         18.8784         18.8784
            2214     1.15062E+03     1.15062E+03     352.558E-03     352.558E-03         19.5535         19.5535
            2215     1.14995E+03     1.14995E+03    -739.497E-03    -739.497E-03         20.1598         20.1598
            2216     1.14944E+03     1.14944E+03        -1.85950        -1.85950         20.7231         20.7231
            2217     1.14913E+03     1.14913E+03        -3.06998        -3.06998         21.2642         21.2642
            2218     1.14907E+03     1.14907E+03        -4.43421        -4.43421         21.7977         21.7977
            2219     1.14933E+03     1.14933E+03        -6.01638        -6.01638         22.3296         22.3296
            2220     1.14998E+03     1.14998E+03        -7.88069        -7.88069         22.8540         22.8540
            2221     1.15113E+03     1.15113E+03        -10.0882        -10.0882         23.3467         23.3467
            2222     1.15288E+03     1.15288E+03        -12.6923        -12.6923         23.7576         23.7576
            2223     1.15537E+03     1.15537E+03        -15.7274        -15.7274         23.9980         23.9980
            2224     1.15875E+03     1.15875E+03        -19.1924        -19.1924         23.9285         23.9285
            2225     1.16315E+03     1.16315E+03        -23.0184        -23.0184         23.3394         23.3394
            2226     1.16866E+03     1.16866E+03        -27.0244        -27.0244         21.9493         21.9493
            2227     1.17527E+03     1.17527E+03        -30.8571        -30.8571         19.4060         19.4060
            2228     1.18281E+03     1.18281E+03        -33.9336        -33.9336         15.3617         15.3617
            2229     1.19090E+03     1.19090E+03        -35.4766        -35.4766         9.50331         9.50331
            2230     1.09339E+03     1.09339E+03         312.128         312.128        -108.863        -108.863
            2231     1.10635E+03     1.10635E+03         280.138         280.138        -107.848        -107.848
            2232     1.11873E+03     1.11873E+03         248.022         248.022        -103.522        -103.522
            2233     1.12991E+03     1.12991E+03         216.887         216.887        -96.9862        -96.9862
            2234     1.13952E+03     1.13952E+03         187.580         187.580        -88.7100        -88.7100
            2235     1.14738E+03     1.14738E+03         160.680         160.680        -79.1456        -79.1456
            2236     1.15339E+03     1.15339E+03         136.587         136.587        -68.9035        -68.9035
            2237     1.15776E+03     1.15776E+03         115.367         115.367        -58.5113        -58.5113
            2238     1.16063E+03     1.16063E+03         96.9599         96.9599        -48.3823        -48.3823
            2239     1.16234E+03     1.16234E+03         81.1485         81.1485        -38.8592        -38.8592
            2240     1.16309E+03     1.16309E+03         67.6550         67.6550        -30.1000        -30.1000
            2241     1.16316E+03     1.16316E+03         56.2080         56.2080        -22.2325        -22.2325
            2242     1.16273E+03     1.16273E+03         46.5131         46.5131        -15.2584        -15.2584
            2243     1.16197E+03     1.16197E+03         38.3378         38.3378        -9.17302        -9.17302
            2244     1.16099E+03     1.16099E+03         31.4453         31.4453        -3.91240        -3.91240
            2245     1.15989E+03     1.15989E+03         25.6571         25.6571     584.484E-03     584.484E-03
            2246     1.15874E+03     1.15874E+03         20.7982         20.7982         4.39928         4.39928
            2247     1.15758E+03     1.15758E+03         16.7351         16.7351         7.60738         7.60738
            2248     1.15644E+03     1.15644E+03         13.3399         13.3399         10.2872         10.2872
            2249     1.15535E+03     1.15535E+03         10.5113         10.5113         12.5098         12.5098
            2250     1.15432E+03     1.15432E+03         8.15346         8.15346         14.3426         14.3426
            2251     1.15337E+03     1.15337E+03         6.18643         6.18643         15.8458         15.8458
            2252     1.15250E+03     1.15250E+03         4.53438         4.53438         17.0737         17.0737
            2253     1.15172E+03     1.15172E+03         3.13062         3.13062         18.0744         18.0744
            2254     1.15105E+03     1.15105E+03         1.91087         1.91087         18.8896         18.8896
            2255     1.15049E+03     1.15049E+03     815.609E-03     815.609E-03         19.5555         19.5555
            2256     1.15006E+03     1.15006E+03    -213.791E-03    -213.791E-03         20.1023         20.1023
            2257     1.14979E+03     1.14979E+03        -1.23399        -1.23399         20.5547         20.5547
            2258     1.14970E+03     1.14970E+03        -2.30166        -2.30166         20.9312         20.9312
            2259     1.14983E+03     1.14983E+03        -3.47274        -3.47274         21.2436         21.2436
            2260     1.15022E+03     1.15022E+03        -4.80271        -4.80271         21.4958         21.4958
            2261     1.15092E+03     1.15092E+03        -6.34506        -6.34506         21.6811         21.6811
            2262     1.15202E+03     1.15202E+03        -8.14886        -8.14886         21.7792         21.7792
            2263     1.15357E+03     1.15357E+03        -10.2545        -10.2545         21.7516         21.7516
            2264     1.15568E+03     1.15568E+03        -12.6854        -12.6854         21.5349         21.5349
            2265     1.15843E+03     1.15843E+03        -15.4370        -15.4370         21.0343         21.0343
            2266     1.16189E+03     1.16189E+03        -18.4569        -18.4569         20.1151         20.1151
            2267     1.16613E+03     1.16613E+03        -21.6188        -21.6188         18.6026         18.6026
            2268     1.17111E+03     1.17111E+03        -24.6907        -24.6907         16.2842         16.2842
            2269     1.17673E+03     1.17673E+03        -27.2955        -27.2955         12.9420         12.9420
            2270     1.18275E+03     1.18275E+03        -28.9132        -28.9132         8.39050         8.39050
            2271     1.18873E+03     1.18873E+03        -28.8134        -28.8134         2.50380         2.50380
            2272     1.09873E+03     1.09873E+03         311.167         311.167        -122.326        -122.326
            2273     1.11258E+03     1.11258E+03         276.563         276.563        -120.993        -120.993
            2274     1.12548E+03     1.12548E+03         241.876         241.876        -115.484        -115.484
            2275     1.13683E+03     1.13683E+03         208.521         208.521        -107.379        -107.379
            2276     1.14618E+03     1.14618E+03         177.534         177.534        -97.1115        -97.1115
            2277     1.15325E+03     1.15325E+03         149.708         149.708        -85.5391        -85.5391
            2278     1.15825E+03     1.15825E+03         125.287         125.287        -73.4019        -73.4019
            2279     1.16131E+03     1.16131E+03         104.317         104.317        -61.3523        -61.3523
            2280     1.16291E+03     1.16291E+03         86.5312         86.5312        -49.9314        -49.9314
            2281     1.16334E+03     1.16334E+03         71.5663         71.5663        -39.3870        -39.3870
            2282     1.16298E+03     1.16298E+03         59.0558         59.0558        -29.9300        -29.9300
            2283     1.16210E+03     1.16210E+03         48.5948         48.5948        -21.5626        -21.5626
            2284     1.16091E+03     1.16091E+03         39.8835         39.8835        -14.2888        -14.2888
            2285     1.15956E+03     1.15956E+03         32.6106         32.6106        -8.02167        -8.02167
            2286     1.15817E+03     1.15817E+03         26.5590         26.5590        -2.68448        -2.68448
            2287     1.15680E+03     1.15680E+03         21.5127         21.5127         1.82780         1.82780
            2288     1.15550E+03     1.15550E+03         17.3186         17.3186         5.60904         5.60904
            2289     1.15430E+03     1.15430E+03         13.8291         13.8291         8.75589         8.75589
            2290     1.15322E+03     1.15322E+03         10.9343         10.9343         11.3545         11.3545
            2291     1.15227E+03     1.15227E+03         8.53034         8.53034         13.4852         13.4852
            2292     1.15144E+03     1.15144E+03         6.53509         6.53509         15.2190         15.2190
            2293     1.15074E+03     1.15074E+03         4.87106         4.87106         16.6186         16.6186
            2294     1.15017E+03     1.15017E+03         3.47294         3.47294         17.7390         17.7390
            2295     1.14972E+03     1.14972E+03         2.27834         2.27834         18.6271         18.6271
            2296     1.14941E+03     1.14941E+03         1.23130         1.23130         19.3224         19.3224
            2297     1.14923E+03     1.14923E+03     277.288E-03     277.288E-03         19.8576         19.8576
            2298     1.14920E+03     1.14920E+03    -635.212E-03    -635.212E-03         20.2583         20.2583
            2299     1.14933E+03     1.14933E+03        -1.55721        -1.55721         20.5433         20.5433
            2300     1.14965E+03     1.14965E+03        -2.53816        -2.53816         20.7242         20.7242
            2301     1.15018E+03     1.15018E+03        -3.62661        -3.62661         20.8049         20.8049
            2302     1.15096E+03     1.15096E+03        -4.86863        -4.86863         20.7802         20.7802
            2303     1.15203E+03     1.15203E+03        -6.30615        -6.30615         20.6341         20.6341
            2304     1.15345E+03     1.15345E+03        -7.97333        -7.97333         20.3377         20.3377
            2305     1.15528E+03     1.15528E+03        -9.89104        -9.89104         19.8455         19.8455
            2306     1.15756E+03     1.15756E+03        -12.0586        -12.0586         19.0928         19.0928
            2307     1.16035E+03     1.16035E+03        -14.4416        -14.4416         17.9915         17.9915
            2308     1.16368E+03     1.16368E+03        -16.9558        -16.9558         16.4315         16.4315
            2309     1.16752E+03     1.16752E+03        -19.4481        -19.4481         14.2830         14.2830
            2310     1.17180E+03     1.17180E+03        -21.6727        -21.6727         11.4129         11.4129
            2311     1.17637E+03     1.17637E+03        -23.2843        -23.2843         7.71008         7.71008
            2312     1.18095E+03     1.18095E+03        -23.8144        -23.8144         3.11550         3.11550
            2313     1.18511E+03     1.18511E+03        -22.6823        -22.6823        -2.30030        -2.30030
            2314     1.10595E+03     1.10595E+03         309.933         309.933        -136.819        -136.819
            2315     1.12061E+03     1.12061E+03         272.048         272.048        -134.829        -134.829
            2316     1.13416E+03     1.13416E+03         234.080         234.080        -127.894        -127.894
            2317     1.14552E+03     1.14552E+03         197.980         197.980        -117.493        -117.493
            2318     1.15410E+03     1.15410E+03         165.241         165.241        -104.776        -104.776
            2319     1.16002E+03     1.16002E+03         136.518         136.518        -90.7261        -90.7261
            2320     1.16330E+03     1.16330E+03         112.141         112.141        -76.4085        -76.4085
            2321     1.16467E+03     1.16467E+03         91.7932         91.7932        -62.6960        -62.6960
            2322     1.16452E+03     1.16452E+03         75.0034         75.0034        -49.9916        -49.9916
            2323     1.16345E+03     1.16345E+03         61.2510         61.2510        -38.6495        -38.6495
            2324     1.16181E+03     1.16181E+03         49.9537         49.9537        -28.6605        -28.6605
            2325     1.15992E+03     1.15992E+03         40.7122         40.7122        -20.0382        -20.0382
            2326     1.15795E+03     1.15795E+03         33.1022         33.1022        -12.6542        -12.6542
            2327     1.15605E+03     1.15605E+03         26.8544         26.8544        -6.40506        -6.40506
            2328     1.15429E+03     1.15429E+03         21.6951         21.6951        -1.15042        -1.15042
            2329     1.15272E+03     1.15272E+03         17.4463         17.4463         3.23090         3.23090
            2330     1.15136E+03     1.15136E+03         13.9344         13.9344         6.86030         6.86030
            2331     1.15022E+03     1.15022E+03         11.0392         11.0392         9.84426         9.84426
            2332     1.14928E+03     1.14928E+03         8.64681         8.64681         12.2794         12.2794
            2333     1.14854E+03     1.14854E+03         6.67272         6.67272         14.2503         14.2503
            2334     1.14799E+03     1.14799E+03         5.03741         5.03741         15.8304         15.8304
            2335     1.14761E+03     1.14761E+03         3.67726         3.67726         17.0831         17.0831
            2336     1.14740E+03     1.14740E+03         2.53203         2.53203         18.0619         18.0619
            2337     1.14733E+03     1.14733E+03         1.54981         1.54981         18.8116         18.8116
            2338     1.14742E+03     1.14742E+03     680.474E-03     680.474E-03         19.3685         19.3685
            2339     1.14765E+03     1.14765E+03    -121.996E-03    -121.996E-03         19.7610         19.7610
            2340     1.14804E+03     1.14804E+03    -902.859E-03    -902.859E-03         20.0098         20.0098
            2341     1.14858E+03     1.14858E+03        -1.70528        -1.70528         20.1281         20.1281
            2342     1.14929E+03     1.14929E+03        -2.57157        -2.57157         20.1211         20.1211
            2343     1.15020E+03     1.15020E+03        -3.54168        -3.54168         19.9860         19.9860
            2344     1.15132E+03     1.15132E+03        -4.65241        -4.65241         19.7110         19.7110
            2345     1.15270E+03     1.15270E+03        -5.93451        -5.93451         19.2742         19.2742
            2346     1.15436E+03     1.15436E+03        -7.40907        -7.40907         18.6425         18.6425
            2347     1.15635E+03     1.15635E+03        -9.08154        -9.08154         17.7702         17.7702
            2348     1.15867E+03     1.15867E+03        -10.9341        -10.9341         16.5981         16.5981
            2349     1.16137E+03     1.16137E+03        -12.9146        -12.9146         15.0548         15.0548
            2350     1.16441E+03     1.16441E+03        -14.9253        -14.9253         13.0595         13.0595
            2351     1.16775E+03     1.16775E+03        -16.8074        -16.8074         10.5314         10.5314
            2352     1.17129E+03     1.17129E+03        -18.3342        -18.3342         7.40543         7.40543
            2353     1.17485E+03     1.17485E+03        -19.1992        -19.1992         3.65353         3.65353
            2354     1.17818E+03     1.17818E+03        -19.0269        -19.0269    -673.238E-03    -673.238E-03
            2355     1.18094E+03     1.18094E+03        -17.3983        -17.3983        -5.40286        -5.40286
            2356     1.11539E+03     1.11539E+03         308.487         308.487        -152.417        -152.417
            2357     1.13146E+03     1.13146E+03         266.111         266.111        -149.711        -149.711
            2358     1.14543E+03     1.14543E+03         223.905         223.905        -140.340        -140.340
            2359     1.15627E+03     1.15627E+03         184.665         184.665        -127.059        -127.059
            2360     1.16363E+03     1.16363E+03         149.969         149.969        -111.001        -111.001
            2361     1.16727E+03     1.16727E+03         120.858         120.858        -93.9646        -93.9646
            2362     1.16829E+03     1.16829E+03         97.0220         97.0220        -77.3840        -77.3840
            2363     1.16719E+03     1.16719E+03         77.8744         77.8744        -61.9627        -61.9627
            2364     1.16496E+03     1.16496E+03         62.6319         62.6319        -48.3237        -48.3237
            2365     1.16212E+03     1.16212E+03         50.4065         50.4065        -36.4138        -36.4138
            2366     1.15912E+03     1.15912E+03         40.6517         40.6517        -26.2531        -26.2531
            2367     1.15620E+03     1.15620E+03         32.7664         32.7664        -17.6372        -17.6372
            2368     1.15352E+03     1.15352E+03         26.4124         26.4124        -10.4155        -10.4155
            2369     1.15116E+03     1.15116E+03         21.2350         21.2350        -4.39325        -4.39325
            2370     1.14915E+03     1.14915E+03         17.0262         17.0262     591.945E-03     591.945E-03
            2371     1.14750E+03     1.14750E+03         13.5786         13.5786         4.69516         4.69516
            2372     1.14620E+03     1.14620E+03         10.7612         10.7612         8.05035         8.05035
            2373     1.14522E+03     1.14522E+03         8.44794         8.44794         10.7743         10.7743
            2374     1.14454E+03     1.14454E+03         6.55212         6.55212         12.9687         12.9687
            2375     1.14412E+03     1.14412E+03         4.99208         4.99208         14.7190         14.7190
            2376     1.14393E+03     1.14393E+03         3.70641         3.70641         16.0991         16.0991
            2377     1.14396E+03     1.14396E+03         2.63731         2.63731         17.1698         17.1698
            2378     1.14417E+03     1.14417E+03         1.73738         1.73738         17.9824         17.9824
            2379     1.14455E+03     1.14455E+03     961.262E-03     961.262E-03         18.5776         18.5776
            2380     1.14508E+03     1.14508E+03     268.756E-03     268.756E-03         18.9878         18.9878
            2381     1.14577E+03     1.14577E+03    -379.414E-03    -379.414E-03         19.2367         19.2367
            2382     1.14659E+03     1.14659E+03        -1.02000        -1.02000         19.3400         19.3400
            2383     1.14755E+03     1.14755E+03        -1.68910        -1.68910         19.3054         19.3054
            2384     1.14867E+03     1.14867E+03        -2.42075        -2.42075         19.1332         19.1332
            2385     1.14994E+03     1.14994E+03        -3.24696        -3.24696         18.8149         18.8149
            2386     1.15138E+03     1.15138E+03        -4.19551        -4.19551         18.3344         18.3344
            2387     1.15301E+03     1.15301E+03        -5.28774        -5.28774         17.6667         17.6667
            2388     1.15485E+03     1.15485E+03        -6.53444        -6.53444         16.7782         16.7782
            2389     1.15692E+03     1.15692E+03        -7.93079        -7.93079         15.6267         15.6267
            2390     1.15920E+03     1.15920E+03        -9.44909        -9.44909         14.1635         14.1635
            2391     1.16171E+03     1.16171E+03        -11.0312        -11.0312         12.3357         12.3357
            2392     1.16441E+03     1.16441E+03        -12.5785        -12.5785         10.0927         10.0927
            2393     1.16722E+03     1.16722E+03        -13.9458        -13.9458         7.39627         7.39627
            2394     1.17003E+03     1.17003E+03        -14.9346        -14.9346         4.23447         4.23447
            2395     1.17270E+03     1.17270E+03        -15.2970        -15.2970     645.227E-03     645.227E-03
            2396     1.17500E+03     1.17500E+03        -14.7505        -14.7505        -3.25983        -3.25983
            2397     1.17671E+03     1.17671E+03        -13.0127        -13.0127        -7.26241        -7.26241
            2398     1.12896E+03     1.12896E+03         306.359         306.359        -169.757        -169.757
            2399     1.14594E+03     1.14594E+03         258.056         258.056        -165.206        -165.206
            2400     1.16019E+03     1.16019E+03         210.435         210.435        -152.831        -152.831
            2401     1.16995E+03     1.16995E+03         167.256         167.256        -134.975        -134.975
            2402     1.17429E+03     1.17429E+03         131.248         131.248        -114.698        -114.698
            2403     1.17485E+03     1.17485E+03         102.368         102.368        -94.3629        -94.3629
            2404     1.17219E+03     1.17219E+03         80.0351         80.0351        -75.3383        -75.3383
            2405     1.16809E+03     1.16809E+03         62.9696         62.9696        -58.8040        -58.8040
            2406     1.16338E+03     1.16338E+03         49.7115         49.7115        -44.5728        -44.5728
            2407     1.15868E+03     1.15868E+03         39.4939         39.4939        -32.6519        -32.6519
            2408     1.15434E+03     1.15434E+03         31.4317         31.4317        -22.6964        -22.6964
            2409     1.15050E+03     1.15050E+03         25.0989         25.0989        -14.4681        -14.4681
            2410     1.14727E+03     1.14727E+03         20.0279         20.0279        -7.68951        -7.68951
            2411     1.14462E+03     1.14462E+03         15.9773         15.9773        -2.13447        -2.13447
            2412     1.14255E+03     1.14255E+03         12.6990         12.6990         2.39681         2.39681
            2413     1.14100E+03     1.14100E+03         10.0507         10.0507         6.07560         6.07560
            2414     1.13992E+03     1.13992E+03         7.89407         7.89407         9.04270         9.04270
            2415     1.13925E+03     1.13925E+03         6.14098         6.14098         11.4203         11.4203
            2416     1.13895E+03     1.13895E+03         4.70836         4.70836         13.3073         13.3073
            2417     1.13897E+03     1.13897E+03         3.53777         3.53777         14.7889         14.7889
            2418     1.13925E+03     1.13925E+03         2.57453         2.57453         15.9336         15.9336
            2419     1.13977E+03     1.13977E+03         1.77626         1.77626         16.7993         16.7993
            2420     1.14049E+03     1.14049E+03         1.10281         1.10281         17.4317         17.4317
            2421     1.14138E+03     1.14138E+03     520.066E-03     520.066E-03         17.8674         17.8674
            2422     1.14242E+03     1.14242E+03    -5.02662E-03    -5.02662E-03         18.1333         18.1333
            2423     1.14360E+03     1.14360E+03    -502.642E-03    -502.642E-03         18.2487         18.2487
            2424     1.14490E+03     1.14490E+03        -1.00244        -1.00244         18.2242         18.2242
            2425     1.14631E+03     1.14631E+03        -1.53233        -1.53233         18.0631         18.0631
            2426     1.14783E+03     1.14783E+03        -2.11909        -2.11909         17.7608         17.7608
            2427     1.14946E+03     1.14946E+03        -2.78680        -2.78680         17.3057         17.3057
            2428     1.15121E+03     1.15121E+03        -3.55576        -3.55576         16.6785         16.6785
            2429     1.15308E+03     1.15308E+03        -4.43966        -4.43966         15.8535         15.8535
            2430     1.15506E+03     1.15506E+03        -5.44251        -5.44251         14.7986         14.7986
            2431     1.15716E+03     1.15716E+03        -6.55372        -6.55372         13.4778         13.4778
            2432     1.15937E+03     1.15937E+03        -7.74315        -7.74315         11.8531         11.8531
            2433     1.16166E+03     1.16166E+03        -8.95426        -8.95426         9.88975         9.88975
            2434     1.16398E+03     1.16398E+03        -10.0993        -10.0993         7.56287         7.56287
            2435     1.16627E+03     1.16627E+03        -11.0540        -11.0540         4.86693         4.86693
            2436     1.16843E+03     1.16843E+03        -11.6585        -11.6585         1.82999         1.82999
            2437     1.17032E+03     1.17032E+03        -11.7233        -11.7233        -1.47205        -1.47205
            2438     1.17179E+03     1.17179E+03        -11.0478        -11.0478        -4.89624        -4.89624
            2439     1.17269E+03     1.17269E+03        -9.45258        -9.45258        -8.22021        -8.22021
            2440     1.14739E+03     1.14739E+03         303.573         303.573        -188.614        -188.614
            2441     1.16651E+03     1.16651E+03         246.547         246.547        -182.093        -182.093
            2442     1.18017E+03     1.18017E+03         191.431         191.431        -163.609        -163.609
            2443     1.18610E+03     1.18610E+03         144.850         144.850        -139.776        -139.776
            2444     1.18625E+03     1.18625E+03         108.084         108.084        -114.256        -114.256
            2445     1.18095E+03     1.18095E+03         81.2082         81.2082        -90.0928        -90.0928
            2446     1.17374E+03     1.17374E+03         61.9100         61.9100        -69.7594        -69.7594
            2447     1.16605E+03     1.16605E+03         47.5318         47.5318        -52.6745        -52.6745
            2448     1.15875E+03     1.15875E+03         36.9837         36.9837        -38.7549        -38.7549
            2449     1.15232E+03     1.15232E+03         28.9117         28.9117        -27.3942        -27.3942
            2450     1.14684E+03     1.14684E+03         22.7863         22.7863        -18.1867        -18.1867
            2451     1.14238E+03     1.14238E+03         17.9886         17.9886        -10.7320        -10.7320
            2452     1.13886E+03     1.13886E+03         14.2439         14.2439        -4.70455        -4.70455
            2453     1.13621E+03     1.13621E+03         11.2592         11.2592     151.647E-03     151.647E-03
            2454     1.13432E+03     1.13432E+03         8.88414         8.88414         4.05776         4.05776
            2455     1.13309E+03     1.13309E+03         6.96978         6.96978         7.18084         7.18084
            2456     1.13243E+03     1.13243E+03         5.42888         5.42888         9.66722         9.66722
            2457     1.13226E+03     1.13226E+03         4.17918         4.17918         11.6283         11.6283
            2458     1.13250E+03     1.13250E+03         3.16648         3.16648         13.1612         13.1612
            2459     1.13309E+03     1.13309E+03         2.34060         2.34060         14.3408         14.3408
            2460     1.13396E+03     1.13396E+03         1.66477         1.66477         15.2313         15.2313
            2461     1.13508E+03     1.13508E+03         1.10465         1.10465         15.8820         15.8820
            2462     1.13639E+03     1.13639E+03     632.431E-03     632.431E-03         16.3336         16.3336
            2463     1.13787E+03     1.13787E+03     221.445E-03     221.445E-03         16.6160         16.6160
            2464     1.13948E+03     1.13948E+03    -151.862E-03    -151.862E-03         16.7515         16.7515
            2465     1.14120E+03     1.14120E+03    -510.614E-03    -510.614E-03         16.7539         16.7539
            2466     1.14301E+03     1.14301E+03    -876.357E-03    -876.357E-03         16.6298         16.6298
            2467     1.14491E+03     1.14491E+03        -1.27014        -1.27014         16.3783         16.3783
            2468     1.14686E+03     1.14686E+03        -1.71137        -1.71137         15.9919         15.9919
            2469     1.14888E+03     1.14888E+03        -2.21758        -2.21758         15.4563         15.4563
            2470     1.15093E+03     1.15093E+03        -2.80260        -2.80260         14.7513         14.7513
            2471     1.15303E+03     1.15303E+03        -3.47487        -3.47487         13.8514         13.8514
            2472     1.15515E+03     1.15515E+03        -4.23428        -4.23428         12.7279         12.7279
            2473     1.15728E+03     1.15728E+03        -5.06903        -5.06903         11.3507         11.3507
            2474     1.15940E+03     1.15940E+03        -5.95110        -5.95110         9.69190         9.69190
            2475     1.16146E+03     1.16146E+03        -6.83254        -6.83254         7.73149         7.73149
            2476     1.16343E+03     1.16343E+03        -7.64128        -7.64128         5.46348         5.46348
            2477     1.16523E+03     1.16523E+03        -8.28020        -8.28020         2.90556         2.90556
            2478     1.16679E+03     1.16679E+03        -8.62852        -8.62852     108.468E-03     108.468E-03
            2479     1.16800E+03     1.16800E+03        -8.55027        -8.55027        -2.83199        -2.83199
            2480     1.16877E+03     1.16877E+03        -7.91033        -7.91033        -5.76707        -5.76707
            2481     1.16902E+03     1.16902E+03        -6.59895        -6.59895        -8.49002        -8.49002
            2482     1.17690E+03     1.17690E+03         298.359         298.359        -210.992        -210.992
            2483     1.19596E+03     1.19596E+03         228.490         228.490        -197.639        -197.639
            2484     1.20577E+03     1.20577E+03         165.044         165.044        -171.312        -171.312
            2485     1.20619E+03     1.20619E+03         114.635         114.635        -138.189        -138.189
            2486     1.19603E+03     1.19603E+03         80.7887         80.7887        -105.955        -105.955
            2487     1.18327E+03     1.18327E+03         58.8745         58.8745        -80.4169        -80.4169
            2488     1.17073E+03     1.17073E+03         43.3925         43.3925        -59.8286        -59.8286
            2489     1.15942E+03     1.15942E+03         32.8197         32.8197        -43.7246        -43.7246
            2490     1.14992E+03     1.14992E+03         25.0283         25.0283        -31.0277        -31.0277
            2491     1.14215E+03     1.14215E+03         19.3831         19.3831        -21.0032        -21.0032
            2492     1.13606E+03     1.13606E+03         15.0814         15.0814        -13.0819        -13.0819
            2493     1.13141E+03     1.13141E+03         11.8212         11.8212        -6.78633        -6.78633
            2494     1.12804E+03     1.12804E+03         9.27284         9.27284        -1.79765        -1.79765
            2495     1.12573E+03     1.12573E+03         7.28200         7.28200         2.16891         2.16891
            2496     1.12435E+03     1.12435E+03         5.69822         5.69822         5.30438         5.30438
            2497     1.12372E+03     1.12372E+03         4.43798         4.43798         7.78070         7.78070
            2498     1.12372E+03     1.12372E+03         3.42488         3.42488         9.71834         9.71834
            2499     1.12425E+03     1.12425E+03         2.61057         2.61057         11.2244         11.2244
            2500     1.12520E+03     1.12520E+03         1.95177         1.95177         12.3773         12.3773
            2501     1.12651E+03     1.12651E+03         1.41801         1.41801         13.2453         13.2453
            2502     1.12810E+03     1.12810E+03     981.639E-03     981.639E-03         13.8792         13.8792
            2503     1.12992E+03     1.12992E+03     621.198E-03     621.198E-03         14.3221         14.3221
            2504     1.13192E+03     1.13192E+03     316.537E-03     316.537E-03         14.6053         14.6053
            2505     1.13406E+03     1.13406E+03     50.4846E-03     50.4846E-03         14.7535         14.7535
            2506     1.13631E+03     1.13631E+03    -193.684E-03    -193.684E-03         14.7826         14.7826
            2507     1.13863E+03     1.13863E+03    -431.271E-03    -431.271E-03         14.7023         14.7023
            2508     1.14101E+03     1.14101E+03    -677.409E-03    -677.409E-03         14.5152         14.5152
            2509     1.14343E+03     1.14343E+03    -946.232E-03    -946.232E-03         14.2177         14.2177
            2510     1.14586E+03     1.14586E+03        -1.25117        -1.25117         13.8002         13.8002
            2511     1.14828E+03     1.14828E+03        -1.60382        -1.60382         13.2474         13.2474
            2512     1.15067E+03     1.15067E+03        -2.01325        -2.01325         12.5394         12.5394
            2513     1.15302E+03     1.15302E+03        -2.48412        -2.48412         11.6526         11.6526
            2514     1.15530E+03     1.15530E+03        -3.01493        -3.01493         10.5615         10.5615
            2515     1.15747E+03     1.15747E+03        -3.59516        -3.59516         9.24159         9.24159
            2516     1.15952E+03     1.15952E+03        -4.20280        -4.20280         7.67323         7.67323
            2517     1.16139E+03     1.16139E+03        -4.80121        -4.80121         5.84633         5.84633
            2518     1.16303E+03     1.16303E+03        -5.33755        -5.33755         3.76711         3.76711
            2519     1.16439E+03     1.16439E+03        -5.74207        -5.74207         1.46502         1.46502
            2520     1.16540E+03     1.16540E+03        -5.93103        -5.93103    -999.004E-03    -999.004E-03
            2521     1.16600E+03     1.16600E+03        -5.81345        -5.81345        -3.52644        -3.52644
            2522     1.16614E+03     1.16614E+03        -5.30326        -5.30326        -5.97705        -5.97705
            2523     1.16578E+03     1.16578E+03        -4.33682        -4.33682        -8.17021        -8.17021
            2524     1.22004E+03     1.22004E+03         289.332         289.332        -233.581        -233.581
            2525     1.23958E+03     1.23958E+03         199.812         199.812        -213.010        -213.010
            2526     1.24256E+03     1.24256E+03         123.157         123.157        -168.152        -168.152
            2527     1.22226E+03     1.22226E+03         77.3843         77.3843        -121.788        -121.788
            2528     1.19873E+03     1.19873E+03         52.9202         52.9202        -88.8751        -88.8751
            2529     1.17796E+03     1.17796E+03         36.6812         36.6812        -64.2651        -64.2651
            2530     1.16038E+03     1.16038E+03         26.7125         26.7125        -46.0752        -46.0752
            2531     1.14650E+03     1.14650E+03         19.6943         19.6943        -32.4692        -32.4692
            2532     1.13563E+03     1.13563E+03         14.9063         14.9063        -22.0732        -22.0732
            2533     1.12747E+03     1.12747E+03         11.3837         11.3837        -14.1324        -14.1324
            2534     1.12147E+03     1.12147E+03         8.80529         8.80529        -7.94932        -7.94932
            2535     1.11730E+03     1.11730E+03         6.84128         6.84128        -3.15606        -3.15606
            2536     1.11460E+03     1.11460E+03         5.33779         5.33779     604.170E-03     604.170E-03
            2537     1.11311E+03     1.11311E+03         4.16277         4.16277         3.53360         3.53360
            2538     1.11260E+03     1.11260E+03         3.23872         3.23872         5.82580         5.82580
            2539     1.11289E+03     1.11289E+03         2.50434         2.50434         7.60137         7.60137
            2540     1.11381E+03     1.11381E+03         1.91830         1.91830         8.97224         8.97224
            2541     1.11526E+03     1.11526E+03         1.44800         1.44800         10.0141         10.0141
            2542     1.11711E+03     1.11711E+03         1.06962         1.06962         10.7950         10.7950
            2543     1.11929E+03     1.11929E+03     763.431E-03     763.431E-03         11.3635         11.3635
            2544     1.12173E+03     1.12173E+03     514.094E-03     514.094E-03         11.7616         11.7616
            2545     1.12436E+03     1.12436E+03     307.991E-03     307.991E-03         12.0197         12.0197
            2546     1.12714E+03     1.12714E+03     133.770E-03     133.770E-03         12.1624         12.1624
            2547     1.13002E+03     1.13002E+03    -19.3612E-03    -19.3612E-03         12.2065         12.2065
            2548     1.13298E+03     1.13298E+03    -161.050E-03    -161.050E-03         12.1634         12.1634
            2549     1.13597E+03     1.13597E+03    -300.872E-03    -300.872E-03         12.0382         12.0382
            2550     1.13897E+03     1.13897E+03    -447.759E-03    -447.759E-03         11.8312         11.8312
            2551     1.14196E+03     1.14196E+03    -610.518E-03    -610.518E-03         11.5370         11.5370
            2552     1.14491E+03     1.14491E+03    -797.147E-03    -797.147E-03         11.1454         11.1454
            2553     1.14778E+03     1.14778E+03        -1.01476        -1.01476         10.6420         10.6420
            2554     1.15056E+03     1.15056E+03        -1.26857        -1.26857         10.0084         10.0084
            2555     1.15321E+03     1.15321E+03        -1.56112        -1.56112         9.22390         9.22390
            2556     1.15569E+03     1.15569E+03        -1.89071        -1.89071         8.26698         8.26698
            2557     1.15796E+03     1.15796E+03        -2.25002        -2.25002         7.11812         7.11812
            2558     1.15998E+03     1.15998E+03        -2.62412        -2.62412         5.76313         5.76313
            2559     1.16170E+03     1.16170E+03        -2.98912        -2.98912         4.19789         4.19789
            2560     1.16306E+03     1.16306E+03        -3.31085        -3.31085         2.43340         2.43340
            2561     1.16402E+03     1.16402E+03        -3.54532        -3.54532     501.939E-03     501.939E-03
            2562     1.16452E+03     1.16452E+03        -3.64067        -3.64067        -1.53779        -1.53779
            2563     1.16453E+03     1.16453E+03        -3.54199        -3.54199        -3.59638        -3.59638
            2564     1.16404E+03     1.16404E+03        -3.19934        -3.19934        -5.55332        -5.55332
            2565     1.16305E+03     1.16305E+03        -2.57796        -2.57796        -7.25988        -7.25988
            2566     1.30661E+03     1.30661E+03         266.667         266.667        -266.458        -266.458
            2567     1.31443E+03     1.31443E+03         137.944         137.944        -205.979        -205.979
            2568     1.26883E+03     1.26883E+03         68.1121         68.1121        -133.449        -133.449
            2569     1.22235E+03     1.22235E+03         42.6967         42.6967        -90.2725        -90.2725
            2570     1.18736E+03     1.18736E+03         26.9341         26.9341        -62.4227        -62.4227
            2571     1.16021E+03     1.16021E+03         18.6313         18.6313        -43.2016        -43.2016
            2572     1.14033E+03     1.14033E+03         13.1499         13.1499        -29.9665        -29.9665
            2573     1.12561E+03     1.12561E+03         9.64715         9.64715        -20.2082        -20.2082
            2574     1.11508E+03     1.11508E+03         7.21272         7.21272        -13.1035        -13.1035
            2575     1.10771E+03     1.10771E+03         5.47912         5.47912        -7.68861        -7.68861
            2576     1.10285E+03     1.10285E+03         4.21656         4.21656        -3.61044        -3.61044
            2577     1.09993E+03     1.09993E+03         3.26082         3.26082    -455.261E-03    -455.261E-03
            2578     1.09854E+03     1.09854E+03         2.53716         2.53716         1.95853         1.95853
            2579     1.09837E+03     1.09837E+03         1.97048         1.97048         3.82929         3.82929
            2580     1.09915E+03     1.09915E+03         1.52908         1.52908         5.26088         5.26088
            2581     1.10068E+03     1.10068E+03         1.17731         1.17731         6.35834         6.35834
            2582     1.10280E+03     1.10280E+03     898.353E-03     898.353E-03         7.18508         7.18508
            2583     1.10539E+03     1.10539E+03     674.204E-03     674.204E-03         7.80134         7.80134
            2584     1.10832E+03     1.10832E+03     494.433E-03     494.433E-03         8.24724         8.24724
            2585     1.11153E+03     1.11153E+03     348.971E-03     348.971E-03         8.55901         8.55901
            2586     1.11494E+03     1.11494E+03     230.540E-03     230.540E-03         8.76195         8.76195
            2587     1.11849E+03     1.11849E+03     132.600E-03     132.600E-03         8.87763         8.87763
            2588     1.12214E+03     1.12214E+03     49.4598E-03     49.4598E-03         8.92078         8.92078
            2589     1.12584E+03     1.12584E+03    -23.9508E-03    -23.9508E-03         8.90255         8.90255
            2590     1.12957E+03     1.12957E+03    -92.5945E-03    -92.5945E-03         8.82907         8.82907
            2591     1.13330E+03     1.13330E+03    -161.017E-03    -161.017E-03         8.70294         8.70294
            2592     1.13698E+03     1.13698E+03    -233.845E-03    -233.845E-03         8.52248         8.52248
            2593     1.14060E+03     1.14060E+03    -315.332E-03    -315.332E-03         8.28255         8.28255
            2594     1.14413E+03     1.14413E+03    -409.615E-03    -409.615E-03         7.97427         7.97427
            2595     1.14752E+03     1.14752E+03    -520.137E-03    -520.137E-03         7.58566         7.58566
            2596     1.15075E+03     1.15075E+03    -649.558E-03    -649.558E-03         7.10203         7.10203
            2597     1.15376E+03     1.15376E+03    -798.949E-03    -798.949E-03         6.50709         6.50709
            2598     1.15652E+03     1.15652E+03    -967.336E-03    -967.336E-03         5.78427         5.78427
            2599     1.15896E+03     1.15896E+03        -1.15061        -1.15061         4.91889         4.91889
            2600     1.16103E+03     1.16103E+03        -1.34089        -1.34089         3.90093         3.90093
            2601     1.16267E+03     1.16267E+03        -1.52547        -1.52547         2.72844         2.72844
            2602     1.16382E+03     1.16382E+03        -1.68657        -1.68657         1.41178         1.41178
            2603     1.16442E+03     1.16442E+03        -1.80136        -1.80136    -22.4395E-03    -22.4395E-03
            2604     1.16444E+03     1.16444E+03        -1.84338        -1.84338        -1.52735        -1.52735
            2605     1.16385E+03     1.16385E+03        -1.78509        -1.78509        -3.03380        -3.03380
            2606     1.16266E+03     1.16266E+03        -1.60193        -1.60193        -4.45060        -4.45060
            2607     1.16094E+03     1.16094E+03        -1.27751        -1.27751        -5.66707        -5.66707
            2608     1.47282E+03     1.47282E+03         180.908         180.908        -233.941        -233.941
            2609     1.34943E+03     1.34943E+03         51.0753         51.0753        -126.749        -126.749
            2610     1.25261E+03     1.25261E+03         27.2450         27.2450        -72.6957        -72.6957
            2611     1.19426E+03     1.19426E+03         15.2536         15.2536        -47.5798        -47.5798
            2612     1.15414E+03     1.15414E+03         9.55198         9.55198        -31.0122        -31.0122
            2613     1.12723E+03     1.12723E+03         6.53025         6.53025        -21.1398        -21.1398
            2614     1.10865E+03     1.10865E+03         4.49632         4.49632        -14.0094        -14.0094
            2615     1.09612E+03     1.09612E+03         3.34168         3.34168        -9.18795        -9.18795
            2616     1.08789E+03     1.08789E+03         2.44316         2.44316        -5.56185        -5.56185
            2617     1.08287E+03     1.08287E+03         1.88532         1.88532        -2.93852        -2.93852
            2618     1.08024E+03     1.08024E+03         1.42846         1.42846    -927.875E-03    -927.875E-03
            2619     1.07944E+03     1.07944E+03         1.11891         1.11891     575.837E-03     575.837E-03
            2620     1.08003E+03     1.08003E+03     862.553E-03     862.553E-03         1.73374         1.73374
            2621     1.08169E+03     1.08169E+03     676.226E-03     676.226E-03         2.60824         2.60824
            2622     1.08418E+03     1.08418E+03     522.374E-03     522.374E-03         3.27583         3.27583
            2623     1.08728E+03     1.08728E+03     404.986E-03     404.986E-03         3.77487         3.77487
            2624     1.09087E+03     1.09087E+03     308.702E-03     308.702E-03         4.14612         4.14612
            2625     1.09480E+03     1.09480E+03     232.967E-03     232.967E-03         4.41385         4.41385
            2626     1.09899E+03     1.09899E+03     171.162E-03     171.162E-03         4.60159         4.60159
            2627     1.10336E+03     1.10336E+03     121.476E-03     121.476E-03         4.72482         4.72482
            2628     1.10786E+03     1.10786E+03     80.6960E-03     80.6960E-03         4.79753         4.79753
            2629     1.11242E+03     1.11242E+03     46.8518E-03     46.8518E-03         4.82914         4.82914
            2630     1.11702E+03     1.11702E+03     17.9972E-03     17.9972E-03         4.82742         4.82742
            2631     1.12162E+03     1.12162E+03    -7.74019E-03    -7.74019E-03         4.79707         4.79707
            2632     1.12619E+03     1.12619E+03    -31.9000E-03    -31.9000E-03         4.74106         4.74106
            2633     1.13070E+03     1.13070E+03    -56.2531E-03    -56.2531E-03         4.65988         4.65988
            2634     1.13513E+03     1.13513E+03    -82.2426E-03    -82.2426E-03         4.55223         4.55223
            2635     1.13944E+03     1.13944E+03    -111.519E-03    -111.519E-03         4.41461         4.41461
            2636     1.14361E+03     1.14361E+03    -145.407E-03    -145.407E-03         4.24172         4.24172
            2637     1.14760E+03     1.14760E+03    -185.229E-03    -185.229E-03         4.02645         4.02645
            2638     1.15136E+03     1.15136E+03    -231.820E-03    -231.820E-03         3.76027         3.76027
            2639     1.15484E+03     1.15484E+03    -285.617E-03    -285.617E-03         3.43376         3.43376
            2640     1.15798E+03     1.15798E+03    -346.152E-03    -346.152E-03         3.03740         3.03740
            2641     1.16070E+03     1.16070E+03    -411.976E-03    -411.976E-03         2.56277         2.56277
            2642     1.16294E+03     1.16294E+03    -480.108E-03    -480.108E-03         2.00411         2.00411
            2643     1.16460E+03     1.16460E+03    -545.992E-03    -545.992E-03         1.36037         1.36037
            2644     1.16562E+03     1.16562E+03    -603.072E-03    -603.072E-03     637.342E-03     637.342E-03
            2645     1.16593E+03     1.16593E+03    -643.188E-03    -643.188E-03    -149.799E-03    -149.799E-03
            2646     1.16548E+03     1.16548E+03    -656.731E-03    -656.731E-03    -974.680E-03    -974.680E-03
            2647     1.16425E+03     1.16425E+03    -633.989E-03    -633.989E-03        -1.79857        -1.79857
            2648     1.16227E+03     1.16227E+03    -566.439E-03    -566.439E-03        -2.57075        -2.57075
            2649     1.15962E+03     1.15962E+03    -448.297E-03    -448.297E-03        -3.22934        -3.22934
            2650     1.21384E+03     1.21384E+03        -37.9107        -37.9107         2.40767         2.40767
            2651     1.20611E+03     1.20611E+03        -26.3343        -26.3343         9.80176         9.80176
            2652     1.19777E+03     1.19777E+03        -17.5222        -17.5222         13.4038         13.4038
            2653     1.19004E+03     1.19004E+03        -11.2291        -11.2291         14.7635         14.7635
            2654     1.18322E+03     1.18322E+03        -6.92150        -6.92150         14.8823         14.8823
            2655     1.17729E+03     1.17729E+03        -4.07346        -4.07346         14.3476         14.3476
            2656     1.17211E+03     1.17211E+03        -2.25879        -2.25879         13.4609         13.4609
            2657     1.16750E+03     1.16750E+03        -1.15539        -1.15539         12.3411         12.3411
            2658     1.16330E+03     1.16330E+03    -526.856E-03    -526.856E-03         10.9814         10.9814
            2659     1.15937E+03     1.15937E+03    -200.962E-03    -200.962E-03         9.27698         9.27698
            2660     1.15561E+03     1.15561E+03    -54.1458E-03    -54.1458E-03         7.02755         7.02755
            2661     1.15192E+03     1.15192E+03    -4.59207E-03    -4.59207E-03         3.94419         3.94419
            2662     1.22234E+03     1.22234E+03        -22.5288        -22.5288         18.1739         18.1739
            2663     1.20938E+03     1.20938E+03        -10.9621        -10.9621         21.0478         21.0478
            2664     1.19831E+03     1.19831E+03        -3.77970        -3.77970         20.9031         20.9031
            2665     1.18923E+03     1.18923E+03     332.206E-03     332.206E-03         19.5009         19.5009
            2666     1.18184E+03     1.18184E+03         2.43078         2.43078         17.6980         17.6980
            2667     1.17569E+03     1.17569E+03         3.25524         3.25524         15.8666         15.8666
            2668     1.17043E+03     1.17043E+03         3.29606         3.29606         14.1280         14.1280
            2669     1.16572E+03     1.16572E+03         2.87665         2.87665         12.4708         12.4708
            2670     1.16130E+03     1.16130E+03         2.21802         2.21802         10.8022         10.8022
            2671     1.15694E+03     1.15694E+03         1.48270         1.48270         8.96232         8.96232
            2672     1.15238E+03     1.15238E+03     803.718E-03     803.718E-03         6.71613         6.71613
            2673     1.14741E+03     1.14741E+03     303.940E-03     303.940E-03         3.74960         3.74960
            2674     1.22349E+03     1.22349E+03         5.59661         5.59661         31.5198         31.5198
            2675     1.20724E+03     1.20724E+03         12.1979         12.1979         28.2429         28.2429
            2676     1.19515E+03     1.19515E+03         14.4486         14.4486         24.2163         24.2163
            2677     1.18604E+03     1.18604E+03         14.3618         14.3618         20.4735         20.4735
            2678     1.17895E+03     1.17895E+03         13.0740         13.0740         17.3094         17.3094
            2679     1.17318E+03     1.17318E+03         11.2125         11.2125         14.7140         14.7140
            2680     1.16822E+03     1.16822E+03         9.12071         9.12071         12.5806         12.5806
            2681     1.16369E+03     1.16369E+03         6.99744         6.99744         10.7689         10.7689
            2682     1.15926E+03     1.15926E+03         4.97213         4.97213         9.11974         9.11974
            2683     1.15464E+03     1.15464E+03         3.15031         3.15031         7.44884         7.44884
            2684     1.14948E+03     1.14948E+03         1.64612         1.64612         5.52786         5.52786
            2685     1.14342E+03     1.14342E+03     605.816E-03     605.816E-03         3.07045         3.07045
            2686     1.21676E+03     1.21676E+03         42.4147         42.4147         34.6342         34.6342
            2687     1.20074E+03     1.20074E+03         38.6370         38.6370         26.8886         26.8886
            2688     1.18972E+03     1.18972E+03         33.3870         33.3870         20.9020         20.9020
            2689     1.18174E+03     1.18174E+03         27.9822         27.9822         16.4395         16.4395
            2690     1.17560E+03     1.17560E+03         22.9064         22.9064         13.1298         13.1298
            2691     1.17056E+03     1.17056E+03         18.2915         18.2915         10.6569         10.6569
            2692     1.16612E+03     1.16612E+03         14.1547         14.1547         8.77427         8.77427
            2693     1.16191E+03     1.16191E+03         10.4804         10.4804         7.28681         7.28681
            2694     1.15761E+03     1.15761E+03         7.26109         7.26109         6.02767         6.02767
            2695     1.15287E+03     1.15287E+03         4.51991         4.51991         4.83849         4.83849
            2696     1.14733E+03     1.14733E+03         2.33209         2.33209         3.54842         3.54842
            2697     1.14049E+03     1.14049E+03     849.206E-03     849.206E-03         1.95756         1.95756
            2698     1.20713E+03     1.20713E+03         75.2773         75.2773         21.9811         21.9811
            2699     1.19385E+03     1.19385E+03         59.7876         59.7876         15.1273         15.1273
            2700     1.18487E+03     1.18487E+03         47.4322         47.4322         10.6668         10.6668
            2701     1.17830E+03     1.17830E+03         37.5566         37.5566         7.68116         7.68116
            2702     1.17313E+03     1.17313E+03         29.5320         29.5320         5.63066         5.63066
            2703     1.16876E+03     1.16876E+03         22.9008         22.9008         4.19923         4.19923
            2704     1.16479E+03     1.16479E+03         17.3386         17.3386         3.18547         3.18547
            2705     1.16087E+03     1.16087E+03         12.6290         12.6290         2.45129         2.45129
            2706     1.15671E+03     1.15671E+03         8.64314         8.64314         1.89623         1.89623
            2707     1.15198E+03     1.15198E+03         5.33336         5.33336         1.43907         1.43907
            2708     1.14627E+03     1.14627E+03         2.73729         2.73729         1.00830         1.00830
            2709     1.13907E+03     1.13907E+03     994.989E-03     994.989E-03     537.037E-03     537.037E-03
            2710     1.20329E+03     1.20329E+03         86.5437         86.5437        -3.77739        -3.77739
            2711     1.19163E+03     1.19163E+03         66.0223         66.0223        -4.07365        -4.07365
            2712     1.18354E+03     1.18354E+03         51.1230         51.1230        -4.07143        -4.07143
            2713     1.17751E+03     1.17751E+03         39.8110         39.8110        -3.96177        -3.96177
            2714     1.17269E+03     1.17269E+03         30.9255         30.9255        -3.79318        -3.79318
            2715     1.16856E+03     1.16856E+03         23.7561         23.7561        -3.58668        -3.58668
            2716     1.16474E+03     1.16474E+03         17.8486         17.8486        -3.34623        -3.34623
            2717     1.16094E+03     1.16094E+03         12.9149         12.9149        -3.06584        -3.06584
            2718     1.15686E+03     1.15686E+03         8.78587         8.78587        -2.73029        -2.73029
            2719     1.15219E+03     1.15219E+03         5.39010         5.39010        -2.31125        -2.31125
            2720     1.14653E+03     1.14653E+03         2.75086         2.75086        -1.76051        -1.76051
            2721     1.13939E+03     1.13939E+03     994.951E-03     994.951E-03    -999.383E-03    -999.383E-03
            2722     1.20964E+03     1.20964E+03         66.6636         66.6636        -28.8041        -28.8041
            2723     1.19609E+03     1.19609E+03         52.9692         52.9692        -22.6066        -22.6066
            2724     1.18680E+03     1.18680E+03         42.1648         42.1648        -18.3325        -18.3325
            2725     1.17998E+03     1.17998E+03         33.4807         33.4807        -15.2482        -15.2482
            2726     1.17463E+03     1.17463E+03         26.3747         26.3747        -12.9421        -12.9421
            2727     1.17015E+03     1.17015E+03         20.4617         20.4617        -11.1491        -11.1491
            2728     1.16611E+03     1.16611E+03         15.4755         15.4755        -9.68454        -9.68454
            2729     1.16220E+03     1.16220E+03         11.2415         11.2415        -8.40600        -8.40600
            2730     1.15811E+03     1.15811E+03         7.65920         7.65920        -7.18791        -7.18791
            2731     1.15355E+03     1.15355E+03         4.69636         4.69636        -5.90006        -5.90006
            2732     1.14815E+03     1.14815E+03         2.39187         2.39187        -4.38366        -4.38366
            2733     1.14149E+03     1.14149E+03     862.954E-03     862.954E-03        -2.43787        -2.43787
            2734     1.21959E+03     1.21959E+03         26.5106         26.5106        -36.9907        -36.9907
            2735     1.20374E+03     1.20374E+03         26.2012         26.2012        -31.1938        -31.1938
            2736     1.19263E+03     1.19263E+03         23.7016         23.7016        -26.2859        -26.2859
            2737     1.18446E+03     1.18446E+03         20.4729         20.4729        -22.3441        -22.3441
            2738     1.17814E+03     1.17814E+03         17.0964         17.0964        -19.1935        -19.1935
            2739     1.17299E+03     1.17299E+03         13.8246         13.8246        -16.6359        -16.6359
            2740     1.16853E+03     1.16853E+03         10.7699         10.7699        -14.4857        -14.4857
            2741     1.16439E+03     1.16439E+03         7.98840         7.98840        -12.5740        -12.5740
            2742     1.16027E+03     1.16027E+03         5.52130         5.52130        -10.7341        -10.7341
            2743     1.15589E+03     1.15589E+03         3.41857         3.41857        -8.78268        -8.78268
            2744     1.15095E+03     1.15095E+03         1.75446         1.75446        -6.49468        -6.49468
            2745     1.14513E+03     1.14513E+03     638.143E-03     638.143E-03        -3.59328        -3.59328
            2746     1.22232E+03     1.22232E+03        -11.3782        -11.3782        -26.6450        -26.6450
            2747     1.20827E+03     1.20827E+03        -2.08558        -2.08558        -27.1389        -27.1389
            2748     1.19718E+03     1.19718E+03         2.84581         2.84581        -25.5544        -25.5544
            2749     1.18852E+03     1.18852E+03         5.10658         5.10658        -23.3404        -23.3404
            2750     1.18166E+03     1.18166E+03         5.79508         5.79508        -21.0624        -21.0624
            2751     1.17605E+03     1.17605E+03         5.57080         5.57080        -18.8961        -18.8961
            2752     1.17127E+03     1.17127E+03         4.83870         4.83870        -16.8572        -16.8572
            2753     1.16699E+03     1.16699E+03         3.85542         3.85542        -14.8779        -14.8779
            2754     1.16294E+03     1.16294E+03         2.79438         2.79438        -12.8383        -12.8383
            2755     1.15888E+03     1.15888E+03         1.78467         1.78467        -10.5672        -10.5672
            2756     1.15460E+03     1.15460E+03     934.307E-03     934.307E-03        -7.83153        -7.83153
            2757     1.14988E+03     1.14988E+03     344.360E-03     344.360E-03        -4.33253        -4.33253
            2758     1.21434E+03     1.21434E+03        -33.3517        -33.3517        -8.84115        -8.84115
            2759     1.20594E+03     1.20594E+03        -21.9992        -21.9992        -15.4755        -15.4755
            2760     1.19752E+03     1.19752E+03        -13.7841        -13.7841        -18.3820        -18.3820
            2761     1.19005E+03     1.19005E+03        -8.20456        -8.20456        -19.1921        -19.1921
            2762     1.18367E+03     1.18367E+03        -4.58162        -4.58162        -18.8794        -18.8794
            2763     1.17824E+03     1.17824E+03        -2.32804        -2.32804        -17.9680        -17.9680
            2764     1.17356E+03     1.17356E+03        -1.00715        -1.00715        -16.7045        -16.7045
            2765     1.16943E+03     1.16943E+03    -302.388E-03    -302.388E-03        -15.1734        -15.1734
            2766     1.16566E+03     1.16566E+03     13.4681E-03     13.4681E-03        -13.3495        -13.3495
            2767     1.16211E+03     1.16211E+03     104.206E-03     104.206E-03        -11.1218        -11.1218
            2768     1.15866E+03     1.15866E+03     87.2893E-03     87.2893E-03        -8.29440        -8.29440
            2769     1.15522E+03     1.15522E+03     41.1545E-03     41.1545E-03        -4.59759        -4.59759
            2770     1.08117E+03     1.08117E+03         314.875         314.875         58.5449         58.5449
            2771     1.09201E+03     1.09201E+03         289.087         289.087         58.2099         58.2099
            2772     1.10262E+03     1.10262E+03         263.278         263.278         56.4196         56.4196
            2773     1.11272E+03     1.11272E+03         237.935         237.935         53.7565         53.7565
            2774     1.12214E+03     1.12214E+03         213.398         213.398         50.3165         50.3165
            2775     1.13072E+03     1.13072E+03         189.974         189.974         46.2147         46.2147
            2776     1.13835E+03     1.13835E+03         167.913         167.913         41.6205         41.6205
            2777     1.14497E+03     1.14497E+03         147.396         147.396         36.7028         36.7028
            2778     1.15056E+03     1.15056E+03         128.539         128.539         31.6391         31.6391
            2779     1.15515E+03     1.15515E+03         111.387         111.387         26.5872         26.5872
            2780     1.15879E+03     1.15879E+03         95.9350         95.9350         21.6790         21.6790
            2781     1.16156E+03     1.16156E+03         82.1330         82.1330         17.0215         17.0215
            2782     1.16355E+03     1.16355E+03         69.8997         69.8997         12.6848         12.6848
            2783     1.16484E+03     1.16484E+03         59.1351         59.1351         8.71871         8.71871
            2784     1.16554E+03     1.16554E+03         49.7247         49.7247         5.14172         5.14172
            2785     1.16572E+03     1.16572E+03         41.5525         41.5525         1.95965         1.95965
            2786     1.16546E+03     1.16546E+03         34.4987         34.4987    -842.170E-03    -842.170E-03
            2787     1.16484E+03     1.16484E+03         28.4493         28.4493        -3.28435        -3.28435
            2788     1.16392E+03     1.16392E+03         23.2927         23.2927        -5.39860        -5.39860
            2789     1.16275E+03     1.16275E+03         18.9252         18.9252        -7.21814        -7.21814
            2790     1.16137E+03     1.16137E+03         15.2477         15.2477        -8.78108        -8.78108
            2791     1.15983E+03     1.15983E+03         12.1691         12.1691        -10.1248        -10.1248
            2792     1.15816E+03     1.15816E+03         9.60293         9.60293        -11.2885        -11.2885
            2793     1.15638E+03     1.15638E+03         7.46950         7.46950        -12.3098        -12.3098
            2794     1.15453E+03     1.15453E+03         5.69332         5.69332        -13.2273        -13.2273
            2795     1.15261E+03     1.15261E+03         4.20383         4.20383        -14.0787        -14.0787
            2796     1.15066E+03     1.15066E+03         2.93340         2.93340        -14.9031        -14.9031
            2797     1.14868E+03     1.14868E+03         1.81724         1.81724        -15.7401        -15.7401
            2798     1.14670E+03     1.14670E+03     791.501E-03     791.501E-03        -16.6323        -16.6323
            2799     1.14474E+03     1.14474E+03    -207.717E-03    -207.717E-03        -17.6253        -17.6253
            2800     1.14281E+03     1.14281E+03        -1.24668        -1.24668        -18.7692        -18.7692
            2801     1.14097E+03     1.14097E+03        -2.39647        -2.39647        -20.1202        -20.1202
            2802     1.13924E+03     1.13924E+03        -3.73664        -3.73664        -21.7408        -21.7408
            2803     1.13770E+03     1.13770E+03        -5.36045        -5.36045        -23.7004        -23.7004
            2804     1.13646E+03     1.13646E+03        -7.38131        -7.38131        -26.0741        -26.0741
            2805     1.13568E+03     1.13568E+03        -9.94327        -9.94327        -28.9370        -28.9370
            2806     1.13558E+03     1.13558E+03        -13.2311        -13.2311        -32.3528        -32.3528
            2807     1.13655E+03     1.13655E+03        -17.4870        -17.4870        -36.3469        -36.3469
            2808     1.13912E+03     1.13912E+03        -23.0116        -23.0116        -40.8508        -40.8508
            2809     1.14411E+03     1.14411E+03        -30.1563        -30.1563        -45.5882        -45.5882
            2810     1.15262E+03     1.15262E+03        -39.1577        -39.1577        -49.8598        -49.8598
            2811     1.16590E+03     1.16590E+03        -49.8273        -49.8273        -52.2948        -52.2948
            2812     1.07942E+03     1.07942E+03         315.354         315.354         44.9800         44.9800
            2813     1.08990E+03     1.08990E+03         290.529         290.529         44.7088         44.7088
            2814     1.10018E+03     1.10018E+03         265.706         265.706         43.3545         43.3545
            2815     1.11004E+03     1.11004E+03         241.296         241.296         41.3755         41.3755
            2816     1.11932E+03     1.11932E+03         217.585         217.585         38.8211         38.8211
            2817     1.12788E+03     1.12788E+03         194.834         194.834         35.7836         35.7836
            2818     1.13561E+03     1.13561E+03         173.262         173.262         32.3641         32.3641
            2819     1.14244E+03     1.14244E+03         153.043         153.043         28.6884         28.6884
            2820     1.14834E+03     1.14834E+03         134.294         134.294         24.8762         24.8762
            2821     1.15330E+03     1.15330E+03         117.086         117.086         21.0438         21.0438
            2822     1.15736E+03     1.15736E+03         101.440         101.440         17.2918         17.2918
            2823     1.16057E+03     1.16057E+03         87.3376         87.3376         13.7002         13.7002
            2824     1.16297E+03     1.16297E+03         74.7311         74.7311         10.3320         10.3320
            2825     1.16466E+03     1.16466E+03         63.5477         63.5477         7.22550         7.22550
            2826     1.16570E+03     1.16570E+03         53.7004         53.7004         4.40617         4.40617
            2827     1.16617E+03     1.16617E+03         45.0903         45.0903         1.87917         1.87917
            2828     1.16614E+03     1.16614E+03         37.6158         37.6158    -358.079E-03    -358.079E-03
            2829     1.16568E+03     1.16568E+03         31.1717         31.1717        -2.32126        -2.32126
            2830     1.16486E+03     1.16486E+03         25.6561         25.6561        -4.02963        -4.02963
            2831     1.16372E+03     1.16372E+03         20.9685         20.9685        -5.50955        -5.50955
            2832     1.16232E+03     1.16232E+03         17.0143         17.0143        -6.78830        -6.78830
            2833     1.16069E+03     1.16069E+03         13.7026         13.7026        -7.89648        -7.89648
            2834     1.15888E+03     1.15888E+03         10.9488         10.9488        -8.86444        -8.86444
            2835     1.15690E+03     1.15690E+03         8.67298         8.67298        -9.72415        -9.72415
            2836     1.15479E+03     1.15479E+03         6.80090         6.80090        -10.5075        -10.5075
            2837     1.15256E+03     1.15256E+03         5.26280         5.26280        -11.2477        -11.2477
            2838     1.15022E+03     1.15022E+03         3.99366         3.99366        -11.9794        -11.9794
            2839     1.14779E+03     1.14779E+03         2.93192         2.93192        -12.7399        -12.7399
            2840     1.14526E+03     1.14526E+03         2.01913         2.01913        -13.5700        -13.5700
            2841     1.14265E+03     1.14265E+03         1.19849         1.19849        -14.5159        -14.5159
            2842     1.13994E+03     1.13994E+03     413.491E-03     413.491E-03        -15.6315        -15.6315
            2843     1.13714E+03     1.13714E+03    -394.456E-03    -394.456E-03        -16.9807        -16.9807
            2844     1.13425E+03     1.13425E+03        -1.28942        -1.28942        -18.6410        -18.6410
            2845     1.13129E+03     1.13129E+03        -2.34580        -2.34580        -20.7077        -20.7077
            2846     1.12826E+03     1.12826E+03        -3.65672        -3.65672        -23.2991        -23.2991
            2847     1.12524E+03     1.12524E+03        -5.34525        -5.34525        -26.5630        -26.5630
            2848     1.12233E+03     1.12233E+03        -7.58548        -7.58548        -30.6819        -30.6819
            2849     1.11975E+03     1.11975E+03        -10.6295        -10.6295        -35.8771        -35.8771
            2850     1.11789E+03     1.11789E+03        -14.8608        -14.8608        -42.3981        -42.3981
            2851     1.11748E+03     1.11748E+03        -20.8531        -20.8531        -50.4816        -50.4816
            2852     1.11990E+03     1.11990E+03        -29.4808        -29.4808        -60.1751        -60.1751
            2853     1.12745E+03     1.12745E+03        -41.7993        -41.7993        -70.9328        -70.9328
            2854     1.07821E+03     1.07821E+03         315.709         315.709         31.8156         31.8156
            2855     1.08844E+03     1.08844E+03         291.565         291.565         31.5846         31.5846
            2856     1.09849E+03     1.09849E+03         267.432         267.432         30.6127         30.6127
            2857     1.10816E+03     1.10816E+03         243.681         243.681         29.2156         29.2156
            2858     1.11732E+03     1.11732E+03         220.559         220.559         27.4365         27.4365
            2859     1.12584E+03     1.12584E+03         198.296         198.296         25.3238         25.3238
            2860     1.13362E+03     1.13362E+03         177.092         177.092         22.9531         22.9531
            2861     1.14057E+03     1.14057E+03         157.108         157.108         20.3989         20.3989
            2862     1.14666E+03     1.14666E+03         138.468         138.468         17.7451         17.7451
            2863     1.15187E+03     1.15187E+03         121.248         121.248         15.0680         15.0680
            2864     1.15621E+03     1.15621E+03         105.489         105.489         12.4362         12.4362
            2865     1.15971E+03     1.15971E+03         91.1935         91.1935         9.90802         9.90802
            2866     1.16241E+03     1.16241E+03         78.3345         78.3345         7.52569         7.52569
            2867     1.16438E+03     1.16438E+03         66.8610         66.8610         5.32180         5.32180
            2868     1.16567E+03     1.16567E+03         56.7029         56.7029         3.31265         3.31265
            2869     1.16636E+03     1.16636E+03         47.7785         47.7785         1.50761         1.50761
            2870      1.1665E+03      1.1665E+03         39.9965         39.9965    -96.4344E-03    -96.4344E-03
            2871     1.16617E+03     1.16617E+03         33.2629         33.2629        -1.50641        -1.50641
            2872     1.16543E+03     1.16543E+03         27.4808         27.4808        -2.73713        -2.73713
            2873     1.16432E+03     1.16432E+03         22.5558         22.5558        -3.80490        -3.80490
            2874     1.16290E+03     1.16290E+03         18.3952         18.3952        -4.73026        -4.73026
            2875     1.16122E+03     1.16122E+03         14.9109         14.9109        -5.53399        -5.53399
            2876     1.15930E+03     1.15930E+03         12.0191         12.0191        -6.23904        -6.23904
            2877     1.15718E+03     1.15718E+03         9.64149         9.64149        -6.86828        -6.86828
            2878     1.15487E+03     1.15487E+03         7.70480         7.70480        -7.44609        -7.44609
            2879     1.15239E+03     1.15239E+03         6.14159         6.14159        -7.99741        -7.99741
            2880     1.14975E+03     1.14975E+03         4.88950         4.88950        -8.54926        -8.54926
            2881     1.14694E+03     1.14694E+03         3.89154         3.89154        -9.13085        -9.13085
            2882     1.14397E+03     1.14397E+03         3.09541         3.09541        -9.77535        -9.77535
            2883     1.14080E+03     1.14080E+03         2.45325         2.45325        -10.5211        -10.5211
            2884     1.13742E+03     1.13742E+03         1.92075         1.92075        -11.4142        -11.4142
            2885     1.13378E+03     1.13378E+03         1.45608         1.45608        -12.5113        -12.5113
            2886     1.12984E+03     1.12984E+03         1.01816         1.01816        -13.8843        -13.8843
            2887     1.12554E+03     1.12554E+03     563.436E-03     563.436E-03        -15.6259        -15.6259
            2888     1.12079E+03     1.12079E+03     41.6244E-03     41.6244E-03        -17.8593        -17.8593
            2889     1.11550E+03     1.11550E+03    -613.654E-03    -613.654E-03        -20.7505        -20.7505
            2890     1.10957E+03     1.10957E+03        -1.49730        -1.49730        -24.5288        -24.5288
            2891     1.10291E+03     1.10291E+03        -2.76149        -2.76149        -29.5153        -29.5153
            2892     1.09544E+03     1.09544E+03        -4.65724        -4.65724        -36.1709        -36.1709
            2893     1.08723E+03     1.08723E+03        -7.63397        -7.63397        -45.1581        -45.1581
            2894     1.07869E+03     1.07869E+03        -12.5242        -12.5242        -57.4500        -57.4500
            2895     1.07123E+03     1.07123E+03        -20.9399        -20.9399        -74.3168        -74.3168
            2896     1.07745E+03     1.07745E+03         315.948         315.948         18.9222         18.9222
            2897     1.08752E+03     1.08752E+03         292.234         292.234         18.7235         18.7235
            2898     1.09742E+03     1.09742E+03         268.537         268.537         18.0912         18.0912
            2899     1.10698E+03     1.10698E+03         245.203         245.203         17.2236         17.2236
            2900     1.11606E+03     1.11606E+03         222.455         222.455         16.1377         16.1377
            2901     1.12454E+03     1.12454E+03         200.505         200.505         14.8706         14.8706
            2902     1.13233E+03     1.13233E+03         179.538         179.538         13.4580         13.4580
            2903     1.13936E+03     1.13936E+03         159.712         159.712         11.9485         11.9485
            2904     1.14556E+03     1.14556E+03         141.147         141.147         10.3857         10.3857
            2905     1.15092E+03     1.15092E+03         123.929         123.929         8.81501         8.81501
            2906     1.15543E+03     1.15543E+03         108.106         108.106         7.27540         7.27540
            2907     1.15911E+03     1.15911E+03         93.6942         93.6942         5.79901         5.79901
            2908     1.16200E+03     1.16200E+03         80.6793         80.6793         4.41213         4.41213
            2909     1.16414E+03     1.16414E+03         69.0230         69.0230         3.13087         3.13087
            2910     1.16559E+03     1.16559E+03         58.6680         58.6680         1.96727         1.96727
            2911     1.16641E+03     1.16641E+03         49.5416         49.5416     923.916E-03     923.916E-03
            2912     1.16667E+03     1.16667E+03         41.5621         41.5621     1.20122E-03     1.20122E-03
            2913     1.16642E+03     1.16642E+03         34.6406         34.6406    -807.317E-03    -807.317E-03
            2914     1.16573E+03     1.16573E+03         28.6861         28.6861        -1.50879        -1.50879
            2915     1.16465E+03     1.16465E+03         23.6065         23.6065        -2.11451        -2.11451
            2916     1.16323E+03     1.16323E+03         19.3122         19.3122        -2.63562        -2.63562
            2917     1.16150E+03     1.16150E+03         15.7162         15.7162        -3.08547        -3.08547
            2918     1.15952E+03     1.15952E+03         12.7361         12.7361        -3.47700        -3.47700
            2919     1.15730E+03     1.15730E+03         10.2943         10.2943        -3.82433        -3.82433
            2920     1.15486E+03     1.15486E+03         8.31901         8.31901        -4.14144        -4.14144
            2921     1.15221E+03     1.15221E+03         6.74420         6.74420        -4.44334        -4.44334
            2922     1.14937E+03     1.14937E+03         5.51007         5.51007        -4.74564        -4.74564
            2923     1.14631E+03     1.14631E+03         4.56300         4.56300        -5.06568        -5.06568
            2924     1.14303E+03     1.14303E+03         3.85586         3.85586        -5.42278        -5.42278
            2925     1.13949E+03     1.13949E+03         3.34796         3.34796        -5.83970        -5.83970
            2926     1.13564E+03     1.13564E+03         3.00520         3.00520        -6.34375        -6.34375
            2927     1.13141E+03     1.13141E+03         2.80020         2.80020        -6.96918        -6.96918
            2928     1.12672E+03     1.12672E+03         2.71209         2.71209        -7.75989        -7.75989
            2929     1.12144E+03     1.12144E+03         2.72668         2.72668        -8.77414        -8.77414
            2930     1.11540E+03     1.11540E+03         2.83534         2.83534        -10.0910        -10.0910
            2931     1.10838E+03     1.10838E+03         3.03457         3.03457        -11.8213        -11.8213
            2932     1.10007E+03     1.10007E+03         3.32126         3.32126        -14.1243        -14.1243
            2933     1.09005E+03     1.09005E+03         3.68900         3.68900        -17.2372        -17.2372
            2934     1.07772E+03     1.07772E+03         4.10883         4.10883        -21.5234        -21.5234
            2935     1.06223E+03     1.06223E+03         4.50254         4.50254        -27.5705        -27.5705
            2936     1.04234E+03     1.04234E+03         4.66003         4.66003        -36.3725        -36.3725
            2937     1.01622E+03     1.01622E+03         3.99509         3.99509        -49.8016        -49.8016
            2938     1.07709E+03     1.07709E+03         316.064         316.064         6.20163         6.20163
            2939     1.08707E+03     1.08707E+03         292.554         292.554         6.03830         6.03830
            2940     1.09691E+03     1.09691E+03         269.063         269.063         5.74310         5.74310
            2941     1.10641E+03     1.10641E+03         245.924         245.924         5.37812         5.37812
            2942     1.11545E+03     1.11545E+03         223.350         223.350         4.95850         4.95850
            2943     1.12392E+03     1.12392E+03         201.544         201.544         4.49206         4.49206
            2944     1.13172E+03     1.13172E+03         180.686         180.686         3.99766         3.99766
            2945     1.13878E+03     1.13878E+03         160.929         160.929         3.48712         3.48712
            2946     1.14503E+03     1.14503E+03         142.397         142.397         2.97769         2.97769
            2947     1.15046E+03     1.15046E+03         125.176         125.176         2.48128         2.48128
            2948     1.15505E+03     1.15505E+03         109.319         109.319         2.00950         2.00950
            2949     1.15881E+03     1.15881E+03         94.8499         94.8499         1.57132         1.57132
            2950     1.16178E+03     1.16178E+03         81.7593         81.7593         1.17178         1.17178
            2951     1.16400E+03     1.16400E+03         70.0157         70.0157     815.586E-03     815.586E-03
            2952     1.16553E+03     1.16553E+03         59.5669         59.5669     502.508E-03     502.508E-03
            2953     1.16641E+03     1.16641E+03         50.3455         50.3455     233.336E-03     233.336E-03
            2954     1.16672E+03     1.16672E+03         42.2730         42.2730     4.66951E-03     4.66951E-03
            2955     1.16651E+03     1.16651E+03         35.2640         35.2640    -185.381E-03    -185.381E-03
            2956     1.16584E+03     1.16584E+03         29.2293         29.2293    -341.556E-03    -341.556E-03
            2957     1.16477E+03     1.16477E+03         24.0786         24.0786    -467.100E-03    -467.100E-03
            2958     1.16335E+03     1.16335E+03         19.7229         19.7229    -566.889E-03    -566.889E-03
            2959     1.16161E+03     1.16161E+03         16.0760         16.0760    -644.538E-03    -644.538E-03
            2960     1.15959E+03     1.15959E+03         13.0559         13.0559    -704.458E-03    -704.458E-03
            2961     1.15733E+03     1.15733E+03         10.5852         10.5852    -750.089E-03    -750.089E-03
            2962     1.15483E+03     1.15483E+03         8.59262         8.59262    -785.196E-03    -785.196E-03
            2963     1.15212E+03     1.15212E+03         7.01266         7.01266    -812.852E-03    -812.852E-03
            2964     1.14918E+03     1.14918E+03         5.78647         5.78647    -836.247E-03    -836.247E-03
            2965     1.14602E+03     1.14602E+03         4.86180         4.86180    -858.128E-03    -858.128E-03
            2966     1.14261E+03     1.14261E+03         4.19368         4.19368    -881.327E-03    -881.327E-03
            2967     1.13891E+03     1.13891E+03         3.74436         3.74436    -908.449E-03    -908.449E-03
            2968     1.13486E+03     1.13486E+03         3.48429         3.48429    -942.281E-03    -942.281E-03
            2969     1.13038E+03     1.13038E+03         3.39215         3.39215    -985.591E-03    -985.591E-03
            2970     1.12537E+03     1.12537E+03         3.45646         3.45646        -1.04157        -1.04157
            2971     1.11968E+03     1.11968E+03         3.67574         3.67574        -1.11360        -1.11360
            2972     1.11309E+03     1.11309E+03         4.06163         4.06163        -1.20603        -1.20603
            2973     1.10533E+03     1.10533E+03         4.63894         4.63894        -1.32358        -1.32358
            2974     1.09599E+03     1.09599E+03         5.45250         5.45250        -1.47311        -1.47311
            2975     1.08450E+03     1.08450E+03         6.56594         6.56594        -1.66162        -1.66162
            2976     1.07000E+03     1.07000E+03         8.07760         8.07760        -1.90036        -1.90036
            2977     1.05118E+03     1.05118E+03         10.1164         10.1164        -2.19723        -2.19723
            2978     1.02591E+03     1.02591E+03         12.8828         12.8828        -2.55917        -2.55917
            2979         990.384         990.384         16.6632         16.6632        -2.91033        -2.91033
            2980     1.07709E+03     1.07709E+03         316.064         316.064        -6.44406        -6.44406
            2981     1.08708E+03     1.08708E+03         292.544         292.544        -6.54178        -6.54178
            2982     1.09692E+03     1.09692E+03         269.044         269.044        -6.48655        -6.48655
            2983     1.10643E+03     1.10643E+03         245.891         245.891        -6.33186        -6.33186
            2984     1.11548E+03     1.11548E+03         223.302         223.302        -6.08490        -6.08490
            2985     1.12395E+03     1.12395E+03         201.479         201.479        -5.74681        -5.74681
            2986     1.13176E+03     1.13176E+03         180.603         180.603        -5.33218        -5.33218
            2987     1.13882E+03     1.13882E+03         160.830         160.830        -4.85088        -4.85088
            2988     1.14507E+03     1.14507E+03         142.283         142.283        -4.32101        -4.32101
            2989     1.15050E+03     1.15050E+03         125.049         125.049        -3.75749        -3.75749
            2990     1.15508E+03     1.15508E+03         109.184         109.184        -3.17695        -3.17695
            2991     1.15884E+03     1.15884E+03         94.7091         94.7091        -2.59456        -2.59456
            2992     1.16180E+03     1.16180E+03         81.6164         81.6164        -2.02226        -2.02226
            2993     1.16401E+03     1.16401E+03         69.8738         69.8738        -1.47183        -1.47183
            2994     1.16553E+03     1.16553E+03         59.4287         59.4287    -949.650E-03    -949.650E-03
            2995     1.16640E+03     1.16640E+03         50.2132         50.2132    -462.588E-03    -462.588E-03
            2996     1.16670E+03     1.16670E+03         42.1482         42.1482    -12.2490E-03    -12.2490E-03
            2997     1.16649E+03     1.16649E+03         35.1478         35.1478     399.170E-03     399.170E-03
            2998     1.16581E+03     1.16581E+03         29.1221         29.1221     773.540E-03     773.540E-03
            2999     1.16474E+03     1.16474E+03         23.9803         23.9803         1.11224         1.11224
            3000     1.16331E+03     1.16331E+03         19.6330         19.6330         1.41945         1.41945
            3001     1.16157E+03     1.16157E+03         15.9935         15.9935         1.69905         1.69905
            3002     1.15956E+03     1.15956E+03         12.9791         12.9791         1.95683         1.95683
            3003     1.15731E+03     1.15731E+03         10.5123         10.5123         2.19863         2.19863
            3004     1.15483E+03     1.15483E+03         8.52104         8.52104         2.43174         2.43174
            3005     1.15213E+03     1.15213E+03         6.93937         6.93937         2.66408         2.66408
            3006     1.14923E+03     1.14923E+03         5.70755         5.70755         2.90519         2.90519
            3007     1.14610E+03     1.14610E+03         4.77246         4.77246         3.16608         3.16608
            3008     1.14273E+03     1.14273E+03         4.08768         4.08768         3.46035         3.46035
            3009     1.13909E+03     1.13909E+03         3.61383         3.61383         3.80463         3.80463
            3010     1.13512E+03     1.13512E+03         3.31866         3.31866         4.22026         4.22026
            3011     1.13075E+03     1.13075E+03         3.17755         3.17755         4.73478         4.73478
            3012     1.12588E+03     1.12588E+03         3.17361         3.17361         5.38507         5.38507
            3013     1.12037E+03     1.12037E+03         3.29828         3.29828         6.22090         6.22090
            3014     1.11404E+03     1.11404E+03         3.55126         3.55126         7.31234         7.31234
            3015     1.10665E+03     1.10665E+03         3.94084         3.94084         8.75835         8.75835
            3016     1.09783E+03     1.09783E+03         4.48233         4.48233         10.7065         10.7065
            3017     1.08711E+03     1.08711E+03         5.19546         5.19546         13.3773         13.3773
            3018     1.07381E+03     1.07381E+03         6.09404         6.09404         17.1239         17.1239
            3019     1.05691E+03     1.05691E+03         7.16297         7.16297         22.5217         22.5217
            3020     1.03492E+03     1.03492E+03         8.28930         8.28930         30.5971         30.5971
            3021     1.00570E+03     1.00570E+03         9.00371         9.00371         43.3123         43.3123
            3022     1.07745E+03     1.07745E+03         315.952         315.952        -19.1291        -19.1291
            3023     1.08753E+03     1.08753E+03         292.216         292.216        -19.1494        -19.1494
            3024     1.09745E+03     1.09745E+03         268.492         268.492        -18.7198        -18.7198
            3025     1.10703E+03     1.10703E+03         245.122         245.122        -18.0292        -18.0292
            3026     1.11613E+03     1.11613E+03         222.334         222.334        -17.0875        -17.0875
            3027     1.12463E+03     1.12463E+03         200.339         200.339        -15.9263        -15.9263
            3028     1.13243E+03     1.13243E+03         179.326         179.326        -14.5776        -14.5776
            3029     1.13946E+03     1.13946E+03         159.456         159.456        -13.0888        -13.0888
            3030     1.14567E+03     1.14567E+03         140.853         140.853        -11.5045        -11.5045
            3031     1.15102E+03     1.15102E+03         123.603         123.603        -9.87332        -9.87332
            3032     1.15552E+03     1.15552E+03         107.756         107.756        -8.23863        -8.23863
            3033     1.15919E+03     1.15919E+03         93.3299         93.3299        -6.63819        -6.63819
            3034     1.16205E+03     1.16205E+03         80.3095         80.3095        -5.10436        -5.10436
            3035     1.16417E+03     1.16417E+03         68.6559         68.6559        -3.65924        -3.65924
            3036     1.16559E+03     1.16559E+03         58.3107         58.3107        -2.32053        -2.32053
            3037     1.16639E+03     1.16639E+03         49.1998         49.1998        -1.09573        -1.09573
            3038     1.16662E+03     1.16662E+03         41.2399         41.2399     10.5670E-03     10.5670E-03
            3039     1.16636E+03     1.16636E+03         34.3405         34.3405         1.00161         1.00161
            3040     1.16565E+03     1.16565E+03         28.4094         28.4094         1.88218         1.88218
            3041     1.16456E+03     1.16456E+03         23.3530         23.3530         2.66218         2.66218
            3042     1.16313E+03     1.16313E+03         19.0804         19.0804         3.35216         3.35216
            3043     1.16142E+03     1.16142E+03         15.5034         15.5034         3.96576         3.96576
            3044     1.15944E+03     1.15944E+03         12.5384         12.5384         4.51694         4.51694
            3045     1.15725E+03     1.15725E+03         10.1068         10.1068         5.02171         5.02171
            3046     1.15485E+03     1.15485E+03         8.13541         8.13541         5.49673         5.49673
            3047     1.15226E+03     1.15226E+03         6.55664         6.55664         5.96065         5.96065
            3048     1.14948E+03     1.14948E+03         5.30884         5.30884         6.43378         6.43378
            3049     1.14651E+03     1.14651E+03         4.33595         4.33595         6.93954         6.93954
            3050     1.14335E+03     1.14335E+03         3.58762         3.58762         7.50497         7.50497
            3051     1.13996E+03     1.13996E+03         3.01876         3.01876         8.16280         8.16280
            3052     1.13631E+03     1.13631E+03         2.58926         2.58926         8.95316         8.95316
            3053     1.13234E+03     1.13234E+03         2.26319         2.26319         9.92712         9.92712
            3054     1.12800E+03     1.12800E+03         2.00767         2.00767         11.1506         11.1506
            3055     1.12318E+03     1.12318E+03         1.79087         1.79087         12.7114         12.7114
            3056     1.11778E+03     1.11778E+03         1.57826         1.57826         14.7281         14.7281
            3057     1.11164E+03     1.11164E+03         1.32670         1.32670         17.3659         17.3659
            3058     1.10460E+03     1.10460E+03     971.839E-03     971.839E-03         20.8574         20.8574
            3059     1.09642E+03     1.09642E+03     408.153E-03     408.153E-03         25.5432         25.5432
            3060     1.08688E+03     1.08688E+03    -557.481E-03    -557.481E-03         31.9243         31.9243
            3061     1.07577E+03     1.07577E+03        -2.28888        -2.28888         40.7698         40.7698
            3062     1.06308E+03     1.06308E+03        -5.53208        -5.53208         53.2599         53.2599
            3063     1.04960E+03     1.04960E+03        -11.8202        -11.8202         71.1087         71.1087
            3064     1.07821E+03     1.07821E+03         315.718         315.718        -31.9751        -31.9751
            3065     1.08846E+03     1.08846E+03         291.548         291.548        -31.9088        -31.9088
            3066     1.09853E+03     1.09853E+03         267.378         267.378        -31.0892        -31.0892
            3067     1.10823E+03     1.10823E+03         243.581         243.581        -29.8242        -29.8242
            3068     1.11742E+03     1.11742E+03         220.406         220.406        -28.1512        -28.1512
            3069     1.12596E+03     1.12596E+03         198.084         198.084        -26.1142        -26.1142
            3070     1.13375E+03     1.13375E+03         176.820         176.820        -23.7862        -23.7862
            3071     1.14071E+03     1.14071E+03         156.780         156.780        -21.2412        -21.2412
            3072     1.14680E+03     1.14680E+03         138.090         138.090        -18.5648        -18.5648
            3073     1.15201E+03     1.15201E+03         120.830         120.830        -15.8360        -15.8360
            3074     1.15633E+03     1.15633E+03         105.042         105.042        -13.1277        -13.1277
            3075     1.15981E+03     1.15981E+03         90.7293         90.7293        -10.5027        -10.5027
            3076     1.16248E+03     1.16248E+03         77.8646         77.8646        -8.00818        -8.00818
            3077     1.16441E+03     1.16441E+03         66.3958         66.3958        -5.68143        -5.68143
            3078     1.16567E+03     1.16567E+03         56.2512         56.2512        -3.54279        -3.54279
            3079     1.16632E+03     1.16632E+03         47.3474         47.3474        -1.60531        -1.60531
            3080     1.16643E+03     1.16643E+03         39.5910         39.5910     131.327E-03     131.327E-03
            3081     1.16608E+03     1.16608E+03         32.8862         32.8862         1.67179         1.67179
            3082     1.16531E+03     1.16531E+03         27.1342         27.1342         3.02941         3.02941
            3083     1.16420E+03     1.16420E+03         22.2389         22.2389         4.21956         4.21956
            3084     1.16278E+03     1.16278E+03         18.1061         18.1061         5.26249         5.26249
            3085     1.16110E+03     1.16110E+03         14.6464         14.6464         6.17915         6.17915
            3086     1.15920E+03     1.15920E+03         11.7743         11.7743         6.99318         6.99318
            3087     1.15710E+03     1.15710E+03         9.41036         9.41036         7.72858         7.72858
            3088     1.15484E+03     1.15484E+03         7.47972         7.47972         8.41133         8.41133
            3089     1.15243E+03     1.15243E+03         5.91318         5.91318         9.06847         9.06847
            3090     1.14987E+03     1.14987E+03         4.64623         4.64623         9.72961         9.72961
            3091     1.14717E+03     1.14717E+03         3.61913         3.61913         10.4272         10.4272
            3092     1.14434E+03     1.14434E+03         2.77598         2.77598         11.1983         11.1983
            3093     1.14136E+03     1.14136E+03         2.06409         2.06409         12.0861         12.0861
            3094     1.13821E+03     1.13821E+03         1.43262         1.43262         13.1424         13.1424
            3095     1.13488E+03     1.13488E+03     830.757E-03     830.757E-03         14.4307         14.4307
            3096     1.13135E+03     1.13135E+03     204.925E-03     204.925E-03         16.0309         16.0309
            3097     1.12757E+03     1.12757E+03    -505.979E-03    -505.979E-03         18.0449         18.0449
            3098     1.12354E+03     1.12354E+03        -1.37723        -1.37723         20.6052         20.6052
            3099     1.11924E+03     1.11924E+03        -2.51139        -2.51139         23.8853         23.8853
            3100     1.11468E+03     1.11468E+03        -4.05580        -4.05580         28.1163         28.1163
            3101     1.10996E+03     1.10996E+03        -6.24041        -6.24041         33.6026         33.6026
            3102     1.10531E+03     1.10531E+03        -9.42752        -9.42752         40.7459         40.7459
            3103     1.10127E+03     1.10127E+03        -14.2252        -14.2252         50.0402         50.0402
            3104     1.09899E+03     1.09899E+03        -21.6307        -21.6307         62.0013         62.0013
            3105     1.10076E+03     1.10076E+03        -33.1653        -33.1653         76.8525         76.8525
            3106     1.07942E+03     1.07942E+03         315.364         315.364        -45.0909        -45.0909
            3107     1.08992E+03     1.08992E+03         290.514         290.514        -44.9307        -44.9307
            3108     1.10022E+03     1.10022E+03         265.656         265.656        -43.6768        -43.6768
            3109     1.11011E+03     1.11011E+03         241.200         241.200        -41.7848        -41.7848
            3110     1.11941E+03     1.11941E+03         217.438         217.438        -39.2987        -39.2987
            3111     1.12799E+03     1.12799E+03         194.631         194.631        -36.3078        -36.3078
            3112     1.13573E+03     1.13573E+03         173.002         173.002        -32.9113        -32.9113
            3113     1.14257E+03     1.14257E+03         152.731         152.731        -29.2356        -29.2356
            3114     1.14847E+03     1.14847E+03         133.937         133.937        -25.4019        -25.4019
            3115     1.15342E+03     1.15342E+03         116.693         116.693        -21.5291        -21.5291
            3116     1.15747E+03     1.15747E+03         101.022         101.022        -17.7214        -17.7214
            3117     1.16065E+03     1.16065E+03         86.9058         86.9058        -14.0620        -14.0620
            3118     1.16302E+03     1.16302E+03         74.2964         74.2964        -10.6178        -10.6178
            3119     1.16468E+03     1.16468E+03         63.1195         63.1195        -7.42998        -7.42998
            3120     1.16568E+03     1.16568E+03         53.2867         53.2867        -4.52676        -4.52676
            3121     1.16612E+03     1.16612E+03         44.6973         44.6973        -1.91541        -1.91541
            3122     1.16606E+03     1.16606E+03         37.2478         37.2478     404.875E-03     404.875E-03
            3123     1.16558E+03     1.16558E+03         30.8313         30.8313         2.44865         2.44865
            3124     1.16474E+03     1.16474E+03         25.3443         25.3443         4.23431         4.23431
            3125     1.16359E+03     1.16359E+03         20.6848         20.6848         5.78783         5.78783
            3126     1.16218E+03     1.16218E+03         16.7568         16.7568         7.13633         7.13633
            3127     1.16056E+03     1.16056E+03         13.4682         13.4682         8.31057         8.31057
            3128     1.15877E+03     1.15877E+03         10.7334         10.7334         9.34126         9.34126
            3129     1.15682E+03     1.15682E+03         8.47122         8.47122         10.2609         10.2609
            3130     1.15475E+03     1.15475E+03         6.60623         6.60623         11.1020         11.1020
            3131     1.15257E+03     1.15257E+03         5.06729         5.06729         11.8989         11.8989
            3132     1.15031E+03     1.15031E+03         3.78770         3.78770         12.6869         12.6869
            3133     1.14797E+03     1.14797E+03         2.70380         2.70380         13.5045         13.5045
            3134     1.14557E+03     1.14557E+03         1.75445         1.75445         14.3935         14.3935
            3135     1.14310E+03     1.14310E+03     879.303E-03     879.303E-03         15.4012         15.4012
            3136     1.14059E+03     1.14059E+03     17.1993E-03     17.1993E-03         16.5822         16.5822
            3137     1.13805E+03     1.13805E+03    -896.584E-03    -896.584E-03         18.0007         18.0007
            3138     1.13548E+03     1.13548E+03        -1.93431        -1.93431         19.7329         19.7329
            3139     1.13294E+03     1.13294E+03        -3.18105        -3.18105         21.8710         21.8710
            3140     1.13047E+03     1.13047E+03        -4.74420        -4.74420         24.5251         24.5251
            3141     1.12818E+03     1.12818E+03        -6.76453        -6.76453         27.8268         27.8268
            3142     1.12626E+03     1.12626E+03        -9.43863        -9.43863         31.9262         31.9262
            3143     1.12501E+03     1.12501E+03        -13.0407        -13.0407         36.9833         36.9833
            3144     1.12494E+03     1.12494E+03        -17.9701        -17.9701         43.1317         43.1317
            3145     1.12694E+03     1.12694E+03        -24.7689        -24.7689         50.3909         50.3909
            3146     1.13239E+03     1.13239E+03        -34.1340        -34.1340         58.4397         58.4397
            3147     1.14336E+03     1.14336E+03        -46.6704        -46.6704         66.2710         66.2710
            3148     1.08117E+03     1.08117E+03         314.881         314.881        -58.6047        -58.6047
            3149     1.09202E+03     1.09202E+03         289.075         289.075        -58.3231        -58.3231
            3150     1.10264E+03     1.10264E+03         263.243         263.243        -56.5814        -56.5814
            3151     1.11276E+03     1.11276E+03         237.871         237.871        -53.9604        -53.9604
            3152     1.12219E+03     1.12219E+03         213.302         213.302        -50.5528        -50.5528
            3153     1.13079E+03     1.13079E+03         189.842         189.842        -46.4718        -46.4718
            3154     1.13843E+03     1.13843E+03         167.746         167.746        -41.8862        -41.8862
            3155     1.14505E+03     1.14505E+03         147.197         147.197        -36.9651        -36.9651
            3156     1.15064E+03     1.15064E+03         128.313         128.313        -31.8874        -31.8874
            3157     1.15522E+03     1.15522E+03         111.140         111.140        -26.8125        -26.8125
            3158     1.15885E+03     1.15885E+03         95.6747         95.6747        -21.8743        -21.8743
            3159     1.16160E+03     1.16160E+03         81.8660         81.8660        -17.1818        -17.1818
            3160     1.16357E+03     1.16357E+03         69.6326         69.6326        -12.8069        -12.8069
            3161     1.16484E+03     1.16484E+03         58.8736         58.8736        -8.80094        -8.80094
            3162     1.16551E+03     1.16551E+03         49.4736         49.4736        -5.18361        -5.18361
            3163     1.16568E+03     1.16568E+03         41.3153         41.3153        -1.96184        -1.96184
            3164     1.16540E+03     1.16540E+03         34.2776         34.2776     878.491E-03     878.491E-03
            3165     1.16477E+03     1.16477E+03         28.2460         28.2460         3.35743         3.35743
            3166     1.16383E+03     1.16383E+03         23.1073         23.1073         5.50647         5.50647
            3167     1.16265E+03     1.16265E+03         18.7575         18.7575         7.35866         7.35866
            3168     1.16128E+03     1.16128E+03         15.0963         15.0963         8.95212         8.95212
            3169     1.15974E+03     1.15974E+03         12.0322         12.0322         10.3243         10.3243
            3170     1.15808E+03     1.15808E+03         9.47797         9.47797         11.5145         11.5145
            3171     1.15632E+03     1.15632E+03         7.35337         7.35337         12.5606         12.5606
            3172     1.15449E+03     1.15449E+03         5.58222         5.58222         13.5013         13.5013
            3173     1.15260E+03     1.15260E+03         4.09323         4.09323         14.3746         14.3746
            3174     1.15069E+03     1.15069E+03         2.81790         2.81790         15.2195         15.2195
            3175     1.14877E+03     1.14877E+03         1.69037         1.69037         16.0758         16.0758
            3176     1.14686E+03     1.14686E+03     645.433E-03     645.433E-03         16.9859         16.9859
            3177     1.14498E+03     1.14498E+03    -382.516E-03    -382.516E-03         17.9948         17.9948
            3178     1.14317E+03     1.14317E+03        -1.46188        -1.46188         19.1519         19.1519
            3179     1.14146E+03     1.14146E+03        -2.66647        -2.66647         20.5113         20.5113
            3180     1.13990E+03     1.13990E+03        -4.07901        -4.07901         22.1324         22.1324
            3181     1.13859E+03     1.13859E+03        -5.79669        -5.79669         24.0790         24.0790
            3182     1.13763E+03     1.13763E+03        -7.93668        -7.93668         26.4167         26.4167
            3183     1.13721E+03     1.13721E+03        -10.6466        -10.6466         29.2050         29.2050
            3184     1.13757E+03     1.13757E+03        -14.1108        -14.1108         32.4816         32.4816
            3185     1.13911E+03     1.13911E+03        -18.5638        -18.5638         36.2304         36.2304
            3186     1.14238E+03     1.14238E+03        -24.2755        -24.2755         40.3181         40.3181
            3187     1.14815E+03     1.14815E+03        -31.5236        -31.5236         44.3839         44.3839
            3188     1.15738E+03     1.15738E+03        -40.4003        -40.4003         47.6598         47.6598
            3189     1.17109E+03     1.17109E+03        -50.5235        -50.5235         48.7579         48.7579
            3190     1.19066E+03     1.19066E+03        -41.9496        -41.9496        -18.9049        -18.9049
            3191     1.18035E+03     1.18035E+03        -38.3354        -38.3354        -24.1183        -24.1183
            3192     1.17131E+03     1.17131E+03        -33.4434        -33.4434        -27.0520        -27.0520
            3193     1.16393E+03     1.16393E+03        -28.2383        -28.2383        -28.2317        -28.2317
            3194     1.15822E+03     1.15822E+03        -23.3077        -23.3077        -28.2646        -28.2646
            3195     1.15400E+03     1.15400E+03        -18.9170        -18.9170        -27.6268        -27.6268
            3196     1.15104E+03     1.15104E+03        -15.1457        -15.1457        -26.6570        -26.6570
            3197     1.14908E+03     1.14908E+03        -11.9698        -11.9698        -25.5646        -25.5646
            3198     1.14791E+03     1.14791E+03        -9.32524        -9.32524        -24.4708        -24.4708
            3199     1.14735E+03     1.14735E+03        -7.13016        -7.13016        -23.4368        -23.4368
            3200     1.14726E+03     1.14726E+03        -5.30115        -5.30115        -22.4863        -22.4863
            3201     1.14754E+03     1.14754E+03        -3.75693        -3.75693        -21.6197        -21.6197
            3202     1.14810E+03     1.14810E+03        -2.42086        -2.42086        -20.8238        -20.8238
            3203     1.14888E+03     1.14888E+03        -1.22059        -1.22059        -20.0766        -20.0766
            3204     1.14983E+03     1.14983E+03    -87.1391E-03    -87.1391E-03        -19.3513        -19.3513
            3205     1.15090E+03     1.15090E+03         1.04574         1.04574        -18.6177        -18.6177
            3206     1.15207E+03     1.15207E+03         2.24353         2.24353        -17.8429        -17.8429
            3207     1.15331E+03     1.15331E+03         3.57104         3.57104        -16.9920        -16.9920
            3208     1.15460E+03     1.15460E+03         5.09509         5.09509        -16.0272        -16.0272
            3209     1.15591E+03     1.15591E+03         6.88371         6.88371        -14.9085        -14.9085
            3210     1.15723E+03     1.15723E+03         9.01002         9.01002        -13.5926        -13.5926
            3211     1.15854E+03     1.15854E+03         11.5500         11.5500        -12.0336        -12.0336
            3212     1.15981E+03     1.15981E+03         14.5883         14.5883        -10.1819        -10.1819
            3213     1.16101E+03     1.16101E+03         18.2138         18.2138        -7.98629        -7.98629
            3214     1.16210E+03     1.16210E+03         22.5288         22.5288        -5.39211        -5.39211
            3215     1.16304E+03     1.16304E+03         27.6401         27.6401        -2.34648        -2.34648
            3216     1.16379E+03     1.16379E+03         33.6737         33.6737         1.20524         1.20524
            3217     1.16426E+03     1.16426E+03         40.7589         40.7589         5.30782         5.30782
            3218     1.16437E+03     1.16437E+03         49.0495         49.0495         10.0041         10.0041
            3219     1.16404E+03     1.16404E+03         58.6988         58.6988         15.3111         15.3111
            3220     1.16314E+03     1.16314E+03         69.8834         69.8834         21.2370         21.2370
            3221     1.16153E+03     1.16153E+03         82.7705         82.7705         27.7390         27.7390
            3222     1.15907E+03     1.15907E+03         97.5323         97.5323         34.7537         34.7537
            3223     1.15561E+03     1.15561E+03         114.314         114.314         42.1405         42.1405
            3224     1.15101E+03     1.15101E+03         133.213         133.213         49.7228         49.7228
            3225     1.14515E+03     1.14515E+03         154.273         154.273         57.2472         57.2472
            3226     1.13798E+03     1.13798E+03         177.415         177.415         64.4165         64.4165
            3227     1.12951E+03     1.12951E+03         202.469         202.469         70.9208         70.9208
            3228     1.11985E+03     1.11985E+03         229.105         229.105         76.4256         76.4256
            3229     1.10919E+03     1.10919E+03         256.894         256.894         80.7037         80.7037
            3230     1.09778E+03     1.09778E+03         285.312         285.312         83.5433         83.5433
            3231     1.08603E+03     1.08603E+03         313.655         313.655         84.1056         84.1056
            3232     1.19095E+03     1.19095E+03        -35.3446        -35.3446        -9.45917        -9.45917
            3233     1.18291E+03     1.18291E+03        -33.8868        -33.8868        -15.3250        -15.3250
            3234     1.17538E+03     1.17538E+03        -30.8541        -30.8541        -19.4051        -19.4051
            3235     1.16874E+03     1.16874E+03        -27.0319        -27.0319        -21.9749        -21.9749
            3236     1.16320E+03     1.16320E+03        -23.0220        -23.0220        -23.3763        -23.3763
            3237     1.15878E+03     1.15878E+03        -19.1889        -19.1889        -23.9657        -23.9657
            3238     1.15539E+03     1.15539E+03        -15.7183        -15.7183        -24.0300        -24.0300
            3239     1.15289E+03     1.15289E+03        -12.6804        -12.6804        -23.7826        -23.7826
            3240     1.15113E+03     1.15113E+03        -10.0757        -10.0757        -23.3652        -23.3652
            3241     1.14998E+03     1.14998E+03        -7.86890        -7.86890        -22.8672        -22.8672
            3242     1.14933E+03     1.14933E+03        -6.00606        -6.00606        -22.3387        -22.3387
            3243     1.14907E+03     1.14907E+03        -4.42554        -4.42554        -21.8037        -21.8037
            3244     1.14913E+03     1.14913E+03        -3.06296        -3.06296        -21.2681        -21.2681
            3245     1.14944E+03     1.14944E+03        -1.85394        -1.85394        -20.7255        -20.7255
            3246     1.14995E+03     1.14995E+03    -735.188E-03    -735.188E-03        -20.1611        -20.1611
            3247     1.15062E+03     1.15062E+03     355.869E-03     355.869E-03        -19.5541        -19.5541
            3248     1.15143E+03     1.15143E+03         1.48076         1.48076        -18.8785        -18.8785
            3249     1.15234E+03     1.15234E+03         2.70177         2.70177        -18.1041        -18.1041
            3250     1.15333E+03     1.15333E+03         4.08141         4.08141        -17.1964        -17.1964
            3251     1.15440E+03     1.15440E+03         5.68551         5.68551        -16.1167        -16.1167
            3252     1.15552E+03     1.15552E+03         7.58170         7.58170        -14.8220        -14.8220
            3253     1.15667E+03     1.15667E+03         9.84446         9.84446        -13.2644        -13.2644
            3254     1.15784E+03     1.15784E+03         12.5517         12.5517        -11.3920        -11.3920
            3255     1.15900E+03     1.15900E+03         15.7930         15.7930        -9.14744        -9.14744
            3256     1.16014E+03     1.16014E+03         19.6629         19.6629        -6.47089        -6.47089
            3257     1.16121E+03     1.16121E+03         24.2744         24.2744        -3.29753        -3.29753
            3258     1.16217E+03     1.16217E+03         29.7459         29.7459     435.075E-03     435.075E-03
            3259     1.16296E+03     1.16296E+03         36.2237         36.2237         4.79272         4.79272
            3260     1.16350E+03     1.16350E+03         43.8577         43.8577         9.82671         9.82671
            3261     1.16369E+03     1.16369E+03         52.8353         52.8353         15.5878         15.5878
            3262     1.16341E+03     1.16341E+03         63.3420         63.3420         22.0878         22.0878
            3263     1.16251E+03     1.16251E+03         75.6015         75.6015         29.3294         29.3294
            3264     1.16081E+03     1.16081E+03         89.8225         89.8225         37.2364         37.2364
            3265     1.15813E+03     1.15813E+03         106.221         106.221         45.7075         45.7075
            3266     1.15425E+03     1.15425E+03         124.973         124.973         54.5227         54.5227
            3267     1.14902E+03     1.14902E+03         146.173         146.173         63.4134         63.4134
            3268     1.14228E+03     1.14228E+03         169.831         169.831         72.0117         72.0117
            3269     1.13404E+03     1.13404E+03         195.757         195.757         79.8902         79.8902
            3270     1.12434E+03     1.12434E+03         223.636         223.636         86.6577         86.6577
            3271     1.11340E+03     1.11340E+03         252.929         252.929         91.9009         91.9009
            3272     1.10156E+03     1.10156E+03         282.984         282.984         95.4232         95.4232
            3273     1.08922E+03     1.08922E+03         312.967         312.967         96.1505         96.1505
            3274     1.18873E+03     1.18873E+03        -28.7099        -28.7099        -2.52289        -2.52289
            3275     1.18279E+03     1.18279E+03        -28.8509        -28.8509        -8.37983        -8.37983
            3276     1.17679E+03     1.17679E+03        -27.2688        -27.2688        -12.9353        -12.9353
            3277     1.17117E+03     1.17117E+03        -24.6827        -24.6827        -16.2905        -16.2905
            3278     1.16617E+03     1.16617E+03        -21.6167        -21.6167        -18.6192        -18.6192
            3279     1.16193E+03     1.16193E+03        -18.4544        -18.4544        -20.1362        -20.1362
            3280     1.15845E+03     1.15845E+03        -15.4322        -15.4322        -21.0553        -21.0553
            3281     1.15569E+03     1.15569E+03        -12.6787        -12.6787        -21.5533        -21.5533
            3282     1.15358E+03     1.15358E+03        -10.2467        -10.2467        -21.7666        -21.7666
            3283     1.15202E+03     1.15202E+03        -8.14108        -8.14108        -21.7906        -21.7906
            3284     1.15092E+03     1.15092E+03        -6.33784        -6.33784        -21.6895        -21.6895
            3285     1.15022E+03     1.15022E+03        -4.79639        -4.79639        -21.5017        -21.5017
            3286     1.14983E+03     1.14983E+03        -3.46741        -3.46741        -21.2476        -21.2476
            3287     1.14970E+03     1.14970E+03        -2.29732        -2.29732        -20.9337        -20.9337
            3288     1.14979E+03     1.14979E+03        -1.23052        -1.23052        -20.5562        -20.5562
            3289     1.15006E+03     1.15006E+03    -211.075E-03    -211.075E-03        -20.1030        -20.1030
            3290     1.15049E+03     1.15049E+03     817.726E-03     817.726E-03        -19.5557        -19.5557
            3291     1.15105E+03     1.15105E+03         1.91251         1.91251        -18.8894        -18.8894
            3292     1.15172E+03     1.15172E+03         3.13191         3.13191        -18.0739        -18.0739
            3293     1.15250E+03     1.15250E+03         4.53542         4.53542        -17.0731        -17.0731
            3294     1.15337E+03     1.15337E+03         6.18730         6.18730        -15.8449        -15.8449
            3295     1.15432E+03     1.15432E+03         8.15420         8.15420        -14.3416        -14.3416
            3296     1.15535E+03     1.15535E+03         10.5120         10.5120        -12.5087        -12.5087
            3297     1.15644E+03     1.15644E+03         13.3405         13.3405        -10.2859        -10.2859
            3298     1.15758E+03     1.15758E+03         16.7356         16.7356        -7.60602        -7.60602
            3299     1.15874E+03     1.15874E+03         20.7987         20.7987        -4.39778        -4.39778
            3300     1.15989E+03     1.15989E+03         25.6575         25.6575    -582.854E-03    -582.854E-03
            3301     1.16099E+03     1.16099E+03         31.4455         31.4455         3.91417         3.91417
            3302     1.16197E+03     1.16197E+03         38.3379         38.3379         9.17492         9.17492
            3303     1.16273E+03     1.16273E+03         46.5129         46.5129         15.2604         15.2604
            3304     1.16316E+03     1.16316E+03         56.2075         56.2075         22.2346         22.2346
            3305     1.16309E+03     1.16309E+03         67.6541         67.6541         30.1022         30.1022
            3306     1.16234E+03     1.16234E+03         81.1472         81.1472         38.8614         38.8614
            3307     1.16063E+03     1.16063E+03         96.9580         96.9580         48.3845         48.3845
            3308     1.15776E+03     1.15776E+03         115.365         115.365         58.5134         58.5134
            3309     1.15339E+03     1.15339E+03         136.583         136.583         68.9054         68.9054
            3310     1.14738E+03     1.14738E+03         160.676         160.676         79.1470         79.1470
            3311     1.13952E+03     1.13952E+03         187.575         187.575         88.7107         88.7107
            3312     1.12991E+03     1.12991E+03         216.881         216.881         96.9860         96.9860
            3313     1.11873E+03     1.11873E+03         248.017         248.017         103.521         103.521
            3314     1.10635E+03     1.10635E+03         280.134         280.134         107.845         107.845
            3315     1.09340E+03     1.09340E+03         312.126         312.126         108.859         108.859
            3316     1.18511E+03     1.18511E+03        -22.6263        -22.6263         2.25133         2.25133
            3317     1.18096E+03     1.18096E+03        -23.7648        -23.7648        -3.12855        -3.12855
            3318     1.17640E+03     1.17640E+03        -23.2527        -23.2527        -7.71154        -7.71154
            3319     1.17184E+03     1.17184E+03        -21.6561        -21.6561        -11.4152        -11.4152
            3320     1.16755E+03     1.16755E+03        -19.4399        -19.4399        -14.2901        -14.2901
            3321     1.16370E+03     1.16370E+03        -16.9510        -16.9510        -16.4425        -16.4425
            3322     1.16037E+03     1.16037E+03        -14.4374        -14.4374        -18.0041        -18.0041
            3323     1.15758E+03     1.15758E+03        -12.0540        -12.0540        -19.1051        -19.1051
            3324     1.15529E+03     1.15529E+03        -9.88605        -9.88605        -19.8564        -19.8564
            3325     1.15346E+03     1.15346E+03        -7.96824        -7.96824        -20.3466        -20.3466
            3326     1.15204E+03     1.15204E+03        -6.30128        -6.30128        -20.6410        -20.6410
            3327     1.15096E+03     1.15096E+03        -4.86422        -4.86422        -20.7852        -20.7852
            3328     1.15018E+03     1.15018E+03        -3.62279        -3.62279        -20.8084        -20.8084
            3329     1.14965E+03     1.14965E+03        -2.53495        -2.53495        -20.7265        -20.7265
            3330     1.14933E+03     1.14933E+03        -1.55459        -1.55459        -20.5446        -20.5446
            3331     1.14920E+03     1.14920E+03    -633.111E-03    -633.111E-03        -20.2589        -20.2589
            3332     1.14923E+03     1.14923E+03     278.951E-03     278.951E-03        -19.8577        -19.8577
            3333     1.14941E+03     1.14941E+03         1.23262         1.23262        -19.3221        -19.3221
            3334     1.14973E+03     1.14973E+03         2.27938         2.27938        -18.6265        -18.6265
            3335     1.15017E+03     1.15017E+03         3.47379         3.47379        -17.7382        -17.7382
            3336     1.15074E+03     1.15074E+03         4.87177         4.87177        -16.6176        -16.6176
            3337     1.15144E+03     1.15144E+03         6.53570         6.53570        -15.2178        -15.2178
            3338     1.15227E+03     1.15227E+03         8.53087         8.53087        -13.4840        -13.4840
            3339     1.15322E+03     1.15322E+03         10.9348         10.9348        -11.3531        -11.3531
            3340     1.15430E+03     1.15430E+03         13.8295         13.8295        -8.75437        -8.75437
            3341     1.15550E+03     1.15550E+03         17.3189         17.3189        -5.60742        -5.60742
            3342     1.15680E+03     1.15680E+03         21.5130         21.5130        -1.82606        -1.82606
            3343     1.15817E+03     1.15817E+03         26.5591         26.5591         2.68632         2.68632
            3344     1.15956E+03     1.15956E+03         32.6106         32.6106         8.02360         8.02360
            3345     1.16091E+03     1.16091E+03         39.8833         39.8833         14.2908         14.2908
            3346     1.16210E+03     1.16210E+03         48.5942         48.5942         21.5646         21.5646
            3347     1.16298E+03     1.16298E+03         59.0549         59.0549         29.9321         29.9321
            3348     1.16334E+03     1.16334E+03         71.5650         71.5650         39.3890         39.3890
            3349     1.16291E+03     1.16291E+03         86.5294         86.5294         49.9334         49.9334
            3350     1.16131E+03     1.16131E+03         104.315         104.315         61.3541         61.3541
            3351     1.15826E+03     1.15826E+03         125.284         125.284         73.4033         73.4033
            3352     1.15325E+03     1.15325E+03         149.704         149.704         85.5400         85.5400
            3353     1.14618E+03     1.14618E+03         177.530         177.530         97.1117         97.1117
            3354     1.13683E+03     1.13683E+03         208.517         208.517         107.378         107.378
            3355     1.12548E+03     1.12548E+03         241.872         241.872         115.482         115.482
            3356     1.11258E+03     1.11258E+03         276.559         276.559         120.990         120.990
            3357     1.09873E+03     1.09873E+03         311.166         311.166         122.323         122.323
            3358     1.18095E+03     1.18095E+03        -17.3828        -17.3828         5.35022         5.35022
            3359     1.17819E+03     1.17819E+03        -18.9979        -18.9979     648.492E-03     648.492E-03
            3360     1.17487E+03     1.17487E+03        -19.1736        -19.1736        -3.66325        -3.66325
            3361     1.17131E+03     1.17131E+03        -18.3161        -18.3161        -7.40979        -7.40979
            3362     1.16777E+03     1.16777E+03        -16.7961        -16.7961        -10.5357        -10.5357
            3363     1.16443E+03     1.16443E+03        -14.9182        -14.9182        -13.0654        -13.0654
            3364     1.16138E+03     1.16138E+03        -12.9097        -12.9097        -15.0621        -15.0621
            3365     1.15869E+03     1.15869E+03        -10.9301        -10.9301        -16.6058        -16.6058
            3366     1.15636E+03     1.15636E+03        -9.07787        -9.07787        -17.7774        -17.7774
            3367     1.15437E+03     1.15437E+03        -7.40557        -7.40557        -18.6488        -18.6488
            3368     1.15271E+03     1.15271E+03        -5.93124        -5.93124        -19.2793        -19.2793
            3369     1.15133E+03     1.15133E+03        -4.64943        -4.64943        -19.7149        -19.7149
            3370     1.15020E+03     1.15020E+03        -3.53906        -3.53906        -19.9888        -19.9888
            3371     1.14929E+03     1.14929E+03        -2.56933        -2.56933        -20.1229        -20.1229
            3372     1.14858E+03     1.14858E+03        -1.70342        -1.70342        -20.1291        -20.1291
            3373     1.14804E+03     1.14804E+03    -901.338E-03    -901.338E-03        -20.0102        -20.0102
            3374     1.14765E+03     1.14765E+03    -120.768E-03    -120.768E-03        -19.7609        -19.7609
            3375     1.14742E+03     1.14742E+03     681.459E-03     681.459E-03        -19.3681        -19.3681
            3376     1.14734E+03     1.14734E+03         1.55060         1.55060        -18.8109        -18.8109
            3377     1.14740E+03     1.14740E+03         2.53268         2.53268        -18.0609        -18.0609
            3378     1.14761E+03     1.14761E+03         3.67780         3.67780        -17.0820        -17.0820
            3379     1.14799E+03     1.14799E+03         5.03787         5.03787        -15.8291        -15.8291
            3380     1.14854E+03     1.14854E+03         6.67313         6.67313        -14.2489        -14.2489
            3381     1.14928E+03     1.14928E+03         8.64717         8.64717        -12.2779        -12.2779
            3382     1.15022E+03     1.15022E+03         11.0395         11.0395        -9.84265        -9.84265
            3383     1.15136E+03     1.15136E+03         13.9346         13.9346        -6.85860        -6.85860
            3384     1.15272E+03     1.15272E+03         17.4465         17.4465        -3.22911        -3.22911
            3385     1.15429E+03     1.15429E+03         21.6951         21.6951         1.15228         1.15228
            3386     1.15605E+03     1.15605E+03         26.8543         26.8543         6.40698         6.40698
            3387     1.15795E+03     1.15795E+03         33.1019         33.1019         12.6561         12.6561
            3388     1.15992E+03     1.15992E+03         40.7117         40.7117         20.0402         20.0402
            3389     1.16181E+03     1.16181E+03         49.9528         49.9528         28.6625         28.6625
            3390     1.16345E+03     1.16345E+03         61.2498         61.2498         38.6514         38.6514
            3391     1.16452E+03     1.16452E+03         75.0017         75.0017         49.9933         49.9933
            3392     1.16467E+03     1.16467E+03         91.7911         91.7911         62.6975         62.6975
            3393     1.16330E+03     1.16330E+03         112.138         112.138         76.4095         76.4095
            3394     1.16002E+03     1.16002E+03         136.515         136.515         90.7266         90.7266
            3395     1.15410E+03     1.15410E+03         165.238         165.238         104.776         104.776
            3396     1.14552E+03     1.14552E+03         197.977         197.977         117.492         117.492
            3397     1.13417E+03     1.13417E+03         234.077         234.077         127.893         127.893
            3398     1.12062E+03     1.12062E+03         272.046         272.046         134.827         134.827
            3399     1.10595E+03     1.10595E+03         309.932         309.932         136.816         136.816
            3400     1.17673E+03     1.17673E+03        -13.0220        -13.0220         7.22020         7.22020
            3401     1.17502E+03     1.17502E+03        -14.7398        -14.7398         3.23369         3.23369
            3402     1.17271E+03     1.17271E+03        -15.2806        -15.2806    -658.993E-03    -658.993E-03
            3403     1.17005E+03     1.17005E+03        -14.9195        -14.9195        -4.24153        -4.24153
            3404     1.16723E+03     1.16723E+03        -13.9343        -13.9343        -7.40072        -7.40072
            3405     1.16442E+03     1.16442E+03        -12.5704        -12.5704        -10.0968        -10.0968
            3406     1.16173E+03     1.16173E+03        -11.0256        -11.0256        -12.3402        -12.3402
            3407     1.15922E+03     1.15922E+03        -9.44510        -9.44510        -14.1683        -14.1683
            3408     1.15692E+03     1.15692E+03        -7.92767        -7.92767        -15.6313        -15.6313
            3409     1.15486E+03     1.15486E+03        -6.53185        -6.53185        -16.7823        -16.7823
            3410     1.15302E+03     1.15302E+03        -5.28549        -5.28549        -17.6701        -17.6701
            3411     1.15138E+03     1.15138E+03        -4.19353        -4.19353        -18.3371        -18.3371
            3412     1.14994E+03     1.14994E+03        -3.24524        -3.24524        -18.8168        -18.8168
            3413     1.14867E+03     1.14867E+03        -2.41928        -2.41928        -19.1343        -19.1343
            3414     1.14755E+03     1.14755E+03        -1.68786        -1.68786        -19.3060        -19.3060
            3415     1.14659E+03     1.14659E+03        -1.01898        -1.01898        -19.3400        -19.3400
            3416     1.14577E+03     1.14577E+03    -378.571E-03    -378.571E-03        -19.2363        -19.2363
            3417     1.14508E+03     1.14508E+03     269.445E-03     269.445E-03        -18.9872        -18.9872
            3418     1.14455E+03     1.14455E+03     961.825E-03     961.825E-03        -18.5767        -18.5767
            3419     1.14417E+03     1.14417E+03         1.73784         1.73784        -17.9813        -17.9813
            3420     1.14396E+03     1.14396E+03         2.63771         2.63771        -17.1686        -17.1686
            3421     1.14393E+03     1.14393E+03         3.70675         3.70675        -16.0977        -16.0977
            3422     1.14412E+03     1.14412E+03         4.99238         4.99238        -14.7175        -14.7175
            3423     1.14454E+03     1.14454E+03         6.55238         6.55238        -12.9671        -12.9671
            3424     1.14522E+03     1.14522E+03         8.44816         8.44816        -10.7727        -10.7727
            3425     1.14620E+03     1.14620E+03         10.7613         10.7613        -8.04863        -8.04863
            3426     1.14750E+03     1.14750E+03         13.5787         13.5787        -4.69338        -4.69338
            3427     1.14915E+03     1.14915E+03         17.0262         17.0262    -590.116E-03    -590.116E-03
            3428     1.15116E+03     1.15116E+03         21.2348         21.2348         4.39511         4.39511
            3429     1.15352E+03     1.15352E+03         26.4121         26.4121         10.4173         10.4173
            3430     1.15620E+03     1.15620E+03         32.7659         32.7659         17.6390         17.6390
            3431     1.15912E+03     1.15912E+03         40.6509         40.6509         26.2549         26.2549
            3432     1.16213E+03     1.16213E+03         50.4054         50.4054         36.4154         36.4154
            3433     1.16496E+03     1.16496E+03         62.6305         62.6305         48.3251         48.3251
            3434     1.16719E+03     1.16719E+03         77.8727         77.8727         61.9638         61.9638
            3435     1.16829E+03     1.16829E+03         97.0199         97.0199         77.3847         77.3847
            3436     1.16727E+03     1.16727E+03         120.856         120.856         93.9648         93.9648
            3437     1.16364E+03     1.16364E+03         149.966         149.966         111.001         111.001
            3438     1.15627E+03     1.15627E+03         184.662         184.662         127.058         127.058
            3439     1.14543E+03     1.14543E+03         223.903         223.903         140.339         140.339
            3440     1.13146E+03     1.13146E+03         266.109         266.109         149.708         149.708
            3441     1.11539E+03     1.11539E+03         308.486         308.486         152.414         152.414
            3442     1.17271E+03     1.17271E+03        -9.47319        -9.47319         8.19202         8.19202
            3443     1.17180E+03     1.17180E+03        -11.0488        -11.0488         4.87474         4.87474
            3444     1.17032E+03     1.17032E+03        -11.7150        -11.7150         1.45801         1.45801
            3445     1.16843E+03     1.16843E+03        -11.6476        -11.6476        -1.83845        -1.83845
            3446     1.16628E+03     1.16628E+03        -11.0441        -11.0441        -4.87223        -4.87223
            3447     1.16399E+03     1.16399E+03        -10.0916        -10.0916        -7.56668        -7.56668
            3448     1.16167E+03     1.16167E+03        -8.94868        -8.94868        -9.89303        -9.89303
            3449     1.15938E+03     1.15938E+03        -7.73921        -7.73921        -11.8562        -11.8562
            3450     1.15717E+03     1.15717E+03        -6.55093        -6.55093        -13.4806        -13.4806
            3451     1.15507E+03     1.15507E+03        -5.44043        -5.44043        -14.8011        -14.8011
            3452     1.15308E+03     1.15308E+03        -4.43805        -4.43805        -15.8555        -15.8555
            3453     1.15121E+03     1.15121E+03        -3.55445        -3.55445        -16.6801        -16.6801
            3454     1.14947E+03     1.14947E+03        -2.78572        -2.78572        -17.3067        -17.3067
            3455     1.14783E+03     1.14783E+03        -2.11818        -2.11818        -17.7614        -17.7614
            3456     1.14631E+03     1.14631E+03        -1.53156        -1.53156        -18.0632        -18.0632
            3457     1.14490E+03     1.14490E+03        -1.00180        -1.00180        -18.2239        -18.2239
            3458     1.14360E+03     1.14360E+03    -502.110E-03    -502.110E-03        -18.2481        -18.2481
            3459     1.14242E+03     1.14242E+03    -4.58547E-03    -4.58547E-03        -18.1325        -18.1325
            3460     1.14138E+03     1.14138E+03     520.434E-03     520.434E-03        -17.8664        -17.8664
            3461     1.14049E+03     1.14049E+03         1.10312         1.10312        -17.4305        -17.4305
            3462     1.13977E+03     1.13977E+03         1.77653         1.77653        -16.7981        -16.7981
            3463     1.13925E+03     1.13925E+03         2.57477         2.57477        -15.9322        -15.9322
            3464     1.13897E+03     1.13897E+03         3.53797         3.53797        -14.7874        -14.7874
            3465     1.13895E+03     1.13895E+03         4.70854         4.70854        -13.3057        -13.3057
            3466     1.13925E+03     1.13925E+03         6.14112         6.14112        -11.4187        -11.4187
            3467     1.13992E+03     1.13992E+03         7.89417         7.89417        -9.04101        -9.04101
            3468     1.14100E+03     1.14100E+03         10.0507         10.0507        -6.07388        -6.07388
            3469     1.14255E+03     1.14255E+03         12.6989         12.6989        -2.39506        -2.39506
            3470     1.14462E+03     1.14462E+03         15.9772         15.9772         2.13622         2.13622
            3471     1.14727E+03     1.14727E+03         20.0276         20.0276         7.69124         7.69124
            3472     1.15050E+03     1.15050E+03         25.0984         25.0984         14.4697         14.4697
            3473     1.15434E+03     1.15434E+03         31.4310         31.4310         22.6979         22.6979
            3474     1.15868E+03     1.15868E+03         39.4930         39.4930         32.6533         32.6533
            3475     1.16338E+03     1.16338E+03         49.7103         49.7103         44.5739         44.5739
            3476     1.16809E+03     1.16809E+03         62.9682         62.9682         58.8049         58.8049
            3477     1.17219E+03     1.17219E+03         80.0334         80.0334         75.3388         75.3388
            3478     1.17485E+03     1.17485E+03         102.366         102.366         94.3629         94.3629
            3479     1.17429E+03     1.17429E+03         131.246         131.246         114.697         114.697
            3480     1.16995E+03     1.16995E+03         167.254         167.254         134.974         134.974
            3481     1.16019E+03     1.16019E+03         210.434         210.434         152.830         152.830
            3482     1.14594E+03     1.14594E+03         258.055         258.055         165.204         165.204
            3483     1.12896E+03     1.12896E+03         306.359         306.359         169.754         169.754
            3484     1.16904E+03     1.16904E+03        -6.62199        -6.62199         8.47450         8.47450
            3485     1.16878E+03     1.16878E+03        -7.91679        -7.91679         5.75180         5.75180
            3486     1.16801E+03     1.16801E+03        -8.54717        -8.54717         2.81991         2.81991
            3487     1.16679E+03     1.16679E+03        -8.62142        -8.62142    -117.129E-03    -117.129E-03
            3488     1.16524E+03     1.16524E+03        -8.27250        -8.27250        -2.91143        -2.91143
            3489     1.16343E+03     1.16343E+03        -7.63469        -7.63469        -5.46752        -5.46752
            3490     1.16147E+03     1.16147E+03        -6.82751        -6.82751        -7.73438        -7.73438
            3491     1.15940E+03     1.15940E+03        -5.94754        -5.94754        -9.69412        -9.69412
            3492     1.15728E+03     1.15728E+03        -5.06658        -5.06658        -11.3524        -11.3524
            3493     1.15515E+03     1.15515E+03        -4.23261        -4.23261        -12.7293        -12.7293
            3494     1.15303E+03     1.15303E+03        -3.47370        -3.47370        -13.8524        -13.8524
            3495     1.15093E+03     1.15093E+03        -2.80175        -2.80175        -14.7519        -14.7519
            3496     1.14888E+03     1.14888E+03        -2.21693        -2.21693        -15.4566        -15.4566
            3497     1.14686E+03     1.14686E+03        -1.71085        -1.71085        -15.9919        -15.9919
            3498     1.14491E+03     1.14491E+03        -1.26971        -1.26971        -16.3780        -16.3780
            3499     1.14301E+03     1.14301E+03    -875.998E-03    -875.998E-03        -16.6292        -16.6292
            3500     1.14120E+03     1.14120E+03    -510.313E-03    -510.313E-03        -16.7531        -16.7531
            3501     1.13948E+03     1.13948E+03    -151.607E-03    -151.607E-03        -16.7506        -16.7506
            3502     1.13787E+03     1.13787E+03     221.663E-03     221.663E-03        -16.6149        -16.6149
            3503     1.13639E+03     1.13639E+03     632.619E-03     632.619E-03        -16.3324        -16.3324
            3504     1.13508E+03     1.13508E+03         1.10482         1.10482        -15.8807        -15.8807
            3505     1.13396E+03     1.13396E+03         1.66492         1.66492        -15.2299        -15.2299
            3506     1.13309E+03     1.13309E+03         2.34073         2.34073        -14.3394        -14.3394
            3507     1.13250E+03     1.13250E+03         3.16659         3.16659        -13.1597        -13.1597
            3508     1.13226E+03     1.13226E+03         4.17927         4.17927        -11.6268        -11.6268
            3509     1.13243E+03     1.13243E+03         5.42893         5.42893        -9.66563        -9.66563
            3510     1.13309E+03     1.13309E+03         6.96979         6.96979        -7.17923        -7.17923
            3511     1.13432E+03     1.13432E+03         8.88409         8.88409        -4.05614        -4.05614
            3512     1.13621E+03     1.13621E+03         11.2591         11.2591    -150.046E-03    -150.046E-03
            3513     1.13886E+03     1.13886E+03         14.2437         14.2437         4.70610         4.70610
            3514     1.14238E+03     1.14238E+03         17.9882         17.9882         10.7334         10.7334
            3515     1.14684E+03     1.14684E+03         22.7858         22.7858         18.1881         18.1881
            3516     1.15232E+03     1.15232E+03         28.9110         28.9110         27.3954         27.3954
            3517     1.15876E+03     1.15876E+03         36.9828         36.9828         38.7559         38.7559
            3518     1.16605E+03     1.16605E+03         47.5308         47.5308         52.6752         52.6752
            3519     1.17374E+03     1.17374E+03         61.9088         61.9088         69.7597         69.7597
            3520     1.18095E+03     1.18095E+03         81.2069         81.2069         90.0927         90.0927
            3521     1.18626E+03     1.18626E+03         108.082         108.082         114.256         114.256
            3522     1.18610E+03     1.18610E+03         144.849         144.849         139.775         139.775
            3523     1.18017E+03     1.18017E+03         191.430         191.430         163.608         163.608
            3524     1.16651E+03     1.16651E+03         246.546         246.546         182.092         182.092
            3525     1.14739E+03     1.14739E+03         303.573         303.573         188.612         188.612
            3526     1.16579E+03     1.16579E+03        -4.35701        -4.35701         8.16403         8.16403
            3527     1.16614E+03     1.16614E+03        -5.31054        -5.31054         5.96724         5.96724
            3528     1.16600E+03     1.16600E+03        -5.81281        -5.81281         3.51667         3.51667
            3529     1.16540E+03     1.16540E+03        -5.92658        -5.92658     990.893E-03     990.893E-03
            3530     1.16439E+03     1.16439E+03        -5.73660        -5.73660        -1.47106        -1.47106
            3531     1.16303E+03     1.16303E+03        -5.33250        -5.33250        -3.77128        -3.77128
            3532     1.16139E+03     1.16139E+03        -4.79722        -4.79722        -5.84909        -5.84909
            3533     1.15952E+03     1.15952E+03        -4.19991        -4.19991        -7.67500        -7.67500
            3534     1.15748E+03     1.15748E+03        -3.59321        -3.59321        -9.24269        -9.24269
            3535     1.15530E+03     1.15530E+03        -3.01366        -3.01366        -10.5621        -10.5621
            3536     1.15302E+03     1.15302E+03        -2.48330        -2.48330        -11.6528        -11.6528
            3537     1.15067E+03     1.15067E+03        -2.01271        -2.01271        -12.5394        -12.5394
            3538     1.14828E+03     1.14828E+03        -1.60345        -1.60345        -13.2472        -13.2472
            3539     1.14585E+03     1.14585E+03        -1.25090        -1.25090        -13.7997        -13.7997
            3540     1.14343E+03     1.14343E+03    -946.022E-03    -946.022E-03        -14.2171        -14.2171
            3541     1.14101E+03     1.14101E+03    -677.236E-03    -677.236E-03        -14.5144        -14.5144
            3542     1.13863E+03     1.13863E+03    -431.124E-03    -431.124E-03        -14.7014        -14.7014
            3543     1.13630E+03     1.13630E+03    -193.556E-03    -193.556E-03        -14.7816        -14.7816
            3544     1.13406E+03     1.13406E+03     50.5977E-03     50.5977E-03        -14.7524        -14.7524
            3545     1.13192E+03     1.13192E+03     316.638E-03     316.638E-03        -14.6042        -14.6042
            3546     1.12992E+03     1.12992E+03     621.291E-03     621.291E-03        -14.3209        -14.3209
            3547     1.12810E+03     1.12810E+03     981.724E-03     981.724E-03        -13.8780        -13.8780
            3548     1.12651E+03     1.12651E+03         1.41808         1.41808        -13.2440        -13.2440
            3549     1.12520E+03     1.12520E+03         1.95184         1.95184        -12.3760        -12.3760
            3550     1.12425E+03     1.12425E+03         2.61062         2.61062        -11.2230        -11.2230
            3551     1.12372E+03     1.12372E+03         3.42491         3.42491        -9.71692        -9.71692
            3552     1.12372E+03     1.12372E+03         4.43798         4.43798        -7.77927        -7.77927
            3553     1.12435E+03     1.12435E+03         5.69818         5.69818        -5.30295        -5.30295
            3554     1.12573E+03     1.12573E+03         7.28190         7.28190        -2.16750        -2.16750
            3555     1.12804E+03     1.12804E+03         9.27267         9.27267         1.79901         1.79901
            3556     1.13141E+03     1.13141E+03         11.8210         11.8210         6.78760         6.78760
            3557     1.13606E+03     1.13606E+03         15.0810         15.0810         13.0830         13.0830
            3558     1.14215E+03     1.14215E+03         19.3826         19.3826         21.0041         21.0041
            3559     1.14993E+03     1.14993E+03         25.0277         25.0277         31.0285         31.0285
            3560     1.15942E+03     1.15942E+03         32.8189         32.8189         43.7251         43.7251
            3561     1.17073E+03     1.17073E+03         43.3916         43.3916         59.8288         59.8288
            3562     1.18328E+03     1.18328E+03         58.8736         58.8736         80.4167         80.4167
            3563     1.19603E+03     1.19603E+03         80.7877         80.7877         105.954         105.954
            3564     1.20619E+03     1.20619E+03         114.634         114.634         138.188         138.188
            3565     1.20577E+03     1.20577E+03         165.044         165.044         171.311         171.311
            3566     1.19596E+03     1.19596E+03         228.489         228.489         197.637         197.637
            3567     1.17690E+03     1.17690E+03         298.359         298.359         210.991         210.991
            3568     1.16306E+03     1.16306E+03        -2.59240        -2.59240         7.25907         7.25907
            3569     1.16404E+03     1.16404E+03        -3.20464        -3.20464         5.54689         5.54689
            3570     1.16453E+03     1.16453E+03        -3.54192        -3.54192         3.58843         3.58843
            3571     1.16452E+03     1.16452E+03        -3.63799        -3.63799         1.53052         1.53052
            3572     1.16402E+03     1.16402E+03        -3.54176        -3.54176    -507.613E-03    -507.613E-03
            3573     1.16306E+03     1.16306E+03        -3.30746        -3.30746        -2.43738        -2.43738
            3574     1.16170E+03     1.16170E+03        -2.98636        -2.98636        -4.20040        -4.20040
            3575     1.15998E+03     1.15998E+03        -2.62212        -2.62212        -5.76456        -5.76456
            3576     1.15796E+03     1.15796E+03        -2.24867        -2.24867        -7.11876        -7.11876
            3577     1.15569E+03     1.15569E+03        -1.88986        -1.88986        -8.26712        -8.26712
            3578     1.15321E+03     1.15321E+03        -1.56061        -1.56061        -9.22370        -9.22370
            3579     1.15056E+03     1.15056E+03        -1.26827        -1.26827        -10.0080        -10.0080
            3580     1.14778E+03     1.14778E+03        -1.01458        -1.01458        -10.6414        -10.6414
            3581     1.14491E+03     1.14491E+03    -797.029E-03    -797.029E-03        -11.1448        -11.1448
            3582     1.14196E+03     1.14196E+03    -610.433E-03    -610.433E-03        -11.5362        -11.5362
            3583     1.13897E+03     1.13897E+03    -447.692E-03    -447.692E-03        -11.8304        -11.8304
            3584     1.13597E+03     1.13597E+03    -300.813E-03    -300.813E-03        -12.0373        -12.0373
            3585     1.13298E+03     1.13298E+03    -160.996E-03    -160.996E-03        -12.1624        -12.1624
            3586     1.13002E+03     1.13002E+03    -19.3115E-03    -19.3115E-03        -12.2055        -12.2055
            3587     1.12714E+03     1.12714E+03     133.817E-03     133.817E-03        -12.1614        -12.1614
            3588     1.12436E+03     1.12436E+03     308.036E-03     308.036E-03        -12.0186        -12.0186
            3589     1.12173E+03     1.12173E+03     514.138E-03     514.138E-03        -11.7605        -11.7605
            3590     1.11929E+03     1.11929E+03     763.472E-03     763.472E-03        -11.3624        -11.3624
            3591     1.11711E+03     1.11711E+03         1.06965         1.06965        -10.7939        -10.7939
            3592     1.11526E+03     1.11526E+03         1.44803         1.44803        -10.0130        -10.0130
            3593     1.11381E+03     1.11381E+03         1.91831         1.91831        -8.97106        -8.97106
            3594     1.11289E+03     1.11289E+03         2.50433         2.50433        -7.60019        -7.60019
            3595     1.11260E+03     1.11260E+03         3.23869         3.23869        -5.82463        -5.82463
            3596     1.11311E+03     1.11311E+03         4.16270         4.16270        -3.53244        -3.53244
            3597     1.11460E+03     1.11460E+03         5.33767         5.33767    -603.065E-03    -603.065E-03
            3598     1.11730E+03     1.11730E+03         6.84111         6.84111         3.15709         3.15709
            3599     1.12147E+03     1.12147E+03         8.80505         8.80505         7.95024         7.95024
            3600     1.12747E+03     1.12747E+03         11.3834         11.3834         14.1332         14.1332
            3601     1.13564E+03     1.13564E+03         14.9059         14.9059         22.0738         22.0738
            3602     1.14650E+03     1.14650E+03         19.6938         19.6938         32.4695         32.4695
            3603     1.16038E+03     1.16038E+03         26.7119         26.7119         46.0753         46.0753
            3604     1.17797E+03     1.17797E+03         36.6806         36.6806         64.2648         64.2648
            3605     1.19873E+03     1.19873E+03         52.9195         52.9195         88.8745         88.8745
            3606     1.22226E+03     1.22226E+03         77.3837         77.3837         121.787         121.787
            3607     1.24256E+03     1.24256E+03         123.157         123.157         168.150         168.150
            3608     1.23958E+03     1.23958E+03         199.811         199.811         213.009         213.009
            3609     1.22004E+03     1.22004E+03         289.331         289.331         233.580         233.580
            3610     1.16094E+03     1.16094E+03        -1.28522        -1.28522         5.66749         5.66749
            3611     1.16267E+03     1.16267E+03        -1.60441        -1.60441         4.44556         4.44556
            3612     1.16385E+03     1.16385E+03        -1.78497        -1.78497         3.02738         3.02738
            3613     1.16444E+03     1.16444E+03        -1.84192        -1.84192         1.52142         1.52142
            3614     1.16442E+03     1.16442E+03        -1.79944        -1.79944     17.7504E-03     17.7504E-03
            3615     1.16382E+03     1.16382E+03        -1.68470        -1.68470        -1.41503        -1.41503
            3616     1.16267E+03     1.16267E+03        -1.52395        -1.52395        -2.73043        -2.73043
            3617     1.16103E+03     1.16103E+03        -1.33978        -1.33978        -3.90193        -3.90193
            3618     1.15896E+03     1.15896E+03        -1.14987        -1.14987        -4.91920        -4.91920
            3619     1.15652E+03     1.15652E+03    -966.873E-03    -966.873E-03        -5.78414        -5.78414
            3620     1.15376E+03     1.15376E+03    -798.684E-03    -798.684E-03        -6.50668        -6.50668
            3621     1.15075E+03     1.15075E+03    -649.411E-03    -649.411E-03        -7.10147        -7.10147
            3622     1.14752E+03     1.14752E+03    -520.060E-03    -520.060E-03        -7.58502        -7.58502
            3623     1.14412E+03     1.14412E+03    -409.572E-03    -409.572E-03        -7.97358        -7.97358
            3624     1.14060E+03     1.14060E+03    -315.306E-03    -315.306E-03        -8.28184        -8.28184
            3625     1.13698E+03     1.13698E+03    -233.825E-03    -233.825E-03        -8.52175        -8.52175
            3626     1.13329E+03     1.13329E+03    -160.999E-03    -160.999E-03        -8.70219        -8.70219
            3627     1.12957E+03     1.12957E+03    -92.5769E-03    -92.5769E-03        -8.82831        -8.82831
            3628     1.12584E+03     1.12584E+03    -23.9327E-03    -23.9327E-03        -8.90178        -8.90178
            3629     1.12214E+03     1.12214E+03     49.4781E-03     49.4781E-03        -8.91999        -8.91999
            3630     1.11849E+03     1.11849E+03     132.619E-03     132.619E-03        -8.87683        -8.87683
            3631     1.11494E+03     1.11494E+03     230.559E-03     230.559E-03        -8.76113        -8.76113
            3632     1.11153E+03     1.11153E+03     348.989E-03     348.989E-03        -8.55817        -8.55817
            3633     1.10832E+03     1.10832E+03     494.450E-03     494.450E-03        -8.24640        -8.24640
            3634     1.10539E+03     1.10539E+03     674.216E-03     674.216E-03        -7.80048        -7.80048
            3635     1.10280E+03     1.10280E+03     898.360E-03     898.360E-03        -7.18422        -7.18422
            3636     1.10068E+03     1.10068E+03         1.17731         1.17731        -6.35747        -6.35747
            3637     1.09915E+03     1.09915E+03         1.52906         1.52906        -5.26002        -5.26002
            3638     1.09837E+03     1.09837E+03         1.97045         1.97045        -3.82845        -3.82845
            3639     1.09854E+03     1.09854E+03         2.53710         2.53710        -1.95773        -1.95773
            3640     1.09993E+03     1.09993E+03         3.26074         3.26074     456.004E-03     456.004E-03
            3641     1.10285E+03     1.10285E+03         4.21644         4.21644         3.61109         3.61109
            3642     1.10772E+03     1.10772E+03         5.47896         5.47896         7.68915         7.68915
            3643     1.11509E+03     1.11509E+03         7.21252         7.21252         13.1039         13.1039
            3644     1.12561E+03     1.12561E+03         9.64690         9.64690         20.2084         20.2084
            3645     1.14033E+03     1.14033E+03         13.1497         13.1497         29.9665         29.9665
            3646     1.16022E+03     1.16022E+03         18.6310         18.6310         43.2013         43.2013
            3647     1.18736E+03     1.18736E+03         26.9338         26.9338         62.4222         62.4222
            3648     1.22235E+03     1.22235E+03         42.6964         42.6964         90.2718         90.2718
            3649     1.26883E+03     1.26883E+03         68.1118         68.1118         133.448         133.448
            3650     1.31443E+03     1.31443E+03         137.944         137.944         205.978         205.978
            3651     1.30661E+03     1.30661E+03         266.667         266.667         266.456         266.456
            3652     1.15962E+03     1.15962E+03    -450.782E-03    -450.782E-03         3.22885         3.22885
            3653     1.16228E+03     1.16228E+03    -567.075E-03    -567.075E-03         2.56725         2.56725
            3654     1.16425E+03     1.16425E+03    -633.879E-03    -633.879E-03         1.79460         1.79460
            3655     1.16548E+03     1.16548E+03    -656.161E-03    -656.161E-03     971.101E-03     971.101E-03
            3656     1.16593E+03     1.16593E+03    -642.446E-03    -642.446E-03     147.025E-03     147.025E-03
            3657     1.16562E+03     1.16562E+03    -602.369E-03    -602.369E-03    -639.241E-03    -639.241E-03
            3658     1.16460E+03     1.16460E+03    -545.408E-03    -545.408E-03        -1.36147        -1.36147
            3659     1.16293E+03     1.16293E+03    -479.686E-03    -479.686E-03        -2.00462        -2.00462
            3660     1.16070E+03     1.16070E+03    -411.692E-03    -411.692E-03        -2.56286        -2.56286
            3661     1.15797E+03     1.15797E+03    -345.980E-03    -345.980E-03        -3.03722        -3.03722
            3662     1.15484E+03     1.15484E+03    -285.519E-03    -285.519E-03        -3.43343        -3.43343
            3663     1.15136E+03     1.15136E+03    -231.769E-03    -231.769E-03        -3.75987        -3.75987
            3664     1.14760E+03     1.14760E+03    -185.204E-03    -185.204E-03        -4.02601        -4.02601
            3665     1.14361E+03     1.14361E+03    -145.395E-03    -145.395E-03        -4.24127        -4.24127
            3666     1.13944E+03     1.13944E+03    -111.513E-03    -111.513E-03        -4.41416        -4.41416
            3667     1.13512E+03     1.13512E+03    -82.2377E-03    -82.2377E-03        -4.55178        -4.55178
            3668     1.13069E+03     1.13069E+03    -56.2490E-03    -56.2490E-03        -4.65944        -4.65944
            3669     1.12618E+03     1.12618E+03    -31.8950E-03    -31.8950E-03        -4.74062        -4.74062
            3670     1.12161E+03     1.12161E+03    -7.73505E-03    -7.73505E-03        -4.79663        -4.79663
            3671     1.11702E+03     1.11702E+03     18.0032E-03     18.0032E-03        -4.82698        -4.82698
            3672     1.11242E+03     1.11242E+03     46.8578E-03     46.8578E-03        -4.82869        -4.82869
            3673     1.10785E+03     1.10785E+03     80.7024E-03     80.7024E-03        -4.79708        -4.79708
            3674     1.10336E+03     1.10336E+03     121.482E-03     121.482E-03        -4.72436        -4.72436
            3675     1.09899E+03     1.09899E+03     171.167E-03     171.167E-03        -4.60113        -4.60113
            3676     1.09480E+03     1.09480E+03     232.972E-03     232.972E-03        -4.41338        -4.41338
            3677     1.09087E+03     1.09087E+03     308.704E-03     308.704E-03        -4.14565        -4.14565
            3678     1.08728E+03     1.08728E+03     404.985E-03     404.985E-03        -3.77440        -3.77440
            3679     1.08418E+03     1.08418E+03     522.368E-03     522.368E-03        -3.27536        -3.27536
            3680     1.08169E+03     1.08169E+03     676.214E-03     676.214E-03        -2.60778        -2.60778
            3681     1.08003E+03     1.08003E+03     862.531E-03     862.531E-03        -1.73331        -1.73331
            3682     1.07944E+03     1.07944E+03         1.11888         1.11888    -575.436E-03    -575.436E-03
            3683     1.08024E+03     1.08024E+03         1.42842         1.42842     928.229E-03     928.229E-03
            3684     1.08287E+03     1.08287E+03         1.88526         1.88526         2.93881         2.93881
            3685     1.08789E+03     1.08789E+03         2.44308         2.44308         5.56206         5.56206
            3686     1.09612E+03     1.09612E+03         3.34160         3.34160         9.18806         9.18806
            3687     1.10865E+03     1.10865E+03         4.49622         4.49622         14.0094         14.0094
            3688     1.12723E+03     1.12723E+03         6.53013         6.53013         21.1396         21.1396
            3689     1.15415E+03     1.15415E+03         9.55186         9.55186         31.0120         31.0120
            3690     1.19426E+03     1.19426E+03         15.2535         15.2535         47.5794         47.5794
            3691     1.25261E+03     1.25261E+03         27.2449         27.2449         72.6951         72.6951
            3692     1.34943E+03     1.34943E+03         51.0752         51.0752         126.748         126.748
            3693     1.47282E+03     1.47282E+03         180.908         180.908         233.941         233.941
            3694         67.8667         67.8667        -512.190        -512.190        -64.4729        -64.4729
            3695         244.978         244.978        -208.668        -208.668        -167.323        -167.323
            3696         475.358         475.358        -65.0506        -65.0506        -181.392        -181.392
            3697         691.335         691.335        -10.8031        -10.8031        -149.593        -149.593
            3698         859.885         859.885         3.90545         3.90545        -105.800        -105.800
            3699         215.675         215.675        -378.576        -378.576        -147.260        -147.260
            3700         474.137         474.137        -209.547        -209.547        -292.232        -292.232
            3701         703.648         703.648        -123.414        -123.414        -289.657        -289.657
            3702         874.397         874.397        -76.6044        -76.6044        -224.932        -224.932
            3703         988.338         988.338        -48.3913        -48.3913        -152.753        -152.753
            3704         460.954         460.954        -216.546        -216.546        -243.359        -243.359
            3705         781.224         781.224        -211.426        -211.426        -342.557        -342.557
            3706         968.845         968.845        -177.081        -177.081        -297.129        -297.129
            3707     1.06609E+03     1.06609E+03        -129.961        -129.961        -212.771        -212.771
            3708     1.11336E+03     1.11336E+03        -87.3517        -87.3517        -136.635        -136.635
            3709         783.051         783.051        -72.6323        -72.6323        -324.707        -324.707
            3710     1.08292E+03     1.08292E+03        -203.305        -203.305        -310.871        -310.871
            3711     1.18409E+03     1.18409E+03        -195.320        -195.320        -229.946        -229.946
            3712     1.20233E+03     1.20233E+03        -145.878        -145.878        -150.445        -150.445
            3713     1.19371E+03     1.19371E+03        -96.7827        -96.7827        -90.6492        -90.6492
            3714     1.28975E+03     1.28975E+03         144.652         144.652         51.6089         51.6089
            3715     1.39615E+03     1.39615E+03         222.501         222.501         60.1326         60.1326
            3716     1.58683E+03     1.58683E+03         302.405         302.405         42.1143         42.1143
            3717     1.91788E+03     1.91788E+03         343.726         343.726        -35.3940        -35.3940
            3718     2.45543E+03     2.45543E+03         282.318         282.318        -208.838        -208.838
            3719     1.30419E+03     1.30419E+03         53.5832         53.5832         61.6787         61.6787
            3720     1.40288E+03     1.40288E+03         98.0870         98.0870         72.8844         72.8844
            3721     1.55837E+03     1.55837E+03         161.787         161.787         48.0561         48.0561
            3722     1.80268E+03     1.80268E+03         233.997         233.997        -69.6596        -69.6596
            3723     2.18383E+03     2.18383E+03         279.086         279.086        -357.243        -357.243
            3724     1.29963E+03     1.29963E+03        -28.3948        -28.3948         32.6572         32.6572
            3725     1.38665E+03     1.38665E+03        -24.6361        -24.6361         35.0872         35.0872
            3726     1.50528E+03     1.50528E+03         3.55142         3.55142         7.21074         7.21074
            3727     1.65152E+03     1.65152E+03         83.8567         83.8567        -109.749        -109.749
            3728     1.82418E+03     1.82418E+03         240.179         240.179        -421.362        -421.362
            3729     1.27243E+03     1.27243E+03        -72.3845        -72.3845        -8.20381        -8.20381
            3730     1.34159E+03     1.34159E+03        -100.502        -100.502        -23.7261        -23.7261
            3731     1.42533E+03     1.42533E+03        -114.102        -114.102        -63.1524        -63.1524
            3732     1.48973E+03     1.48973E+03        -62.6413        -62.6413        -164.444        -164.444
            3733     1.45692E+03     1.45692E+03         152.686         152.686        -417.319        -417.319
            3734         836.905         836.905        -50.6803        -50.6803         336.890         336.890
            3735     1.12896E+03     1.12896E+03        -201.307        -201.307         302.598         302.598
            3736     1.21488E+03     1.21488E+03        -196.430        -196.430         216.885         216.885
            3737     1.22076E+03     1.22076E+03        -146.633        -146.633         139.101         139.101
            3738     1.20406E+03     1.20406E+03        -96.9167        -96.9167         82.5428         82.5428
            3739         557.051         557.051        -164.703        -164.703         274.017         274.017
            3740         885.187         885.187        -211.559        -211.559         344.197         344.197
            3741     1.05035E+03     1.05035E+03        -189.770        -189.770         284.328         284.328
            3742     1.12115E+03     1.12115E+03        -141.508        -141.508         197.458         197.458
            3743     1.14749E+03     1.14749E+03        -95.1417        -95.1417         123.965         123.965
            3744         322.542         322.542        -300.062        -300.062         194.104         194.104
            3745         619.867         619.867        -211.791        -211.791         330.860         330.860
            3746         836.829         836.829        -154.109        -154.109         309.707         309.707
            3747         974.777         974.777        -108.471        -108.471         231.878         231.878
            3748     1.05579E+03     1.05579E+03        -72.4663        -72.4663         153.424         153.424
            3749         151.793         151.793        -434.630        -434.630         116.088         116.088
            3750         380.819         380.819        -210.525        -210.525         259.815         259.815
            3751         614.021         614.021        -102.434        -102.434         268.511         268.511
            3752         804.752         804.752        -53.5141        -53.5141         214.622         214.622
            3753         940.598         940.598        -30.5419        -30.5419         148.595         148.595
            3754         50.9409         50.9409        -536.174        -536.174         51.8608         51.8608
            3755         215.074         215.074        -211.103        -211.103         142.644         142.644
            3756         442.303         442.303        -57.1057        -57.1057         157.144         157.144
            3757         662.539         662.539    -52.4447E-03    -52.4447E-03         131.220         131.220
            3758         838.501         838.501         13.1752         13.1752         93.7600         93.7600
            3759     1.27381E+03     1.27381E+03        -74.3298        -74.3298         10.8416         10.8416
            3760     1.34286E+03     1.34286E+03        -102.169        -102.169         25.7231         25.7231
            3761     1.42648E+03     1.42648E+03        -115.461        -115.461         64.6459         64.6459
            3762     1.49104E+03     1.49104E+03        -63.6983        -63.6983         165.605         165.605
            3763     1.45859E+03     1.45859E+03         151.984         151.984         418.313         418.313
            3764     1.30066E+03     1.30066E+03        -29.8707        -29.8707        -30.1603        -30.1603
            3765     1.38760E+03     1.38760E+03        -25.8219        -25.8219        -33.1757        -33.1757
            3766     1.50618E+03     1.50618E+03         2.72698         2.72698        -5.77384        -5.77384
            3767     1.65256E+03     1.65256E+03         83.4303         83.4303         110.791         110.791
            3768     1.82578E+03     1.82578E+03         240.308         240.308         422.299         422.299
            3769     1.30485E+03     1.30485E+03         52.6401         52.6401        -59.2715        -59.2715
            3770     1.40347E+03     1.40347E+03         97.4201         97.4201        -70.9635        -70.9635
            3771     1.55892E+03     1.55892E+03         161.470         161.470        -46.5504        -46.5504
            3772     1.80335E+03     1.80335E+03         234.108         234.108         70.8491         70.8491
            3773     2.18514E+03     2.18514E+03         279.476         279.476         358.244         358.244
            3774     1.29006E+03     1.29006E+03         144.214         144.214        -49.2133        -49.2133
            3775     1.39642E+03     1.39642E+03         222.240         222.240        -58.1287        -58.1287
            3776     1.58706E+03     1.58706E+03         302.386         302.386        -40.4209        -40.4209
            3777     1.91820E+03     1.91820E+03         343.938         343.938         36.8187         36.8187
            3778     2.45619E+03     2.45619E+03         282.590         282.590         209.854         209.854
            3779     1.39866E+03     1.39866E+03         137.532         137.532        -414.574        -414.574
            3780     1.46404E+03     1.46404E+03        -85.1647        -85.1647        -174.635        -174.635
            3781     1.41222E+03     1.41222E+03        -131.317        -131.317        -76.5048        -76.5048
            3782     1.33433E+03     1.33433E+03        -111.562        -111.562        -35.4249        -35.4249
            3783     1.26854E+03     1.26854E+03        -79.4012        -79.4012        -17.4599        -17.4599
            3784     1.70113E+03     1.70113E+03         219.765         219.765        -430.084        -430.084
            3785     1.59960E+03     1.59960E+03         32.9153         32.9153        -126.550        -126.550
            3786     1.48368E+03     1.48368E+03        -44.1476        -44.1476        -14.2967        -14.2967
            3787     1.37696E+03     1.37696E+03        -59.1684        -59.1684         15.0690         15.0690
            3788     1.29492E+03     1.29492E+03        -50.7635        -50.7635         16.8209         16.8209
            3789     2.01418E+03     2.01418E+03         268.133         268.133        -404.564        -404.564
            3790     1.73188E+03     1.73188E+03         163.270         163.270        -89.5902        -89.5902
            3791     1.53703E+03     1.53703E+03         80.6884         80.6884         33.2241         33.2241
            3792     1.40068E+03     1.40068E+03         31.0708         31.0708         58.9026         58.9026
            3793     1.30719E+03     1.30719E+03         6.40805         6.40805         49.4866         49.4866
            3794     2.29635E+03     2.29635E+03         283.628         283.628        -321.926        -321.926
            3795     1.85047E+03     1.85047E+03         279.169         279.169        -60.2176        -60.2176
            3796     1.57214E+03     1.57214E+03         216.143         216.143         51.0650         51.0650
            3797     1.40349E+03     1.40349E+03         143.909         143.909         75.4115         75.4115
            3798     1.30178E+03     1.30178E+03         85.6180         85.6180         63.4716         63.4716
            3799     2.49636E+03     2.49636E+03         280.225         280.225        -180.285        -180.285
            3800     1.93619E+03     1.93619E+03         357.108         357.108        -31.5788        -31.5788
            3801     1.59170E+03     1.59170E+03         322.234         322.234         36.0395         36.0395
            3802     1.39483E+03     1.39483E+03         241.570         241.570         52.2430         52.2430
            3803     1.28690E+03     1.28690E+03         159.379         159.379         44.7125         44.7125
            3804     1.27221E+03     1.27221E+03        -72.6109        -72.6109         8.43301         8.43301
            3805     1.34128E+03     1.34128E+03        -100.828        -100.828         24.0705         24.0705
            3806     1.42489E+03     1.42489E+03        -114.491        -114.491         63.6051         63.6051
            3807     1.48925E+03     1.48925E+03        -63.1572        -63.1572         164.917         164.917
            3808     1.45645E+03     1.45645E+03         151.828         151.828         417.444         417.444
            3809     1.29951E+03     1.29951E+03        -28.7357        -28.7357        -32.4316        -32.4316
            3810     1.38645E+03     1.38645E+03        -25.0533        -25.0533        -34.7410        -34.7410
            3811     1.50493E+03     1.50493E+03         3.11299         3.11299        -6.75406        -6.75406
            3812     1.65094E+03     1.65094E+03         83.3899         83.3899         110.123         110.123
            3813     1.82336E+03     1.82336E+03         239.870         239.870         421.391         421.391
            3814     1.30419E+03     1.30419E+03         53.1438         53.1438        -61.4681        -61.4681
            3815     1.40278E+03     1.40278E+03         97.6370         97.6370        -72.5157        -72.5157
            3816     1.55808E+03     1.55808E+03         161.369         161.369        -47.6128        -47.6128
            3817     1.80202E+03     1.80202E+03         233.690         233.690         70.0899         70.0899
            3818     2.18256E+03     2.18256E+03         278.876         278.876         357.443         357.443
            3819     1.28989E+03     1.28989E+03         144.158         144.158        -51.4843        -51.4843
            3820     1.39621E+03     1.39621E+03         221.975         221.975        -59.8308        -59.8308
            3821     1.58659E+03     1.58659E+03         302.057         302.057        -41.6390        -41.6390
            3822     1.91719E+03     1.91719E+03         343.734         343.734         35.8587         35.8587
            3823     2.45378E+03     2.45378E+03         282.535         282.535         209.007         209.007
            3824         838.399         838.399        -51.3830        -51.3830         337.567         337.567
            3825     1.13081E+03     1.13081E+03        -202.721        -202.721         303.448         303.448
            3826     1.21682E+03     1.21682E+03        -198.145        -198.145         218.017         218.017
            3827     1.22284E+03     1.22284E+03        -148.647        -148.647         140.690         140.690
            3828     1.20634E+03     1.20634E+03        -99.3322        -99.3322         84.8055         84.8055
            3829         558.124         558.124        -165.906        -165.906         274.572         274.572
            3830         886.832         886.832        -213.219        -213.219         345.097         345.097
            3831     1.05226E+03     1.05226E+03        -191.669        -191.669         285.437         285.437
            3832     1.12331E+03     1.12331E+03        -143.676        -143.676         198.869         198.869
            3833     1.15000E+03     1.15000E+03        -97.7206        -97.7206         125.893         125.893
            3834         323.196         323.196        -301.819        -301.819         194.500         194.500
            3835         621.124         621.124        -213.646        -213.646         331.740         331.740
            3836         838.526         838.526        -156.106        -156.106         310.760         310.760
            3837         976.892         976.892        -110.729        -110.729         233.103         233.103
            3838     1.05843E+03     1.05843E+03        -75.1590        -75.1590         154.991         154.991
            3839         152.080         152.080        -436.934        -436.934         116.341         116.341
            3840         381.621         381.621        -212.518        -212.518         260.552         260.552
            3841         615.378         615.378        -104.444        -104.444         269.397         269.397
            3842         806.699         806.699        -55.7795        -55.7795         215.588         215.588
            3843         943.246         943.246        -33.2812        -33.2812         149.747         149.747
            3844         50.9768         50.9768        -538.899        -538.899         52.0082         52.0082
            3845         215.492         215.492        -213.184        -213.184         143.112         143.112
            3846         443.324         443.324        -59.0796        -59.0796         157.704         157.704
            3847         664.274         664.274        -2.27234        -2.27234         131.802         131.802
            3848         841.083         841.083         10.4440         10.4440         94.4065         94.4065
            3849     1.19595E+03     1.19595E+03        -99.1864        -99.1864        -92.8431        -92.8431
            3850     1.20426E+03     1.20426E+03        -147.838        -147.838        -152.002        -152.002
            3851     1.18571E+03     1.18571E+03        -196.938        -196.938        -231.046        -231.046
            3852     1.08430E+03     1.08430E+03        -204.690        -204.690        -311.536        -311.536
            3853         784.109         784.109        -73.6516        -73.6516        -324.979        -324.979
            3854     1.11583E+03     1.11583E+03        -89.9324        -89.9324        -138.394        -138.394
            3855     1.06805E+03     1.06805E+03        -132.091        -132.091        -214.070        -214.070
            3856         970.397         970.397        -178.944        -178.944        -298.112        -298.112
            3857         782.408         782.408        -213.189        -213.189        -343.261        -343.261
            3858         461.572         461.572        -218.231        -218.231        -243.584        -243.584
            3859         990.880         990.880        -51.0595        -51.0595        -154.012        -154.012
            3860         876.244         876.244        -78.7975        -78.7975        -225.903        -225.903
            3861         704.921         704.921        -125.369        -125.369        -290.457        -290.457
            3862         474.876         474.876        -211.517        -211.517        -292.825        -292.825
            3863         215.903         215.903        -380.870        -380.870        -147.352        -147.352
            3864         862.406         862.406         1.21307         1.21307        -106.445        -106.445
            3865         693.006         693.006        -12.9860        -12.9860        -150.100        -150.100
            3866         476.313         476.313        -66.9995        -66.9995        -181.815        -181.815
            3867         245.335         245.335        -210.749        -210.749        -167.621        -167.621
            3868         67.8541         67.8541        -514.941        -514.941        -64.4613        -64.4613


  Minimum               -19.0505        -19.0505        -809.781        -809.781        -646.901        -646.901
         At Node              28              28              28              28             590             590

  Maximum            2.92725E+03     2.92725E+03         383.948         383.948         643.016         643.016
         At Node              27              27             585             585             574             574

           Total     4.45089E+06     4.45089E+06     71.8332E+03     71.8332E+03     2.13834E+03     2.13834E+03


