********************************************************************************
Field Output Report, written Sat Feb 24 11:10:49 2024

Source 1
---------

   ODB: C:/Users/Isabel Haycock/OneDrive - Imperial College London/Fourth Year/FYP/Isabel Haycock/06 - FE models/Specimen_2/Plate_hole_1.odb
   Step: load
   Frame: Increment     12: Step Time =   0.8571

Loc 1 : Nodal values at shell < composite > < elset = ASSEMBLY_PLATE_1-1_COMPOSITELAYUP-1-1 > from source 1 : SNEG, (fraction = -1.0), Layer = 1
Loc 2 : Nodal values at shell < composite > < elset = ASSEMBLY_PLATE_1-1_COMPOSITELAYUP-1-1 > from source 1 : SPOS, (fraction = 1.0), Layer = 8

Output sorted by column "Node Label".

Field Output reported at nodes for part: PLATE_1-1
   Computation algorithm: EXTRAPOLATE_COMPUTE_AVERAGE
   Averaged at nodes
   Averaging regions: ODB_REGIONS

      Node Label           S.S11           S.S11           S.S22           S.S22           S.S12           S.S12
                          @Loc 1          @Loc 2          @Loc 1          @Loc 2          @Loc 1          @Loc 2
-----------------------------------------------------------------------------------------------------------------
               1     1.47393E+03     1.47393E+03        -68.2107        -68.2107        -30.8054        -30.8054
               2     1.40243E+03     1.40243E+03         1.87152         1.87152    -86.0399E-03    -86.0399E-03
               3     1.40266E+03     1.40266E+03     9.61071E-03     9.61071E-03    -9.65761E-03    -9.65761E-03
               4     1.41843E+03     1.41843E+03    -86.6456E-03    -86.6456E-03         2.94399         2.94399
               5     1.47454E+03     1.47454E+03        -67.9729        -67.9729         29.7131         29.7131
               6     1.40242E+03     1.40242E+03         1.87179         1.87179     86.0318E-03     86.0318E-03
               7     1.13066E+03     1.13066E+03         31.1886         31.1886        -4.32596        -4.32596
               8     1.41334E+03     1.41334E+03    -105.899E-03    -105.899E-03        -2.48107        -2.48107
               9     1.47692E+03     1.47692E+03        -71.0234        -71.0234         33.6979         33.6979
              10     1.50101E+03     1.50101E+03         147.086         147.086         1.66012         1.66012
              11     1.41871E+03     1.41871E+03    -90.3607E-03    -90.3607E-03        -2.94351        -2.94351
              12     1.40266E+03     1.40266E+03     9.61292E-03     9.61292E-03     9.65982E-03     9.65982E-03
              13     1.31865E+03     1.31865E+03         400.931         400.931        -87.3198        -87.3198
              14     2.14222E+03     2.14222E+03         295.611         295.611        -345.817        -345.817
              15     1.47531E+03     1.47531E+03        -71.4653        -71.4653        -35.6515        -35.6515
              16     1.41352E+03     1.41352E+03    -110.623E-03    -110.623E-03         2.48334         2.48334
              17     1.50046E+03     1.50046E+03         148.942         148.942        -4.23278        -4.23278
              18     1.31866E+03     1.31866E+03         400.919         400.919         87.2996         87.2996
              19     1.13482E+03     1.13482E+03         27.1686         27.1686        -4.32003        -4.32003
              20     2.14222E+03     2.14222E+03         295.611         295.611         345.816         345.816
              21        -23.2124        -23.2124        -984.066        -984.066     789.976E-03     789.976E-03
              22     1.16495E+03     1.16495E+03         271.044         271.044        -573.680        -573.680
              23     3.57275E+03     3.57275E+03         223.860         223.860     395.454E-03     395.454E-03
              24     1.18293E+03     1.18293E+03         278.804         278.804         581.639         581.639
              25     1.18504E+03     1.18504E+03         279.135         279.135         582.777         582.777
              26     1.14388E+03     1.14388E+03         267.418         267.418        -567.649        -567.649
              27     3.57973E+03     3.57973E+03         221.381         221.381         16.7529         16.7529
              28        -23.3765        -23.3765        -988.304        -988.304     863.018E-03     863.018E-03
              29     1.44651E+03     1.44651E+03        -54.6761        -54.6761        -35.7956        -35.7956
              30     1.43058E+03     1.43058E+03        -45.9504        -45.9504        -39.1043        -39.1043
              31     1.41798E+03     1.41798E+03        -36.8092        -36.8092        -39.1565        -39.1565
              32     1.40863E+03     1.40863E+03        -28.4385        -28.4385        -37.2793        -37.2793
              33     1.40199E+03     1.40199E+03        -21.2385        -21.2385        -34.4576        -34.4576
              34     1.39745E+03     1.39745E+03        -15.2528        -15.2528        -31.3202        -31.3202
              35     1.39447E+03     1.39447E+03        -10.3576        -10.3576        -28.2167        -28.2167
              36     1.39263E+03     1.39263E+03        -6.39672        -6.39672        -25.3195        -25.3195
              37     1.39161E+03     1.39161E+03        -3.21569        -3.21569        -22.6999        -22.6999
              38     1.39117E+03     1.39117E+03    -681.095E-03    -681.095E-03        -20.3721        -20.3721
              39     1.39113E+03     1.39113E+03         1.31953         1.31953        -18.3222        -18.3222
              40     1.39138E+03     1.39138E+03         2.87858         2.87858        -16.5229        -16.5229
              41     1.39182E+03     1.39182E+03         4.07221         4.07221        -14.9425        -14.9425
              42     1.39238E+03     1.39238E+03         4.96324         4.96324        -13.5500        -13.5500
              43     1.39302E+03     1.39302E+03         5.60388         5.60388        -12.3167        -12.3167
              44     1.39370E+03     1.39370E+03         6.03788         6.03788        -11.2178        -11.2178
              45     1.39440E+03     1.39440E+03         6.30208         6.30208        -10.2322        -10.2322
              46     1.39509E+03     1.39509E+03         6.42772         6.42772        -9.34233        -9.34233
              47     1.39577E+03     1.39577E+03         6.44130         6.44130        -8.53405        -8.53405
              48     1.39642E+03     1.39642E+03         6.36545         6.36545        -7.79582        -7.79582
              49     1.39704E+03     1.39704E+03         6.21938         6.21938        -7.11843        -7.11843
              50     1.39762E+03     1.39762E+03         6.01946         6.01946        -6.49451        -6.49451
              51     1.39816E+03     1.39816E+03         5.77955         5.77955        -5.91817        -5.91817
              52     1.39867E+03     1.39867E+03         5.51138         5.51138        -5.38465        -5.38465
              53     1.39913E+03     1.39913E+03         5.22481         5.22481        -4.89005        -4.89005
              54     1.39956E+03     1.39956E+03         4.92807         4.92807        -4.43113        -4.43113
              55     1.39994E+03     1.39994E+03         4.62803         4.62803        -4.00512        -4.00512
              56     1.40029E+03     1.40029E+03         4.33033         4.33033        -3.60959        -3.60959
              57     1.40061E+03     1.40061E+03         4.03960         4.03960        -3.24234        -3.24234
              58     1.40090E+03     1.40090E+03         3.75960         3.75960        -2.90131        -2.90131
              59     1.40115E+03     1.40115E+03         3.49335         3.49335        -2.58456        -2.58456
              60     1.40138E+03     1.40138E+03         3.24322         3.24322        -2.29020        -2.29020
              61     1.40157E+03     1.40157E+03         3.01110         3.01110        -2.01638        -2.01638
              62     1.40175E+03     1.40175E+03         2.79844         2.79844        -1.76125        -1.76125
              63     1.40190E+03     1.40190E+03         2.60632         2.60632        -1.52296        -1.52296
              64     1.40203E+03     1.40203E+03         2.43557         2.43557        -1.29967        -1.29967
              65     1.40214E+03     1.40214E+03         2.28679         2.28679        -1.08953        -1.08953
              66     1.40223E+03     1.40223E+03         2.16039         2.16039    -890.679E-03    -890.679E-03
              67     1.40230E+03     1.40230E+03         2.05668         2.05668    -701.238E-03    -701.238E-03
              68     1.40236E+03     1.40236E+03         1.97583         1.97583    -519.335E-03    -519.335E-03
              69     1.40239E+03     1.40239E+03         1.91799         1.91799    -343.093E-03    -343.093E-03
              70     1.40242E+03     1.40242E+03         1.88318         1.88318    -171.096E-03    -171.096E-03
              71     1.40259E+03     1.40259E+03         1.68510         1.68510    -93.2440E-03    -93.2440E-03
              72     1.40274E+03     1.40274E+03         1.49821         1.49821    -97.6302E-03    -97.6302E-03
              73     1.40289E+03     1.40289E+03         1.30494         1.30494    -99.7514E-03    -99.7514E-03
              74     1.40302E+03     1.40302E+03         1.10983         1.10983    -99.4935E-03    -99.4935E-03
              75     1.40313E+03     1.40313E+03     917.576E-03     917.576E-03    -96.8139E-03    -96.8139E-03
              76     1.40322E+03     1.40322E+03     732.929E-03     732.929E-03    -91.7097E-03    -91.7097E-03
              77     1.40327E+03     1.40327E+03     560.564E-03     560.564E-03    -84.2479E-03    -84.2479E-03
              78     1.40328E+03     1.40328E+03     404.989E-03     404.989E-03    -74.5365E-03    -74.5365E-03
              79     1.40324E+03     1.40324E+03     270.405E-03     270.405E-03    -62.7811E-03    -62.7811E-03
              80     1.40315E+03     1.40315E+03     160.605E-03     160.605E-03    -49.1940E-03    -49.1940E-03
              81       1.403E+03       1.403E+03     78.7681E-03     78.7681E-03    -34.1884E-03    -34.1884E-03
              82     1.40279E+03     1.40279E+03     27.3997E-03     27.3997E-03    -18.0392E-03    -18.0392E-03
              83     1.40268E+03     1.40268E+03     9.80573E-03     9.80573E-03    -17.7087E-03    -17.7087E-03
              84     1.40273E+03     1.40273E+03     10.0837E-03     10.0837E-03    -34.6935E-03    -34.6935E-03
              85     1.40282E+03     1.40282E+03     10.3624E-03     10.3624E-03    -52.8474E-03    -52.8474E-03
              86     1.40294E+03     1.40294E+03     10.8349E-03     10.8349E-03    -71.7805E-03    -71.7805E-03
              87     1.40310E+03     1.40310E+03     11.4429E-03     11.4429E-03    -91.8329E-03    -91.8329E-03
              88     1.40331E+03     1.40331E+03     12.1834E-03     12.1834E-03    -113.284E-03    -113.284E-03
              89     1.40356E+03     1.40356E+03     13.0592E-03     13.0592E-03    -136.420E-03    -136.420E-03
              90     1.40385E+03     1.40385E+03     14.0619E-03     14.0619E-03    -161.525E-03    -161.525E-03
              91     1.40420E+03     1.40420E+03     15.1913E-03     15.1913E-03    -188.880E-03    -188.880E-03
              92     1.40460E+03     1.40460E+03     16.4374E-03     16.4374E-03    -218.760E-03    -218.760E-03
              93     1.40507E+03     1.40507E+03     17.7927E-03     17.7927E-03    -251.431E-03    -251.431E-03
              94     1.40560E+03     1.40560E+03     19.2423E-03     19.2423E-03    -287.145E-03    -287.145E-03
              95     1.40621E+03     1.40621E+03     20.7681E-03     20.7681E-03    -326.129E-03    -326.129E-03
              96     1.40690E+03     1.40690E+03     22.3445E-03     22.3445E-03    -368.577E-03    -368.577E-03
              97     1.40768E+03     1.40768E+03     23.9373E-03     23.9373E-03    -414.636E-03    -414.636E-03
              98     1.40855E+03     1.40855E+03     25.5026E-03     25.5026E-03    -464.387E-03    -464.387E-03
              99     1.40952E+03     1.40952E+03     26.9810E-03     26.9810E-03    -517.823E-03    -517.823E-03
             100     1.41061E+03     1.41061E+03     28.2999E-03     28.2999E-03    -574.819E-03    -574.819E-03
             101     1.41181E+03     1.41181E+03     29.3605E-03     29.3605E-03    -635.100E-03    -635.100E-03
             102     1.41313E+03     1.41313E+03     30.0479E-03     30.0479E-03    -698.191E-03    -698.191E-03
             103     1.41458E+03     1.41458E+03     30.2051E-03     30.2051E-03    -763.368E-03    -763.368E-03
             104     1.41616E+03     1.41616E+03     29.6588E-03     29.6588E-03    -829.593E-03    -829.593E-03
             105     1.41787E+03     1.41787E+03     28.1700E-03     28.1700E-03    -895.437E-03    -895.437E-03
             106     1.41971E+03     1.41971E+03     25.4938E-03     25.4938E-03    -958.999E-03    -958.999E-03
             107     1.42167E+03     1.42167E+03     21.2886E-03     21.2886E-03        -1.01781        -1.01781
             108     1.42374E+03     1.42374E+03     15.2377E-03     15.2377E-03        -1.06875        -1.06875
             109     1.42590E+03     1.42590E+03     6.89906E-03     6.89906E-03        -1.10793        -1.10793
             110     1.42812E+03     1.42812E+03    -4.07775E-03    -4.07775E-03        -1.13065        -1.13065
             111     1.43037E+03     1.43037E+03    -18.1701E-03    -18.1701E-03        -1.13136        -1.13136
             112     1.43258E+03     1.43258E+03    -35.6440E-03    -35.6440E-03        -1.10371        -1.10371
             113     1.43471E+03     1.43471E+03    -56.8136E-03    -56.8136E-03        -1.04067        -1.04067
             114     1.43667E+03     1.43667E+03    -81.6121E-03    -81.6121E-03    -934.828E-03    -934.828E-03
             115     1.43837E+03     1.43837E+03    -109.783E-03    -109.783E-03    -778.954E-03    -778.954E-03
             116     1.43971E+03     1.43971E+03    -140.520E-03    -140.520E-03    -566.617E-03    -566.617E-03
             117     1.44056E+03     1.44056E+03    -172.391E-03    -172.391E-03    -293.402E-03    -293.402E-03
             118     1.44081E+03     1.44081E+03    -203.375E-03    -203.375E-03     42.0101E-03     42.0101E-03
             119     1.44033E+03     1.44033E+03    -230.344E-03    -230.344E-03     436.105E-03     436.105E-03
             120     1.43903E+03     1.43903E+03    -249.867E-03    -249.867E-03     879.174E-03     879.174E-03
             121     1.43681E+03     1.43681E+03    -257.415E-03    -257.415E-03         1.35389         1.35389
             122     1.43364E+03     1.43364E+03    -248.944E-03    -248.944E-03         1.83455         1.83455
             123     1.42954E+03     1.42954E+03    -220.729E-03    -220.729E-03         2.28784         2.28784
             124     1.42462E+03     1.42462E+03    -170.228E-03    -170.228E-03         2.67176         2.67176
             125     1.41964E+03     1.41964E+03    -253.897E-03    -253.897E-03         5.42922         5.42922
             126     1.42232E+03     1.42232E+03    -743.831E-03    -743.831E-03         9.76357         9.76357
             127     1.42548E+03     1.42548E+03        -1.55263        -1.55263         12.9734         12.9734
             128     1.42905E+03     1.42905E+03        -2.73225        -2.73225         15.3197         15.3197
             129     1.43307E+03     1.43307E+03        -4.40230        -4.40230         16.9701         16.9701
             130     1.43758E+03     1.43758E+03        -6.74446        -6.74446         17.9769         17.9769
             131     1.44266E+03     1.44266E+03        -10.0023        -10.0023         18.2631         18.2631
             132     1.44833E+03     1.44833E+03        -14.4765        -14.4765         17.5950         17.5950
             133     1.45452E+03     1.45452E+03        -20.5031        -20.5031         15.5221         15.5221
             134     1.46090E+03     1.46090E+03        -28.3647        -28.3647         11.3255         11.3255
             135     1.46659E+03     1.46659E+03        -38.1139        -38.1139         3.98655         3.98655
             136     1.46983E+03     1.46983E+03        -49.1683        -49.1683        -7.56788        -7.56788
             137     1.44726E+03     1.44726E+03        -54.5330        -54.5330         34.7016         34.7016
             138     1.43145E+03     1.43145E+03        -46.0014        -46.0014         38.2098         38.2098
             139     1.41888E+03     1.41888E+03        -37.0021        -37.0021         38.4903         38.4903
             140     1.40947E+03     1.40947E+03        -28.7024        -28.7024         36.8291         36.8291
             141     1.40273E+03     1.40273E+03        -21.5161        -21.5161         34.1800         34.1800
             142     1.39807E+03     1.39807E+03        -15.5099        -15.5099         31.1670         31.1670
             143     1.39499E+03     1.39499E+03        -10.5804        -10.5804         28.1460         28.1460
             144     1.39305E+03     1.39305E+03        -6.58312        -6.58312         25.3018         25.3018
             145     1.39195E+03     1.39195E+03        -3.36821        -3.36821         22.7146         22.7146
             146     1.39144E+03     1.39144E+03    -804.558E-03    -804.558E-03         20.4058         20.4058
             147     1.39136E+03     1.39136E+03         1.22018         1.22018         18.3662         18.3662
             148     1.39156E+03     1.39156E+03         2.79869         2.79869         16.5714         16.5714
             149     1.39197E+03     1.39197E+03         4.00784         4.00784         14.9922         14.9922
             150     1.39250E+03     1.39250E+03         4.91111         4.91111         13.5986         13.5986
             151     1.39312E+03     1.39312E+03         5.56140         5.56140         12.3630         12.3630
             152     1.39379E+03     1.39379E+03         6.00299         6.00299         11.2610         11.2610
             153     1.39447E+03     1.39447E+03         6.27317         6.27317         10.2720         10.2720
             154     1.39515E+03     1.39515E+03         6.40355         6.40355         9.37855         9.37855
             155     1.39582E+03     1.39582E+03         6.42093         6.42093         8.56673         8.56673
             156     1.39646E+03     1.39646E+03         6.34814         6.34814         7.82508         7.82508
             157     1.39707E+03     1.39707E+03         6.20458         6.20458         7.14444         7.14444
             158     1.39765E+03     1.39765E+03         6.00673         6.00673         6.51749         6.51749
             159     1.39819E+03     1.39819E+03         5.76857         5.76857         5.93834         5.93834
             160     1.39869E+03     1.39869E+03         5.50188         5.50188         5.40225         5.40225
             161     1.39915E+03     1.39915E+03         5.21658         5.21658         4.90531         4.90531
             162     1.39957E+03     1.39957E+03         4.92096         4.92096         4.44428         4.44428
             163     1.39996E+03     1.39996E+03         4.62189         4.62189         4.01639         4.01639
             164     1.40030E+03     1.40030E+03         4.32504         4.32504         3.61917         3.61917
             165     1.40062E+03     1.40062E+03         4.03508         4.03508         3.25042         3.25042
             166     1.40090E+03     1.40090E+03         3.75575         3.75575         2.90807         2.90807
             167     1.40115E+03     1.40115E+03         3.49008         3.49008         2.59017         2.59017
             168     1.40138E+03     1.40138E+03         3.24049         3.24049         2.29481         2.29481
             169     1.40158E+03     1.40158E+03         3.00883         3.00883         2.02012         2.02012
             170     1.40175E+03     1.40175E+03         2.79658         2.79658         1.76424         1.76424
             171     1.40190E+03     1.40190E+03         2.60483         2.60483         1.52532         1.52532
             172     1.40203E+03     1.40203E+03         2.43441         2.43441         1.30149         1.30149
             173     1.40214E+03     1.40214E+03         2.28591         2.28591         1.09090         1.09090
             174     1.40223E+03     1.40223E+03         2.15978         2.15978     891.678E-03     891.678E-03
             175     1.40230E+03     1.40230E+03         2.05630         2.05630     701.934E-03     701.934E-03
             176     1.40235E+03     1.40235E+03         1.97568         1.97568     519.785E-03     519.785E-03
             177     1.40239E+03     1.40239E+03         1.91804         1.91804     343.340E-03     343.340E-03
             178     1.40242E+03     1.40242E+03         1.88339         1.88339     171.170E-03     171.170E-03
             179     1.40225E+03     1.40225E+03         2.06075         2.06075     75.3200E-03     75.3200E-03
             180     1.40209E+03     1.40209E+03         2.23125         2.23125     61.5485E-03     61.5485E-03
             181     1.40197E+03     1.40197E+03         2.36468         2.36468     45.6109E-03     45.6109E-03
             182     1.40188E+03     1.40188E+03         2.45634         2.45634     28.0669E-03     28.0669E-03
             183     1.40183E+03     1.40183E+03         2.50297         2.50297     9.52974E-03     9.52974E-03
             184     1.40183E+03     1.40183E+03         2.50293         2.50293    -9.35234E-03    -9.35234E-03
             185     1.40188E+03     1.40188E+03         2.45624         2.45624    -27.9156E-03    -27.9156E-03
             186     1.40197E+03     1.40197E+03         2.36455         2.36455    -45.5154E-03    -45.5154E-03
             187     1.40209E+03     1.40209E+03         2.23106         2.23106    -61.5140E-03    -61.5140E-03
             188     1.40225E+03     1.40225E+03         2.06050         2.06050    -75.3058E-03    -75.3058E-03
             189     1.16154E+03     1.16154E+03         16.2647         16.2647         76.4986         76.4986
             190     1.24453E+03     1.24453E+03        -21.4537        -21.4537         120.389         120.389
             191     1.33636E+03     1.33636E+03        -57.0812        -57.0812         122.811         122.811
             192     1.40758E+03     1.40758E+03        -76.0568        -76.0568         97.9837         97.9837
             193     1.45003E+03     1.45003E+03        -77.7557        -77.7557         64.6408         64.6408
             194     1.44227E+03     1.44227E+03        -77.6057        -77.6057        -71.2642        -71.2642
             195     1.38118E+03     1.38118E+03        -69.5222        -69.5222        -108.617        -108.617
             196     1.28290E+03     1.28290E+03        -36.6923        -36.6923        -123.106        -123.106
             197     1.17980E+03     1.17980E+03         7.86189         7.86189        -86.2493        -86.2493
             198     1.41466E+03     1.41466E+03    -310.142E-03    -310.142E-03        -4.52966        -4.52966
             199     1.41763E+03     1.41763E+03    -906.780E-03    -906.780E-03        -8.01980        -8.01980
             200     1.42119E+03     1.42119E+03        -1.88266        -1.88266        -10.4561        -10.4561
             201     1.42528E+03     1.42528E+03        -3.27919        -3.27919        -12.1190        -12.1190
             202     1.42989E+03     1.42989E+03        -5.20563        -5.20563        -13.1882        -13.1882
             203     1.43505E+03     1.43505E+03        -7.83360        -7.83360        -13.7245        -13.7245
             204     1.44081E+03     1.44081E+03        -11.3974        -11.3974        -13.6567        -13.6567
             205     1.44719E+03     1.44719E+03        -16.1884        -16.1884        -12.7534        -12.7534
             206     1.45409E+03     1.45409E+03        -22.5347        -22.5347        -10.5633        -10.5633
             207     1.46115E+03     1.46115E+03        -30.7110        -30.7110        -6.36326        -6.36326
             208     1.46749E+03     1.46749E+03        -40.7624        -40.7624     873.318E-03     873.318E-03
             209     1.47132E+03     1.47132E+03        -52.1070        -52.1070         12.2441         12.2441
             210     1.50756E+03     1.50756E+03        -62.2784        -62.2784         3.75641         3.75641
             211     1.52714E+03     1.52714E+03        -28.8391        -28.8391        -29.0867        -29.0867
             212     1.52728E+03     1.52728E+03         36.9675         36.9675        -52.7350        -52.7350
             213     1.51128E+03     1.51128E+03         112.253         112.253        -43.1290        -43.1290
             214     1.51092E+03     1.51092E+03         112.893         112.893         46.4785         46.4785
             215     1.52652E+03     1.52652E+03         38.2671         38.2671         56.1871         56.1871
             216     1.52597E+03     1.52597E+03        -26.8895        -26.8895         32.7345         32.7345
             217     1.50596E+03     1.50596E+03        -59.7226        -59.7226     166.115E-03     166.115E-03
             218     1.41070E+03     1.41070E+03     38.4896E-03     38.4896E-03         3.02086         3.02086
             219     1.40264E+03     1.40264E+03     185.562E-03     185.562E-03         2.77677         2.77677
             220     1.39577E+03     1.39577E+03     321.687E-03     321.687E-03         2.16429         2.16429
             221     1.39103E+03     1.39103E+03     417.821E-03     417.821E-03         1.24855         1.24855
             222     1.38906E+03     1.38906E+03     451.405E-03     451.405E-03     163.111E-03     163.111E-03
             223     1.39011E+03     1.39011E+03     413.817E-03     413.817E-03    -916.672E-03    -916.672E-03
             224     1.39391E+03     1.39391E+03     313.695E-03     313.695E-03        -1.81544        -1.81544
             225     1.39977E+03     1.39977E+03     173.675E-03     173.675E-03        -2.39967        -2.39967
             226     1.40673E+03     1.40673E+03     22.7326E-03     22.7326E-03        -2.60416        -2.60416
             227     1.46959E+03     1.46959E+03        -49.2693        -49.2693         7.72674         7.72674
             228     1.46642E+03     1.46642E+03        -38.2192        -38.2192        -3.87150        -3.87150
             229     1.46077E+03     1.46077E+03        -28.4775        -28.4775        -11.2267        -11.2267
             230     1.45443E+03     1.45443E+03        -20.6240        -20.6240        -15.4342        -15.4342
             231     1.44827E+03     1.44827E+03        -14.6008        -14.6008        -17.5202        -17.5202
             232     1.44263E+03     1.44263E+03        -10.1217        -10.1217        -18.2037        -18.2037
             233     1.43759E+03     1.43759E+03        -6.85038        -6.85038        -17.9329        -17.9329
             234     1.43310E+03     1.43310E+03        -4.48821        -4.48821        -16.9387        -16.9387
             235     1.42912E+03     1.42912E+03        -2.79515        -2.79515        -15.2969        -15.2969
             236     1.42559E+03     1.42559E+03        -1.59265        -1.59265        -12.9561        -12.9561
             237     1.42249E+03     1.42249E+03    -764.956E-03    -764.956E-03        -9.75059        -9.75059
             238     1.41988E+03     1.41988E+03    -262.321E-03    -262.321E-03        -5.42366        -5.42366
             239     1.42470E+03     1.42470E+03    -170.016E-03    -170.016E-03        -2.66877        -2.66877
             240     1.42962E+03     1.42962E+03    -220.932E-03    -220.932E-03        -2.28409        -2.28409
             241     1.43370E+03     1.43370E+03    -248.977E-03    -248.977E-03        -1.83071        -1.83071
             242     1.43686E+03     1.43686E+03    -257.496E-03    -257.496E-03        -1.35006        -1.35006
             243     1.43908E+03     1.43908E+03    -249.797E-03    -249.797E-03    -875.442E-03    -875.442E-03
             244     1.44038E+03     1.44038E+03    -230.263E-03    -230.263E-03    -432.613E-03    -432.613E-03
             245     1.44085E+03     1.44085E+03    -203.225E-03    -203.225E-03    -38.8227E-03    -38.8227E-03
             246     1.44059E+03     1.44059E+03    -172.228E-03    -172.228E-03     296.214E-03     296.214E-03
             247     1.43973E+03     1.43973E+03    -140.348E-03    -140.348E-03     569.049E-03     569.049E-03
             248     1.43839E+03     1.43839E+03    -109.612E-03    -109.612E-03     781.004E-03     781.004E-03
             249     1.43669E+03     1.43669E+03    -81.4636E-03    -81.4636E-03     936.535E-03     936.535E-03
             250     1.43473E+03     1.43473E+03    -56.6773E-03    -56.6773E-03         1.04207         1.04207
             251     1.43259E+03     1.43259E+03    -35.5373E-03    -35.5373E-03         1.10485         1.10485
             252     1.43037E+03     1.43037E+03    -18.0762E-03    -18.0762E-03         1.13229         1.13229
             253     1.42813E+03     1.42813E+03    -4.00875E-03    -4.00875E-03         1.13141         1.13141
             254     1.42591E+03     1.42591E+03     6.95919E-03     6.95919E-03         1.10855         1.10855
             255     1.42374E+03     1.42374E+03     15.2806E-03     15.2806E-03         1.06926         1.06926
             256     1.42167E+03     1.42167E+03     21.3267E-03     21.3267E-03         1.01824         1.01824
             257     1.41971E+03     1.41971E+03     25.5208E-03     25.5208E-03     959.362E-03     959.362E-03
             258     1.41787E+03     1.41787E+03     28.1949E-03     28.1949E-03     895.745E-03     895.745E-03
             259     1.41616E+03     1.41616E+03     29.6768E-03     29.6768E-03     829.857E-03     829.857E-03
             260     1.41458E+03     1.41458E+03     30.2223E-03     30.2223E-03     763.595E-03     763.595E-03
             261     1.41313E+03     1.41313E+03     30.0608E-03     30.0608E-03     698.388E-03     698.388E-03
             262     1.41181E+03     1.41181E+03     29.3730E-03     29.3730E-03     635.271E-03     635.271E-03
             263     1.41061E+03     1.41061E+03     28.3096E-03     28.3096E-03     574.968E-03     574.968E-03
             264     1.40952E+03     1.40952E+03     26.9905E-03     26.9905E-03     517.952E-03     517.952E-03
             265     1.40855E+03     1.40855E+03     25.5102E-03     25.5102E-03     464.500E-03     464.500E-03
             266     1.40768E+03     1.40768E+03     23.9447E-03     23.9447E-03     414.734E-03     414.734E-03
             267     1.40690E+03     1.40690E+03     22.3505E-03     22.3505E-03     368.662E-03     368.662E-03
             268     1.40621E+03     1.40621E+03     20.7739E-03     20.7739E-03     326.203E-03     326.203E-03
             269     1.40560E+03     1.40560E+03     19.2471E-03     19.2471E-03     287.209E-03     287.209E-03
             270     1.40507E+03     1.40507E+03     17.7973E-03     17.7973E-03     251.486E-03     251.486E-03
             271     1.40460E+03     1.40460E+03     16.4413E-03     16.4413E-03     218.807E-03     218.807E-03
             272     1.40420E+03     1.40420E+03     15.1950E-03     15.1950E-03     188.921E-03     188.921E-03
             273     1.40385E+03     1.40385E+03     14.0652E-03     14.0652E-03     161.560E-03     161.560E-03
             274     1.40355E+03     1.40355E+03     13.0623E-03     13.0623E-03     136.449E-03     136.449E-03
             275     1.40331E+03     1.40331E+03     12.1862E-03     12.1862E-03     113.308E-03     113.308E-03
             276     1.40310E+03     1.40310E+03     11.4456E-03     11.4456E-03     91.8524E-03     91.8524E-03
             277     1.40294E+03     1.40294E+03     10.8374E-03     10.8374E-03     71.7957E-03     71.7957E-03
             278     1.40282E+03     1.40282E+03     10.3648E-03     10.3648E-03     52.8585E-03     52.8585E-03
             279     1.40273E+03     1.40273E+03     10.0860E-03     10.0860E-03     34.7008E-03     34.7008E-03
             280     1.40268E+03     1.40268E+03     9.80803E-03     9.80803E-03     17.7126E-03     17.7126E-03
             281     1.40278E+03     1.40278E+03     27.4059E-03     27.4059E-03     18.0432E-03     18.0432E-03
             282     1.40300E+03     1.40300E+03     78.7855E-03     78.7855E-03     34.1957E-03     34.1957E-03
             283     1.40315E+03     1.40315E+03     160.640E-03     160.640E-03     49.2045E-03     49.2045E-03
             284     1.40324E+03     1.40324E+03     270.463E-03     270.463E-03     62.7943E-03     62.7943E-03
             285     1.40328E+03     1.40328E+03     405.075E-03     405.075E-03     74.5520E-03     74.5520E-03
             286     1.40327E+03     1.40327E+03     560.682E-03     560.682E-03     84.2650E-03     84.2650E-03
             287     1.40322E+03     1.40322E+03     733.082E-03     733.082E-03     91.7280E-03     91.7280E-03
             288     1.40313E+03     1.40313E+03     917.765E-03     917.765E-03     96.8323E-03     96.8323E-03
             289     1.40302E+03     1.40302E+03         1.11005         1.11005     99.5120E-03     99.5120E-03
             290     1.40289E+03     1.40289E+03         1.30520         1.30520     99.7669E-03     99.7669E-03
             291     1.40274E+03     1.40274E+03         1.49850         1.49850     97.6441E-03     97.6441E-03
             292     1.40259E+03     1.40259E+03         1.68539         1.68539     93.2298E-03     93.2298E-03
             293     1.32556E+03     1.32556E+03         384.508         384.508        -87.8729        -87.8729
             294     1.33940E+03     1.33940E+03         351.441         351.441        -87.3604        -87.3604
             295     1.35285E+03     1.35285E+03         318.339         318.339        -84.5399        -84.5399
             296     1.36558E+03     1.36558E+03         285.885         285.885        -80.3519        -80.3519
             297     1.37728E+03     1.37728E+03         254.606         254.606        -74.9037        -74.9037
             298     1.38776E+03     1.38776E+03         224.955         224.955        -68.4586        -68.4586
             299     1.39689E+03     1.39689E+03         197.269         197.269        -61.2660        -61.2660
             300     1.40458E+03     1.40458E+03         171.795         171.795        -53.6440        -53.6440
             301     1.41089E+03     1.41089E+03         148.634         148.634        -45.8696        -45.8696
             302     1.41586E+03     1.41586E+03         127.817         127.817        -38.1931        -38.1931
             303     1.41965E+03     1.41965E+03         109.277         109.277        -30.8227        -30.8227
             304     1.42235E+03     1.42235E+03         92.9016         92.9016        -23.8957        -23.8957
             305     1.42413E+03     1.42413E+03         78.5423         78.5423        -17.5221        -17.5221
             306     1.42513E+03     1.42513E+03         66.0267         66.0267        -11.7428        -11.7428
             307     1.42548E+03     1.42548E+03         55.1875         55.1875        -6.58621        -6.58621
             308     1.42529E+03     1.42529E+03         45.8460         45.8460        -2.03332        -2.03332
             309     1.42466E+03     1.42466E+03         37.8446         37.8446         1.93754         1.93754
             310     1.42368E+03     1.42368E+03         31.0219         31.0219         5.37480         5.37480
             311     1.42243E+03     1.42243E+03         25.2398         25.2398         8.32429         8.32429
             312     1.42097E+03     1.42097E+03         20.3603         20.3603         10.8443         10.8443
             313     1.41934E+03     1.41934E+03         16.2651         16.2651         12.9884         12.9884
             314     1.41758E+03     1.41758E+03         12.8379         12.8379         14.8147         14.8147
             315     1.41575E+03     1.41575E+03         9.97680         9.97680         16.3764         16.3764
             316     1.41386E+03     1.41386E+03         7.58247         7.58247         17.7276         17.7276
             317     1.41195E+03     1.41195E+03         5.56537         5.56537         18.9182         18.9182
             318     1.41004E+03     1.41004E+03         3.83764         3.83764         19.9982         19.9982
             319     1.40817E+03     1.40817E+03         2.31712         2.31712         21.0149         21.0149
             320     1.40635E+03     1.40635E+03     921.644E-03     921.644E-03         22.0160         22.0160
             321     1.40462E+03     1.40462E+03    -429.290E-03    -429.290E-03         23.0481         23.0481
             322     1.40303E+03     1.40303E+03        -1.81889        -1.81889         24.1588         24.1588
             323     1.40163E+03     1.40163E+03        -3.33333        -3.33333         25.3954         25.3954
             324     1.40049E+03     1.40049E+03        -5.06568        -5.06568         26.8051         26.8051
             325     1.39970E+03     1.39970E+03        -7.11811        -7.11811         28.4315         28.4315
             326     1.39939E+03     1.39939E+03        -9.60543        -9.60543         30.3114         30.3114
             327     1.39973E+03     1.39973E+03        -12.6589        -12.6589         32.4643         32.4643
             328     1.40096E+03     1.40096E+03        -16.4257        -16.4257         34.8773         34.8773
             329     1.40340E+03     1.40340E+03        -21.0696        -21.0696         37.4772         37.4772
             330     1.40745E+03     1.40745E+03        -26.7461        -26.7461         40.0849         40.0849
             331     1.41365E+03     1.41365E+03        -33.5684        -33.5684         42.3484         42.3484
             332     1.42255E+03     1.42255E+03        -41.4760        -41.4760         43.6470         43.6470
             333     1.43465E+03     1.43465E+03        -50.0599        -50.0599         43.0284         43.0284
             334     1.45003E+03     1.45003E+03        -58.1497        -58.1497         39.2066         39.2066
             335     1.41847E+03     1.41847E+03    -192.408E-03    -192.408E-03        -2.16222        -2.16222
             336     1.42234E+03     1.42234E+03    -245.425E-03    -245.425E-03        -1.72927        -1.72927
             337     1.42527E+03     1.42527E+03    -276.285E-03    -276.285E-03        -1.22102        -1.22102
             338     1.42716E+03     1.42716E+03    -287.109E-03    -287.109E-03    -679.515E-03    -679.515E-03
             339     1.42798E+03     1.42798E+03    -282.157E-03    -282.157E-03    -138.001E-03    -138.001E-03
             340     1.42774E+03     1.42774E+03    -264.781E-03    -264.781E-03     377.865E-03     377.865E-03
             341     1.42653E+03     1.42653E+03    -240.281E-03    -240.281E-03     850.721E-03     850.721E-03
             342     1.42442E+03     1.42442E+03    -211.057E-03    -211.057E-03         1.27081         1.27081
             343     1.42154E+03     1.42154E+03    -181.402E-03    -181.402E-03         1.63445         1.63445
             344     1.41799E+03     1.41799E+03    -151.705E-03    -151.705E-03         1.94270         1.94270
             345     1.41388E+03     1.41388E+03    -125.314E-03    -125.314E-03         2.19956         2.19956
             346     1.40931E+03     1.40931E+03    -100.336E-03    -100.336E-03         2.41093         2.41093
             347     1.40435E+03     1.40435E+03    -80.2879E-03    -80.2879E-03         2.58328         2.58328
             348     1.39909E+03     1.39909E+03    -60.6987E-03    -60.6987E-03         2.72308         2.72308
             349     1.39357E+03     1.39357E+03    -46.8341E-03    -46.8341E-03         2.83613         2.83613
             350     1.38785E+03     1.38785E+03    -30.7682E-03    -30.7682E-03         2.92730         2.92730
             351     1.38197E+03     1.38197E+03    -21.5586E-03    -21.5586E-03         3.00029         3.00029
             352     1.37596E+03     1.37596E+03    -5.90738E-03    -5.90738E-03         3.05754         3.05754
             353     1.36985E+03     1.36985E+03     364.931E-06     364.931E-06         3.10022         3.10022
             354     1.36367E+03     1.36367E+03     19.4891E-03     19.4891E-03         3.12812         3.12812
             355     1.35745E+03     1.35745E+03     24.0906E-03     24.0906E-03         3.13979         3.13979
             356     1.35123E+03     1.35123E+03     51.5844E-03     51.5844E-03         3.13221         3.13221
             357     1.34504E+03     1.34504E+03     54.9443E-03     54.9443E-03         3.10121         3.10121
             358     1.33894E+03     1.33894E+03     97.6024E-03     97.6024E-03         3.04041         3.04041
             359     1.33300E+03     1.33300E+03     98.9157E-03     98.9157E-03         2.94250         2.94250
             360     1.32730E+03     1.32730E+03     167.253E-03     167.253E-03         2.79628         2.79628
             361     1.32195E+03     1.32195E+03     163.814E-03     163.814E-03         2.59045         2.59045
             362     1.31708E+03     1.31708E+03     275.737E-03     275.737E-03         2.30538         2.30538
             363     1.31287E+03     1.31287E+03     261.547E-03     261.547E-03         1.92444         1.92444
             364     1.30955E+03     1.30955E+03     450.449E-03     450.449E-03         1.41045         1.41045
             365     1.30740E+03     1.30740E+03     412.855E-03     412.855E-03     740.273E-03     740.273E-03
             366     1.30680E+03     1.30680E+03     747.829E-03     747.829E-03    -165.650E-03    -165.650E-03
             367     1.30826E+03     1.30826E+03     657.912E-03     657.912E-03        -1.33417        -1.33417
             368     1.31247E+03     1.31247E+03         1.30207         1.30207        -2.96172        -2.96172
             369     1.32039E+03     1.32039E+03         1.08298         1.08298        -5.05643        -5.05643
             370     1.33343E+03     1.33343E+03         2.49204         2.49204        -8.18494        -8.18494
             371     1.35368E+03     1.35368E+03         1.90126         1.90126        -12.2280        -12.2280
             372     1.38463E+03     1.38463E+03         5.66773         5.66773        -19.1627        -19.1627
             373     1.43178E+03     1.43178E+03         3.79295         3.79295        -28.2482        -28.2482
             374     1.50800E+03     1.50800E+03         17.8901         17.8901        -48.9330        -48.9330
             375     1.63437E+03     1.63437E+03         10.4941         10.4941        -77.5776        -77.5776
             376     1.92758E+03     1.92758E+03         137.581         137.581        -217.760        -217.760
             377     1.87595E+03     1.87595E+03         360.111         360.111        -367.951        -367.951
             378     1.56688E+03     1.56688E+03         415.821         415.821        -344.248        -344.248
             379     1.48180E+03     1.48180E+03         408.497         408.497        -289.640        -289.640
             380     1.42358E+03     1.42358E+03         408.128         408.128        -260.391        -260.391
             381     1.39243E+03     1.39243E+03         405.303         405.303        -230.226        -230.226
             382     1.36965E+03     1.36965E+03         403.904         403.904        -207.437        -207.437
             383     1.35495E+03     1.35495E+03         402.756         402.756        -185.487        -185.487
             384     1.34375E+03     1.34375E+03         401.980         401.980        -166.680        -166.680
             385     1.33586E+03     1.33586E+03         401.533         401.533        -148.748        -148.748
             386     1.32969E+03     1.32969E+03         401.187         401.187        -132.470        -132.470
             387     1.32513E+03     1.32513E+03         401.047         401.047        -116.893        -116.893
             388     1.32151E+03     1.32151E+03         400.922         400.922        -102.298        -102.298
             389     1.47073E+03     1.47073E+03        -52.3394        -52.3394        -12.9921        -12.9921
             390     1.46713E+03     1.46713E+03        -41.1643        -41.1643        -1.58089        -1.58089
             391     1.46100E+03     1.46100E+03        -31.2058        -31.2058         5.78250         5.78250
             392     1.45408E+03     1.45408E+03        -23.0382        -23.0382         10.1384         10.1384
             393     1.44726E+03     1.44726E+03        -16.6416        -16.6416         12.4707         12.4707
             394     1.44091E+03     1.44091E+03        -11.7717        -11.7717         13.4848         13.4848
             395     1.43516E+03     1.43516E+03        -8.12365        -8.12365         13.6306         13.6306
             396     1.43000E+03     1.43000E+03        -5.41723        -5.41723         13.1459         13.1459
             397     1.42539E+03     1.42539E+03        -3.42298        -3.42298         12.1085         12.1085
             398     1.42130E+03     1.42130E+03        -1.97038        -1.97038         10.4627         10.4627
             399     1.41775E+03     1.41775E+03    -950.680E-03    -950.680E-03         8.03152         8.03152
             400     1.41481E+03     1.41481E+03    -325.034E-03    -325.034E-03         4.53660         4.53660
             401     1.40738E+03     1.40738E+03     6.84661E-03     6.84661E-03         2.62693         2.62693
             402     1.40090E+03     1.40090E+03     143.684E-03     143.684E-03         2.49371         2.49371
             403     1.39518E+03     1.39518E+03     277.959E-03     277.959E-03         2.03807         2.03807
             404     1.39098E+03     1.39098E+03     384.423E-03     384.423E-03         1.29539         1.29539
             405     1.38893E+03     1.38893E+03     450.422E-03     450.422E-03     347.069E-03     347.069E-03
             406     1.38938E+03     1.38938E+03     448.740E-03     448.740E-03    -675.797E-03    -675.797E-03
             407     1.39232E+03     1.39232E+03     388.750E-03     388.750E-03        -1.62318        -1.62318
             408     1.39741E+03     1.39741E+03     290.824E-03     290.824E-03        -2.38195        -2.38195
             409     1.40405E+03     1.40405E+03     159.410E-03     159.410E-03        -2.86848        -2.86848
             410     1.41153E+03     1.41153E+03     24.6496E-03     24.6496E-03        -3.04153        -3.04153
             411     1.50776E+03     1.50776E+03         125.577         125.577         39.0847         39.0847
             412     1.52346E+03     1.52346E+03         64.0705         64.0705         56.2075         56.2075
             413     1.53112E+03     1.53112E+03    -344.455E-03    -344.455E-03         44.9326         44.9326
             414     1.52339E+03     1.52339E+03        -45.0952        -45.0952         18.2376         18.2376
             415     1.50361E+03     1.50361E+03        -65.9556        -65.9556        -9.06639        -9.06639
             416     1.50576E+03     1.50576E+03        -59.9627        -59.9627     61.0917E-03     61.0917E-03
             417     1.52588E+03     1.52588E+03        -27.3482        -27.3482        -32.4967        -32.4967
             418     1.52661E+03     1.52661E+03         37.5547         37.5547        -56.0680        -56.0680
             419     1.51119E+03     1.51119E+03         112.031         112.031        -46.6717        -46.6717
             420     1.32557E+03     1.32557E+03         384.499         384.499         87.8481         87.8481
             421     1.33941E+03     1.33941E+03         351.440         351.440         87.3245         87.3245
             422     1.35284E+03     1.35284E+03         318.347         318.347         84.4916         84.4916
             423     1.36557E+03     1.36557E+03         285.904         285.904         80.2926         80.2926
             424     1.37727E+03     1.37727E+03         254.638         254.638         74.8355         74.8355
             425     1.38774E+03     1.38774E+03         225.001         225.001         68.3853         68.3853
             426     1.39687E+03     1.39687E+03         197.328         197.328         61.1909         61.1909
             427     1.40456E+03     1.40456E+03         171.864         171.864         53.5710         53.5710
             428     1.41087E+03     1.41087E+03         148.713         148.713         45.8015         45.8015
             429     1.41584E+03     1.41584E+03         127.903         127.903         38.1327         38.1327
             430     1.41963E+03     1.41963E+03         109.368         109.368         30.7717         30.7717
             431     1.42234E+03     1.42234E+03         92.9940         92.9940         23.8556         23.8556
             432     1.42413E+03     1.42413E+03         78.6344         78.6344         17.4936         17.4936
             433     1.42514E+03     1.42514E+03         66.1164         66.1164         11.7259         11.7259
             434     1.42549E+03     1.42549E+03         55.2734         55.2734         6.58113         6.58113
             435     1.42531E+03     1.42531E+03         45.9267         45.9267         2.03947         2.03947
             436     1.42469E+03     1.42469E+03         37.9195         37.9195        -1.92042        -1.92042
             437     1.42372E+03     1.42372E+03         31.0905         31.0905        -5.34754        -5.34754
             438     1.42247E+03     1.42247E+03         25.3021         25.3021        -8.28732        -8.28732
             439     1.42100E+03     1.42100E+03         20.4165         20.4165        -10.7985        -10.7985
             440     1.41937E+03     1.41937E+03         16.3157         16.3157        -12.9342        -12.9342
             441     1.41762E+03     1.41762E+03         12.8834         12.8834        -14.7529        -14.7529
             442     1.41578E+03     1.41578E+03         10.0184         10.0184        -16.3076        -16.3076
             443     1.41389E+03     1.41389E+03         7.62109         7.62109        -17.6523        -17.6523
             444     1.41197E+03     1.41197E+03         5.60256         5.60256        -18.8370        -18.8370
             445     1.41005E+03     1.41005E+03         3.87495         3.87495        -19.9117        -19.9117
             446     1.40816E+03     1.40816E+03         2.35662         2.35662        -20.9238        -20.9238
             447     1.40632E+03     1.40632E+03     965.587E-03     965.587E-03        -21.9210        -21.9210
             448     1.40458E+03     1.40458E+03    -378.015E-03    -378.015E-03        -22.9504        -22.9504
             449     1.40296E+03     1.40296E+03        -1.75700        -1.75700        -24.0600        -24.0600
             450     1.40152E+03     1.40152E+03        -3.25675        -3.25675        -25.2979        -25.2979
             451     1.40033E+03     1.40033E+03        -4.96982        -4.96982        -26.7124        -26.7124
             452     1.39949E+03     1.39949E+03        -6.99750        -6.99750        -28.3495        -28.3495
             453     1.39911E+03     1.39911E+03        -9.45450        -9.45450        -30.2489        -30.2489
             454     1.39936E+03     1.39936E+03        -12.4719        -12.4719        -32.4346        -32.4346
             455     1.40049E+03     1.40049E+03        -16.1997        -16.1997        -34.9010        -34.9010
             456     1.40281E+03     1.40281E+03        -20.8055        -20.8055        -37.5837        -37.5837
             457     1.40674E+03     1.40674E+03        -26.4572        -26.4572        -40.3158        -40.3158
             458     1.41282E+03     1.41282E+03        -33.2872        -33.2872        -42.7514        -42.7514
             459     1.42166E+03     1.42166E+03        -41.2593        -41.2593        -44.2641        -44.2641
             460     1.43380E+03     1.43380E+03        -49.9772        -49.9772        -43.8672        -43.8672
             461     1.44930E+03     1.44930E+03        -58.2538        -58.2538        -40.2298        -40.2298
             462     1.44538E+03     1.44538E+03        -81.0744        -81.0744        -74.6855        -74.6855
             463     1.38480E+03     1.38480E+03        -73.2498        -73.2498        -111.337        -111.337
             464     1.28685E+03     1.28685E+03        -40.5922        -40.5922        -125.011        -125.011
             465     1.18390E+03     1.18390E+03         3.87723         3.87723        -87.2211        -87.2211
             466     1.16571E+03     1.16571E+03         12.2379         12.2379         77.3965         77.3965
             467     1.24863E+03     1.24863E+03        -25.4395        -25.4395         122.066         122.066
             468     1.34026E+03     1.34026E+03        -60.9571        -60.9571         125.183         125.183
             469     1.41113E+03     1.41113E+03        -79.7479        -79.7479         100.977         100.977
             470     1.45310E+03     1.45310E+03        -81.2035        -81.2035         68.1886         68.1886
             471     1.31616E+03     1.31616E+03         400.922         400.922        -71.2392        -71.2392
             472     1.31426E+03     1.31426E+03         400.952         400.952        -54.7771        -54.7771
             473     1.31294E+03     1.31294E+03         400.980         400.980        -38.8305        -38.8305
             474     1.31211E+03     1.31211E+03         401.012         401.012        -23.1876        -23.1876
             475     1.31171E+03     1.31171E+03         401.022         401.022        -7.76159        -7.76159
             476     1.31172E+03     1.31172E+03         401.016         401.016         7.62978         7.62978
             477     1.31212E+03     1.31212E+03         400.995         400.995         23.0717         23.0717
             478     1.31295E+03     1.31295E+03         400.958         400.958         38.7385         38.7385
             479     1.31427E+03     1.31427E+03         400.929         400.929         54.7125         54.7125
             480     1.31618E+03     1.31618E+03         400.904         400.904         71.2004         71.2004
             481     1.32151E+03     1.32151E+03         400.916         400.916         102.286         102.286
             482     1.32513E+03     1.32513E+03         401.044         401.044         116.885         116.885
             483     1.32969E+03     1.32969E+03         401.186         401.186         132.464         132.464
             484     1.33587E+03     1.33587E+03         401.532         401.532         148.743         148.743
             485     1.34375E+03     1.34375E+03         401.979         401.979         166.676         166.676
             486     1.35496E+03     1.35496E+03         402.756         402.756         185.484         185.484
             487     1.36965E+03     1.36965E+03         403.904         403.904         207.434         207.434
             488     1.39244E+03     1.39244E+03         405.304         405.304         230.223         230.223
             489     1.42358E+03     1.42358E+03         408.128         408.128         260.389         260.389
             490     1.48180E+03     1.48180E+03         408.497         408.497         289.638         289.638
             491     1.56688E+03     1.56688E+03         415.821         415.821         344.246         344.246
             492     1.87595E+03     1.87595E+03         360.111         360.111         367.950         367.950
             493     1.92758E+03     1.92758E+03         137.580         137.580         217.759         217.759
             494     1.63437E+03     1.63437E+03         10.4941         10.4941         77.5771         77.5771
             495     1.50800E+03     1.50800E+03         17.8901         17.8901         48.9326         48.9326
             496     1.43178E+03     1.43178E+03         3.79289         3.79289         28.2479         28.2479
             497     1.38464E+03     1.38464E+03         5.66767         5.66767         19.1625         19.1625
             498     1.35368E+03     1.35368E+03         1.90121         1.90121         12.2279         12.2279
             499     1.33344E+03     1.33344E+03         2.49199         2.49199         8.18493         8.18493
             500     1.32040E+03     1.32040E+03         1.08294         1.08294         5.05650         5.05650
             501     1.31247E+03     1.31247E+03         1.30204         1.30204         2.96186         2.96186
             502     1.30826E+03     1.30826E+03     657.887E-03     657.887E-03         1.33436         1.33436
             503     1.30680E+03     1.30680E+03     747.809E-03     747.809E-03     165.879E-03     165.879E-03
             504     1.30740E+03     1.30740E+03     412.841E-03     412.841E-03    -740.013E-03    -740.013E-03
             505     1.30955E+03     1.30955E+03     450.439E-03     450.439E-03        -1.41017        -1.41017
             506     1.31288E+03     1.31288E+03     261.542E-03     261.542E-03        -1.92415        -1.92415
             507     1.31708E+03     1.31708E+03     275.734E-03     275.734E-03        -2.30508        -2.30508
             508     1.32195E+03     1.32195E+03     163.813E-03     163.813E-03        -2.59014        -2.59014
             509     1.32730E+03     1.32730E+03     167.254E-03     167.254E-03        -2.79598        -2.79598
             510     1.33300E+03     1.33300E+03     98.9174E-03     98.9174E-03        -2.94219        -2.94219
             511     1.33894E+03     1.33894E+03     97.6060E-03     97.6060E-03        -3.04011        -3.04011
             512     1.34504E+03     1.34504E+03     54.9461E-03     54.9461E-03        -3.10092        -3.10092
             513     1.35122E+03     1.35122E+03     51.5897E-03     51.5897E-03        -3.13192        -3.13192
             514     1.35745E+03     1.35745E+03     24.0916E-03     24.0916E-03        -3.13950        -3.13950
             515     1.36367E+03     1.36367E+03     19.4958E-03     19.4958E-03        -3.12783        -3.12783
             516     1.36985E+03     1.36985E+03     364.219E-06     364.219E-06        -3.09993        -3.09993
             517     1.37596E+03     1.37596E+03    -5.89910E-03    -5.89910E-03        -3.05725        -3.05725
             518     1.38197E+03     1.38197E+03    -21.5614E-03    -21.5614E-03        -2.99999        -2.99999
             519     1.38785E+03     1.38785E+03    -30.7575E-03    -30.7575E-03        -2.92700        -2.92700
             520     1.39357E+03     1.39357E+03    -46.8378E-03    -46.8378E-03        -2.83582        -2.83582
             521     1.39908E+03     1.39908E+03    -60.6822E-03    -60.6822E-03        -2.72277        -2.72277
             522     1.40434E+03     1.40434E+03    -80.2837E-03    -80.2837E-03        -2.58297        -2.58297
             523     1.40930E+03     1.40930E+03    -100.301E-03    -100.301E-03        -2.41063        -2.41063
             524     1.41387E+03     1.41387E+03    -125.274E-03    -125.274E-03        -2.19932        -2.19932
             525     1.41798E+03     1.41798E+03    -151.617E-03    -151.617E-03        -1.94254        -1.94254
             526     1.42153E+03     1.42153E+03    -181.269E-03    -181.269E-03        -1.63448        -1.63448
             527     1.42441E+03     1.42441E+03    -210.867E-03    -210.867E-03        -1.27112        -1.27112
             528     1.42652E+03     1.42652E+03    -239.996E-03    -239.996E-03    -851.470E-03    -851.470E-03
             529     1.42774E+03     1.42774E+03    -264.481E-03    -264.481E-03    -379.155E-03    -379.155E-03
             530     1.42798E+03     1.42798E+03    -281.777E-03    -281.777E-03     136.064E-03     136.064E-03
             531     1.42717E+03     1.42717E+03    -286.879E-03    -286.879E-03     676.988E-03     676.988E-03
             532     1.42528E+03     1.42528E+03    -276.160E-03    -276.160E-03         1.21814         1.21814
             533     1.42235E+03     1.42235E+03    -245.631E-03    -245.631E-03         1.72644         1.72644
             534     1.41849E+03     1.41849E+03    -193.154E-03    -193.154E-03         2.16108         2.16108
             535         22.8437         22.8437        -694.503        -694.503        -3.32809        -3.32809
             536         193.861         193.861        -256.006        -256.006        -8.83203        -8.83203
             537         466.923         466.923        -47.7370        -47.7370        -10.0136        -10.0136
             538         747.402         747.402         25.7889         25.7889        -8.69813        -8.69813
             539         979.626         979.626         37.5044         37.5044        -6.25499        -6.25499
             540     1.51398E+03     1.51398E+03        -108.792        -108.792        -57.3381        -57.3381
             541     1.56887E+03     1.56887E+03        -163.458        -163.458        -102.613        -102.613
             542     1.62061E+03     1.62061E+03        -213.444        -213.444        -175.576        -175.576
             543     1.60815E+03     1.60815E+03        -196.302        -196.302        -289.439        -289.439
             544     1.36959E+03     1.36959E+03         55.9601         55.9601        -466.071        -466.071
             545         691.657         691.657         56.5969         56.5969        -370.842        -370.842
             546         323.196         323.196        -254.776        -254.776        -173.057        -173.057
             547         105.437         105.437        -597.865        -597.865        -32.9489        -32.9489
             548         3.98716         3.98716        -870.584        -870.584         17.2381         17.2381
             549     1.56656E+03     1.56656E+03         227.012         227.012         1.45988         1.45988
             550     1.70112E+03     1.70112E+03         336.976         336.976         1.25112         1.25112
             551     1.95401E+03     1.95401E+03         437.472         437.472         1.09263         1.09263
             552     2.40262E+03     2.40262E+03         466.108         466.108     924.838E-03     924.838E-03
             553     3.12975E+03     3.12975E+03         338.195         338.195     610.547E-03     610.547E-03
             554     3.40493E+03     3.40493E+03         263.503         263.503        -397.138        -397.138
             555     2.95449E+03     2.95449E+03         352.512         352.512        -679.068        -679.068
             556     2.34612E+03     2.34612E+03         415.829         415.829        -787.466        -787.466
             557     1.71753E+03     1.71753E+03         389.568         389.568        -732.928        -732.928
             558     1.38537E+03     1.38537E+03         60.5771         60.5771         468.870         468.870
             559     1.61890E+03     1.61890E+03        -195.225        -195.225         286.022         286.022
             560     1.62668E+03     1.62668E+03        -212.837        -212.837         171.473         171.473
             561     1.57197E+03     1.57197E+03        -162.907        -162.907         99.4419         99.4419
             562     1.51546E+03     1.51546E+03        -108.301        -108.301         55.2082         55.2082
             563        -5.63399        -5.63399        -917.284        -917.284        -20.3904        -20.3904
             564         57.5059         57.5059        -712.107        -712.107         1.77402         1.77402
             565         191.656         191.656        -432.256        -432.256         88.3493         88.3493
             566         421.096         421.096        -142.190        -142.190         232.455         232.455
             567         757.423         757.423         104.117         104.117         404.808         404.808
             568     1.51787E+03     1.51787E+03        -110.925        -110.925         58.1971         58.1971
             569     1.57426E+03     1.57426E+03        -165.052        -165.052         101.502         101.502
             570     1.62890E+03     1.62890E+03        -214.576        -214.576         172.844         172.844
             571     1.62120E+03     1.62120E+03        -196.503        -196.503         286.951         286.951
             572     1.38760E+03     1.38760E+03         60.2461         60.2461         469.827         469.827
             573     1.71977E+03     1.71977E+03         388.997         388.997         734.077         734.077
             574     2.34858E+03     2.34858E+03         416.404         416.404         788.710         788.710
             575     2.95668E+03     2.95668E+03         353.033         353.033         680.205         680.205
             576     3.40624E+03     3.40624E+03         263.793         263.793         398.041         398.041
             577     1.35464E+03     1.35464E+03         50.5997         50.5997        -464.278        -464.278
             578     1.60164E+03     1.60164E+03        -202.455        -202.455        -293.130        -293.130
             579     1.61759E+03     1.61759E+03        -217.906        -217.906        -180.463        -180.463
             580     1.56787E+03     1.56787E+03        -166.877        -166.877        -107.318        -107.318
             581     1.51436E+03     1.51436E+03        -111.928        -111.928        -62.0162        -62.0162
             582     1.56611E+03     1.56611E+03         229.292         229.292        -4.56668        -4.56668
             583     1.70122E+03     1.70122E+03         339.358         339.358        -4.80658        -4.80658
             584     1.95528E+03     1.95528E+03         439.255         439.255        -3.28826        -3.28826
             585     2.40565E+03     2.40565E+03         466.719         466.719         1.34435         1.34435
             586     3.13526E+03     3.13526E+03         336.942         336.942         10.6759         10.6759
             587     3.47179E+03     3.47179E+03         248.536         248.536        -341.312        -341.312
             588     3.14208E+03     3.14208E+03         321.176         321.176        -611.335        -611.335
             589     2.66895E+03     2.66895E+03         395.388         395.388        -764.789        -764.789
             590     2.13549E+03     2.13549E+03         425.005         425.005        -793.535        -793.535
             591     1.61733E+03     1.61733E+03         382.279         382.279        -718.016        -718.016
             592     1.71692E+03     1.71692E+03         388.251         388.251         732.696         732.696
             593     2.34502E+03     2.34502E+03         415.675         415.675         787.231         787.231
             594     2.95255E+03     2.95255E+03         352.242         352.242         679.046         679.046
             595     3.40204E+03     3.40204E+03         263.836         263.836         397.074         397.074
             596         982.693         982.693         34.2171         34.2171        -6.21749        -6.21749
             597         749.362         749.362         23.1415         23.1415        -8.62296        -8.62296
             598         467.955         467.955        -50.0975        -50.0975        -9.90517        -9.90517
             599         194.148         194.148        -258.573        -258.573        -8.71246        -8.71246
             600         22.7478         22.7478        -698.032        -698.032        -3.23287        -3.23287
             601        -5.72809        -5.72809        -921.188        -921.188        -20.4997        -20.4997
             602         57.5617         57.5617        -715.212        -715.212         1.64355         1.64355
             603         192.020         192.020        -434.329        -434.329         88.3837         88.3837
             604         421.898         421.898        -143.254        -143.254         232.833         232.833
             605         758.861         758.861         103.915         103.915         405.543         405.543
             606         692.640         692.640         55.6990         55.6990        -370.978        -370.978
             607         323.488         323.488        -256.753        -256.753        -172.917        -172.917
             608         105.421         105.421        -600.958        -600.958        -32.6212        -32.6212
             609         3.84054         3.84054        -874.531        -874.531         17.5195         17.5195
             610     1.45472E+03     1.45472E+03        -47.9836        -47.9836        -18.4569        -18.4569
             611     1.44175E+03     1.44175E+03        -43.0879        -43.0879        -24.4271        -24.4271
             612     1.43034E+03     1.43034E+03        -36.6948        -36.6948        -27.5885        -27.5885
             613     1.42092E+03     1.42092E+03        -29.9565        -29.9565        -28.5870        -28.5870
             614     1.41352E+03     1.41352E+03        -23.5876        -23.5876        -28.1653        -28.1653
             615     1.40791E+03     1.40791E+03        -17.9141        -17.9141        -26.9073        -26.9073
             616     1.40378E+03     1.40378E+03        -13.0388        -13.0388        -25.2307        -25.2307
             617     1.40083E+03     1.40083E+03        -8.94093        -8.94093        -23.3956        -23.3956
             618     1.39880E+03     1.39880E+03        -5.55340        -5.55340        -21.5568        -21.5568
             619     1.39746E+03     1.39746E+03        -2.79013        -2.79013        -19.7971        -19.7971
             620     1.39664E+03     1.39664E+03    -565.923E-03    -565.923E-03        -18.1559        -18.1559
             621     1.39622E+03     1.39622E+03         1.19904         1.19904        -16.6465        -16.6465
             622     1.39608E+03     1.39608E+03         2.57545         2.57545        -15.2675        -15.2675
             623     1.39614E+03     1.39614E+03         3.62547         3.62547        -14.0103        -14.0103
             624     1.39635E+03     1.39635E+03         4.40274         4.40274        -12.8634        -12.8634
             625     1.39665E+03     1.39665E+03         4.95360         4.95360        -11.8144        -11.8144
             626     1.39702E+03     1.39702E+03         5.31775         5.31775        -10.8517        -10.8517
             627     1.39743E+03     1.39743E+03         5.52928         5.52928        -9.96509        -9.96509
             628     1.39786E+03     1.39786E+03         5.61725         5.61725        -9.14572        -9.14572
             629     1.39828E+03     1.39828E+03         5.60647         5.60647        -8.38628        -8.38628
             630     1.39870E+03     1.39870E+03         5.51800         5.51800        -7.68073        -7.68073
             631     1.39911E+03     1.39911E+03         5.36967         5.36967        -7.02415        -7.02415
             632     1.39949E+03     1.39949E+03         5.17649         5.17649        -6.41247        -6.41247
             633     1.39985E+03     1.39985E+03         4.95107         4.95107        -5.84235        -5.84235
             634     1.40019E+03     1.40019E+03         4.70392         4.70392        -5.31093        -5.31093
             635     1.40050E+03     1.40050E+03         4.44376         4.44376        -4.81575        -4.81575
             636     1.40078E+03     1.40078E+03         4.17778         4.17778        -4.35457        -4.35457
             637     1.40104E+03     1.40104E+03         3.91186         3.91186        -3.92533        -3.92533
             638     1.40127E+03     1.40127E+03         3.65077         3.65077        -3.52609        -3.52609
             639     1.40148E+03     1.40148E+03         3.39835         3.39835        -3.15493        -3.15493
             640     1.40166E+03     1.40166E+03         3.15766         3.15766        -2.80995        -2.80995
             641     1.40183E+03     1.40183E+03         2.93111         2.93111        -2.48925        -2.48925
             642     1.40197E+03     1.40197E+03         2.72059         2.72059        -2.19093        -2.19093
             643     1.40210E+03     1.40210E+03         2.52751         2.52751        -1.91304        -1.91304
             644     1.40221E+03     1.40221E+03         2.35298         2.35298        -1.65360        -1.65360
             645     1.40230E+03     1.40230E+03         2.19779         2.19779        -1.41065        -1.41065
             646     1.40238E+03     1.40238E+03         2.06253         2.06253        -1.18215        -1.18215
             647     1.40245E+03     1.40245E+03         1.94761         1.94761    -966.075E-03    -966.075E-03
             648     1.40250E+03     1.40250E+03         1.85331         1.85331    -760.380E-03    -760.380E-03
             649     1.40254E+03     1.40254E+03         1.77982         1.77982    -563.002E-03    -563.002E-03
             650     1.40256E+03     1.40256E+03         1.72726         1.72726    -371.875E-03    -371.875E-03
             651     1.40258E+03     1.40258E+03         1.69567         1.69567    -185.431E-03    -185.431E-03
             652     1.45597E+03     1.45597E+03        -40.2856        -40.2856        -6.59101        -6.59101
             653     1.44584E+03     1.44584E+03        -38.0556        -38.0556        -13.3855        -13.3855
             654     1.43637E+03     1.43637E+03        -33.9561        -33.9561        -17.9376        -17.9376
             655     1.42797E+03     1.42797E+03        -28.9295        -28.9295        -20.6122        -20.6122
             656     1.42090E+03     1.42090E+03        -23.7053        -23.7053        -21.8311        -21.8311
             657     1.41517E+03     1.41517E+03        -18.7300        -18.7300        -22.0351        -22.0351
             658     1.41067E+03     1.41067E+03        -14.2350        -14.2350        -21.5793        -21.5793
             659     1.40721E+03     1.40721E+03        -10.3130        -10.3130        -20.7303        -20.7303
             660     1.40463E+03     1.40463E+03        -6.97392        -6.97392        -19.6682        -19.6682
             661     1.40274E+03     1.40274E+03        -4.18681        -4.18681        -18.5107        -18.5107
             662     1.40141E+03     1.40141E+03        -1.90000        -1.90000        -17.3299        -17.3299
             663     1.40050E+03     1.40050E+03    -55.4273E-03    -55.4273E-03        -16.1681        -16.1681
             664     1.39993E+03     1.39993E+03         1.40558         1.40558        -15.0478        -15.0478
             665     1.39960E+03     1.39960E+03         2.53818         2.53818        -13.9801        -13.9801
             666     1.39946E+03     1.39946E+03         3.39288         3.39288        -12.9688        -12.9688
             667     1.39945E+03     1.39945E+03         4.01472         4.01472        -12.0140        -12.0140
             668     1.39954E+03     1.39954E+03         4.44341         4.44341        -11.1136        -11.1136
             669     1.39970E+03     1.39970E+03         4.71351         4.71351        -10.2651        -10.2651
             670     1.39989E+03     1.39989E+03         4.85489         4.85489        -9.46573        -9.46573
             671     1.40012E+03     1.40012E+03         4.89313         4.89313        -8.71276        -8.71276
             672     1.40035E+03     1.40035E+03         4.85003         4.85003        -8.00386        -8.00386
             673     1.40059E+03     1.40059E+03         4.74402         4.74402        -7.33694        -7.33694
             674     1.40082E+03     1.40082E+03         4.59061         4.59061        -6.71015        -6.71015
             675     1.40104E+03     1.40104E+03         4.40275         4.40275        -6.12182        -6.12182
             676     1.40125E+03     1.40125E+03         4.19120         4.19120        -5.57039        -5.57039
             677     1.40144E+03     1.40144E+03         3.96482         3.96482        -5.05435        -5.05435
             678     1.40162E+03     1.40162E+03         3.73090         3.73090        -4.57218        -4.57218
             679     1.40178E+03     1.40178E+03         3.49534         3.49534        -4.12233        -4.12233
             680     1.40193E+03     1.40193E+03         3.26291         3.26291        -3.70319        -3.70319
             681     1.40206E+03     1.40206E+03         3.03742         3.03742        -3.31309        -3.31309
             682     1.40217E+03     1.40217E+03         2.82188         2.82188        -2.95026        -2.95026
             683     1.40228E+03     1.40228E+03         2.61867         2.61867        -2.61288        -2.61288
             684     1.40237E+03     1.40237E+03         2.42961         2.42961        -2.29904        -2.29904
             685     1.40244E+03     1.40244E+03         2.25609         2.25609        -2.00676        -2.00676
             686     1.40251E+03     1.40251E+03         2.09914         2.09914        -1.73403        -1.73403
             687     1.40257E+03     1.40257E+03         1.95955         1.95955        -1.47875        -1.47875
             688     1.40262E+03     1.40262E+03         1.83785         1.83785        -1.23882        -1.23882
             689     1.40265E+03     1.40265E+03         1.73445         1.73445        -1.01209        -1.01209
             690     1.40269E+03     1.40269E+03         1.64959         1.64959    -796.396E-03    -796.396E-03
             691     1.40271E+03     1.40271E+03         1.58346         1.58346    -589.545E-03    -589.545E-03
             692     1.40273E+03     1.40273E+03         1.53617         1.53617    -389.342E-03    -389.342E-03
             693     1.40274E+03     1.40274E+03         1.50773         1.50773    -194.128E-03    -194.128E-03
             694     1.45411E+03     1.45411E+03        -32.5025        -32.5025         2.10907         2.10907
             695     1.44669E+03     1.44669E+03        -32.3040        -32.3040        -4.69989        -4.69989
             696     1.43921E+03     1.43921E+03        -30.0171        -30.0171        -9.83787        -9.83787
             697     1.43219E+03     1.43219E+03        -26.5323        -26.5323        -13.4609        -13.4609
             698     1.42592E+03     1.42592E+03        -22.4876        -22.4876        -15.7931        -15.7931
             699     1.42055E+03     1.42055E+03        -18.3536        -18.3536        -17.1040        -17.1040
             700     1.41610E+03     1.41610E+03        -14.4230        -14.4230        -17.6608        -17.6608
             701     1.41251E+03     1.41251E+03        -10.8588        -10.8588        -17.6861        -17.6861
             702     1.40967E+03     1.40967E+03        -7.73360        -7.73360        -17.3538        -17.3538
             703     1.40747E+03     1.40747E+03        -5.06320        -5.06320        -16.7897        -16.7897
             704     1.40579E+03     1.40579E+03        -2.83067        -2.83067        -16.0825        -16.0825
             705     1.40454E+03     1.40454E+03        -1.00099        -1.00099        -15.2926        -15.2926
             706     1.40363E+03     1.40363E+03     468.729E-03     468.729E-03        -14.4603        -14.4603
             707     1.40299E+03     1.40299E+03         1.62392         1.62392        -13.6123        -13.6123
             708     1.40255E+03     1.40255E+03         2.50882         2.50882        -12.7659        -12.7659
             709     1.40226E+03     1.40226E+03         3.16488         3.16488        -11.9324        -11.9324
             710     1.40209E+03     1.40209E+03         3.62965         3.62965        -11.1194        -11.1194
             711     1.40201E+03     1.40201E+03         3.93657         3.93657        -10.3318        -10.3318
             712     1.40199E+03     1.40199E+03         4.11487         4.11487        -9.57294        -9.57294
             713     1.40201E+03     1.40201E+03         4.18985         4.18985        -8.84505        -8.84505
             714     1.40205E+03     1.40205E+03         4.18312         4.18312        -8.14967        -8.14967
             715     1.40212E+03     1.40212E+03         4.11301         4.11301        -7.48780        -7.48780
             716     1.40219E+03     1.40219E+03         3.99492         3.99492        -6.85999        -6.85999
             717     1.40227E+03     1.40227E+03         3.84171         3.84171        -6.26643        -6.26643
             718     1.40234E+03     1.40234E+03         3.66399         3.66399        -5.70696        -5.70696
             719     1.40242E+03     1.40242E+03         3.47051         3.47051        -5.18116        -5.18116
             720     1.40249E+03     1.40249E+03         3.26839         3.26839        -4.68831        -4.68831
             721     1.40255E+03     1.40255E+03         3.06340         3.06340        -4.22745        -4.22745
             722     1.40260E+03     1.40260E+03         2.86014         2.86014        -3.79737        -3.79737
             723     1.40265E+03     1.40265E+03         2.66230         2.66230        -3.39670        -3.39670
             724     1.40270E+03     1.40270E+03         2.47277         2.47277        -3.02386        -3.02386
             725     1.40273E+03     1.40273E+03         2.29380         2.29380        -2.67712        -2.67712
             726     1.40277E+03     1.40277E+03         2.12712         2.12712        -2.35462        -2.35462
             727     1.40279E+03     1.40279E+03         1.97403         1.97403        -2.05442        -2.05442
             728     1.40282E+03     1.40282E+03         1.83551         1.83551        -1.77445        -1.77445
             729     1.40283E+03     1.40283E+03         1.71227         1.71227        -1.51259        -1.51259
             730     1.40285E+03     1.40285E+03         1.60483         1.60483        -1.26668        -1.26668
             731     1.40286E+03     1.40286E+03         1.51352         1.51352        -1.03449        -1.03449
             732     1.40287E+03     1.40287E+03         1.43860         1.43860    -813.777E-03    -813.777E-03
             733     1.40288E+03     1.40288E+03         1.38021         1.38021    -602.263E-03    -602.263E-03
             734     1.40288E+03     1.40288E+03         1.33845         1.33845    -397.665E-03    -397.665E-03
             735     1.40289E+03     1.40289E+03         1.31334         1.31334    -198.281E-03    -198.281E-03
             736     1.45055E+03     1.45055E+03        -25.3790        -25.3790         8.01498         8.01498
             737     1.44547E+03     1.44547E+03        -26.4801        -26.4801         1.78908         1.78908
             738     1.43989E+03     1.43989E+03        -25.5572        -25.5572        -3.38930        -3.38930
             739     1.43431E+03     1.43431E+03        -23.3214        -23.3214        -7.43624        -7.43624
             740     1.42906E+03     1.42906E+03        -20.3480        -20.3480        -10.4266        -10.4266
             741     1.42434E+03     1.42434E+03        -17.0634        -17.0634        -12.4988        -12.4988
             742     1.42025E+03     1.42025E+03        -13.7751        -13.7751        -13.8204        -13.8204
             743     1.41679E+03     1.41679E+03        -10.6774        -10.6774        -14.5574        -14.5574
             744     1.41393E+03     1.41393E+03        -7.88121        -7.88121        -14.8528        -14.8528
             745     1.41161E+03     1.41161E+03        -5.43728        -5.43728        -14.8239        -14.8239
             746     1.40976E+03     1.40976E+03        -3.35661        -3.35661        -14.5609        -14.5609
             747     1.40829E+03     1.40829E+03        -1.62587        -1.62587        -14.1323        -14.1323
             748     1.40714E+03     1.40714E+03    -217.575E-03    -217.575E-03        -13.5889        -13.5889
             749     1.40625E+03     1.40625E+03     902.499E-03     902.499E-03        -12.9685        -12.9685
             750     1.40557E+03     1.40557E+03         1.77102         1.77102        -12.2989        -12.2989
             751     1.40504E+03     1.40504E+03         2.42406         2.42406        -11.6009        -11.6009
             752     1.40464E+03     1.40464E+03         2.89557         2.89557        -10.8901        -10.8901
             753     1.40434E+03     1.40434E+03         3.21640         3.21640        -10.1785        -10.1785
             754     1.40410E+03     1.40410E+03         3.41400         3.41400        -9.47501        -9.47501
             755     1.40393E+03     1.40393E+03         3.51228         3.51228        -8.78667        -8.78667
             756     1.40379E+03     1.40379E+03         3.53186         3.53186        -8.11878        -8.11878
             757     1.40368E+03     1.40368E+03         3.49025         3.49025        -7.47534        -7.47534
             758     1.40360E+03     1.40360E+03         3.40215         3.40215        -6.85928        -6.85928
             759     1.40353E+03     1.40353E+03         3.27985         3.27985        -6.27263        -6.27263
             760     1.40347E+03     1.40347E+03         3.13347         3.13347        -5.71668        -5.71668
             761     1.40341E+03     1.40341E+03         2.97130         2.97130        -5.19206        -5.19206
             762     1.40337E+03     1.40337E+03         2.80008         2.80008        -4.69888        -4.69888
             763     1.40333E+03     1.40333E+03         2.62523         2.62523        -4.23677        -4.23677
             764     1.40329E+03     1.40329E+03         2.45110         2.45110        -3.80497        -3.80497
             765     1.40325E+03     1.40325E+03         2.28110         2.28110        -3.40240        -3.40240
             766     1.40322E+03     1.40322E+03         2.11792         2.11792        -3.02768        -3.02768
             767     1.40319E+03     1.40319E+03         1.96362         1.96362        -2.67924        -2.67924
             768     1.40316E+03     1.40316E+03         1.81980         1.81980        -2.35529        -2.35529
             769     1.40314E+03     1.40314E+03         1.68764         1.68764        -2.05393        -2.05393
             770     1.40311E+03     1.40311E+03         1.56803         1.56803        -1.77310        -1.77310
             771     1.40309E+03     1.40309E+03         1.46160         1.46160        -1.51069        -1.51069
             772     1.40307E+03     1.40307E+03         1.36880         1.36880        -1.26450        -1.26450
             773     1.40306E+03     1.40306E+03         1.28994         1.28994        -1.03228        -1.03228
             774     1.40304E+03     1.40304E+03         1.22524         1.22524    -811.747E-03    -811.747E-03
             775     1.40303E+03     1.40303E+03         1.17482         1.17482    -600.586E-03    -600.586E-03
             776     1.40303E+03     1.40303E+03         1.13876         1.13876    -396.474E-03    -396.474E-03
             777     1.40302E+03     1.40302E+03         1.11708         1.11708    -197.692E-03    -197.692E-03
             778     1.44631E+03     1.44631E+03        -19.2933        -19.2933         11.7159         11.7159
             779     1.44309E+03     1.44309E+03        -21.0428        -21.0428         6.32777         6.32777
             780     1.43918E+03     1.43918E+03        -21.0179        -21.0179         1.47798         1.47798
             781     1.43498E+03     1.43498E+03        -19.7318        -19.7318        -2.62579        -2.62579
             782     1.43082E+03     1.43082E+03        -17.6465        -17.6465        -5.92367        -5.92367
             783     1.42689E+03     1.42689E+03        -15.1398        -15.1398        -8.45359        -8.45359
             784     1.42334E+03     1.42334E+03        -12.4936        -12.4936        -10.2992        -10.2992
             785     1.42020E+03     1.42020E+03        -9.90761        -9.90761        -11.5652        -11.5652
             786     1.41751E+03     1.41751E+03        -7.50790        -7.50790        -12.3578        -12.3578
             787     1.41523E+03     1.41523E+03        -5.36538        -5.36538        -12.7731        -12.7731
             788     1.41332E+03     1.41332E+03        -3.51039        -3.51039        -12.8939        -12.8939
             789     1.41174E+03     1.41174E+03        -1.94617        -1.94617        -12.7883        -12.7883
             790     1.41044E+03     1.41044E+03    -658.773E-03    -658.773E-03        -12.5113        -12.5113
             791     1.40937E+03     1.40937E+03     375.636E-03     375.636E-03        -12.1071        -12.1071
             792     1.40849E+03     1.40849E+03         1.18565         1.18565        -11.6106        -11.6106
             793     1.40776E+03     1.40776E+03         1.80130         1.80130        -11.0496        -11.0496
             794     1.40715E+03     1.40715E+03         2.25188         2.25188        -10.4464        -10.4464
             795     1.40664E+03     1.40664E+03         2.56470         2.56470        -9.81856        -9.81856
             796     1.40621E+03     1.40621E+03         2.76441         2.76441        -9.17998        -9.17998
             797     1.40585E+03     1.40585E+03         2.87275         2.87275        -8.54173        -8.54173
             798     1.40553E+03     1.40553E+03         2.90853         2.90853        -7.91249        -7.91249
             799     1.40525E+03     1.40525E+03         2.88780         2.88780        -7.29893        -7.29893
             800     1.40500E+03     1.40500E+03         2.82405         2.82405        -6.70614        -6.70614
             801     1.40478E+03     1.40478E+03         2.72854         2.72854        -6.13781        -6.13781
             802     1.40459E+03     1.40459E+03         2.61053         2.61053        -5.59652        -5.59652
             803     1.40441E+03     1.40441E+03         2.47760         2.47760        -5.08390        -5.08390
             804     1.40425E+03     1.40425E+03         2.33587         2.33587        -4.60079        -4.60079
             805     1.40410E+03     1.40410E+03         2.19027         2.19027        -4.14737        -4.14737
             806     1.40397E+03     1.40397E+03         2.04469         2.04469        -3.72329        -3.72329
             807     1.40384E+03     1.40384E+03         1.90221         1.90221        -3.32775        -3.32775
             808     1.40373E+03     1.40373E+03         1.76522         1.76522        -2.95960        -2.95960
             809     1.40363E+03     1.40363E+03         1.63557         1.63557        -2.61739        -2.61739
             810     1.40354E+03     1.40354E+03         1.51465         1.51465        -2.29946        -2.29946
             811     1.40346E+03     1.40346E+03         1.40350         1.40350        -2.00395        -2.00395
             812     1.40339E+03     1.40339E+03         1.30289         1.30289        -1.72888        -1.72888
             813     1.40333E+03     1.40333E+03         1.21336         1.21336        -1.47213        -1.47213
             814     1.40328E+03     1.40328E+03         1.13532         1.13532        -1.23155        -1.23155
             815     1.40323E+03     1.40323E+03         1.06900         1.06900        -1.00488        -1.00488
             816     1.40320E+03     1.40320E+03         1.01460         1.01460    -789.871E-03    -789.871E-03
             817     1.40317E+03     1.40317E+03     972.203E-03     972.203E-03    -584.204E-03    -584.204E-03
             818     1.40315E+03     1.40315E+03     941.888E-03     941.888E-03    -385.564E-03    -385.564E-03
             819     1.40314E+03     1.40314E+03     923.666E-03     923.666E-03    -192.263E-03    -192.263E-03
             820     1.44200E+03     1.44200E+03        -14.2994        -14.2994         13.7667         13.7667
             821     1.44021E+03     1.44021E+03        -16.2263        -16.2263         9.25744         9.25744
             822     1.43770E+03     1.43770E+03        -16.6998        -16.6998         4.91364         4.91364
             823     1.43476E+03     1.43476E+03        -16.0671        -16.0671     999.925E-03     999.925E-03
             824     1.43165E+03     1.43165E+03        -14.6758        -14.6758        -2.34973        -2.34973
             825     1.42857E+03     1.42857E+03        -12.8313        -12.8313        -5.09200        -5.09200
             826     1.42564E+03     1.42564E+03        -10.7802        -10.7802        -7.24556        -7.24556
             827     1.42295E+03     1.42295E+03        -8.70401        -8.70401        -8.86206        -8.86206
             828     1.42054E+03     1.42054E+03        -6.72821        -6.72821        -10.0097        -10.0097
             829     1.41841E+03     1.41841E+03        -4.92972        -4.92972        -10.7610        -10.7610
             830     1.41655E+03     1.41655E+03        -3.34911        -3.34911        -11.1850        -11.1850
             831     1.41494E+03     1.41494E+03        -2.00020        -2.00020        -11.3442        -11.3442
             832     1.41355E+03     1.41355E+03    -879.056E-03    -879.056E-03        -11.2930        -11.2930
             833     1.41235E+03     1.41235E+03     29.3855E-03     29.3855E-03        -11.0780        -11.0780
             834     1.41131E+03     1.41131E+03     746.346E-03     746.346E-03        -10.7380        -10.7380
             835     1.41040E+03     1.41040E+03         1.29569         1.29569        -10.3054        -10.3054
             836     1.40961E+03     1.40961E+03         1.70167         1.70167        -9.80688        -9.80688
             837     1.40891E+03     1.40891E+03         1.98739         1.98739        -9.26434        -9.26434
             838     1.40829E+03     1.40829E+03         2.17406         2.17406        -8.69544        -8.69544
             839     1.40774E+03     1.40774E+03         2.28055         2.28055        -8.11441        -8.11441
             840     1.40724E+03     1.40724E+03         2.32328         2.32328        -7.53256        -7.53256
             841     1.40680E+03     1.40680E+03         2.31631         2.31631        -6.95872        -6.95872
             842     1.40639E+03     1.40639E+03         2.27147         2.27147        -6.39968        -6.39968
             843     1.40602E+03     1.40602E+03         2.19863         2.19863        -5.86047        -5.86047
             844     1.40568E+03     1.40568E+03         2.10588         2.10588        -5.34471        -5.34471
             845     1.40538E+03     1.40538E+03         1.99983         1.99983        -4.85482        -4.85482
             846     1.40510E+03     1.40510E+03         1.88582         1.88582        -4.39223        -4.39223
             847     1.40485E+03     1.40485E+03         1.76810         1.76810        -3.95759        -3.95759
             848     1.40461E+03     1.40461E+03         1.65003         1.65003        -3.55087        -3.55087
             849     1.40441E+03     1.40441E+03         1.53426         1.53426        -3.17154        -3.17154
             850     1.40422E+03     1.40422E+03         1.42283         1.42283        -2.81861        -2.81861
             851     1.40405E+03     1.40405E+03         1.31730         1.31730        -2.49080        -2.49080
             852     1.40390E+03     1.40390E+03         1.21885         1.21885        -2.18654        -2.18654
             853     1.40376E+03     1.40376E+03         1.12835         1.12835        -1.90407        -1.90407
             854     1.40364E+03     1.40364E+03         1.04644         1.04644        -1.64147        -1.64147
             855     1.40354E+03     1.40354E+03     973.565E-03     973.565E-03        -1.39672        -1.39672
             856     1.40345E+03     1.40345E+03     910.046E-03     910.046E-03        -1.16770        -1.16770
             857     1.40338E+03     1.40338E+03     856.089E-03     856.089E-03    -952.245E-03    -952.245E-03
             858     1.40332E+03     1.40332E+03     811.828E-03     811.828E-03    -748.131E-03    -748.131E-03
             859     1.40328E+03     1.40328E+03     777.347E-03     777.347E-03    -553.116E-03    -553.116E-03
             860     1.40325E+03     1.40325E+03     752.692E-03     752.692E-03    -364.944E-03    -364.944E-03
             861     1.40323E+03     1.40323E+03     737.877E-03     737.877E-03    -181.998E-03    -181.998E-03
             862     1.43792E+03     1.43792E+03        -10.3003        -10.3003         14.5824         14.5824
             863     1.43725E+03     1.43725E+03        -12.0961        -12.0961         10.8836         10.8836
             864     1.43591E+03     1.43591E+03        -12.7687        -12.7687         7.10688         7.10688
             865     1.43409E+03     1.43409E+03        -12.5392        -12.5392         3.52269         3.52269
             866     1.43197E+03     1.43197E+03        -11.6545        -11.6545     303.776E-03     303.776E-03
             867     1.42971E+03     1.42971E+03        -10.3485        -10.3485        -2.45966        -2.45966
             868     1.42744E+03     1.42744E+03        -8.81908        -8.81908        -4.73667        -4.73667
             869     1.42525E+03     1.42525E+03        -7.22133        -7.22133        -6.53830        -6.53830
             870     1.42318E+03     1.42318E+03        -5.66620        -5.66620        -7.90023        -7.90023
             871     1.42127E+03     1.42127E+03        -4.22711        -4.22711        -8.87171        -8.87171
             872     1.41952E+03     1.41952E+03        -2.94607        -2.94607        -9.50707        -9.50707
             873     1.41793E+03     1.41793E+03        -1.84190        -1.84190        -9.86030        -9.86030
             874     1.41650E+03     1.41650E+03    -916.816E-03    -916.816E-03        -9.98210        -9.98210
             875     1.41520E+03     1.41520E+03    -162.251E-03    -162.251E-03        -9.91813        -9.91813
             876     1.41403E+03     1.41403E+03     436.776E-03     436.776E-03        -9.70850        -9.70850
             877     1.41297E+03     1.41297E+03     898.436E-03     898.436E-03        -9.38772        -9.38772
             878     1.41200E+03     1.41200E+03         1.24187         1.24187        -8.98498        -8.98498
             879     1.41112E+03     1.41112E+03         1.48576         1.48576        -8.52465        -8.52465
             880     1.41032E+03     1.41032E+03         1.64746         1.64746        -8.02678        -8.02678
             881     1.40959E+03     1.40959E+03         1.74255         1.74255        -7.50765        -7.50765
             882     1.40891E+03     1.40891E+03         1.78463         1.78463        -6.98029        -6.98029
             883     1.40830E+03     1.40830E+03         1.78540         1.78540        -6.45494        -6.45494
             884     1.40773E+03     1.40773E+03         1.75470         1.75470        -5.93951        -5.93951
             885     1.40721E+03     1.40721E+03         1.70070         1.70070        -5.43992        -5.43992
             886     1.40674E+03     1.40674E+03         1.63014         1.63014        -4.96048        -4.96048
             887     1.40630E+03     1.40630E+03         1.54848         1.54848        -4.50412        -4.50412
             888     1.40591E+03     1.40591E+03         1.46011         1.46011        -4.07268        -4.07268
             889     1.40555E+03     1.40555E+03         1.36852         1.36852        -3.66710        -3.66710
             890     1.40522E+03     1.40522E+03         1.27647         1.27647        -3.28760        -3.28760
             891     1.40492E+03     1.40492E+03         1.18611         1.18611        -2.93382        -2.93382
             892     1.40466E+03     1.40466E+03         1.09908         1.09908        -2.60495        -2.60495
             893     1.40442E+03     1.40442E+03         1.01664         1.01664        -2.29982        -2.29982
             894     1.40421E+03     1.40421E+03     939.734E-03     939.734E-03        -2.01699        -2.01699
             895     1.40402E+03     1.40402E+03     869.054E-03     869.054E-03        -1.75481        -1.75481
             896     1.40386E+03     1.40386E+03     805.100E-03     805.100E-03        -1.51146        -1.51146
             897     1.40371E+03     1.40371E+03     748.224E-03     748.224E-03        -1.28504        -1.28504
             898     1.40359E+03     1.40359E+03     698.665E-03     698.665E-03        -1.07353        -1.07353
             899     1.40349E+03     1.40349E+03     656.579E-03     656.579E-03    -874.865E-03    -874.865E-03
             900     1.40341E+03     1.40341E+03     622.065E-03     622.065E-03    -686.951E-03    -686.951E-03
             901     1.40335E+03     1.40335E+03     595.181E-03     595.181E-03    -507.657E-03    -507.657E-03
             902     1.40331E+03     1.40331E+03     575.960E-03     575.960E-03    -334.840E-03    -334.840E-03
             903     1.40328E+03     1.40328E+03     564.417E-03     564.417E-03    -167.016E-03    -167.016E-03
             904     1.43422E+03     1.43422E+03        -7.14119        -7.14119         14.4266         14.4266
             905     1.43450E+03     1.43450E+03        -8.63092        -8.63092         11.4327         11.4327
             906     1.43416E+03     1.43416E+03        -9.29988        -9.29988         8.22109         8.22109
             907     1.43333E+03     1.43333E+03        -9.28351        -9.28351         5.04354         5.04354
             908     1.43212E+03     1.43212E+03        -8.74827        -8.74827         2.08060         2.08060
             909     1.43065E+03     1.43065E+03        -7.86201        -7.86201    -552.637E-03    -552.637E-03
             910     1.42903E+03     1.42903E+03        -6.77418        -6.77418        -2.79675        -2.79675
             911     1.42734E+03     1.42734E+03        -5.60572        -5.60572        -4.63356        -4.63356
             912     1.42564E+03     1.42564E+03        -4.44732        -4.44732        -6.07466        -6.07466
             913     1.42397E+03     1.42397E+03        -3.36068        -3.36068        -7.15007        -7.15007
             914     1.42235E+03     1.42235E+03        -2.38366        -2.38366        -7.90033        -7.90033
             915     1.42081E+03     1.42081E+03        -1.53497        -1.53497        -8.37032        -8.37032
             916     1.41935E+03     1.41935E+03    -819.683E-03    -819.683E-03        -8.60514        -8.60514
             917     1.41797E+03     1.41797E+03    -233.446E-03    -233.446E-03        -8.64758        -8.64758
             918     1.41667E+03     1.41667E+03     233.819E-03     233.819E-03        -8.53654        -8.53654
             919     1.41546E+03     1.41546E+03     595.284E-03     595.284E-03        -8.30643        -8.30643
             920     1.41433E+03     1.41433E+03     865.288E-03     865.288E-03        -7.98692        -7.98692
             921     1.41327E+03     1.41327E+03         1.05808         1.05808        -7.60310        -7.60310
             922     1.41228E+03     1.41228E+03         1.18703         1.18703        -7.17584        -7.17584
             923     1.41137E+03     1.41137E+03         1.26423         1.26423        -6.72216        -6.72216
             924     1.41052E+03     1.41052E+03         1.30026         1.30026        -6.25575        -6.25575
             925     1.40973E+03     1.40973E+03         1.30424         1.30424        -5.78740        -5.78740
             926     1.40900E+03     1.40900E+03         1.28381         1.28381        -5.32544        -5.32544
             927     1.40833E+03     1.40833E+03         1.24535         1.24535        -4.87614        -4.87614
             928     1.40772E+03     1.40772E+03         1.19408         1.19408        -4.44405        -4.44405
             929     1.40716E+03     1.40716E+03         1.13422         1.13422        -4.03230        -4.03230
             930     1.40665E+03     1.40665E+03         1.06915         1.06915        -3.64291        -3.64291
             931     1.40618E+03     1.40618E+03         1.00155         1.00155        -3.27694        -3.27694
             932     1.40576E+03     1.40576E+03     933.541E-03     933.541E-03        -2.93473        -2.93473
             933     1.40538E+03     1.40538E+03     866.743E-03     866.743E-03        -2.61604        -2.61604
             934     1.40504E+03     1.40504E+03     802.407E-03     802.407E-03        -2.32018        -2.32018
             935     1.40473E+03     1.40473E+03     741.479E-03     741.479E-03        -2.04609        -2.04609
             936     1.40446E+03     1.40446E+03     684.660E-03     684.660E-03        -1.79247        -1.79247
             937     1.40422E+03     1.40422E+03     632.465E-03     632.465E-03        -1.55779        -1.55779
             938     1.40402E+03     1.40402E+03     585.259E-03     585.259E-03        -1.34039        -1.34039
             939     1.40384E+03     1.40384E+03     543.297E-03     543.297E-03        -1.13850        -1.13850
             940     1.40369E+03     1.40369E+03     506.750E-03     506.750E-03    -950.285E-03    -950.285E-03
             941     1.40356E+03     1.40356E+03     475.728E-03     475.728E-03    -773.840E-03    -773.840E-03
             942     1.40346E+03     1.40346E+03     450.293E-03     450.293E-03    -607.235E-03    -607.235E-03
             943     1.40338E+03     1.40338E+03     430.485E-03     430.485E-03    -448.517E-03    -448.517E-03
             944     1.40333E+03     1.40333E+03     416.321E-03     416.321E-03    -295.727E-03    -295.727E-03
             945     1.40329E+03     1.40329E+03     407.820E-03     407.820E-03    -147.552E-03    -147.552E-03
             946     1.43099E+03     1.43099E+03        -4.67114        -4.67114         13.4252         13.4252
             947     1.43213E+03     1.43213E+03        -5.77625        -5.77625         11.0375         11.0375
             948     1.43271E+03     1.43271E+03        -6.32308        -6.32308         8.37196         8.37196
             949     1.43278E+03     1.43278E+03        -6.39021        -6.39021         5.64903         5.64903
             950     1.43241E+03     1.43241E+03        -6.08380        -6.08380         3.03927         3.03927
             951     1.43168E+03     1.43168E+03        -5.51610        -5.51610     661.792E-03     661.792E-03
             952     1.43068E+03     1.43068E+03        -4.79076        -4.79076        -1.41084        -1.41084
             953     1.42946E+03     1.42946E+03        -3.99448        -3.99448        -3.14517        -3.14517
             954     1.42811E+03     1.42811E+03        -3.19358        -3.19358        -4.53688        -4.53688
             955     1.42666E+03     1.42666E+03        -2.43486        -2.43486        -5.60239        -5.60239
             956     1.42517E+03     1.42517E+03        -1.74764        -1.74764        -6.37093        -6.37093
             957     1.42366E+03     1.42366E+03        -1.14754        -1.14754        -6.87876        -6.87876
             958     1.42216E+03     1.42216E+03    -639.731E-03    -639.731E-03        -7.16464        -7.16464
             959     1.42069E+03     1.42069E+03    -222.330E-03    -222.330E-03        -7.26679        -7.26679
             960     1.41926E+03     1.41926E+03     111.133E-03     111.133E-03        -7.22094        -7.22094
             961     1.41789E+03     1.41789E+03     369.596E-03     369.596E-03        -7.05927        -7.05927
             962     1.41658E+03     1.41658E+03     563.057E-03     563.057E-03        -6.80989        -6.80989
             963     1.41533E+03     1.41533E+03     701.577E-03     701.577E-03        -6.49676        -6.49676
             964     1.41416E+03     1.41416E+03     794.666E-03     794.666E-03        -6.13990        -6.13990
             965     1.41305E+03     1.41305E+03     850.944E-03     850.944E-03        -5.75572        -5.75572
             966     1.41202E+03     1.41202E+03     877.984E-03     877.984E-03        -5.35739        -5.35739
             967     1.41107E+03     1.41107E+03     882.285E-03     882.285E-03        -4.95528        -4.95528
             968     1.41018E+03     1.41018E+03     869.316E-03     869.316E-03        -4.55739        -4.55739
             969     1.40936E+03     1.40936E+03     843.611E-03     843.611E-03        -4.16973        -4.16973
             970     1.40861E+03     1.40861E+03     808.874E-03     808.874E-03        -3.79665        -3.79665
             971     1.40792E+03     1.40792E+03     768.095E-03     768.095E-03        -3.44115        -3.44115
             972     1.40730E+03     1.40730E+03     723.662E-03     723.662E-03        -3.10514        -3.10514
             973     1.40673E+03     1.40673E+03     677.460E-03     677.460E-03        -2.78965        -2.78965
             974     1.40621E+03     1.40621E+03     630.958E-03     630.958E-03        -2.49505        -2.49505
             975     1.40575E+03     1.40575E+03     585.292E-03     585.292E-03        -2.22113        -2.22113
             976     1.40534E+03     1.40534E+03     541.327E-03     541.327E-03        -1.96728        -1.96728
             977     1.40497E+03     1.40497E+03     499.713E-03     499.713E-03        -1.73257        -1.73257
             978     1.40465E+03     1.40465E+03     460.928E-03     460.928E-03        -1.51584        -1.51584
             979     1.40436E+03     1.40436E+03     425.322E-03     425.322E-03        -1.31574        -1.31574
             980     1.40412E+03     1.40412E+03     393.138E-03     393.138E-03        -1.13079        -1.13079
             981     1.40390E+03     1.40390E+03     364.546E-03     364.546E-03    -959.422E-03    -959.422E-03
             982     1.40372E+03     1.40372E+03     339.658E-03     339.658E-03    -800.019E-03    -800.019E-03
             983     1.40357E+03     1.40357E+03     318.544E-03     318.544E-03    -650.907E-03    -650.907E-03
             984     1.40345E+03     1.40345E+03     301.239E-03     301.239E-03    -510.398E-03    -510.398E-03
             985     1.40336E+03     1.40336E+03     287.758E-03     287.758E-03    -376.776E-03    -376.776E-03
             986     1.40330E+03     1.40330E+03     278.117E-03     278.117E-03    -248.321E-03    -248.321E-03
             987     1.40326E+03     1.40326E+03     272.332E-03     272.332E-03    -123.977E-03    -123.977E-03
             988     1.42829E+03     1.42829E+03        -2.77105        -2.77105         11.5863         11.5863
             989     1.43032E+03     1.43032E+03        -3.48582        -3.48582         9.73944         9.73944
             990     1.43181E+03     1.43181E+03        -3.85910        -3.85910         7.61699         7.61699
             991     1.43275E+03     1.43275E+03        -3.93383        -3.93383         5.40076         5.40076
             992     1.43317E+03     1.43317E+03        -3.77165        -3.77165         3.23764         3.23764
             993     1.43311E+03     1.43311E+03        -3.44032        -3.44032         1.23613         1.23613
             994     1.43266E+03     1.43266E+03        -3.00398        -3.00398    -533.272E-03    -533.272E-03
             995     1.43186E+03     1.43186E+03        -2.51733        -2.51733        -2.03282        -2.03282
             996     1.43079E+03     1.43079E+03        -2.02312        -2.02312        -3.25133        -3.25133
             997     1.42952E+03     1.42952E+03        -1.55180        -1.55180        -4.19674        -4.19674
             998     1.42810E+03     1.42810E+03        -1.12300        -1.12300        -4.89000        -4.89000
             999     1.42658E+03     1.42658E+03    -747.352E-03    -747.352E-03        -5.35952        -5.35952
            1000     1.42500E+03     1.42500E+03    -428.824E-03    -428.824E-03        -5.63709        -5.63709
            1001     1.42341E+03     1.42341E+03    -166.617E-03    -166.617E-03        -5.75490        -5.75490
            1002     1.42182E+03     1.42182E+03     43.0474E-03     43.0474E-03        -5.74353        -5.74353
            1003     1.42026E+03     1.42026E+03     205.672E-03     205.672E-03        -5.63080        -5.63080
            1004     1.41875E+03     1.41875E+03     327.486E-03     327.486E-03        -5.44117        -5.44117
            1005     1.41730E+03     1.41730E+03     414.809E-03     414.809E-03        -5.19556        -5.19556
            1006     1.41593E+03     1.41593E+03     473.638E-03     473.638E-03        -4.91143        -4.91143
            1007     1.41463E+03     1.41463E+03     509.408E-03     509.408E-03        -4.60310        -4.60310
            1008     1.41341E+03     1.41341E+03     526.898E-03     526.898E-03        -4.28202        -4.28202
            1009     1.41228E+03     1.41228E+03     530.198E-03     530.198E-03        -3.95719        -3.95719
            1010     1.41123E+03     1.41123E+03     522.748E-03     522.748E-03        -3.63551        -3.63551
            1011     1.41026E+03     1.41026E+03     507.389E-03     507.389E-03        -3.32212        -3.32212
            1012     1.40938E+03     1.40938E+03     486.438E-03     486.438E-03        -3.02074        -3.02074
            1013     1.40857E+03     1.40857E+03     461.755E-03     461.755E-03        -2.73391        -2.73391
            1014     1.40783E+03     1.40783E+03     434.824E-03     434.824E-03        -2.46321        -2.46321
            1015     1.40717E+03     1.40717E+03     406.810E-03     406.810E-03        -2.20950        -2.20950
            1016     1.40657E+03     1.40657E+03     378.617E-03     378.617E-03        -1.97305        -1.97305
            1017     1.40603E+03     1.40603E+03     350.943E-03     350.943E-03        -1.75367        -1.75367
            1018     1.40555E+03     1.40555E+03     324.313E-03     324.313E-03        -1.55082        -1.55082
            1019     1.40513E+03     1.40513E+03     299.122E-03     299.122E-03        -1.36372        -1.36372
            1020     1.40475E+03     1.40475E+03     275.658E-03     275.658E-03        -1.19136        -1.19136
            1021     1.40443E+03     1.40443E+03     254.130E-03     254.130E-03        -1.03263        -1.03263
            1022     1.40414E+03     1.40414E+03     234.683E-03     234.683E-03    -886.301E-03    -886.301E-03
            1023     1.40390E+03     1.40390E+03     217.417E-03     217.417E-03    -751.064E-03    -751.064E-03
            1024     1.40369E+03     1.40369E+03     202.395E-03     202.395E-03    -625.583E-03    -625.583E-03
            1025     1.40352E+03     1.40352E+03     189.656E-03     189.656E-03    -508.485E-03    -508.485E-03
            1026     1.40339E+03     1.40339E+03     179.228E-03     179.228E-03    -398.385E-03    -398.385E-03
            1027     1.40328E+03     1.40328E+03     171.104E-03     171.104E-03    -293.904E-03    -293.904E-03
            1028     1.40321E+03     1.40321E+03     165.265E-03     165.265E-03    -193.631E-03    -193.631E-03
            1029     1.40317E+03     1.40317E+03     161.762E-03     161.762E-03    -96.7788E-03    -96.7788E-03
            1030     1.42623E+03     1.42623E+03        -1.37410        -1.37410         8.81057         8.81057
            1031     1.42927E+03     1.42927E+03        -1.74982        -1.74982         7.49555         7.49555
            1032     1.43172E+03     1.43172E+03        -1.95221        -1.95221         5.95792         5.95792
            1033     1.43353E+03     1.43353E+03        -2.00150        -2.00150         4.33309         4.33309
            1034     1.43469E+03     1.43469E+03        -1.92800        -1.92800         2.73240         2.73240
            1035     1.43525E+03     1.43525E+03        -1.76571        -1.76571         1.24002         1.24002
            1036     1.43526E+03     1.43526E+03        -1.54740        -1.54740    -87.4977E-03    -87.4977E-03
            1037     1.43478E+03     1.43478E+03        -1.30142        -1.30142        -1.21856        -1.21856
            1038     1.43391E+03     1.43391E+03        -1.05004        -1.05004        -2.14188        -2.14188
            1039     1.43271E+03     1.43271E+03    -809.401E-03    -809.401E-03        -2.86157        -2.86157
            1040     1.43127E+03     1.43127E+03    -589.868E-03    -589.868E-03        -3.39211        -3.39211
            1041     1.42966E+03     1.42966E+03    -397.241E-03    -397.241E-03        -3.75426        -3.75426
            1042     1.42794E+03     1.42794E+03    -233.706E-03    -233.706E-03        -3.97172        -3.97172
            1043     1.42615E+03     1.42615E+03    -98.9976E-03    -98.9976E-03        -4.06875        -4.06875
            1044     1.42435E+03     1.42435E+03     8.78463E-03     8.78463E-03        -4.06852        -4.06852
            1045     1.42257E+03     1.42257E+03     92.4350E-03     92.4350E-03        -3.99216        -3.99216
            1046     1.42083E+03     1.42083E+03     155.154E-03     155.154E-03        -3.85822        -3.85822
            1047     1.41915E+03     1.41915E+03     200.197E-03     200.197E-03        -3.68257        -3.68257
            1048     1.41756E+03     1.41756E+03     230.648E-03     230.648E-03        -3.47840        -3.47840
            1049     1.41605E+03     1.41605E+03     249.310E-03     249.310E-03        -3.25647        -3.25647
            1050     1.41464E+03     1.41464E+03     258.637E-03     258.637E-03        -3.02536        -3.02536
            1051     1.41333E+03     1.41333E+03     260.731E-03     260.731E-03        -2.79175        -2.79175
            1052     1.41212E+03     1.41212E+03     257.352E-03     257.352E-03        -2.56074        -2.56074
            1053     1.41101E+03     1.41101E+03     249.953E-03     249.953E-03        -2.33610        -2.33610
            1054     1.40999E+03     1.40999E+03     239.712E-03     239.712E-03        -2.12050        -2.12050
            1055     1.40907E+03     1.40907E+03     227.578E-03     227.578E-03        -1.91576        -1.91576
            1056     1.40823E+03     1.40823E+03     214.301E-03     214.301E-03        -1.72299        -1.72299
            1057     1.40748E+03     1.40748E+03     200.470E-03     200.470E-03        -1.54276        -1.54276
            1058     1.40680E+03     1.40680E+03     186.541E-03     186.541E-03        -1.37521        -1.37521
            1059     1.40620E+03     1.40620E+03     172.863E-03     172.863E-03        -1.22015        -1.22015
            1060     1.40566E+03     1.40566E+03     159.701E-03     159.701E-03        -1.07715        -1.07715
            1061     1.40518E+03     1.40518E+03     147.250E-03     147.250E-03    -945.611E-03    -945.611E-03
            1062     1.40477E+03     1.40477E+03     135.656E-03     135.656E-03    -824.769E-03    -824.769E-03
            1063     1.40440E+03     1.40440E+03     125.019E-03     125.019E-03    -713.786E-03    -713.786E-03
            1064     1.40409E+03     1.40409E+03     115.414E-03     115.414E-03    -611.755E-03    -611.755E-03
            1065     1.40382E+03     1.40382E+03     106.886E-03     106.886E-03    -517.722E-03    -517.722E-03
            1066     1.40359E+03     1.40359E+03     99.4699E-03     99.4699E-03    -430.707E-03    -430.707E-03
            1067     1.40341E+03     1.40341E+03     93.1827E-03     93.1827E-03    -349.716E-03    -349.716E-03
            1068     1.40326E+03     1.40326E+03     88.0374E-03     88.0374E-03    -273.742E-03    -273.742E-03
            1069     1.40314E+03     1.40314E+03     84.0528E-03     84.0528E-03    -201.785E-03    -201.785E-03
            1070     1.40306E+03     1.40306E+03     81.1718E-03     81.1718E-03    -132.891E-03    -132.891E-03
            1071     1.40302E+03     1.40302E+03     79.3795E-03     79.3795E-03    -66.6405E-03    -66.6405E-03
            1072     1.42500E+03     1.42500E+03    -483.513E-03    -483.513E-03         4.92072         4.92072
            1073     1.42925E+03     1.42925E+03    -621.578E-03    -621.578E-03         4.20724         4.20724
            1074     1.43278E+03     1.43278E+03    -697.412E-03    -697.412E-03         3.36692         3.36692
            1075     1.43548E+03     1.43548E+03    -718.178E-03    -718.178E-03         2.47552         2.47552
            1076     1.43736E+03     1.43736E+03    -694.357E-03    -694.357E-03         1.59505         1.59505
            1077     1.43844E+03     1.43844E+03    -638.004E-03    -638.004E-03     772.711E-03     772.711E-03
            1078     1.43878E+03     1.43878E+03    -560.984E-03    -560.984E-03     40.4811E-03     40.4811E-03
            1079     1.43848E+03     1.43848E+03    -473.496E-03    -473.496E-03    -583.542E-03    -583.542E-03
            1080     1.43765E+03     1.43765E+03    -383.723E-03    -383.723E-03        -1.09285        -1.09285
            1081     1.43639E+03     1.43639E+03    -297.504E-03    -297.504E-03        -1.48951        -1.48951
            1082     1.43480E+03     1.43480E+03    -218.706E-03    -218.706E-03        -1.78162        -1.78162
            1083     1.43298E+03     1.43298E+03    -149.442E-03    -149.442E-03        -1.98072        -1.98072
            1084     1.43101E+03     1.43101E+03    -90.5641E-03    -90.5641E-03        -2.10011        -2.10011
            1085     1.42895E+03     1.42895E+03    -41.9936E-03    -41.9936E-03        -2.15334        -2.15334
            1086     1.42687E+03     1.42687E+03    -3.06723E-03    -3.06723E-03        -2.15335        -2.15335
            1087     1.42480E+03     1.42480E+03     27.2096E-03     27.2096E-03        -2.11189        -2.11189
            1088     1.42279E+03     1.42279E+03     49.9858E-03     49.9858E-03        -2.03926        -2.03926
            1089     1.42086E+03     1.42086E+03     66.4242E-03     66.4242E-03        -1.94421        -1.94421
            1090     1.41902E+03     1.41902E+03     77.6353E-03     77.6353E-03        -1.83399        -1.83399
            1091     1.41730E+03     1.41730E+03     84.6202E-03     84.6202E-03        -1.71449        -1.71449
            1092     1.41569E+03     1.41569E+03     88.2605E-03     88.2605E-03        -1.59036        -1.59036
            1093     1.41420E+03     1.41420E+03     89.3064E-03     89.3064E-03        -1.46521        -1.46521
            1094     1.41283E+03     1.41283E+03     88.3883E-03     88.3883E-03        -1.34176        -1.34176
            1095     1.41157E+03     1.41157E+03     86.0237E-03     86.0237E-03        -1.22201        -1.22201
            1096     1.41043E+03     1.41043E+03     82.6338E-03     82.6338E-03        -1.10738        -1.10738
            1097     1.40940E+03     1.40940E+03     78.5556E-03     78.5556E-03    -998.780E-03    -998.780E-03
            1098     1.40847E+03     1.40847E+03     74.0565E-03     74.0565E-03    -896.782E-03    -896.782E-03
            1099     1.40764E+03     1.40764E+03     69.3457E-03     69.3457E-03    -801.649E-03    -801.649E-03
            1100     1.40689E+03     1.40689E+03     64.5855E-03     64.5855E-03    -713.421E-03    -713.421E-03
            1101     1.40623E+03     1.40623E+03     59.9002E-03     59.9002E-03    -631.970E-03    -631.970E-03
            1102     1.40564E+03     1.40564E+03     55.3836E-03     55.3836E-03    -557.038E-03    -557.038E-03
            1103     1.40513E+03     1.40513E+03     51.1057E-03     51.1057E-03    -488.274E-03    -488.274E-03
            1104     1.40468E+03     1.40468E+03     47.1176E-03     47.1176E-03    -425.259E-03    -425.259E-03
            1105     1.40428E+03     1.40428E+03     43.4566E-03     43.4566E-03    -367.529E-03    -367.529E-03
            1106     1.40395E+03     1.40395E+03     40.1475E-03     40.1475E-03    -314.586E-03    -314.586E-03
            1107     1.40366E+03     1.40366E+03     37.2096E-03     37.2096E-03    -265.914E-03    -265.914E-03
            1108     1.40342E+03     1.40342E+03     34.6515E-03     34.6515E-03    -220.983E-03    -220.983E-03
            1109     1.40322E+03     1.40322E+03     32.4857E-03     32.4857E-03    -179.257E-03    -179.257E-03
            1110     1.40306E+03     1.40306E+03     30.7087E-03     30.7087E-03    -140.201E-03    -140.201E-03
            1111     1.40294E+03     1.40294E+03     29.3434E-03     29.3434E-03    -103.263E-03    -103.263E-03
            1112     1.40285E+03     1.40285E+03     28.3947E-03     28.3947E-03    -67.9318E-03    -67.9318E-03
            1113     1.40280E+03     1.40280E+03     27.7076E-03     27.7076E-03    -34.3251E-03    -34.3251E-03
            1114     1.42917E+03     1.42917E+03        -57.6324        -57.6324         55.7627         55.7627
            1115     1.41190E+03     1.41190E+03        -44.8026        -44.8026         54.0836         54.0836
            1116     1.40007E+03     1.40007E+03        -33.5275        -33.5275         49.7439         49.7439
            1117     1.39242E+03     1.39242E+03        -24.2705        -24.2705         44.4338         44.4338
            1118     1.38778E+03     1.38778E+03        -16.9210        -16.9210         39.0890         39.0890
            1119     1.38520E+03     1.38520E+03        -11.1468        -11.1468         34.1497         34.1497
            1120     1.38398E+03     1.38398E+03        -6.62836        -6.62836         29.7800         29.7800
            1121     1.38367E+03     1.38367E+03        -3.09194        -3.09194         26.0031         26.0031
            1122     1.38395E+03     1.38395E+03    -327.876E-03    -327.876E-03         22.7781         22.7781
            1123     1.38460E+03     1.38460E+03         1.82602         1.82602         20.0393         20.0393
            1124     1.38548E+03     1.38548E+03         3.49174         3.49174         17.7156         17.7156
            1125     1.38649E+03     1.38649E+03         4.76356         4.76356         15.7397         15.7397
            1126     1.38757E+03     1.38757E+03         5.71433         5.71433         14.0520         14.0520
            1127     1.38867E+03     1.38867E+03         6.40196         6.40196         12.6015         12.6015
            1128     1.38976E+03     1.38976E+03         6.87299         6.87299         11.3453         11.3453
            1129     1.39083E+03     1.39083E+03         7.16570         7.16570         10.2487         10.2487
            1130     1.39186E+03     1.39186E+03         7.31190         7.31190         9.28318         9.28318
            1131     1.39284E+03     1.39284E+03         7.33844         7.33844         8.42590         8.42590
            1132     1.39376E+03     1.39376E+03         7.26817         7.26817         7.65869         7.65869
            1133     1.39463E+03     1.39463E+03         7.12059         7.12059         6.96711         6.96711
            1134     1.39544E+03     1.39544E+03         6.91246         6.91246         6.33973         6.33973
            1135     1.39619E+03     1.39619E+03         6.65815         6.65815         5.76752         5.76752
            1136     1.39689E+03     1.39689E+03         6.36997         6.36997         5.24334         5.24334
            1137     1.39752E+03     1.39752E+03         6.05845         6.05845         4.76148         4.76148
            1138     1.39811E+03     1.39811E+03         5.73254         5.73254         4.31738         4.31738
            1139     1.39865E+03     1.39865E+03         5.39980         5.39980         3.90728         3.90728
            1140     1.39913E+03     1.39913E+03         5.06660         5.06660         3.52807         3.52807
            1141     1.39957E+03     1.39957E+03         4.73825         4.73825         3.17709         3.17709
            1142     1.39997E+03     1.39997E+03         4.41912         4.41912         2.85202         2.85202
            1143     1.40032E+03     1.40032E+03         4.11283         4.11283         2.55075         2.55075
            1144     1.40064E+03     1.40064E+03         3.82227         3.82227         2.27136         2.27136
            1145     1.40093E+03     1.40093E+03         3.54980         3.54980         2.01202         2.01202
            1146     1.40118E+03     1.40118E+03         3.29725         3.29725         1.77099         1.77099
            1147     1.40140E+03     1.40140E+03         3.06607         3.06607         1.54656         1.54656
            1148     1.40159E+03     1.40159E+03         2.85735         2.85735         1.33706         1.33706
            1149     1.40175E+03     1.40175E+03         2.67194         2.67194         1.14082         1.14082
            1150     1.40189E+03     1.40189E+03         2.51045         2.51045     956.185E-03     956.185E-03
            1151     1.40200E+03     1.40200E+03         2.37331         2.37331     781.518E-03     781.518E-03
            1152     1.40209E+03     1.40209E+03         2.26085         2.26085     615.168E-03     615.168E-03
            1153     1.40216E+03     1.40216E+03         2.17328         2.17328     455.488E-03     455.488E-03
            1154     1.40221E+03     1.40221E+03         2.11074         2.11074     300.832E-03     300.832E-03
            1155     1.40224E+03     1.40224E+03         2.07325         2.07325     149.938E-03     149.938E-03
            1156     1.39463E+03     1.39463E+03        -52.6177        -52.6177         77.7228         77.7228
            1157     1.38065E+03     1.38065E+03        -36.8453        -36.8453         67.8770         67.8770
            1158     1.37336E+03     1.37336E+03        -24.9667        -24.9667         57.7762         57.7762
            1159     1.37024E+03     1.37024E+03        -16.2443        -16.2443         48.6393         48.6393
            1160     1.36956E+03     1.36956E+03        -9.83425        -9.83425         40.8535         40.8535
            1161     1.37028E+03     1.37028E+03        -5.08444        -5.08444         34.3934         34.3934
            1162     1.37174E+03     1.37174E+03        -1.51992        -1.51992         29.0970         29.0970
            1163     1.37358E+03     1.37358E+03         1.17955         1.17955         24.7721         24.7721
            1164     1.37558E+03     1.37558E+03         3.23672         3.23672         21.2399         21.2399
            1165     1.37761E+03     1.37761E+03         4.80365         4.80365         18.3461         18.3461
            1166     1.37960E+03     1.37960E+03         5.98842         5.98842         15.9638         15.9638
            1167     1.38150E+03     1.38150E+03         6.86840         6.86840         13.9897         13.9897
            1168     1.38331E+03     1.38331E+03         7.50140         7.50140         12.3415         12.3415
            1169     1.38500E+03     1.38500E+03         7.93156         7.93156         10.9535         10.9535
            1170     1.38659E+03     1.38659E+03         8.19394         8.19394         9.77369         9.77369
            1171     1.38806E+03     1.38806E+03         8.31710         8.31710         8.76103         8.76103
            1172     1.38943E+03     1.38943E+03         8.32493         8.32493         7.88320         7.88320
            1173     1.39070E+03     1.39070E+03         8.23782         8.23782         7.11479         7.11479
            1174     1.39188E+03     1.39188E+03         8.07338         8.07338         6.43589         6.43589
            1175     1.39296E+03     1.39296E+03         7.84698         7.84698         5.83090         5.83090
            1176     1.39395E+03     1.39395E+03         7.57208         7.57208         5.28764         5.28764
            1177     1.39487E+03     1.39487E+03         7.26047         7.26047         4.79653         4.79653
            1178     1.39571E+03     1.39571E+03         6.92247         6.92247         4.35007         4.35007
            1179     1.39648E+03     1.39648E+03         6.56705         6.56705         3.94234         3.94234
            1180     1.39718E+03     1.39718E+03         6.20201         6.20201         3.56863         3.56863
            1181     1.39781E+03     1.39781E+03         5.83402         5.83402         3.22512         3.22512
            1182     1.39839E+03     1.39839E+03         5.46881         5.46881         2.90870         2.90870
            1183     1.39891E+03     1.39891E+03         5.11121         5.11121         2.61676         2.61676
            1184     1.39938E+03     1.39938E+03         4.76527         4.76527         2.34707         2.34707
            1185     1.39980E+03     1.39980E+03         4.43434         4.43434         2.09766         2.09766
            1186     1.40018E+03     1.40018E+03         4.12119         4.12119         1.86676         1.86676
            1187     1.40052E+03     1.40052E+03         3.82803         3.82803         1.65273         1.65273
            1188     1.40081E+03     1.40081E+03         3.55667         3.55667         1.45404         1.45404
            1189     1.40107E+03     1.40107E+03         3.30848         3.30848         1.26921         1.26921
            1190     1.40130E+03     1.40130E+03         3.08457         3.08457         1.09680         1.09680
            1191     1.40149E+03     1.40149E+03         2.88575         2.88575     935.432E-03     935.432E-03
            1192     1.40166E+03     1.40166E+03         2.71264         2.71264     783.710E-03     783.710E-03
            1193     1.40179E+03     1.40179E+03         2.56569         2.56569     640.271E-03     640.271E-03
            1194     1.40190E+03     1.40190E+03         2.44522         2.44522     503.757E-03     503.757E-03
            1195     1.40199E+03     1.40199E+03         2.35146         2.35146     372.816E-03     372.816E-03
            1196     1.40205E+03     1.40205E+03         2.28455         2.28455     246.105E-03     246.105E-03
            1197     1.40208E+03     1.40208E+03         2.24454         2.24454     122.593E-03     122.593E-03
            1198     1.34214E+03     1.34214E+03        -35.9206        -35.9206         91.2770         91.2770
            1199     1.33934E+03     1.33934E+03        -21.3734        -21.3734         72.9446         72.9446
            1200     1.34142E+03     1.34142E+03        -11.8746        -11.8746         58.1510         58.1510
            1201     1.34558E+03     1.34558E+03        -5.57801        -5.57801         46.6113         46.6113
            1202     1.35042E+03     1.35042E+03        -1.27727        -1.27727         37.6916         37.6916
            1203     1.35528E+03     1.35528E+03         1.75693         1.75693         30.7882         30.7882
            1204     1.35987E+03     1.35987E+03         3.95299         3.95299         25.4122         25.4122
            1205     1.36408E+03     1.36408E+03         5.57552         5.57552         21.1950         21.1950
            1206     1.36789E+03     1.36789E+03         6.78612         6.78612         17.8583         17.8583
            1207     1.37132E+03     1.37132E+03         7.68883         7.68883         15.1956         15.1956
            1208     1.37440E+03     1.37440E+03         8.35117         8.35117         13.0511         13.0511
            1209     1.37716E+03     1.37716E+03         8.81968         8.81968         11.3078         11.3078
            1210     1.37965E+03     1.37965E+03         9.12756         9.12756         9.87636         9.87636
            1211     1.38190E+03     1.38190E+03         9.30010         9.30010         8.68908         8.68908
            1212     1.38393E+03     1.38393E+03         9.35750         9.35750         7.69373         7.69373
            1213     1.38577E+03     1.38577E+03         9.31681         9.31681         6.85025         6.85025
            1214     1.38744E+03     1.38744E+03         9.19289         9.19289         6.12764         6.12764
            1215     1.38896E+03     1.38896E+03         8.99907         8.99907         5.50198         5.50198
            1216     1.39034E+03     1.39034E+03         8.74745         8.74745         4.95471         4.95471
            1217     1.39161E+03     1.39161E+03         8.44909         8.44909         4.47146         4.47146
            1218     1.39276E+03     1.39276E+03         8.11409         8.11409         4.04108         4.04108
            1219     1.39381E+03     1.39381E+03         7.75164         7.75164         3.65487         3.65487
            1220     1.39477E+03     1.39477E+03         7.37005         7.37005         3.30607         3.30607
            1221     1.39564E+03     1.39564E+03         6.97676         6.97676         2.98936         2.98936
            1222     1.39643E+03     1.39643E+03         6.57840         6.57840         2.70051         2.70051
            1223     1.39715E+03     1.39715E+03         6.18077         6.18077         2.43617         2.43617
            1224     1.39780E+03     1.39780E+03         5.78894         5.78894         2.19360         2.19360
            1225     1.39839E+03     1.39839E+03         5.40724         5.40724         1.97053         1.97053
            1226     1.39892E+03     1.39892E+03         5.03939         5.03939         1.76506         1.76506
            1227     1.39939E+03     1.39939E+03         4.68849         4.68849         1.57551         1.57551
            1228     1.39981E+03     1.39981E+03         4.35711         4.35711         1.40043         1.40043
            1229     1.40019E+03     1.40019E+03         4.04737         4.04737         1.23847         1.23847
            1230     1.40052E+03     1.40052E+03         3.76096         3.76096         1.08840         1.08840
            1231     1.40082E+03     1.40082E+03         3.49922         3.49922     949.041E-03     949.041E-03
            1232     1.40107E+03     1.40107E+03         3.26322         3.26322     819.272E-03     819.272E-03
            1233     1.40129E+03     1.40129E+03         3.05376         3.05376     698.006E-03     698.006E-03
            1234     1.40147E+03     1.40147E+03         2.87143         2.87143     584.182E-03     584.182E-03
            1235     1.40163E+03     1.40163E+03         2.71670         2.71670     476.757E-03     476.757E-03
            1236     1.40175E+03     1.40175E+03         2.58986         2.58986     374.705E-03     374.705E-03
            1237     1.40185E+03     1.40185E+03         2.49116         2.49116     277.008E-03     277.008E-03
            1238     1.40191E+03     1.40191E+03         2.42075         2.42075     182.665E-03     182.665E-03
            1239     1.40195E+03     1.40195E+03         2.37866         2.37866     90.9089E-03     90.9089E-03
            1240     1.27941E+03     1.27941E+03        -9.77732        -9.77732         84.9863         84.9863
            1241     1.29517E+03     1.29517E+03        -1.61549        -1.61549         63.0927         63.0927
            1242     1.30989E+03     1.30989E+03         2.82530         2.82530         47.7395         47.7395
            1243     1.32261E+03     1.32261E+03         5.40110         5.40110         36.8288         36.8288
            1244     1.33335E+03     1.33335E+03         7.00847         7.00847         28.9191         28.9191
            1245     1.34236E+03     1.34236E+03         8.07840         8.07840         23.0728         23.0728
            1246     1.34992E+03     1.34992E+03         8.83195         8.83195         18.6802         18.6802
            1247     1.35630E+03     1.35630E+03         9.38166         9.38166         15.3282         15.3282
            1248     1.36172E+03     1.36172E+03         9.78713         9.78713         12.7360         12.7360
            1249     1.36635E+03     1.36635E+03         10.0792         10.0792         10.7054         10.7054
            1250     1.37035E+03     1.37035E+03         10.2749         10.2749         9.09595         9.09595
            1251     1.37383E+03     1.37383E+03         10.3839         10.3839         7.80539         7.80539
            1252     1.37687E+03     1.37687E+03         10.4130         10.4130         6.75877         6.75877
            1253     1.37956E+03     1.37956E+03         10.3681         10.3681         5.90017         5.90017
            1254     1.38194E+03     1.38194E+03         10.2547         10.2547         5.18771         5.18771
            1255     1.38407E+03     1.38407E+03         10.0791         10.0791         4.58963         4.58963
            1256     1.38597E+03     1.38597E+03         9.84787         9.84787         4.08181         4.08181
            1257     1.38769E+03     1.38769E+03         9.56799         9.56799         3.64578         3.64578
            1258     1.38924E+03     1.38924E+03         9.24673         9.24673         3.26739         3.26739
            1259     1.39064E+03     1.39064E+03         8.89144         8.89144         2.93572         2.93572
            1260     1.39190E+03     1.39190E+03         8.50935         8.50935         2.64237         2.64237
            1261     1.39306E+03     1.39306E+03         8.10745         8.10745         2.38082         2.38082
            1262     1.39410E+03     1.39410E+03         7.69238         7.69238         2.14602         2.14602
            1263     1.39505E+03     1.39505E+03         7.27029         7.27029         1.93399         1.93399
            1264     1.39591E+03     1.39591E+03         6.84683         6.84683         1.74163         1.74163
            1265     1.39668E+03     1.39668E+03         6.42707         6.42707         1.56643         1.56643
            1266     1.39739E+03     1.39739E+03         6.01552         6.01552         1.40638         1.40638
            1267     1.39802E+03     1.39802E+03         5.61612         5.61612         1.25982         1.25982
            1268     1.39859E+03     1.39859E+03         5.23227         5.23227         1.12537         1.12537
            1269     1.39910E+03     1.39910E+03         4.86687         4.86687         1.00183         1.00183
            1270     1.39956E+03     1.39956E+03         4.52234         4.52234     888.147E-03     888.147E-03
            1271     1.39996E+03     1.39996E+03         4.20066         4.20066     783.376E-03     783.376E-03
            1272     1.40032E+03     1.40032E+03         3.90347         3.90347     686.653E-03     686.653E-03
            1273     1.40064E+03     1.40064E+03         3.63206         3.63206     597.171E-03     597.171E-03
            1274     1.40091E+03     1.40091E+03         3.38744         3.38744     514.166E-03     514.166E-03
            1275     1.40115E+03     1.40115E+03         3.17039         3.17039     436.907E-03     436.907E-03
            1276     1.40135E+03     1.40135E+03         2.98151         2.98151     364.690E-03     364.690E-03
            1277     1.40151E+03     1.40151E+03         2.82121         2.82121     296.830E-03     296.830E-03
            1278     1.40165E+03     1.40165E+03         2.68982         2.68982     232.661E-03     232.661E-03
            1279     1.40175E+03     1.40175E+03         2.58755         2.58755     171.535E-03     171.535E-03
            1280     1.40182E+03     1.40182E+03         2.51456         2.51456     112.818E-03     112.818E-03
            1281     1.40186E+03     1.40186E+03         2.47087         2.47087     56.0254E-03     56.0254E-03
            1282     1.22573E+03     1.22573E+03         15.6357         15.6357         51.8988         51.8988
            1283     1.26063E+03     1.26063E+03         15.2863         15.2863         36.3518         36.3518
            1284     1.28664E+03     1.28664E+03         14.4210         14.4210         26.4597         26.4597
            1285     1.30638E+03     1.30638E+03         13.5984         13.5984         19.8291         19.8291
            1286     1.32167E+03     1.32167E+03         12.9452         12.9452         15.2091         15.2091
            1287     1.33374E+03     1.33374E+03         12.4670         12.4670         11.8989         11.8989
            1288     1.34342E+03     1.34342E+03         12.1333         12.1333         9.46889         9.46889
            1289     1.35131E+03     1.35131E+03         11.9035         11.9035         7.65148         7.65148
            1290     1.35782E+03     1.35782E+03         11.7400         11.7400         6.26827         6.26827
            1291     1.36326E+03     1.36326E+03         11.6107         11.6107         5.20029         5.20029
            1292     1.36786E+03     1.36786E+03         11.4904         11.4904         4.36405         4.36405
            1293     1.37180E+03     1.37180E+03         11.3598         11.3598         3.70102         3.70102
            1294     1.37520E+03     1.37520E+03         11.2057         11.2057         3.16865         3.16865
            1295     1.37817E+03     1.37817E+03         11.0193         11.0193         2.73605         2.73605
            1296     1.38077E+03     1.38077E+03         10.7962         10.7962         2.38024         2.38024
            1297     1.38307E+03     1.38307E+03         10.5346         10.5346         2.08413         2.08413
            1298     1.38512E+03     1.38512E+03         10.2355         10.2355         1.83480         1.83480
            1299     1.38695E+03     1.38695E+03         9.90164         9.90164         1.62250         1.62250
            1300     1.38860E+03     1.38860E+03         9.53701         9.53701         1.43981         1.43981
            1301     1.39008E+03     1.39008E+03         9.14651         9.14651         1.28104         1.28104
            1302     1.39142E+03     1.39142E+03         8.73549         8.73549         1.14184         1.14184
            1303     1.39263E+03     1.39263E+03         8.30954         8.30954         1.01883         1.01883
            1304     1.39372E+03     1.39372E+03         7.87419         7.87419     909.422E-03     909.422E-03
            1305     1.39472E+03     1.39472E+03         7.43478         7.43478     811.560E-03     811.560E-03
            1306     1.39561E+03     1.39561E+03         6.99632         6.99632     723.636E-03     723.636E-03
            1307     1.39642E+03     1.39642E+03         6.56343         6.56343     644.364E-03     644.364E-03
            1308     1.39716E+03     1.39716E+03         6.14026         6.14026     572.699E-03     572.699E-03
            1309     1.39782E+03     1.39782E+03         5.73049         5.73049     507.780E-03     507.780E-03
            1310     1.39841E+03     1.39841E+03         5.33734         5.33734     448.885E-03     448.885E-03
            1311     1.39894E+03     1.39894E+03         4.96355         4.96355     395.392E-03     395.392E-03
            1312     1.39942E+03     1.39942E+03         4.61145         4.61145     346.760E-03     346.760E-03
            1313     1.39984E+03     1.39984E+03         4.28294         4.28294     302.506E-03     302.506E-03
            1314     1.40021E+03     1.40021E+03         3.97960         3.97960     262.195E-03     262.195E-03
            1315     1.40054E+03     1.40054E+03         3.70268         3.70268     225.427E-03     225.427E-03
            1316     1.40083E+03     1.40083E+03         3.45316         3.45316     191.831E-03     191.831E-03
            1317     1.40107E+03     1.40107E+03         3.23181         3.23181     161.063E-03     161.063E-03
            1318     1.40128E+03     1.40128E+03         3.03918         3.03918     132.800E-03     132.800E-03
            1319     1.40145E+03     1.40145E+03         2.87570         2.87570     106.739E-03     106.739E-03
            1320     1.40159E+03     1.40159E+03         2.74167         2.74167     82.5962E-03     82.5962E-03
            1321     1.40170E+03     1.40170E+03         2.63729         2.63729     60.1053E-03     60.1053E-03
            1322     1.40177E+03     1.40177E+03         2.56271         2.56271     39.0210E-03     39.0210E-03
            1323     1.40182E+03     1.40182E+03         2.51793         2.51793     19.1654E-03     19.1654E-03
            1324     1.20703E+03     1.20703E+03         24.9631         24.9631        -3.53166        -3.53166
            1325     1.24961E+03     1.24961E+03         20.8918         20.8918        -3.08056        -3.08056
            1326     1.27960E+03     1.27960E+03         18.0359         18.0359        -2.61697        -2.61697
            1327     1.30167E+03     1.30167E+03         16.0370         16.0370        -2.23214        -2.23214
            1328     1.31840E+03     1.31840E+03         14.6402         14.6402        -1.91729        -1.91729
            1329     1.33141E+03     1.33141E+03         13.6767         13.6767        -1.66238        -1.66238
            1330     1.34172E+03     1.34172E+03         13.0126         13.0126        -1.45366        -1.45366
            1331     1.35003E+03     1.35003E+03         12.5544         12.5544        -1.28252        -1.28252
            1332     1.35685E+03     1.35685E+03         12.2282         12.2282        -1.14075        -1.14075
            1333     1.36252E+03     1.36252E+03         11.9820         11.9820        -1.02282        -1.02282
            1334     1.36728E+03     1.36728E+03         11.7758         11.7758    -923.890E-03    -923.890E-03
            1335     1.37134E+03     1.37134E+03         11.5818         11.5818    -840.421E-03    -840.421E-03
            1336     1.37484E+03     1.37484E+03         11.3802         11.3802    -769.397E-03    -769.397E-03
            1337     1.37787E+03     1.37787E+03         11.1581         11.1581    -708.475E-03    -708.475E-03
            1338     1.38053E+03     1.38053E+03         10.9076         10.9076    -655.688E-03    -655.688E-03
            1339     1.38287E+03     1.38287E+03         10.6251         10.6251    -609.461E-03    -609.461E-03
            1340     1.38496E+03     1.38496E+03         10.3098         10.3098    -568.489E-03    -568.489E-03
            1341     1.38682E+03     1.38682E+03         9.96325         9.96325    -531.722E-03    -531.722E-03
            1342     1.38848E+03     1.38848E+03         9.58858         9.58858    -498.303E-03    -498.303E-03
            1343     1.38999E+03     1.38999E+03         9.19005         9.19005    -467.551E-03    -467.551E-03
            1344     1.39134E+03     1.39134E+03         8.77253         8.77253    -438.925E-03    -438.925E-03
            1345     1.39256E+03     1.39256E+03         8.34123         8.34123    -412.004E-03    -412.004E-03
            1346     1.39367E+03     1.39367E+03         7.90144         7.90144    -386.464E-03    -386.464E-03
            1347     1.39467E+03     1.39467E+03         7.45828         7.45828    -362.060E-03    -362.060E-03
            1348     1.39557E+03     1.39557E+03         7.01664         7.01664    -338.613E-03    -338.613E-03
            1349     1.39639E+03     1.39639E+03         6.58100         6.58100    -315.991E-03    -315.991E-03
            1350     1.39713E+03     1.39713E+03         6.15545         6.15545    -294.102E-03    -294.102E-03
            1351     1.39779E+03     1.39779E+03         5.74361         5.74361    -272.877E-03    -272.877E-03
            1352     1.39839E+03     1.39839E+03         5.34863         5.34863    -252.270E-03    -252.270E-03
            1353     1.39893E+03     1.39893E+03         4.97324         4.97324    -232.243E-03    -232.243E-03
            1354     1.39941E+03     1.39941E+03         4.61972         4.61972    -212.761E-03    -212.761E-03
            1355     1.39983E+03     1.39983E+03         4.28996         4.28996    -193.791E-03    -193.791E-03
            1356     1.40021E+03     1.40021E+03         3.98553         3.98553    -175.296E-03    -175.296E-03
            1357     1.40053E+03     1.40053E+03         3.70764         3.70764    -157.227E-03    -157.227E-03
            1358     1.40082E+03     1.40082E+03         3.45728         3.45728    -139.530E-03    -139.530E-03
            1359     1.40107E+03     1.40107E+03         3.23518         3.23518    -122.135E-03    -122.135E-03
            1360     1.40128E+03     1.40128E+03         3.04189         3.04189    -104.960E-03    -104.960E-03
            1361     1.40145E+03     1.40145E+03         2.87783         2.87783    -87.9061E-03    -87.9061E-03
            1362     1.40159E+03     1.40159E+03         2.74327         2.74327    -70.8602E-03    -70.8602E-03
            1363     1.40169E+03     1.40169E+03         2.63841         2.63841    -53.6901E-03    -53.6901E-03
            1364     1.40177E+03     1.40177E+03         2.56337         2.56337    -36.2444E-03    -36.2444E-03
            1365     1.40182E+03     1.40182E+03         2.51812         2.51812    -18.3924E-03    -18.3924E-03
            1366     1.23862E+03     1.23862E+03         9.50288         9.50288        -59.7006        -59.7006
            1367     1.26975E+03     1.26975E+03         10.8337         10.8337        -43.2336        -43.2336
            1368     1.29321E+03     1.29321E+03         11.1467         11.1467        -32.4067        -32.4067
            1369     1.31124E+03     1.31124E+03         11.1444         11.1444        -24.9351        -24.9351
            1370     1.32536E+03     1.32536E+03         11.0720         11.0720        -19.6061        -19.6061
            1371     1.33659E+03     1.33659E+03         11.0125         11.0125        -15.7033        -15.7033
            1372     1.34567E+03     1.34567E+03         10.9873         10.9873        -12.7848        -12.7848
            1373     1.35311E+03     1.35311E+03         10.9883         10.9883        -10.5623        -10.5623
            1374     1.35929E+03     1.35929E+03         11.0004         11.0004        -8.84362        -8.84362
            1375     1.36447E+03     1.36447E+03         11.0062         11.0062        -7.49595        -7.49595
            1376     1.36888E+03     1.36888E+03         10.9910         10.9910        -6.42573        -6.42573
            1377     1.37266E+03     1.37266E+03         10.9430         10.9430        -5.56546        -5.56546
            1378     1.37594E+03     1.37594E+03         10.8542         10.8542        -4.86578        -4.86578
            1379     1.37880E+03     1.37880E+03         10.7198         10.7198        -4.28995        -4.28995
            1380     1.38132E+03     1.38132E+03         10.5382         10.5382        -3.81040        -3.81040
            1381     1.38356E+03     1.38356E+03         10.3100         10.3100        -3.40621        -3.40621
            1382     1.38555E+03     1.38555E+03         10.0378         10.0378        -3.06142        -3.06142
            1383     1.38734E+03     1.38734E+03         9.72589         9.72589        -2.76377        -2.76377
            1384     1.38894E+03     1.38894E+03         9.37921         9.37921        -2.50386        -2.50386
            1385     1.39039E+03     1.39039E+03         9.00351         9.00351        -2.27441        -2.27441
            1386     1.39170E+03     1.39170E+03         8.60485         8.60485        -2.06981        -2.06981
            1387     1.39288E+03     1.39288E+03         8.18931         8.18931        -1.88572        -1.88572
            1388     1.39395E+03     1.39395E+03         7.76286         7.76286        -1.71879        -1.71879
            1389     1.39492E+03     1.39492E+03         7.33116         7.33116        -1.56640        -1.56640
            1390     1.39580E+03     1.39580E+03         6.89950         6.89950        -1.42650        -1.42650
            1391     1.39660E+03     1.39660E+03         6.47266         6.47266        -1.29750        -1.29750
            1392     1.39731E+03     1.39731E+03         6.05495         6.05495        -1.17811        -1.17811
            1393     1.39796E+03     1.39796E+03         5.65017         5.65017        -1.06728        -1.06728
            1394     1.39854E+03     1.39854E+03         5.26160         5.26160    -964.175E-03    -964.175E-03
            1395     1.39906E+03     1.39906E+03         4.89204         4.89204    -868.042E-03    -868.042E-03
            1396     1.39952E+03     1.39952E+03         4.54383         4.54383    -778.243E-03    -778.243E-03
            1397     1.39994E+03     1.39994E+03         4.21892         4.21892    -694.194E-03    -694.194E-03
            1398     1.40030E+03     1.40030E+03         3.91888         3.91888    -615.353E-03    -615.353E-03
            1399     1.40062E+03     1.40062E+03         3.64496         3.64496    -541.199E-03    -541.199E-03
            1400     1.40090E+03     1.40090E+03         3.39814         3.39814    -471.224E-03    -471.224E-03
            1401     1.40114E+03     1.40114E+03         3.17915         3.17915    -404.924E-03    -404.924E-03
            1402     1.40134E+03     1.40134E+03         2.98855         2.98855    -341.791E-03    -341.791E-03
            1403     1.40151E+03     1.40151E+03         2.82673         2.82673    -281.310E-03    -281.310E-03
            1404     1.40164E+03     1.40164E+03         2.69397         2.69397    -222.957E-03    -222.957E-03
            1405     1.40174E+03     1.40174E+03         2.59044         2.59044    -166.193E-03    -166.193E-03
            1406     1.40182E+03     1.40182E+03         2.51625         2.51625    -110.469E-03    -110.469E-03
            1407     1.40186E+03     1.40186E+03         2.47137         2.47137    -55.3560E-03    -55.3560E-03
            1408     1.30597E+03     1.30597E+03        -20.9758        -20.9758        -88.6478        -88.6478
            1409     1.31440E+03     1.31440E+03        -10.2218        -10.2218        -67.8950        -67.8950
            1410     1.32408E+03     1.32408E+03        -3.77766        -3.77766        -52.7274        -52.7274
            1411     1.33329E+03     1.33329E+03     310.421E-03     310.421E-03        -41.5870        -41.5870
            1412     1.34153E+03     1.34153E+03         3.04601         3.04601        -33.2846        -33.2846
            1413     1.34873E+03     1.34873E+03         4.96484         4.96484        -27.0115        -27.0115
            1414     1.35496E+03     1.35496E+03         6.35914         6.35914        -22.2073        -22.2073
            1415     1.36035E+03     1.36035E+03         7.39878         7.39878        -18.4823        -18.4823
            1416     1.36502E+03     1.36502E+03         8.18127         8.18127        -15.5602        -15.5602
            1417     1.36908E+03     1.36908E+03         8.76651         8.76651        -13.2429        -13.2429
            1418     1.37263E+03     1.37263E+03         9.19143         9.19143        -11.3854        -11.3854
            1419     1.37575E+03     1.37575E+03         9.48104         9.48104        -9.88072        -9.88072
            1420     1.37851E+03     1.37851E+03         9.65313         9.65313        -8.64867        -8.64867
            1421     1.38097E+03     1.38097E+03         9.72192         9.72192        -7.62881        -7.62881
            1422     1.38316E+03     1.38316E+03         9.69949         9.69949        -6.77509        -6.77509
            1423     1.38514E+03     1.38514E+03         9.59692         9.59692        -6.05226        -6.05226
            1424     1.38691E+03     1.38691E+03         9.42463         9.42463        -5.43323        -5.43323
            1425     1.38852E+03     1.38852E+03         9.19264         9.19264        -4.89709        -4.89709
            1426     1.38998E+03     1.38998E+03         8.91057         8.91057        -4.42771        -4.42771
            1427     1.39130E+03     1.39130E+03         8.58765         8.58765        -4.01259        -4.01259
            1428     1.39250E+03     1.39250E+03         8.23258         8.23258        -3.64206        -3.64206
            1429     1.39359E+03     1.39359E+03         7.85352         7.85352        -3.30862        -3.30862
            1430     1.39458E+03     1.39458E+03         7.45800         7.45800        -3.00644        -3.00644
            1431     1.39548E+03     1.39548E+03         7.05290         7.05290        -2.73097        -2.73097
            1432     1.39630E+03     1.39630E+03         6.64440         6.64440        -2.47862        -2.47862
            1433     1.39704E+03     1.39704E+03         6.23799         6.23799        -2.24655        -2.24655
            1434     1.39771E+03     1.39771E+03         5.83849         5.83849        -2.03248        -2.03248
            1435     1.39831E+03     1.39831E+03         5.45007         5.45007        -1.83452        -1.83452
            1436     1.39885E+03     1.39885E+03         5.07630         5.07630        -1.65112        -1.65112
            1437     1.39934E+03     1.39934E+03         4.72017         4.72017        -1.48091        -1.48091
            1438     1.39977E+03     1.39977E+03         4.38418         4.38418        -1.32269        -1.32269
            1439     1.40016E+03     1.40016E+03         4.07036         4.07036        -1.17536        -1.17536
            1440     1.40050E+03     1.40050E+03         3.78036         3.78036        -1.03792        -1.03792
            1441     1.40079E+03     1.40079E+03         3.51547         3.51547    -909.394E-03    -909.394E-03
            1442     1.40105E+03     1.40105E+03         3.27668         3.27668    -788.829E-03    -788.829E-03
            1443     1.40128E+03     1.40128E+03         3.06477         3.06477    -675.302E-03    -675.302E-03
            1444     1.40146E+03     1.40146E+03         2.88028         2.88028    -567.892E-03    -567.892E-03
            1445     1.40162E+03     1.40162E+03         2.72362         2.72362    -465.678E-03    -465.678E-03
            1446     1.40175E+03     1.40175E+03         2.59506         2.59506    -367.734E-03    -367.734E-03
            1447     1.40184E+03     1.40184E+03         2.49477         2.49477    -273.131E-03    -273.131E-03
            1448     1.40191E+03     1.40191E+03         2.42285         2.42285    -180.930E-03    -180.930E-03
            1449     1.40195E+03     1.40195E+03         2.37927         2.37927    -90.4138E-03    -90.4138E-03
            1450     1.37506E+03     1.37506E+03        -46.6195        -46.6195        -83.6897        -83.6897
            1451     1.36523E+03     1.36523E+03        -31.1156        -31.1156        -70.2960        -70.2960
            1452     1.36162E+03     1.36162E+03        -20.1325        -20.1325        -58.2084        -58.2084
            1453     1.36139E+03     1.36139E+03        -12.3867        -12.3867        -48.0831        -48.0831
            1454     1.36288E+03     1.36288E+03        -6.82078        -6.82078        -39.8583        -39.8583
            1455     1.36519E+03     1.36519E+03        -2.74581        -2.74581        -33.2443        -33.2443
            1456     1.36784E+03     1.36784E+03     293.262E-03     293.262E-03        -27.9375        -27.9375
            1457     1.37056E+03     1.37056E+03         2.58924         2.58924        -23.6710        -23.6710
            1458     1.37321E+03     1.37321E+03         4.33745         4.33745        -20.2263        -20.2263
            1459     1.37573E+03     1.37573E+03         5.66810         5.66810        -17.4290        -17.4290
            1460     1.37810E+03     1.37810E+03         6.67180         6.67180        -15.1419        -15.1419
            1461     1.38029E+03     1.38029E+03         7.41271         7.41271        -13.2572        -13.2572
            1462     1.38232E+03     1.38232E+03         7.93852         7.93852        -11.6906        -11.6906
            1463     1.38419E+03     1.38419E+03         8.28572         8.28572        -10.3763        -10.3763
            1464     1.38592E+03     1.38592E+03         8.48358         8.48358        -9.26254        -9.26254
            1465     1.38751E+03     1.38751E+03         8.55622         8.55622        -8.30892        -8.30892
            1466     1.38897E+03     1.38897E+03         8.52423         8.52423        -7.48384        -7.48384
            1467     1.39031E+03     1.39031E+03         8.40542         8.40542        -6.76262        -6.76262
            1468     1.39155E+03     1.39155E+03         8.21550         8.21550        -6.12595        -6.12595
            1469     1.39268E+03     1.39268E+03         7.96837         7.96837        -5.55880        -5.55880
            1470     1.39372E+03     1.39372E+03         7.67641         7.67641        -5.04944        -5.04944
            1471     1.39467E+03     1.39467E+03         7.35056         7.35056        -4.58872        -4.58872
            1472     1.39554E+03     1.39554E+03         7.00052         7.00052        -4.16947        -4.16947
            1473     1.39634E+03     1.39634E+03         6.63483         6.63483        -3.78607        -3.78607
            1474     1.39706E+03     1.39706E+03         6.26090         6.26090        -3.43406        -3.43406
            1475     1.39771E+03     1.39771E+03         5.88518         5.88518        -3.10988        -3.10988
            1476     1.39831E+03     1.39831E+03         5.51318         5.51318        -2.81063        -2.81063
            1477     1.39884E+03     1.39884E+03         5.14960         5.14960        -2.53387        -2.53387
            1478     1.39932E+03     1.39932E+03         4.79837         4.79837        -2.27756        -2.27756
            1479     1.39976E+03     1.39976E+03         4.46277         4.46277        -2.03989        -2.03989
            1480     1.40014E+03     1.40014E+03         4.14547         4.14547        -1.81925        -1.81925
            1481     1.40049E+03     1.40049E+03         3.84866         3.84866        -1.61413        -1.61413
            1482     1.40079E+03     1.40079E+03         3.57406         3.57406        -1.42313        -1.42313
            1483     1.40105E+03     1.40105E+03         3.32303         3.32303        -1.24490        -1.24490
            1484     1.40128E+03     1.40128E+03         3.09661         3.09661        -1.07810        -1.07810
            1485     1.40148E+03     1.40148E+03         2.89559         2.89559    -921.445E-03    -921.445E-03
            1486     1.40165E+03     1.40165E+03         2.72052         2.72052    -773.630E-03    -773.630E-03
            1487     1.40179E+03     1.40179E+03         2.57184         2.57184    -633.366E-03    -633.366E-03
            1488     1.40190E+03     1.40190E+03         2.44981         2.44981    -499.361E-03    -499.361E-03
            1489     1.40199E+03     1.40199E+03         2.35462         2.35462    -370.322E-03    -370.322E-03
            1490     1.40205E+03     1.40205E+03         2.28636         2.28636    -244.955E-03    -244.955E-03
            1491     1.40208E+03     1.40208E+03         2.24502         2.24502    -122.271E-03    -122.271E-03
            1492     1.42273E+03     1.42273E+03        -56.7519        -56.7519        -60.2211        -60.2211
            1493     1.40598E+03     1.40598E+03        -43.2643        -43.2643        -56.9158        -56.9158
            1494     1.39502E+03     1.39502E+03        -31.8357        -31.8357        -51.3653        -51.3653
            1495     1.38831E+03     1.38831E+03        -22.6996        -22.6996        -45.2419        -45.2419
            1496     1.38450E+03     1.38450E+03        -15.5730        -15.5730        -39.3962        -39.3962
            1497     1.38260E+03     1.38260E+03        -10.0347        -10.0347        -34.1641        -34.1641
            1498     1.38193E+03     1.38193E+03        -5.72801        -5.72801        -29.6308        -29.6308
            1499     1.38205E+03     1.38205E+03        -2.37022        -2.37022        -25.7685        -25.7685
            1500     1.38265E+03     1.38265E+03     248.800E-03     248.800E-03        -22.5049        -22.5049
            1501     1.38356E+03     1.38356E+03         2.28678         2.28678        -19.7547        -19.7547
            1502     1.38464E+03     1.38464E+03         3.86100         3.86100        -17.4354        -17.4354
            1503     1.38581E+03     1.38581E+03         5.06087         5.06087        -15.4726        -15.4726
            1504     1.38701E+03     1.38701E+03         5.95524         5.95524        -13.8024        -13.8024
            1505     1.38821E+03     1.38821E+03         6.59863         6.59863        -12.3714        -12.3714
            1506     1.38938E+03     1.38938E+03         7.03490         7.03490        -11.1353        -11.1353
            1507     1.39051E+03     1.39051E+03         7.30015         7.30015        -10.0585        -10.0585
            1508     1.39159E+03     1.39159E+03         7.42454         7.42454        -9.11192        -9.11192
            1509     1.39261E+03     1.39261E+03         7.43363         7.43363        -8.27257        -8.27257
            1510     1.39357E+03     1.39357E+03         7.34922         7.34922        -7.52209        -7.52209
            1511     1.39447E+03     1.39447E+03         7.19009         7.19009        -6.84601        -6.84601
            1512     1.39530E+03     1.39530E+03         6.97238         6.97238        -6.23288        -6.23288
            1513     1.39608E+03     1.39608E+03         6.71004         6.71004        -5.67372        -5.67372
            1514     1.39679E+03     1.39679E+03         6.41504         6.41504        -5.16140        -5.16140
            1515     1.39744E+03     1.39744E+03         6.09765         6.09765        -4.69030        -4.69030
            1516     1.39804E+03     1.39804E+03         5.76665         5.76665        -4.25588        -4.25588
            1517     1.39859E+03     1.39859E+03         5.42946         5.42946        -3.85447        -3.85447
            1518     1.39908E+03     1.39908E+03         5.09234         5.09234        -3.48303        -3.48303
            1519     1.39953E+03     1.39953E+03         4.76052         4.76052        -3.13894        -3.13894
            1520     1.39994E+03     1.39994E+03         4.43832         4.43832        -2.81997        -2.81997
            1521     1.40030E+03     1.40030E+03         4.12930         4.12930        -2.52406        -2.52406
            1522     1.40062E+03     1.40062E+03         3.83634         3.83634        -2.24936        -2.24936
            1523     1.40091E+03     1.40091E+03         3.56172         3.56172        -1.99411        -1.99411
            1524     1.40116E+03     1.40116E+03         3.30729         3.30729        -1.75660        -1.75660
            1525     1.40138E+03     1.40138E+03         3.07444         3.07444        -1.53520        -1.53520
            1526     1.40158E+03     1.40158E+03         2.86425         2.86425        -1.32826        -1.32826
            1527     1.40174E+03     1.40174E+03         2.67755         2.67755        -1.13418        -1.13418
            1528     1.40188E+03     1.40188E+03         2.51491         2.51491    -951.344E-03    -951.344E-03
            1529     1.40200E+03     1.40200E+03         2.37675         2.37675    -778.138E-03    -778.138E-03
            1530     1.40209E+03     1.40209E+03         2.26338         2.26338    -612.949E-03    -612.949E-03
            1531     1.40216E+03     1.40216E+03         2.17496         2.17496    -454.162E-03    -454.162E-03
            1532     1.40221E+03     1.40221E+03         2.11163         2.11163    -300.161E-03    -300.161E-03
            1533     1.40224E+03     1.40224E+03         2.07337         2.07337    -149.731E-03    -149.731E-03
            1534     1.40904E+03     1.40904E+03     45.0726E-03     45.0726E-03        -4.76494        -4.76494
            1535     1.41365E+03     1.41365E+03     75.3425E-03     75.3425E-03        -8.49026        -8.49026
            1536     1.41832E+03     1.41832E+03     38.5520E-03     38.5520E-03        -11.2220        -11.2220
            1537     1.42313E+03     1.42313E+03    -163.523E-03    -163.523E-03        -13.3136        -13.3136
            1538     1.42825E+03     1.42825E+03    -674.732E-03    -674.732E-03        -15.0174        -15.0174
            1539     1.43385E+03     1.43385E+03        -1.69517        -1.69517        -16.4768        -16.4768
            1540     1.44015E+03     1.44015E+03        -3.50289        -3.50289        -17.7255        -17.7255
            1541     1.44739E+03     1.44739E+03        -6.48709        -6.48709        -18.6580        -18.6580
            1542     1.45582E+03     1.45582E+03        -11.1870        -11.1870        -18.9612        -18.9612
            1543     1.46557E+03     1.46557E+03        -18.3194        -18.3194        -17.9745        -17.9745
            1544     1.47644E+03     1.47644E+03        -28.7041        -28.7041        -14.4824        -14.4824
            1545     1.48719E+03     1.48719E+03        -42.9195        -42.9195        -6.47552        -6.47552
            1546     1.40310E+03     1.40310E+03     463.642E-03     463.642E-03        -4.39539        -4.39539
            1547     1.40937E+03     1.40937E+03         1.23860         1.23860        -7.86275        -7.86275
            1548     1.41503E+03     1.41503E+03         2.33226         2.33226        -10.4923        -10.4923
            1549     1.42039E+03     1.42039E+03         3.60573         3.60573        -12.6629        -12.6629
            1550     1.42573E+03     1.42573E+03         4.91979         4.91979        -14.6663        -14.6663
            1551     1.43137E+03     1.43137E+03         6.11383         6.11383        -16.7156        -16.7156
            1552     1.43764E+03     1.43764E+03         6.97211         6.97211        -18.9615        -18.9615
            1553     1.44495E+03     1.44495E+03         7.17183         7.17183        -21.4880        -21.4880
            1554     1.45380E+03     1.45380E+03         6.19833         6.19833        -24.2718        -24.2718
            1555     1.46488E+03     1.46488E+03         3.20604         3.20604        -27.0732        -27.0732
            1556     1.47895E+03     1.47895E+03        -3.18748        -3.18748        -29.1455        -29.1455
            1557     1.49657E+03     1.49657E+03        -15.0657        -15.0657        -28.6344        -28.6344
            1558     1.39809E+03     1.39809E+03     853.170E-03     853.170E-03        -3.32399        -3.32399
            1559     1.40571E+03     1.40571E+03         2.32568         2.32568        -5.95239        -5.95239
            1560     1.41211E+03     1.41211E+03         4.48981         4.48981        -7.98188        -7.98188
            1561     1.41775E+03     1.41775E+03         7.18905         7.18905        -9.73724        -9.73724
            1562     1.42305E+03     1.42305E+03         10.3254         10.3254        -11.4818        -11.4818
            1563     1.42836E+03     1.42836E+03         13.8371         13.8371        -13.4359        -13.4359
            1564     1.43408E+03     1.43408E+03         17.6735         17.6735        -15.8056        -15.8056
            1565     1.44063E+03     1.44063E+03         21.7605         21.7605        -18.8038        -18.8038
            1566     1.44863E+03     1.44863E+03         25.9414         25.9414        -22.6650        -22.6650
            1567     1.45893E+03     1.45893E+03         29.8585         29.8585        -27.6409        -27.6409
            1568     1.47290E+03     1.47290E+03         32.6746         32.6746        -33.9212        -33.9212
            1569     1.49271E+03     1.49271E+03         32.4044         32.4044        -41.3002        -41.3002
            1570     1.39486E+03     1.39486E+03         1.13211         1.13211        -1.66992        -1.66992
            1571     1.40335E+03     1.40335E+03         3.10606         3.10606        -2.97184        -2.97184
            1572     1.41018E+03     1.41018E+03         6.04530         6.04530        -3.96938        -3.96938
            1573     1.41594E+03     1.41594E+03         9.79049         9.79049        -4.85428        -4.85428
            1574     1.42107E+03     1.42107E+03         14.2910         14.2910        -5.78637        -5.78637
            1575     1.42597E+03     1.42597E+03         19.5882         19.5882        -6.90893        -6.90893
            1576     1.43102E+03     1.43102E+03         25.8081         25.8081        -8.37094        -8.37094
            1577     1.43660E+03     1.43660E+03         33.1663         33.1663        -10.3518        -10.3518
            1578     1.44325E+03     1.44325E+03         41.9823         41.9823        -13.0935        -13.0935
            1579     1.45171E+03     1.45171E+03         52.7038         52.7038        -16.9505        -16.9505
            1580     1.46323E+03     1.46323E+03         65.9217         65.9217        -22.4953        -22.4953
            1581     1.48008E+03     1.48008E+03         82.2725         82.2725        -30.7100        -30.7100
            1582     1.39400E+03     1.39400E+03         1.23698         1.23698     319.571E-03     319.571E-03
            1583     1.40279E+03     1.40279E+03         3.40004         3.40004     626.572E-03     626.572E-03
            1584     1.40975E+03     1.40975E+03         6.63274         6.63274     915.944E-03     915.944E-03
            1585     1.41549E+03     1.41549E+03         10.7759         10.7759         1.17823         1.17823
            1586     1.42051E+03     1.42051E+03         15.7991         15.7991         1.40677         1.40677
            1587     1.42520E+03     1.42520E+03         21.7864         21.7864         1.59641         1.59641
            1588     1.42991E+03     1.42991E+03         28.9397         28.9397         1.74328         1.74328
            1589     1.43503E+03     1.43503E+03         37.6022         37.6022         1.84501         1.84501
            1590     1.44100E+03     1.44100E+03         48.3148         48.3148         1.90022         1.90022
            1591     1.44848E+03     1.44848E+03         61.9224         61.9224         1.90896         1.90896
            1592     1.45850E+03     1.45850E+03         79.8034         79.8034         1.87292         1.87292
            1593     1.47296E+03     1.47296E+03         104.435         104.435         1.79273         1.79273
            1594     1.39576E+03     1.39576E+03         1.14374         1.14374         2.31987         2.31987
            1595     1.40421E+03     1.40421E+03         3.13964         3.13964         4.24535         4.24535
            1596     1.41097E+03     1.41097E+03         6.11324         6.11324         5.82977         5.82977
            1597     1.41664E+03     1.41664E+03         9.90316         9.90316         7.24592         7.24592
            1598     1.42167E+03     1.42167E+03         14.4568         14.4568         8.64039         8.64039
            1599     1.42645E+03     1.42645E+03         19.8136         19.8136         10.1461         10.1461
            1600     1.43137E+03     1.43137E+03         26.0978         26.0978         11.9047         11.9047
            1601     1.43682E+03     1.43682E+03         33.5233         33.5233         14.0905         14.0905
            1602     1.44334E+03     1.44334E+03         42.4083         42.4083         16.9434         16.9434
            1603     1.45167E+03     1.45167E+03         53.1991         53.1991         20.8176         20.8176
            1604     1.46306E+03     1.46306E+03         66.4843         66.4843         26.2874         26.2874
            1605     1.47979E+03     1.47979E+03         82.9003         82.9003         34.3420         34.3420
            1606     1.39992E+03     1.39992E+03     876.360E-03     876.360E-03         4.00629         4.00629
            1607     1.40745E+03     1.40745E+03         2.39268         2.39268         7.28695         7.28695
            1608     1.41371E+03     1.41371E+03         4.62539         4.62539         9.92769         9.92769
            1609     1.41917E+03     1.41917E+03         7.41390         7.41390         12.2343         12.2343
            1610     1.42426E+03     1.42426E+03         10.6562         10.6562         14.4570         14.4570
            1611     1.42933E+03     1.42933E+03         14.2867         14.2867         16.8060         16.8060
            1612     1.43479E+03     1.43479E+03         18.2511         18.2511         19.4802         19.4802
            1613     1.44108E+03     1.44108E+03         22.4720         22.4720         22.6881         22.6881
            1614     1.44881E+03     1.44881E+03         26.7898         26.7898         26.6622         26.6622
            1615     1.45884E+03     1.45884E+03         30.8442         30.8442         31.6546         31.6546
            1616     1.47255E+03     1.47255E+03         33.7969         33.7969         37.8565         37.8565
            1617     1.49213E+03     1.49213E+03         33.6562         33.6562         45.0657         45.0657
            1618     1.40591E+03     1.40591E+03     498.256E-03     498.256E-03         5.13158         5.13158
            1619     1.41204E+03     1.41204E+03         1.33872         1.33872         9.29894         9.29894
            1620     1.41748E+03     1.41748E+03         2.53494         2.53494         12.5802         12.5802
            1621     1.42256E+03     1.42256E+03         3.94182         3.94182         15.3352         15.3352
            1622     1.42758E+03     1.42758E+03         5.41407         5.41407         17.8428         17.8428
            1623     1.43285E+03     1.43285E+03         6.78523         6.78523         20.3063         20.3063
            1624     1.43872E+03     1.43872E+03         7.83409         7.83409         22.8699         22.8699
            1625     1.44562E+03     1.44562E+03         8.23272         8.23272         25.6133         25.6133
            1626     1.45407E+03     1.45407E+03         7.46192         7.46192         28.5123         28.5123
            1627     1.46475E+03     1.46475E+03         4.67256         4.67256         31.3286         31.3286
            1628     1.47843E+03     1.47843E+03        -1.52075        -1.52075         33.3195         33.3195
            1629     1.49568E+03     1.49568E+03        -13.2002        -13.2002         32.6301         32.6301
            1630     1.41293E+03     1.41293E+03     90.9692E-03     90.9692E-03         5.57657         5.57657
            1631     1.41733E+03     1.41733E+03     208.211E-03     208.211E-03         10.0685         10.0685
            1632     1.42168E+03     1.42168E+03     307.594E-03     307.594E-03         13.5084         13.5084
            1633     1.42610E+03     1.42610E+03     282.529E-03     282.529E-03         16.2303         16.2303
            1634     1.43076E+03     1.43076E+03    -19.1260E-03    -19.1260E-03         18.4742         18.4742
            1635     1.43586E+03     1.43586E+03    -805.369E-03    -805.369E-03         20.3742         20.3742
            1636     1.44162E+03     1.44162E+03        -2.36179        -2.36179         21.9578         21.9578
            1637     1.44831E+03     1.44831E+03        -5.08453        -5.08453         23.1165         23.1165
            1638     1.45618E+03     1.45618E+03        -9.51920        -9.51920         23.5368         23.5368
            1639     1.46538E+03     1.46538E+03        -16.3882        -16.3882         22.5610         22.5610
            1640     1.47572E+03     1.47572E+03        -26.5148        -26.5148         18.9809         18.9809
            1641     1.48598E+03     1.48598E+03        -40.4767        -40.4767         10.7944         10.7944
            1642     1.40258E+03     1.40258E+03         1.69598         1.69598     185.428E-03     185.428E-03
            1643     1.40256E+03     1.40256E+03         1.72762         1.72762     371.913E-03     371.913E-03
            1644     1.40254E+03     1.40254E+03         1.78019         1.78019     563.092E-03     563.092E-03
            1645     1.40250E+03     1.40250E+03         1.85369         1.85369     760.515E-03     760.515E-03
            1646     1.40244E+03     1.40244E+03         1.94800         1.94800     966.249E-03     966.249E-03
            1647     1.40238E+03     1.40238E+03         2.06294         2.06294         1.18236         1.18236
            1648     1.40230E+03     1.40230E+03         2.19822         2.19822         1.41089         1.41089
            1649     1.40221E+03     1.40221E+03         2.35344         2.35344         1.65389         1.65389
            1650     1.40210E+03     1.40210E+03         2.52802         2.52802         1.91336         1.91336
            1651     1.40197E+03     1.40197E+03         2.72114         2.72114         2.19130         2.19130
            1652     1.40183E+03     1.40183E+03         2.93173         2.93173         2.48967         2.48967
            1653     1.40166E+03     1.40166E+03         3.15834         3.15834         2.81042         2.81042
            1654     1.40148E+03     1.40148E+03         3.39911         3.39911         3.15546         3.15546
            1655     1.40127E+03     1.40127E+03         3.65161         3.65161         3.52669         3.52669
            1656     1.40104E+03     1.40104E+03         3.91279         3.91279         3.92601         3.92601
            1657     1.40078E+03     1.40078E+03         4.17882         4.17882         4.35533         4.35533
            1658     1.40050E+03     1.40050E+03         4.44490         4.44490         4.81660         4.81660
            1659     1.40019E+03     1.40019E+03         4.70516         4.70516         5.31189         5.31189
            1660     1.39985E+03     1.39985E+03         4.95242         4.95242         5.84342         5.84342
            1661     1.39949E+03     1.39949E+03         5.17793         5.17793         6.41366         6.41366
            1662     1.39911E+03     1.39911E+03         5.37119         5.37119         7.02545         7.02545
            1663     1.39870E+03     1.39870E+03         5.51958         5.51958         7.68215         7.68215
            1664     1.39828E+03     1.39828E+03         5.60806         5.60806         8.38779         8.38779
            1665     1.39785E+03     1.39785E+03         5.61878         5.61878         9.14729         9.14729
            1666     1.39743E+03     1.39743E+03         5.53066         5.53066         9.96663         9.96663
            1667     1.39702E+03     1.39702E+03         5.31886         5.31886         10.8531         10.8531
            1668     1.39665E+03     1.39665E+03         4.95426         4.95426         11.8155         11.8155
            1669     1.39634E+03     1.39634E+03         4.40274         4.40274         12.8638         12.8638
            1670     1.39614E+03     1.39614E+03         3.62456         3.62456         14.0097         14.0097
            1671     1.39607E+03     1.39607E+03         2.57333         2.57333         15.2651         15.2651
            1672     1.39622E+03     1.39622E+03         1.19545         1.19545         16.6413         16.6413
            1673     1.39664E+03     1.39664E+03    -571.175E-03    -571.175E-03         18.1465         18.1465
            1674     1.39746E+03     1.39746E+03        -2.79690        -2.79690         19.7813         19.7813
            1675     1.39880E+03     1.39880E+03        -5.56104        -5.56104         21.5318         21.5318
            1676     1.40083E+03     1.40083E+03        -8.94751        -8.94751         23.3578         23.3578
            1677     1.40376E+03     1.40376E+03        -13.0406        -13.0406         25.1763         25.1763
            1678     1.40787E+03     1.40787E+03        -17.9045        -17.9045         26.8333         26.8333
            1679     1.41344E+03     1.41344E+03        -23.5564        -23.5564         28.0736         28.0736
            1680     1.42078E+03     1.42078E+03        -29.8949        -29.8949         28.4917         28.4917
            1681     1.43011E+03     1.43011E+03        -36.6062        -36.6062         27.5195         27.5195
            1682     1.44146E+03     1.44146E+03        -43.0061        -43.0061         24.4291         24.4291
            1683     1.45444E+03     1.45444E+03        -47.9819        -47.9819         18.5440         18.5440
            1684     1.40274E+03     1.40274E+03         1.50802         1.50802     194.154E-03     194.154E-03
            1685     1.40273E+03     1.40273E+03         1.53648         1.53648     389.398E-03     389.398E-03
            1686     1.40271E+03     1.40271E+03         1.58379         1.58379     589.642E-03     589.642E-03
            1687     1.40269E+03     1.40269E+03         1.64993         1.64993     796.536E-03     796.536E-03
            1688     1.40265E+03     1.40265E+03         1.73480         1.73480         1.01227         1.01227
            1689     1.40261E+03     1.40261E+03         1.83822         1.83822         1.23904         1.23904
            1690     1.40257E+03     1.40257E+03         1.95994         1.95994         1.47901         1.47901
            1691     1.40251E+03     1.40251E+03         2.09957         2.09957         1.73432         1.73432
            1692     1.40244E+03     1.40244E+03         2.25655         2.25655         2.00711         2.00711
            1693     1.40236E+03     1.40236E+03         2.43012         2.43012         2.29943         2.29943
            1694     1.40227E+03     1.40227E+03         2.61924         2.61924         2.61332         2.61332
            1695     1.40217E+03     1.40217E+03         2.82251         2.82251         2.95076         2.95076
            1696     1.40206E+03     1.40206E+03         3.03811         3.03811         3.31364         3.31364
            1697     1.40192E+03     1.40192E+03         3.26368         3.26368         3.70381         3.70381
            1698     1.40178E+03     1.40178E+03         3.49619         3.49619         4.12302         4.12302
            1699     1.40162E+03     1.40162E+03         3.73185         3.73185         4.57295         4.57295
            1700     1.40144E+03     1.40144E+03         3.96587         3.96587         5.05520         5.05520
            1701     1.40124E+03     1.40124E+03         4.19234         4.19234         5.57134         5.57134
            1702     1.40104E+03     1.40104E+03         4.40400         4.40400         6.12286         6.12286
            1703     1.40081E+03     1.40081E+03         4.59195         4.59195         6.71128         6.71128
            1704     1.40058E+03     1.40058E+03         4.74545         4.74545         7.33815         7.33815
            1705     1.40035E+03     1.40035E+03         4.85153         4.85153         8.00514         8.00514
            1706     1.40011E+03     1.40011E+03         4.89468         4.89468         8.71408         8.71408
            1707     1.39989E+03     1.39989E+03         4.85644         4.85644         9.46703         9.46703
            1708     1.39969E+03     1.39969E+03         4.71501         4.71501         10.2663         10.2663
            1709     1.39954E+03     1.39954E+03         4.44479         4.44479         11.1145         11.1145
            1710     1.39945E+03     1.39945E+03         4.01589         4.01589         12.0144         12.0144
            1711     1.39946E+03     1.39946E+03         3.39376         3.39376         12.9686         12.9686
            1712     1.39960E+03     1.39960E+03         2.53866         2.53866         13.9787         13.9787
            1713     1.39992E+03     1.39992E+03         1.40563         1.40563         15.0445         15.0445
            1714     1.40050E+03     1.40050E+03    -55.7822E-03    -55.7822E-03         16.1621         16.1621
            1715     1.40140E+03     1.40140E+03        -1.90050        -1.90050         17.3201         17.3201
            1716     1.40273E+03     1.40273E+03        -4.18692        -4.18692         18.4957         18.4957
            1717     1.40461E+03     1.40461E+03        -6.97242        -6.97242         19.6463         19.6463
            1718     1.40719E+03     1.40719E+03        -10.3079        -10.3079         20.7002         20.7002
            1719     1.41063E+03     1.41063E+03        -14.2232        -14.2232         21.5402         21.5402
            1720     1.41511E+03     1.41511E+03        -18.7075        -18.7075         21.9888         21.9888
            1721     1.42081E+03     1.42081E+03        -23.6690        -23.6690         21.7843         21.7843
            1722     1.42784E+03     1.42784E+03        -28.8815        -28.8815         20.5774         20.5774
            1723     1.43620E+03     1.43620E+03        -33.9095        -33.9095         17.9328         17.9328
            1724     1.44566E+03     1.44566E+03        -38.0390        -38.0390         13.4182         13.4182
            1725     1.45581E+03     1.45581E+03        -40.3171        -40.3171         6.64116         6.64116
            1726     1.40288E+03     1.40288E+03         1.31360         1.31360     198.313E-03     198.313E-03
            1727     1.40288E+03     1.40288E+03         1.33872         1.33872     397.733E-03     397.733E-03
            1728     1.40288E+03     1.40288E+03         1.38049         1.38049     602.369E-03     602.369E-03
            1729     1.40287E+03     1.40287E+03         1.43889         1.43889     813.925E-03     813.925E-03
            1730     1.40286E+03     1.40286E+03         1.51383         1.51383         1.03468         1.03468
            1731     1.40285E+03     1.40285E+03         1.60516         1.60516         1.26691         1.26691
            1732     1.40283E+03     1.40283E+03         1.71263         1.71263         1.51287         1.51287
            1733     1.40281E+03     1.40281E+03         1.83589         1.83589         1.77477         1.77477
            1734     1.40279E+03     1.40279E+03         1.97444         1.97444         2.05479         2.05479
            1735     1.40277E+03     1.40277E+03         2.12757         2.12757         2.35505         2.35505
            1736     1.40273E+03     1.40273E+03         2.29431         2.29431         2.67760         2.67760
            1737     1.40270E+03     1.40270E+03         2.47333         2.47333         3.02440         3.02440
            1738     1.40265E+03     1.40265E+03         2.66293         2.66293         3.39732         3.39732
            1739     1.40260E+03     1.40260E+03         2.86084         2.86084         3.79806         3.79806
            1740     1.40255E+03     1.40255E+03         3.06417         3.06417         4.22822         4.22822
            1741     1.40248E+03     1.40248E+03         3.26925         3.26925         4.68917         4.68917
            1742     1.40242E+03     1.40242E+03         3.47146         3.47146         5.18212         5.18212
            1743     1.40234E+03     1.40234E+03         3.66504         3.66504         5.70803         5.70803
            1744     1.40227E+03     1.40227E+03         3.84285         3.84285         6.26760         6.26760
            1745     1.40219E+03     1.40219E+03         3.99617         3.99617         6.86127         6.86127
            1746     1.40212E+03     1.40212E+03         4.11436         4.11436         7.48918         7.48918
            1747     1.40205E+03     1.40205E+03         4.18456         4.18456         8.15113         8.15113
            1748     1.40201E+03     1.40201E+03         4.19138         4.19138         8.84656         8.84656
            1749     1.40199E+03     1.40199E+03         4.11647         4.11647         9.57445         9.57445
            1750     1.40201E+03     1.40201E+03         3.93822         3.93822         10.3333         10.3333
            1751     1.40209E+03     1.40209E+03         3.63134         3.63134         11.1206         11.1206
            1752     1.40226E+03     1.40226E+03         3.16659         3.16659         11.9332         11.9332
            1753     1.40254E+03     1.40254E+03         2.51056         2.51056         12.7660         12.7660
            1754     1.40298E+03     1.40298E+03         1.62574         1.62574         13.6114         13.6114
            1755     1.40363E+03     1.40363E+03     470.726E-03     470.726E-03         14.4580         14.4580
            1756     1.40453E+03     1.40453E+03    -998.571E-03    -998.571E-03         15.2882         15.2882
            1757     1.40578E+03     1.40578E+03        -2.82743        -2.82743         16.0753         16.0753
            1758     1.40745E+03     1.40745E+03        -5.05841        -5.05841         16.7789         16.7789
            1759     1.40965E+03     1.40965E+03        -7.72620        -7.72620         17.3390         17.3390
            1760     1.41248E+03     1.41248E+03        -10.8473        -10.8473         17.6671         17.6671
            1761     1.41606E+03     1.41606E+03        -14.4057        -14.4057         17.6387         17.6387
            1762     1.42049E+03     1.42049E+03        -18.3294        -18.3294         17.0819         17.0819
            1763     1.42583E+03     1.42583E+03        -22.4578        -22.4578         15.7767         15.7767
            1764     1.43208E+03     1.43208E+03        -26.5025        -26.5025         13.4575         13.4575
            1765     1.43909E+03     1.43909E+03        -29.9990        -29.9990         9.85188         9.85188
            1766     1.44657E+03     1.44657E+03        -32.3076        -32.3076         4.72613         4.72613
            1767     1.45400E+03     1.45400E+03        -32.5283        -32.5283        -2.08294        -2.08294
            1768     1.40302E+03     1.40302E+03         1.11730         1.11730     197.728E-03     197.728E-03
            1769     1.40303E+03     1.40303E+03         1.13899         1.13899     396.547E-03     396.547E-03
            1770     1.40303E+03     1.40303E+03         1.17506         1.17506     600.697E-03     600.697E-03
            1771     1.40304E+03     1.40304E+03         1.22549         1.22549     811.899E-03     811.899E-03
            1772     1.40306E+03     1.40306E+03         1.29021         1.29021         1.03248         1.03248
            1773     1.40307E+03     1.40307E+03         1.36908         1.36908         1.26474         1.26474
            1774     1.40309E+03     1.40309E+03         1.46190         1.46190         1.51098         1.51098
            1775     1.40311E+03     1.40311E+03         1.56836         1.56836         1.77344         1.77344
            1776     1.40314E+03     1.40314E+03         1.68801         1.68801         2.05432         2.05432
            1777     1.40316E+03     1.40316E+03         1.82020         1.82020         2.35574         2.35574
            1778     1.40319E+03     1.40319E+03         1.96407         1.96407         2.67975         2.67975
            1779     1.40322E+03     1.40322E+03         2.11841         2.11841         3.02826         3.02826
            1780     1.40325E+03     1.40325E+03         2.28165         2.28165         3.40305         3.40305
            1781     1.40329E+03     1.40329E+03         2.45172         2.45172         3.80571         3.80571
            1782     1.40333E+03     1.40333E+03         2.62592         2.62592         4.23760         4.23760
            1783     1.40337E+03     1.40337E+03         2.80084         2.80084         4.69981         4.69981
            1784     1.40341E+03     1.40341E+03         2.97214         2.97214         5.19310         5.19310
            1785     1.40346E+03     1.40346E+03         3.13440         3.13440         5.71783         5.71783
            1786     1.40352E+03     1.40352E+03         3.28088         3.28088         6.27390         6.27390
            1787     1.40359E+03     1.40359E+03         3.40329         3.40329         6.86068         6.86068
            1788     1.40368E+03     1.40368E+03         3.49149         3.49149         7.47686         7.47686
            1789     1.40379E+03     1.40379E+03         3.53322         3.53322         8.12041         8.12041
            1790     1.40392E+03     1.40392E+03         3.51376         3.51376         8.78838         8.78838
            1791     1.40410E+03     1.40410E+03         3.41561         3.41561         9.47676         9.47676
            1792     1.40433E+03     1.40433E+03         3.21816         3.21816         10.1802         10.1802
            1793     1.40464E+03     1.40464E+03         2.89750         2.89750         10.8918         10.8918
            1794     1.40504E+03     1.40504E+03         2.42620         2.42620         11.6023         11.6023
            1795     1.40556E+03     1.40556E+03         1.77345         1.77345         12.2998         12.2998
            1796     1.40625E+03     1.40625E+03     905.333E-03     905.333E-03         12.9687         12.9687
            1797     1.40713E+03     1.40713E+03    -214.131E-03    -214.131E-03         13.5882         13.5882
            1798     1.40828E+03     1.40828E+03        -1.62152        -1.62152         14.1302         14.1302
            1799     1.40975E+03     1.40975E+03        -3.35091        -3.35091         14.5572         14.5572
            1800     1.41160E+03     1.41160E+03        -5.42963        -5.42963         14.8184         14.8184
            1801     1.41391E+03     1.41391E+03        -7.87087        -7.87087         14.8456         14.8456
            1802     1.41676E+03     1.41676E+03        -10.6636        -10.6636         14.5490         14.5490
            1803     1.42020E+03     1.42020E+03        -13.7575        -13.7575         13.8126         13.8126
            1804     1.42429E+03     1.42429E+03        -17.0427        -17.0427         12.4940         12.4940
            1805     1.42899E+03     1.42899E+03        -20.3267        -20.3267         10.4284         10.4284
            1806     1.43422E+03     1.43422E+03        -23.3048        -23.3048         7.44690         7.44690
            1807     1.43980E+03     1.43980E+03        -25.5507        -25.5507         3.40798         3.40798
            1808     1.44538E+03     1.44538E+03        -26.4871        -26.4871        -1.76707        -1.76707
            1809     1.45046E+03     1.45046E+03        -25.3961        -25.3961        -7.99598        -7.99598
            1810     1.40314E+03     1.40314E+03     923.857E-03     923.857E-03     192.299E-03     192.299E-03
            1811     1.40315E+03     1.40315E+03     942.084E-03     942.084E-03     385.638E-03     385.638E-03
            1812     1.40317E+03     1.40317E+03     972.405E-03     972.405E-03     584.316E-03     584.316E-03
            1813     1.40320E+03     1.40320E+03         1.01481         1.01481     790.024E-03     790.024E-03
            1814     1.40323E+03     1.40323E+03         1.06923         1.06923         1.00508         1.00508
            1815     1.40328E+03     1.40328E+03         1.13556         1.13556         1.23179         1.23179
            1816     1.40333E+03     1.40333E+03         1.21362         1.21362         1.47242         1.47242
            1817     1.40339E+03     1.40339E+03         1.30317         1.30317         1.72921         1.72921
            1818     1.40346E+03     1.40346E+03         1.40381         1.40381         2.00435         2.00435
            1819     1.40354E+03     1.40354E+03         1.51499         1.51499         2.29992         2.29992
            1820     1.40363E+03     1.40363E+03         1.63595         1.63595         2.61791         2.61791
            1821     1.40373E+03     1.40373E+03         1.76564         1.76564         2.96019         2.96019
            1822     1.40384E+03     1.40384E+03         1.90268         1.90268         3.32842         3.32842
            1823     1.40396E+03     1.40396E+03         2.04521         2.04521         3.72405         3.72405
            1824     1.40410E+03     1.40410E+03         2.19085         2.19085         4.14822         4.14822
            1825     1.40425E+03     1.40425E+03         2.33653         2.33653         4.60175         4.60175
            1826     1.40441E+03     1.40441E+03         2.47833         2.47833         5.08498         5.08498
            1827     1.40459E+03     1.40459E+03         2.61134         2.61134         5.59773         5.59773
            1828     1.40478E+03     1.40478E+03         2.72944         2.72944         6.13915         6.13915
            1829     1.40500E+03     1.40500E+03         2.82505         2.82505         6.70762         6.70762
            1830     1.40525E+03     1.40525E+03         2.88892         2.88892         7.30055         7.30055
            1831     1.40553E+03     1.40553E+03         2.90978         2.90978         7.91424         7.91424
            1832     1.40584E+03     1.40584E+03         2.87414         2.87414         8.54362         8.54362
            1833     1.40621E+03     1.40621E+03         2.76597         2.76597         9.18197         9.18197
            1834     1.40664E+03     1.40664E+03         2.56647         2.56647         9.82062         9.82062
            1835     1.40715E+03     1.40715E+03         2.25391         2.25391         10.4485         10.4485
            1836     1.40775E+03     1.40775E+03         1.80367         1.80367         11.0516         11.0516
            1837     1.40848E+03     1.40848E+03         1.18847         1.18847         11.6124         11.6124
            1838     1.40936E+03     1.40936E+03     379.071E-03     379.071E-03         12.1086         12.1086
            1839     1.41043E+03     1.41043E+03    -654.513E-03    -654.513E-03         12.5124         12.5124
            1840     1.41174E+03     1.41174E+03        -1.94079        -1.94079         12.7888         12.7888
            1841     1.41331E+03     1.41331E+03        -3.50353        -3.50353         12.8939         12.8939
            1842     1.41521E+03     1.41521E+03        -5.35663        -5.35663         12.7727         12.7727
            1843     1.41749E+03     1.41749E+03        -7.49691        -7.49691         12.3574         12.3574
            1844     1.42018E+03     1.42018E+03        -9.89422        -9.89422         11.5657         11.5657
            1845     1.42330E+03     1.42330E+03        -12.4782        -12.4782         10.3018         10.3018
            1846     1.42685E+03     1.42685E+03        -15.1236        -15.1236         8.46006         8.46006
            1847     1.43076E+03     1.43076E+03        -17.6321        -17.6321         5.93535         5.93535
            1848     1.43492E+03     1.43492E+03        -19.7221        -19.7221         2.64282         2.64282
            1849     1.43911E+03     1.43911E+03        -21.0157        -21.0157        -1.45729        -1.45729
            1850     1.44302E+03     1.44302E+03        -21.0485        -21.0485        -6.30689        -6.30689
            1851     1.44625E+03     1.44625E+03        -19.3047        -19.3047        -11.6976        -11.6976
            1852     1.40323E+03     1.40323E+03     738.031E-03     738.031E-03     182.034E-03     182.034E-03
            1853     1.40324E+03     1.40324E+03     752.849E-03     752.849E-03     365.015E-03     365.015E-03
            1854     1.40328E+03     1.40328E+03     777.510E-03     777.510E-03     553.225E-03     553.225E-03
            1855     1.40332E+03     1.40332E+03     812.000E-03     812.000E-03     748.280E-03     748.280E-03
            1856     1.40338E+03     1.40338E+03     856.271E-03     856.271E-03     952.435E-03     952.435E-03
            1857     1.40345E+03     1.40345E+03     910.240E-03     910.240E-03         1.16794         1.16794
            1858     1.40354E+03     1.40354E+03     973.775E-03     973.775E-03         1.39700         1.39700
            1859     1.40364E+03     1.40364E+03         1.04667         1.04667         1.64180         1.64180
            1860     1.40376E+03     1.40376E+03         1.12860         1.12860         1.90445         1.90445
            1861     1.40389E+03     1.40389E+03         1.21913         1.21913         2.18698         2.18698
            1862     1.40405E+03     1.40405E+03         1.31761         1.31761         2.49131         2.49131
            1863     1.40422E+03     1.40422E+03         1.42318         1.42318         2.81919         2.81919
            1864     1.40440E+03     1.40440E+03         1.53465         1.53465         3.17220         3.17220
            1865     1.40461E+03     1.40461E+03         1.65047         1.65047         3.55162         3.55162
            1866     1.40484E+03     1.40484E+03         1.76858         1.76858         3.95844         3.95844
            1867     1.40510E+03     1.40510E+03         1.88637         1.88637         4.39319         4.39319
            1868     1.40538E+03     1.40538E+03         2.00044         2.00044         4.85590         4.85590
            1869     1.40568E+03     1.40568E+03         2.10656         2.10656         5.34592         5.34592
            1870     1.40602E+03     1.40602E+03         2.19939         2.19939         5.86183         5.86183
            1871     1.40639E+03     1.40639E+03         2.27233         2.27233         6.40119         6.40119
            1872     1.40679E+03     1.40679E+03         2.31728         2.31728         6.96040         6.96040
            1873     1.40724E+03     1.40724E+03         2.32438         2.32438         7.53440         7.53440
            1874     1.40774E+03     1.40774E+03         2.28180         2.28180         8.11642         8.11642
            1875     1.40829E+03     1.40829E+03         2.17550         2.17550         8.69761         8.69761
            1876     1.40891E+03     1.40891E+03         1.98907         1.98907         9.26667         9.26667
            1877     1.40961E+03     1.40961E+03         1.70366         1.70366         9.80936         9.80936
            1878     1.41040E+03     1.41040E+03         1.29808         1.29808         10.3080         10.3080
            1879     1.41130E+03     1.41130E+03     749.255E-03     749.255E-03         10.7406         10.7406
            1880     1.41234E+03     1.41234E+03     32.9760E-03     32.9760E-03         11.0807         11.0807
            1881     1.41354E+03     1.41354E+03    -874.579E-03    -874.579E-03         11.2959         11.2959
            1882     1.41493E+03     1.41493E+03        -1.99461        -1.99461         11.3471         11.3471
            1883     1.41654E+03     1.41654E+03        -3.34215        -3.34215         11.1882         11.1882
            1884     1.41839E+03     1.41839E+03        -4.92120        -4.92120         10.7649         10.7649
            1885     1.42052E+03     1.42052E+03        -6.71804        -6.71804         10.0147         10.0147
            1886     1.42293E+03     1.42293E+03        -8.69242        -8.69242         8.86886         8.86886
            1887     1.42561E+03     1.42561E+03        -10.7678        -10.7678         7.25511         7.25511
            1888     1.42854E+03     1.42854E+03        -12.8194        -12.8194         5.10510         5.10510
            1889     1.43162E+03     1.43162E+03        -14.6659        -14.6659         2.36671         2.36671
            1890     1.43472E+03     1.43472E+03        -16.0612        -16.0612    -979.633E-03    -979.633E-03
            1891     1.43766E+03     1.43766E+03        -16.6988        -16.6988        -4.89171        -4.89171
            1892     1.44016E+03     1.44016E+03        -16.2302        -16.2302        -9.23602        -9.23602
            1893     1.44195E+03     1.44195E+03        -14.3070        -14.3070        -13.7475        -13.7475
            1894     1.40328E+03     1.40328E+03     564.536E-03     564.536E-03     167.050E-03     167.050E-03
            1895     1.40331E+03     1.40331E+03     576.082E-03     576.082E-03     334.907E-03     334.907E-03
            1896     1.40335E+03     1.40335E+03     595.307E-03     595.307E-03     507.759E-03     507.759E-03
            1897     1.40341E+03     1.40341E+03     622.198E-03     622.198E-03     687.090E-03     687.090E-03
            1898     1.40349E+03     1.40349E+03     656.719E-03     656.719E-03     875.042E-03     875.042E-03
            1899     1.40359E+03     1.40359E+03     698.816E-03     698.816E-03         1.07374         1.07374
            1900     1.40371E+03     1.40371E+03     748.388E-03     748.388E-03         1.28530         1.28530
            1901     1.40385E+03     1.40385E+03     805.279E-03     805.279E-03         1.51177         1.51177
            1902     1.40402E+03     1.40402E+03     869.250E-03     869.250E-03         1.75517         1.75517
            1903     1.40420E+03     1.40420E+03     939.951E-03     939.951E-03         2.01741         2.01741
            1904     1.40442E+03     1.40442E+03         1.01688         1.01688         2.30031         2.30031
            1905     1.40466E+03     1.40466E+03         1.09935         1.09935         2.60551         2.60551
            1906     1.40492E+03     1.40492E+03         1.18641         1.18641         2.93445         2.93445
            1907     1.40522E+03     1.40522E+03         1.27681         1.27681         3.28832         3.28832
            1908     1.40554E+03     1.40554E+03         1.36891         1.36891         3.66791         3.66791
            1909     1.40591E+03     1.40591E+03         1.46054         1.46054         4.07360         4.07360
            1910     1.40630E+03     1.40630E+03         1.54897         1.54897         4.50516         4.50516
            1911     1.40674E+03     1.40674E+03         1.63069         1.63069         4.96165         4.96165
            1912     1.40721E+03     1.40721E+03         1.70132         1.70132         5.44125         5.44125
            1913     1.40773E+03     1.40773E+03         1.75539         1.75539         5.94099         5.94099
            1914     1.40830E+03     1.40830E+03         1.78620         1.78620         6.45660         6.45660
            1915     1.40891E+03     1.40891E+03         1.78555         1.78555         6.98214         6.98214
            1916     1.40959E+03     1.40959E+03         1.74361         1.74361         7.50971         7.50971
            1917     1.41032E+03     1.41032E+03         1.64871         1.64871         8.02906         8.02906
            1918     1.41112E+03     1.41112E+03         1.48725         1.48725         8.52717         8.52717
            1919     1.41200E+03     1.41200E+03         1.24366         1.24366         8.98776         8.98776
            1920     1.41297E+03     1.41297E+03     900.630E-03     900.630E-03         9.39078         9.39078
            1921     1.41403E+03     1.41403E+03     439.482E-03     439.482E-03         9.71188         9.71188
            1922     1.41520E+03     1.41520E+03    -158.888E-03    -158.888E-03         9.92189         9.92189
            1923     1.41649E+03     1.41649E+03    -912.641E-03    -912.641E-03         9.98636         9.98636
            1924     1.41793E+03     1.41793E+03        -1.83675        -1.83675         9.86520         9.86520
            1925     1.41951E+03     1.41951E+03        -2.93979        -2.93979         9.51284         9.51284
            1926     1.42126E+03     1.42126E+03        -4.21965        -4.21965         8.87871         8.87871
            1927     1.42317E+03     1.42317E+03        -5.65766        -5.65766         7.90890         7.90890
            1928     1.42523E+03     1.42523E+03        -7.21202        -7.21202         6.54919         6.54919
            1929     1.42743E+03     1.42743E+03        -8.80969        -8.80969         4.75029         4.75029
            1930     1.42969E+03     1.42969E+03        -10.3399        -10.3399         2.47631         2.47631
            1931     1.43195E+03     1.43195E+03        -11.6479        -11.6479    -284.203E-03    -284.203E-03
            1932     1.43407E+03     1.43407E+03        -12.5353        -12.5353        -3.50092        -3.50092
            1933     1.43589E+03     1.43589E+03        -12.7680        -12.7680        -7.08412        -7.08412
            1934     1.43723E+03     1.43723E+03        -12.0981        -12.0981        -10.8615        -10.8615
            1935     1.43789E+03     1.43789E+03        -10.3050        -10.3050        -14.5624        -14.5624
            1936     1.40329E+03     1.40329E+03     407.907E-03     407.907E-03     147.582E-03     147.582E-03
            1937     1.40332E+03     1.40332E+03     416.410E-03     416.410E-03     295.787E-03     295.787E-03
            1938     1.40338E+03     1.40338E+03     430.577E-03     430.577E-03     448.609E-03     448.609E-03
            1939     1.40346E+03     1.40346E+03     450.390E-03     450.390E-03     607.360E-03     607.360E-03
            1940     1.40356E+03     1.40356E+03     475.830E-03     475.830E-03     773.999E-03     773.999E-03
            1941     1.40368E+03     1.40368E+03     506.861E-03     506.861E-03     950.481E-03     950.481E-03
            1942     1.40384E+03     1.40384E+03     543.416E-03     543.416E-03         1.13874         1.13874
            1943     1.40402E+03     1.40402E+03     585.390E-03     585.390E-03         1.34067         1.34067
            1944     1.40422E+03     1.40422E+03     632.609E-03     632.609E-03         1.55811         1.55811
            1945     1.40446E+03     1.40446E+03     684.821E-03     684.821E-03         1.79284         1.79284
            1946     1.40473E+03     1.40473E+03     741.657E-03     741.657E-03         2.04653         2.04653
            1947     1.40504E+03     1.40504E+03     802.607E-03     802.607E-03         2.32068         2.32068
            1948     1.40538E+03     1.40538E+03     866.967E-03     866.967E-03         2.61662         2.61662
            1949     1.40576E+03     1.40576E+03     933.794E-03     933.794E-03         2.93539         2.93539
            1950     1.40618E+03     1.40618E+03         1.00184         1.00184         3.27769         3.27769
            1951     1.40664E+03     1.40664E+03         1.06947         1.06947         3.64376         3.64376
            1952     1.40716E+03     1.40716E+03         1.13458         1.13458         4.03327         4.03327
            1953     1.40772E+03     1.40772E+03         1.19449         1.19449         4.44514         4.44514
            1954     1.40833E+03     1.40833E+03         1.24582         1.24582         4.87738         4.87738
            1955     1.40900E+03     1.40900E+03         1.28435         1.28435         5.32684         5.32684
            1956     1.40973E+03     1.40973E+03         1.30485         1.30485         5.78897         5.78897
            1957     1.41052E+03     1.41052E+03         1.30098         1.30098         6.25752         6.25752
            1958     1.41137E+03     1.41137E+03         1.26507         1.26507         6.72416         6.72416
            1959     1.41228E+03     1.41228E+03         1.18804         1.18804         7.17809         7.17809
            1960     1.41327E+03     1.41327E+03         1.05929         1.05929         7.60566         7.60566
            1961     1.41433E+03     1.41433E+03     866.775E-03     866.775E-03         7.98981         7.98981
            1962     1.41546E+03     1.41546E+03     597.120E-03     597.120E-03         8.30973         8.30973
            1963     1.41668E+03     1.41668E+03     236.102E-03     236.102E-03         8.54033         8.54033
            1964     1.41797E+03     1.41797E+03    -230.609E-03    -230.609E-03         8.65196         8.65196
            1965     1.41935E+03     1.41935E+03    -816.173E-03    -816.173E-03         8.61028         8.61028
            1966     1.42081E+03     1.42081E+03        -1.53069        -1.53069         8.37641         8.37641
            1967     1.42235E+03     1.42235E+03        -2.37853        -2.37853         7.90764         7.90764
            1968     1.42396E+03     1.42396E+03        -3.35474        -3.35474         7.15891         7.15891
            1969     1.42563E+03     1.42563E+03        -4.44071        -4.44071         6.08539         6.08539
            1970     1.42733E+03     1.42733E+03        -5.59880        -5.59880         4.64652         4.64652
            1971     1.42902E+03     1.42902E+03        -6.76744        -6.76744         2.81218         2.81218
            1972     1.43064E+03     1.43064E+03        -7.85615        -7.85615     570.598E-03     570.598E-03
            1973     1.43211E+03     1.43211E+03        -8.74388        -8.74388        -2.06039        -2.06039
            1974     1.43332E+03     1.43332E+03        -9.28106        -9.28106        -5.02164        -5.02164
            1975     1.43416E+03     1.43416E+03        -9.29920        -9.29920        -8.19842        -8.19842
            1976     1.43449E+03     1.43449E+03        -8.63161        -8.63161        -11.4104        -11.4104
            1977     1.43422E+03     1.43422E+03        -7.14288        -7.14288        -14.4065        -14.4065
            1978     1.40326E+03     1.40326E+03     272.390E-03     272.390E-03     124.003E-03     124.003E-03
            1979     1.40329E+03     1.40329E+03     278.177E-03     278.177E-03     248.372E-03     248.372E-03
            1980     1.40336E+03     1.40336E+03     287.820E-03     287.820E-03     376.854E-03     376.854E-03
            1981     1.40345E+03     1.40345E+03     301.305E-03     301.305E-03     510.504E-03     510.504E-03
            1982     1.40357E+03     1.40357E+03     318.613E-03     318.613E-03     651.042E-03     651.042E-03
            1983     1.40372E+03     1.40372E+03     339.733E-03     339.733E-03     800.186E-03     800.186E-03
            1984     1.40390E+03     1.40390E+03     364.628E-03     364.628E-03     959.624E-03     959.624E-03
            1985     1.40411E+03     1.40411E+03     393.227E-03     393.227E-03         1.13102         1.13102
            1986     1.40436E+03     1.40436E+03     425.419E-03     425.419E-03         1.31602         1.31602
            1987     1.40465E+03     1.40465E+03     461.037E-03     461.037E-03         1.51617         1.51617
            1988     1.40497E+03     1.40497E+03     499.834E-03     499.834E-03         1.73295         1.73295
            1989     1.40534E+03     1.40534E+03     541.463E-03     541.463E-03         1.96771         1.96771
            1990     1.40575E+03     1.40575E+03     585.445E-03     585.445E-03         2.22162         2.22162
            1991     1.40621E+03     1.40621E+03     631.130E-03     631.130E-03         2.49562         2.49562
            1992     1.40673E+03     1.40673E+03     677.654E-03     677.654E-03         2.79030         2.79030
            1993     1.40729E+03     1.40729E+03     723.882E-03     723.882E-03         3.10587         3.10587
            1994     1.40792E+03     1.40792E+03     768.345E-03     768.345E-03         3.44199         3.44199
            1995     1.40861E+03     1.40861E+03     809.158E-03     809.158E-03         3.79760         3.79760
            1996     1.40936E+03     1.40936E+03     843.936E-03     843.936E-03         4.17082         4.17082
            1997     1.41018E+03     1.41018E+03     869.690E-03     869.690E-03         4.55863         4.55863
            1998     1.41107E+03     1.41107E+03     882.720E-03     882.720E-03         4.95668         4.95668
            1999     1.41202E+03     1.41202E+03     878.494E-03     878.494E-03         5.35899         5.35899
            2000     1.41306E+03     1.41306E+03     851.552E-03     851.552E-03         5.75755         5.75755
            2001     1.41416E+03     1.41416E+03     795.398E-03     795.398E-03         6.14200         6.14200
            2002     1.41533E+03     1.41533E+03     702.473E-03     702.473E-03         6.49916         6.49916
            2003     1.41658E+03     1.41658E+03     564.163E-03     564.163E-03         6.81267         6.81267
            2004     1.41789E+03     1.41789E+03     370.973E-03     370.973E-03         7.06251         7.06251
            2005     1.41927E+03     1.41927E+03     112.851E-03     112.851E-03         7.22475         7.22475
            2006     1.42069E+03     1.42069E+03    -220.191E-03    -220.191E-03         7.27130         7.27130
            2007     1.42216E+03     1.42216E+03    -637.100E-03    -637.100E-03         7.17003         7.17003
            2008     1.42366E+03     1.42366E+03        -1.14435        -1.14435         6.88523         6.88523
            2009     1.42517E+03     1.42517E+03        -1.74388        -1.74388         6.37872         6.37872
            2010     1.42666E+03     1.42666E+03        -2.43058        -2.43058         5.61177         5.61177
            2011     1.42811E+03     1.42811E+03        -3.18893        -3.18893         4.54811         4.54811
            2012     1.42947E+03     1.42947E+03        -3.98972        -3.98972         3.15845         3.15845
            2013     1.43068E+03     1.43068E+03        -4.78629        -4.78629         1.42624         1.42624
            2014     1.43169E+03     1.43169E+03        -5.51232        -5.51232    -644.345E-03    -644.345E-03
            2015     1.43242E+03     1.43242E+03        -6.08112        -6.08112        -3.02005        -3.02005
            2016     1.43279E+03     1.43279E+03        -6.38877        -6.38877        -5.62851        -5.62851
            2017     1.43272E+03     1.43272E+03        -6.32272        -6.32272        -8.35062        -8.35062
            2018     1.43214E+03     1.43214E+03        -5.77609        -5.77609        -11.0161        -11.0161
            2019     1.43100E+03     1.43100E+03        -4.67024        -4.67024        -13.4054        -13.4054
            2020     1.40316E+03     1.40316E+03     161.797E-03     161.797E-03     96.7990E-03     96.7990E-03
            2021     1.40321E+03     1.40321E+03     165.302E-03     165.302E-03     193.671E-03     193.671E-03
            2022     1.40328E+03     1.40328E+03     171.141E-03     171.141E-03     293.966E-03     293.966E-03
            2023     1.40339E+03     1.40339E+03     179.268E-03     179.268E-03     398.468E-03     398.468E-03
            2024     1.40352E+03     1.40352E+03     189.698E-03     189.698E-03     508.592E-03     508.592E-03
            2025     1.40369E+03     1.40369E+03     202.440E-03     202.440E-03     625.714E-03     625.714E-03
            2026     1.40390E+03     1.40390E+03     217.465E-03     217.465E-03     751.223E-03     751.223E-03
            2027     1.40414E+03     1.40414E+03     234.737E-03     234.737E-03     886.489E-03     886.489E-03
            2028     1.40443E+03     1.40443E+03     254.189E-03     254.189E-03         1.03286         1.03286
            2029     1.40475E+03     1.40475E+03     275.724E-03     275.724E-03         1.19162         1.19162
            2030     1.40513E+03     1.40513E+03     299.195E-03     299.195E-03         1.36401         1.36401
            2031     1.40555E+03     1.40555E+03     324.395E-03     324.395E-03         1.55116         1.55116
            2032     1.40603E+03     1.40603E+03     351.035E-03     351.035E-03         1.75406         1.75406
            2033     1.40657E+03     1.40657E+03     378.722E-03     378.722E-03         1.97350         1.97350
            2034     1.40717E+03     1.40717E+03     406.927E-03     406.927E-03         2.21002         2.21002
            2035     1.40783E+03     1.40783E+03     434.958E-03     434.958E-03         2.46380         2.46380
            2036     1.40857E+03     1.40857E+03     461.907E-03     461.907E-03         2.73459         2.73459
            2037     1.40938E+03     1.40938E+03     486.611E-03     486.611E-03         3.02152         3.02152
            2038     1.41026E+03     1.41026E+03     507.588E-03     507.588E-03         3.32301         3.32301
            2039     1.41123E+03     1.41123E+03     522.978E-03     522.978E-03         3.63652         3.63652
            2040     1.41228E+03     1.41228E+03     530.467E-03     530.467E-03         3.95835         3.95835
            2041     1.41341E+03     1.41341E+03     527.216E-03     527.216E-03         4.28335         4.28335
            2042     1.41463E+03     1.41463E+03     509.790E-03     509.790E-03         4.60463         4.60463
            2043     1.41593E+03     1.41593E+03     474.103E-03     474.103E-03         4.91320         4.91320
            2044     1.41730E+03     1.41730E+03     415.382E-03     415.382E-03         5.19762         5.19762
            2045     1.41875E+03     1.41875E+03     328.199E-03     328.199E-03         5.44359         5.44359
            2046     1.42026E+03     1.42026E+03     206.563E-03     206.563E-03         5.63367         5.63367
            2047     1.42182E+03     1.42182E+03     44.1650E-03     44.1650E-03         5.74694         5.74694
            2048     1.42341E+03     1.42341E+03    -165.227E-03    -165.227E-03         5.75900         5.75900
            2049     1.42501E+03     1.42501E+03    -427.115E-03    -427.115E-03         5.64204         5.64204
            2050     1.42659E+03     1.42659E+03    -745.298E-03    -745.298E-03         5.36550         5.36550
            2051     1.42811E+03     1.42811E+03        -1.12060        -1.12060         4.89722         4.89722
            2052     1.42953E+03     1.42953E+03        -1.54910        -1.54910         4.20541         4.20541
            2053     1.43080E+03     1.43080E+03        -2.02024        -2.02024         3.26162         3.26162
            2054     1.43187E+03     1.43187E+03        -2.51444        -2.51444         2.04484         2.04484
            2055     1.43267E+03     1.43267E+03        -3.00132        -3.00132     547.013E-03     547.013E-03
            2056     1.43313E+03     1.43313E+03        -3.43816        -3.43816        -1.22079        -1.22079
            2057     1.43319E+03     1.43319E+03        -3.77019        -3.77019        -3.22100        -3.22100
            2058     1.43277E+03     1.43277E+03        -3.93319        -3.93319        -5.38313        -5.38313
            2059     1.43183E+03     1.43183E+03        -3.85910        -3.85910        -7.59876        -7.59876
            2060     1.43035E+03     1.43035E+03        -3.48567        -3.48567        -9.72065        -9.72065
            2061     1.42832E+03     1.42832E+03        -2.76882        -2.76882        -11.5680        -11.5680
            2062     1.40301E+03     1.40301E+03     79.3971E-03     79.3971E-03     66.6545E-03     66.6545E-03
            2063     1.40306E+03     1.40306E+03     81.1898E-03     81.1898E-03     132.919E-03     132.919E-03
            2064     1.40314E+03     1.40314E+03     84.0715E-03     84.0715E-03     201.828E-03     201.828E-03
            2065     1.40326E+03     1.40326E+03     88.0570E-03     88.0570E-03     273.799E-03     273.799E-03
            2066     1.40341E+03     1.40341E+03     93.2035E-03     93.2035E-03     349.789E-03     349.789E-03
            2067     1.40359E+03     1.40359E+03     99.4922E-03     99.4922E-03     430.798E-03     430.798E-03
            2068     1.40382E+03     1.40382E+03     106.910E-03     106.910E-03     517.832E-03     517.832E-03
            2069     1.40409E+03     1.40409E+03     115.440E-03     115.440E-03     611.885E-03     611.885E-03
            2070     1.40440E+03     1.40440E+03     125.049E-03     125.049E-03     713.940E-03     713.940E-03
            2071     1.40477E+03     1.40477E+03     135.688E-03     135.688E-03     824.948E-03     824.948E-03
            2072     1.40518E+03     1.40518E+03     147.287E-03     147.287E-03     945.819E-03     945.819E-03
            2073     1.40566E+03     1.40566E+03     159.741E-03     159.741E-03         1.07739         1.07739
            2074     1.40620E+03     1.40620E+03     172.909E-03     172.909E-03         1.22043         1.22043
            2075     1.40680E+03     1.40680E+03     186.592E-03     186.592E-03         1.37552         1.37552
            2076     1.40748E+03     1.40748E+03     200.528E-03     200.528E-03         1.54312         1.54312
            2077     1.40823E+03     1.40823E+03     214.367E-03     214.367E-03         1.72341         1.72341
            2078     1.40907E+03     1.40907E+03     227.654E-03     227.654E-03         1.91624         1.91624
            2079     1.40999E+03     1.40999E+03     239.798E-03     239.798E-03         2.12105         2.12105
            2080     1.41101E+03     1.41101E+03     250.052E-03     250.052E-03         2.33672         2.33672
            2081     1.41212E+03     1.41212E+03     257.467E-03     257.467E-03         2.56146         2.56146
            2082     1.41333E+03     1.41333E+03     260.866E-03     260.866E-03         2.79258         2.79258
            2083     1.41465E+03     1.41465E+03     258.797E-03     258.797E-03         3.02632         3.02632
            2084     1.41606E+03     1.41606E+03     249.504E-03     249.504E-03         3.25758         3.25758
            2085     1.41756E+03     1.41756E+03     230.885E-03     230.885E-03         3.47969         3.47969
            2086     1.41916E+03     1.41916E+03     200.491E-03     200.491E-03         3.68409         3.68409
            2087     1.42083E+03     1.42083E+03     155.522E-03     155.522E-03         3.86002         3.86002
            2088     1.42257E+03     1.42257E+03     92.8978E-03     92.8978E-03         3.99431         3.99431
            2089     1.42436E+03     1.42436E+03     9.36544E-03     9.36544E-03         4.07112         4.07112
            2090     1.42616E+03     1.42616E+03    -98.2731E-03    -98.2731E-03         4.07190         4.07190
            2091     1.42795E+03     1.42795E+03    -232.818E-03    -232.818E-03         3.97556         3.97556
            2092     1.42967E+03     1.42967E+03    -396.175E-03    -396.175E-03         3.75892         3.75892
            2093     1.43129E+03     1.43129E+03    -588.632E-03    -588.632E-03         3.39776         3.39776
            2094     1.43272E+03     1.43272E+03    -808.022E-03    -808.022E-03         2.86835         2.86835
            2095     1.43392E+03     1.43392E+03        -1.04859        -1.04859         2.14989         2.14989
            2096     1.43480E+03     1.43480E+03        -1.29998        -1.29998         1.22786         1.22786
            2097     1.43528E+03     1.43528E+03        -1.54612        -1.54612     98.0600E-03     98.0600E-03
            2098     1.43528E+03     1.43528E+03        -1.76470        -1.76470        -1.22834        -1.22834
            2099     1.43473E+03     1.43473E+03        -1.92740        -1.92740        -2.71984        -2.71984
            2100     1.43356E+03     1.43356E+03        -2.00132        -2.00132        -4.31994        -4.31994
            2101     1.43176E+03     1.43176E+03        -1.95243        -1.95243        -5.94445        -5.94445
            2102     1.42932E+03     1.42932E+03        -1.75003        -1.75003        -7.48179        -7.48179
            2103     1.42629E+03     1.42629E+03        -1.37235        -1.37235        -8.79654        -8.79654
            2104     1.40280E+03     1.40280E+03     27.7139E-03     27.7139E-03     34.3325E-03     34.3325E-03
            2105     1.40285E+03     1.40285E+03     28.4012E-03     28.4012E-03     67.9461E-03     67.9461E-03
            2106     1.40294E+03     1.40294E+03     29.3501E-03     29.3501E-03     103.285E-03     103.285E-03
            2107     1.40306E+03     1.40306E+03     30.7156E-03     30.7156E-03     140.230E-03     140.230E-03
            2108     1.40322E+03     1.40322E+03     32.4930E-03     32.4930E-03     179.295E-03     179.295E-03
            2109     1.40342E+03     1.40342E+03     34.6594E-03     34.6594E-03     221.030E-03     221.030E-03
            2110     1.40366E+03     1.40366E+03     37.2181E-03     37.2181E-03     265.970E-03     265.970E-03
            2111     1.40394E+03     1.40394E+03     40.1569E-03     40.1569E-03     314.653E-03     314.653E-03
            2112     1.40428E+03     1.40428E+03     43.4669E-03     43.4669E-03     367.608E-03     367.608E-03
            2113     1.40467E+03     1.40467E+03     47.1290E-03     47.1290E-03     425.352E-03     425.352E-03
            2114     1.40513E+03     1.40513E+03     51.1184E-03     51.1184E-03     488.381E-03     488.381E-03
            2115     1.40564E+03     1.40564E+03     55.3977E-03     55.3977E-03     557.162E-03     557.162E-03
            2116     1.40623E+03     1.40623E+03     59.9161E-03     59.9161E-03     632.114E-03     632.114E-03
            2117     1.40689E+03     1.40689E+03     64.6034E-03     64.6034E-03     713.586E-03     713.586E-03
            2118     1.40764E+03     1.40764E+03     69.3659E-03     69.3659E-03     801.838E-03     801.838E-03
            2119     1.40847E+03     1.40847E+03     74.0794E-03     74.0794E-03     897.000E-03     897.000E-03
            2120     1.40940E+03     1.40940E+03     78.5817E-03     78.5817E-03     999.030E-03     999.030E-03
            2121     1.41043E+03     1.41043E+03     82.6636E-03     82.6636E-03         1.10766         1.10766
            2122     1.41157E+03     1.41157E+03     86.0581E-03     86.0581E-03         1.22234         1.22234
            2123     1.41283E+03     1.41283E+03     88.4282E-03     88.4282E-03         1.34214         1.34214
            2124     1.41420E+03     1.41420E+03     89.3534E-03     89.3534E-03         1.46565         1.46565
            2125     1.41569E+03     1.41569E+03     88.3165E-03     88.3165E-03         1.59087         1.59087
            2126     1.41730E+03     1.41730E+03     84.6881E-03     84.6881E-03         1.71508         1.71508
            2127     1.41903E+03     1.41903E+03     77.7187E-03     77.7187E-03         1.83468         1.83468
            2128     1.42086E+03     1.42086E+03     66.5280E-03     66.5280E-03         1.94502         1.94502
            2129     1.42280E+03     1.42280E+03     50.1163E-03     50.1163E-03         2.04023         2.04023
            2130     1.42481E+03     1.42481E+03     27.3741E-03     27.3741E-03         2.11306         2.11306
            2131     1.42688E+03     1.42688E+03    -2.85999E-03    -2.85999E-03         2.15477         2.15477
            2132     1.42896E+03     1.42896E+03    -41.7352E-03    -41.7352E-03         2.15508         2.15508
            2133     1.43102E+03     1.43102E+03    -90.2469E-03    -90.2469E-03         2.10224         2.10224
            2134     1.43300E+03     1.43300E+03    -149.063E-03    -149.063E-03         1.98332         1.98332
            2135     1.43482E+03     1.43482E+03    -218.267E-03    -218.267E-03         1.78478         1.78478
            2136     1.43641E+03     1.43641E+03    -297.020E-03    -297.020E-03         1.49331         1.49331
            2137     1.43767E+03     1.43767E+03    -383.213E-03    -383.213E-03         1.09734         1.09734
            2138     1.43851E+03     1.43851E+03    -473.005E-03    -473.005E-03     588.750E-03     588.750E-03
            2139     1.43881E+03     1.43881E+03    -560.547E-03    -560.547E-03    -34.5966E-03    -34.5966E-03
            2140     1.43847E+03     1.43847E+03    -637.689E-03    -637.689E-03    -766.225E-03    -766.225E-03
            2141     1.43740E+03     1.43740E+03    -694.178E-03    -694.178E-03        -1.58813        -1.58813
            2142     1.43554E+03     1.43554E+03    -718.209E-03    -718.209E-03        -2.46833        -2.46833
            2143     1.43283E+03     1.43283E+03    -697.554E-03    -697.554E-03        -3.35966        -3.35966
            2144     1.42932E+03     1.42932E+03    -621.841E-03    -621.841E-03        -4.20002        -4.20002
            2145     1.42507E+03     1.42507E+03    -482.888E-03    -482.888E-03        -4.91381        -4.91381
            2146     1.32879E+03     1.32879E+03         383.718         383.718        -102.870        -102.870
            2147     1.34318E+03     1.34318E+03         349.010         349.010        -102.160        -102.160
            2148     1.35715E+03     1.35715E+03         314.213         314.213        -98.6625        -98.6625
            2149     1.37020E+03     1.37020E+03         280.191         280.191        -93.4062        -93.4062
            2150     1.38202E+03     1.38202E+03         247.588         247.588        -86.6512        -86.6512
            2151     1.39239E+03     1.39239E+03         216.927         216.927        -78.6769        -78.6769
            2152     1.40115E+03     1.40115E+03         188.613         188.613        -69.8935        -69.8935
            2153     1.40832E+03     1.40832E+03         162.851         162.851        -60.6807        -60.6807
            2154     1.41393E+03     1.41393E+03         139.737         139.737        -51.4023        -51.4023
            2155     1.41817E+03     1.41817E+03         119.216         119.216        -42.3679        -42.3679
            2156     1.42116E+03     1.42116E+03         101.168         101.168        -33.7928        -33.7928
            2157     1.42312E+03     1.42312E+03         85.4144         85.4144        -25.8485        -25.8485
            2158     1.42422E+03     1.42422E+03         71.7434         71.7434        -18.6115        -18.6115
            2159     1.42463E+03     1.42463E+03         59.9503         59.9503        -12.1333        -12.1333
            2160     1.42448E+03     1.42448E+03         49.8187         49.8187        -6.40335        -6.40335
            2161     1.42390E+03     1.42390E+03         41.1609         41.1609        -1.40013        -1.40013
            2162     1.42299E+03     1.42299E+03         33.7890         33.7890         2.92930         2.92930
            2163     1.42184E+03     1.42184E+03         27.5444         27.5444         6.64003         6.64003
            2164     1.42050E+03     1.42050E+03         22.2733         22.2733         9.79928         9.79928
            2165     1.41903E+03     1.41903E+03         17.8450         17.8450         12.4720         12.4720
            2166     1.41749E+03     1.41749E+03         14.1344         14.1344         14.7250         14.7250
            2167     1.41589E+03     1.41589E+03         11.0330         11.0330         16.6213         16.6213
            2168     1.41427E+03     1.41427E+03         8.43724         8.43724         18.2214         18.2214
            2169     1.41266E+03     1.41266E+03         6.25424         6.25424         19.5816         19.5816
            2170     1.41109E+03     1.41109E+03         4.39468         4.39468         20.7548         20.7548
            2171     1.40958E+03     1.40958E+03         2.77541         2.77541         21.7899         21.7899
            2172     1.40815E+03     1.40815E+03         1.31479         1.31479         22.7328         22.7328
            2173     1.40683E+03     1.40683E+03    -66.4123E-03    -66.4123E-03         23.6264         23.6264
            2174     1.40568E+03     1.40568E+03        -1.44817        -1.44817         24.5107         24.5107
            2175     1.40472E+03     1.40472E+03        -2.91150        -2.91150         25.4224         25.4224
            2176     1.40403E+03     1.40403E+03        -4.54058        -4.54058         26.3941         26.3941
            2177     1.40369E+03     1.40369E+03        -6.42380        -6.42380         27.4521         27.4521
            2178     1.40379E+03     1.40379E+03        -8.65449        -8.65449         28.6126         28.6126
            2179     1.40447E+03     1.40447E+03        -11.3316        -11.3316         29.8747         29.8747
            2180     1.40589E+03     1.40589E+03        -14.5561        -14.5561         31.2090         31.2090
            2181     1.40827E+03     1.40827E+03        -18.4265        -18.4265         32.5415         32.5415
            2182     1.41186E+03     1.41186E+03        -23.0191        -23.0191         33.7255         33.7255
            2183     1.41697E+03     1.41697E+03        -28.3613        -28.3613         34.5116         34.5116
            2184     1.42388E+03     1.42388E+03        -34.3594        -34.3594         34.4989         34.4989
            2185     1.43283E+03     1.43283E+03        -40.7057        -40.7057         33.1231         33.1231
            2186     1.44382E+03     1.44382E+03        -46.7186        -46.7186         29.6588         29.6588
            2187     1.45646E+03     1.45646E+03        -51.2844        -51.2844         23.4342         23.4342
            2188     1.33270E+03     1.33270E+03         382.863         382.863        -117.599        -117.599
            2189     1.34781E+03     1.34781E+03         346.148         346.148        -116.685        -116.685
            2190     1.36230E+03     1.36230E+03         309.348         309.348        -112.348        -112.348
            2191     1.37569E+03     1.37569E+03         273.489         273.489        -105.907        -105.907
            2192     1.38756E+03     1.38756E+03         239.369         239.369        -97.6038        -97.6038
            2193     1.39764E+03     1.39764E+03         207.645         207.645        -87.9461        -87.9461
            2194     1.40588E+03     1.40588E+03         178.705         178.705        -77.4139        -77.4139
            2195     1.41227E+03     1.41227E+03         152.777         152.777        -66.5304        -66.5304
            2196     1.41701E+03     1.41701E+03         129.847         129.847        -55.7456        -55.7456
            2197     1.42028E+03     1.42028E+03         109.798         109.798        -45.3875        -45.3875
            2198     1.42235E+03     1.42235E+03         92.4132         92.4132        -35.7238        -35.7238
            2199     1.42344E+03     1.42344E+03         77.4286         77.4286        -26.8777        -26.8777
            2200     1.42378E+03     1.42378E+03         64.5874         64.5874        -18.9414        -18.9414
            2201     1.42354E+03     1.42354E+03         53.6160         53.6160        -11.9105        -11.9105
            2202     1.42288E+03     1.42288E+03         44.2870         44.2870        -5.76977        -5.76977
            2203     1.42191E+03     1.42191E+03         36.3715         36.3715    -456.538E-03    -456.538E-03
            2204     1.42074E+03     1.42074E+03         29.6860         29.6860         4.09244         4.09244
            2205     1.41943E+03     1.41943E+03         24.0516         24.0516         7.95809         7.95809
            2206     1.41804E+03     1.41804E+03         19.3237         19.3237         11.2170         11.2170
            2207     1.41662E+03     1.41662E+03         15.3641         15.3641         13.9487         13.9487
            2208     1.41519E+03     1.41519E+03         12.0573         12.0573         16.2266         16.2266
            2209     1.41378E+03     1.41378E+03         9.29374         9.29374         18.1207         18.1207
            2210     1.41242E+03     1.41242E+03         6.97834         6.97834         19.6947         19.6947
            2211     1.41112E+03     1.41112E+03         5.02008         5.02008         21.0073         21.0073
            2212     1.40990E+03     1.40990E+03         3.33632         3.33632         22.1108         22.1108
            2213     1.40879E+03     1.40879E+03         1.84666         1.84666         23.0527         23.0527
            2214     1.40781E+03     1.40781E+03     474.717E-03     474.717E-03         23.8749         23.8749
            2215     1.40698E+03     1.40698E+03    -855.590E-03    -855.590E-03         24.6145         24.6145
            2216     1.40636E+03     1.40636E+03        -2.21946        -2.21946         25.3029         25.3029
            2217     1.40598E+03     1.40598E+03        -3.69326        -3.69326         25.9656         25.9656
            2218     1.40590E+03     1.40590E+03        -5.35434        -5.35434         26.6207         26.6207
            2219     1.40621E+03     1.40621E+03        -7.28120        -7.28120         27.2756         27.2756
            2220     1.40701E+03     1.40701E+03        -9.55240        -9.55240         27.9233         27.9233
            2221     1.40840E+03     1.40840E+03        -12.2428        -12.2428         28.5346         28.5346
            2222     1.41053E+03     1.41053E+03        -15.4181        -15.4181         29.0487         29.0487
            2223     1.41357E+03     1.41357E+03        -19.1209        -19.1209         29.3577         29.3577
            2224     1.41770E+03     1.41770E+03        -23.3507        -23.3507         29.2915         29.2915
            2225     1.42307E+03     1.42307E+03        -28.0246        -28.0246         28.5943         28.5943
            2226     1.42981E+03     1.42981E+03        -32.9231        -32.9231         26.9219         26.9219
            2227     1.43790E+03     1.43790E+03        -37.6160        -37.6160         23.8428         23.8428
            2228     1.44712E+03     1.44712E+03        -41.3924        -41.3924         18.9295         18.9295
            2229     1.45705E+03     1.45705E+03        -43.3030        -43.3030         11.7961         11.7961
            2230     1.33781E+03     1.33781E+03         381.822         381.822        -133.139        -133.139
            2231     1.35367E+03     1.35367E+03         342.645         342.645        -131.871        -131.871
            2232     1.36883E+03     1.36883E+03         303.323         303.323        -126.548        -126.548
            2233     1.38251E+03     1.38251E+03         265.213         265.213        -118.522        -118.522
            2234     1.39426E+03     1.39426E+03         229.351         229.351        -108.370        -108.370
            2235     1.40387E+03     1.40387E+03         196.443         196.443        -96.6493        -96.6493
            2236     1.41121E+03     1.41121E+03         166.977         166.977        -84.1069        -84.1069
            2237     1.41655E+03     1.41655E+03         141.031         141.031        -71.3886        -71.3886
            2238     1.42005E+03     1.42005E+03         118.528         118.528        -58.9998        -58.9998
            2239     1.42212E+03     1.42212E+03         99.2008         99.2008        -47.3581        -47.3581
            2240     1.42303E+03     1.42303E+03         82.7092         82.7092        -36.6557        -36.6557
            2241     1.42311E+03     1.42311E+03         68.7197         68.7197        -27.0474        -27.0474
            2242     1.42258E+03     1.42258E+03         56.8720         56.8720        -18.5340        -18.5340
            2243     1.42165E+03     1.42165E+03         46.8818         46.8818        -11.1089        -11.1089
            2244     1.42046E+03     1.42046E+03         38.4592         38.4592        -4.69298        -4.69298
            2245     1.41912E+03     1.41912E+03         31.3862         31.3862     788.996E-03     788.996E-03
            2246     1.41771E+03     1.41771E+03         25.4487         25.4487         5.43736         5.43736
            2247     1.41629E+03     1.41629E+03         20.4838         20.4838         9.34466         9.34466
            2248     1.41490E+03     1.41490E+03         16.3351         16.3351         12.6070         12.6070
            2249     1.41357E+03     1.41357E+03         12.8789         12.8789         15.3116         15.3116
            2250     1.41232E+03     1.41232E+03         9.99814         9.99814         17.5409         17.5409
            2251     1.41115E+03     1.41115E+03         7.59520         7.59520         19.3687         19.3687
            2252     1.41009E+03     1.41009E+03         5.57744         5.57744         20.8614         20.8614
            2253     1.40914E+03     1.40914E+03         3.86346         3.86346         22.0778         22.0778
            2254     1.40832E+03     1.40832E+03         2.37477         2.37477         23.0691         23.0691
            2255     1.40764E+03     1.40764E+03         1.03868         1.03868         23.8793         23.8793
            2256     1.40712E+03     1.40712E+03    -216.403E-03    -216.403E-03         24.5455         24.5455
            2257     1.40679E+03     1.40679E+03        -1.45966        -1.45966         25.0979         25.0979
            2258     1.40668E+03     1.40668E+03        -2.76035        -2.76035         25.5592         25.5592
            2259     1.40683E+03     1.40683E+03        -4.18683        -4.18683         25.9439         25.9439
            2260     1.40730E+03     1.40730E+03        -5.80697        -5.80697         26.2566         26.2566
            2261     1.40816E+03     1.40816E+03        -7.68625        -7.68625         26.4895         26.4895
            2262     1.40950E+03     1.40950E+03        -9.88486        -9.88486         26.6179         26.6179
            2263     1.41140E+03     1.41140E+03        -12.4525        -12.4525         26.5949         26.5949
            2264     1.41397E+03     1.41397E+03        -15.4184        -15.4184         26.3432         26.3432
            2265     1.41732E+03     1.41732E+03        -18.7774        -18.7774         25.7473         25.7473
            2266     1.42156E+03     1.42156E+03        -22.4667        -22.4667         24.6424         24.6424
            2267     1.42673E+03     1.42673E+03        -26.3328        -26.3328         22.8148         22.8148
            2268     1.43284E+03     1.43284E+03        -30.0934        -30.0934         20.0038         20.0038
            2269     1.43972E+03     1.43972E+03        -33.2889        -33.2889         15.9416         15.9416
            2270     1.44709E+03     1.44709E+03        -35.2838        -35.2838         10.3991         10.3991
            2271     1.45443E+03     1.45443E+03        -35.1853        -35.1853         3.21891         3.21891
            2272     1.34434E+03     1.34434E+03         380.632         380.632        -149.603        -149.603
            2273     1.36131E+03     1.36131E+03         338.254         338.254        -147.939        -147.939
            2274     1.37709E+03     1.37709E+03         295.788         295.788        -141.162        -141.162
            2275     1.39098E+03     1.39098E+03         254.966         254.966        -131.210        -131.210
            2276     1.40241E+03     1.40241E+03         217.055         217.055        -118.619        -118.619
            2277     1.41104E+03     1.41104E+03         183.020         183.020        -104.441        -104.441
            2278     1.41715E+03     1.41715E+03         153.161         153.161        -89.5818        -89.5818
            2279     1.42087E+03     1.42087E+03         127.526         127.526        -74.8401        -74.8401
            2280     1.42281E+03     1.42281E+03         105.787         105.787        -60.8752        -60.8752
            2281     1.42332E+03     1.42332E+03         87.4986         87.4986        -47.9892        -47.9892
            2282     1.42289E+03     1.42289E+03         72.2103         72.2103        -36.4376        -36.4376
            2283     1.42180E+03     1.42180E+03         59.4273         59.4273        -26.2217        -26.2217
            2284     1.42035E+03     1.42035E+03         48.7822         48.7822        -17.3449        -17.3449
            2285     1.41870E+03     1.41870E+03         39.8947         39.8947        -9.69994        -9.69994
            2286     1.41700E+03     1.41700E+03         32.4992         32.4992        -3.19225        -3.19225
            2287     1.41532E+03     1.41532E+03         26.3320         26.3320         2.30719         2.30719
            2288     1.41374E+03     1.41374E+03         21.2061         21.2061         6.91357         6.91357
            2289     1.41228E+03     1.41228E+03         16.9410         16.9410         10.7454         10.7454
            2290     1.41097E+03     1.41097E+03         13.4028         13.4028         13.9081         13.9081
            2291     1.40980E+03     1.40980E+03         10.4644         10.4644         16.5003         16.5003
            2292     1.40880E+03     1.40880E+03         8.02573         8.02573         18.6085         18.6085
            2293     1.40794E+03     1.40794E+03         5.99200         5.99200         20.3100         20.3100
            2294     1.40725E+03     1.40725E+03         4.28353         4.28353         21.6716         21.6716
            2295     1.40671E+03     1.40671E+03         2.82416         2.82416         22.7508         22.7508
            2296     1.40633E+03     1.40633E+03         1.54558         1.54558         23.5962         23.5962
            2297     1.40611E+03     1.40611E+03     381.161E-03     381.161E-03         24.2474         24.2474
            2298     1.40607E+03     1.40607E+03    -731.981E-03    -731.981E-03         24.7359         24.7359
            2299     1.40623E+03     1.40623E+03        -1.85617        -1.85617         25.0847         25.0847
            2300     1.40662E+03     1.40662E+03        -3.05184        -3.05184         25.3081         25.3081
            2301     1.40727E+03     1.40727E+03        -4.37837        -4.37837         25.4107         25.4107
            2302     1.40822E+03     1.40822E+03        -5.89217        -5.89217         25.3863         25.3863
            2303     1.40953E+03     1.40953E+03        -7.64464        -7.64464         25.2155         25.2155
            2304     1.41127E+03     1.41127E+03        -9.67781        -9.67781         24.8629         24.8629
            2305     1.41350E+03     1.41350E+03        -12.0176        -12.0176         24.2730         24.2730
            2306     1.41629E+03     1.41629E+03        -14.6636        -14.6636         23.3666         23.3666
            2307     1.41970E+03     1.41970E+03        -17.5747        -17.5747         22.0363         22.0363
            2308     1.42376E+03     1.42376E+03        -20.6484        -20.6484         20.1468         20.1468
            2309     1.42846E+03     1.42846E+03        -23.6987        -23.6987         17.5390         17.5390
            2310     1.43371E+03     1.43371E+03        -26.4258        -26.4258         14.0491         14.0491
            2311     1.43931E+03     1.43931E+03        -28.4081        -28.4081         9.53964         9.53964
            2312     1.44493E+03     1.44493E+03        -29.0727        -29.0727         3.93621         3.93621
            2313     1.45005E+03     1.45005E+03        -27.7087        -27.7087        -2.67783        -2.67783
            2314     1.35318E+03     1.35318E+03         379.107         379.107        -167.326        -167.326
            2315     1.37114E+03     1.37114E+03         332.711         332.711        -164.850        -164.850
            2316     1.38772E+03     1.38772E+03         286.232         286.232        -156.319        -156.319
            2317     1.40160E+03     1.40160E+03         242.057         242.057        -143.553        -143.553
            2318     1.41208E+03     1.41208E+03         202.011         202.011        -127.962        -127.962
            2319     1.41930E+03     1.41930E+03         166.890         166.890        -110.753        -110.753
            2320     1.42329E+03     1.42329E+03         137.091         137.091        -93.2318        -93.2318
            2321     1.42495E+03     1.42495E+03         112.223         112.223        -76.4612        -76.4612
            2322     1.42476E+03     1.42476E+03         91.7068         91.7068        -60.9331        -60.9331
            2323     1.42344E+03     1.42344E+03         74.9029         74.9029        -47.0770        -47.0770
            2324     1.42144E+03     1.42144E+03         61.0991         61.0991        -34.8796        -34.8796
            2325     1.41911E+03     1.41911E+03         49.8067         49.8067        -24.3557        -24.3557
            2326     1.41671E+03     1.41671E+03         40.5074         40.5074        -15.3469        -15.3469
            2327     1.41439E+03     1.41439E+03         32.8718         32.8718        -7.72601        -7.72601
            2328     1.41225E+03     1.41225E+03         26.5659         26.5659        -1.32061        -1.32061
            2329     1.41033E+03     1.41033E+03         21.3723         21.3723         4.01782         4.01782
            2330     1.40868E+03     1.40868E+03         17.0788         17.0788         8.43810         8.43810
            2331     1.40728E+03     1.40728E+03         13.5390         13.5390         12.0706         12.0706
            2332     1.40614E+03     1.40614E+03         10.6135         10.6135         15.0336         15.0336
            2333     1.40524E+03     1.40524E+03         8.19936         8.19936         17.4305         17.4305
            2334     1.40458E+03     1.40458E+03         6.19938         6.19938         19.3514         19.3514
            2335     1.40412E+03     1.40412E+03         4.53595         4.53595         20.8737         20.8737
            2336     1.40386E+03     1.40386E+03         3.13550         3.13550         22.0628         22.0628
            2337     1.40379E+03     1.40379E+03         1.93467         1.93467         22.9737         22.9737
            2338     1.40390E+03     1.40390E+03     872.254E-03     872.254E-03         23.6505         23.6505
            2339     1.40418E+03     1.40418E+03    -107.945E-03    -107.945E-03         24.1282         24.1282
            2340     1.40465E+03     1.40465E+03        -1.06121        -1.06121         24.4319         24.4319
            2341     1.40532E+03     1.40532E+03        -2.04028        -2.04028         24.5779         24.5779
            2342     1.40619E+03     1.40619E+03        -3.09689        -3.09689         24.5725         24.5725
            2343     1.40730E+03     1.40730E+03        -4.27994        -4.27994         24.4124         24.4124
            2344     1.40868E+03     1.40868E+03        -5.63452        -5.63452         24.0830         24.0830
            2345     1.41036E+03     1.41036E+03        -7.19842        -7.19842         23.5577         23.5577
            2346     1.41239E+03     1.41239E+03        -8.99769        -8.99769         22.7959         22.7959
            2347     1.41481E+03     1.41481E+03        -11.0394        -11.0394         21.7417         21.7417
            2348     1.41766E+03     1.41766E+03        -13.3022        -13.3022         20.3227         20.3227
            2349     1.42095E+03     1.42095E+03        -15.7231        -15.7231         18.4511         18.4511
            2350     1.42468E+03     1.42468E+03        -18.1832        -18.1832         16.0276         16.0276
            2351     1.42877E+03     1.42877E+03        -20.4889        -20.4889         12.9526         12.9526
            2352     1.43311E+03     1.43311E+03        -22.3635        -22.3635         9.14555         9.14555
            2353     1.43748E+03     1.43748E+03        -23.4324        -23.4324         4.57048         4.57048
            2354     1.44157E+03     1.44157E+03        -23.2358        -23.2358    -712.037E-03    -712.037E-03
            2355     1.44497E+03     1.44497E+03        -21.2601        -21.2601        -6.49362        -6.49362
            2356     1.36473E+03     1.36473E+03         377.316         377.316        -186.400        -186.400
            2357     1.38441E+03     1.38441E+03         325.423         325.423        -183.034        -183.034
            2358     1.40150E+03     1.40150E+03         273.762         273.762        -171.514        -171.514
            2359     1.41474E+03     1.41474E+03         225.755         225.755        -155.215        -155.215
            2360     1.42372E+03     1.42372E+03         183.327         183.327        -135.538        -135.538
            2361     1.42814E+03     1.42814E+03         147.744         147.744        -114.681        -114.681
            2362     1.42936E+03     1.42936E+03         118.615         118.615        -94.3980        -94.3980
            2363     1.42800E+03     1.42800E+03         95.2213         95.2213        -75.5468        -75.5468
            2364     1.42527E+03     1.42527E+03         76.5991         76.5991        -58.8831        -58.8831
            2365     1.42179E+03     1.42179E+03         61.6631         61.6631        -44.3389        -44.3389
            2366     1.41812E+03     1.41812E+03         49.7445         49.7445        -31.9362        -31.9362
            2367     1.41455E+03     1.41455E+03         40.1091         40.1091        -21.4234        -21.4234
            2368     1.41128E+03     1.41128E+03         32.3437         32.3437        -12.6153        -12.6153
            2369     1.40840E+03     1.40840E+03         26.0150         26.0150        -5.27312        -5.27312
            2370     1.40595E+03     1.40595E+03         20.8694         20.8694     802.117E-03     802.117E-03
            2371     1.40395E+03     1.40395E+03         16.6537         16.6537         5.80037         5.80037
            2372     1.40237E+03     1.40237E+03         13.2077         13.2077         9.88552         9.88552
            2373     1.40118E+03     1.40118E+03         10.3777         10.3777         13.2006         13.2006
            2374     1.40035E+03     1.40035E+03         8.05798         8.05798         15.8697         15.8697
            2375     1.39984E+03     1.39984E+03         6.14872         6.14872         17.9977         17.9977
            2376     1.39962E+03     1.39962E+03         4.57500         4.57500         19.6748         19.6748
            2377     1.39965E+03     1.39965E+03         3.26625         3.26625         20.9754         20.9754
            2378     1.39992E+03     1.39992E+03         2.16461         2.16461         21.9621         21.9621
            2379     1.40039E+03     1.40039E+03         1.21470         1.21470         22.6848         22.6848
            2380     1.40105E+03     1.40105E+03     367.438E-03     367.438E-03         23.1832         23.1832
            2381     1.40188E+03     1.40188E+03    -425.154E-03    -425.154E-03         23.4860         23.4860
            2382     1.40289E+03     1.40289E+03        -1.20798        -1.20798         23.6127         23.6127
            2383     1.40407E+03     1.40407E+03        -2.02514        -2.02514         23.5727         23.5727
            2384     1.40543E+03     1.40543E+03        -2.91828        -2.91828         23.3661         23.3661
            2385     1.40699E+03     1.40699E+03        -3.92661        -3.92661         22.9828         22.9828
            2386     1.40875E+03     1.40875E+03        -5.08420        -5.08420         22.4029         22.4029
            2387     1.41075E+03     1.41075E+03        -6.41735        -6.41735         21.5958         21.5958
            2388     1.41300E+03     1.41300E+03        -7.93949        -7.93949         20.5203         20.5203
            2389     1.41553E+03     1.41553E+03        -9.64511        -9.64511         19.1248         19.1248
            2390     1.41833E+03     1.41833E+03        -11.5008        -11.5008         17.3492         17.3492
            2391     1.42140E+03     1.42140E+03        -13.4358        -13.4358         15.1285         15.1285
            2392     1.42470E+03     1.42470E+03        -15.3302        -15.3302         12.4000         12.4000
            2393     1.42815E+03     1.42815E+03        -17.0070        -17.0070         9.11635         9.11635
            2394     1.43160E+03     1.43160E+03        -18.2232        -18.2232         5.26165         5.26165
            2395     1.43488E+03     1.43488E+03        -18.6759        -18.6759     880.991E-03     880.991E-03
            2396     1.43771E+03     1.43771E+03        -18.0186        -18.0186        -3.89049        -3.89049
            2397     1.43982E+03     1.43982E+03        -15.9047        -15.9047        -8.78706        -8.78706
            2398     1.38134E+03     1.38134E+03         374.688         374.688        -207.600        -207.600
            2399     1.40213E+03     1.40213E+03         315.538         315.538        -201.964        -201.964
            2400     1.41955E+03     1.41955E+03         257.260         257.260        -186.751        -186.751
            2401     1.43145E+03     1.43145E+03         204.450         204.450        -164.851        -164.851
            2402     1.43673E+03     1.43673E+03         160.434         160.434        -140.016        -140.016
            2403     1.43737E+03     1.43737E+03         125.145         125.145        -115.134        -115.134
            2404     1.43409E+03     1.43409E+03         97.8649         97.8649        -91.8764        -91.8764
            2405     1.42907E+03     1.42907E+03         77.0189         77.0189        -71.6747        -71.6747
            2406     1.42331E+03     1.42331E+03         60.8237         60.8237        -54.2950        -54.2950
            2407     1.41756E+03     1.41756E+03         48.3410         48.3410        -39.7433        -39.7433
            2408     1.41225E+03     1.41225E+03         38.4897         38.4897        -27.5950        -27.5950
            2409     1.40757E+03     1.40757E+03         30.7501         30.7501        -17.5585        -17.5585
            2410     1.40363E+03     1.40363E+03         24.5508         24.5508        -9.29323        -9.29323
            2411     1.40040E+03     1.40040E+03         19.5978         19.5978        -2.52262        -2.52262
            2412     1.39788E+03     1.39788E+03         15.5878         15.5878         2.99796         2.99796
            2413     1.39599E+03     1.39599E+03         12.3475         12.3475         7.47790         7.47790
            2414     1.39468E+03     1.39468E+03         9.70783         9.70783         11.0894         11.0894
            2415     1.39388E+03     1.39388E+03         7.56139         7.56139         13.9820         13.9820
            2416     1.39352E+03     1.39352E+03         5.80669         5.80669         16.2764         16.2764
            2417     1.39355E+03     1.39355E+03         4.37245         4.37245         18.0769         18.0769
            2418     1.39391E+03     1.39391E+03         3.19190         3.19190         19.4673         19.4673
            2419     1.39455E+03     1.39455E+03         2.21330         2.21330         20.5183         20.5183
            2420     1.39543E+03     1.39543E+03         1.38762         1.38762         21.2856         21.2856
            2421     1.39652E+03     1.39652E+03     673.228E-03     673.228E-03         21.8142         21.8142
            2422     1.39780E+03     1.39780E+03     29.7333E-03     29.7333E-03         22.1370         22.1370
            2423     1.39924E+03     1.39924E+03    -579.714E-03    -579.714E-03         22.2775         22.2775
            2424     1.40083E+03     1.40083E+03        -1.19137        -1.19137         22.2486         22.2486
            2425     1.40256E+03     1.40256E+03        -1.83934        -1.83934         22.0545         22.0545
            2426     1.40442E+03     1.40442E+03        -2.55641        -2.55641         21.6895         21.6895
            2427     1.40642E+03     1.40642E+03        -3.37209        -3.37209         21.1393         21.1393
            2428     1.40856E+03     1.40856E+03        -4.31130        -4.31130         20.3804         20.3804
            2429     1.41084E+03     1.41084E+03        -5.39096        -5.39096         19.3810         19.3810
            2430     1.41327E+03     1.41327E+03        -6.61619        -6.61619         18.1021         18.1021
            2431     1.41585E+03     1.41585E+03        -7.97436        -7.97436         16.4989         16.4989
            2432     1.41855E+03     1.41855E+03        -9.42893        -9.42893         14.5250         14.5250
            2433     1.42135E+03     1.42135E+03        -10.9111        -10.9111         12.1370         12.1370
            2434     1.42420E+03     1.42420E+03        -12.3140        -12.3140         9.30397         9.30397
            2435     1.42701E+03     1.42701E+03        -13.4858        -13.4858         6.01827         6.01827
            2436     1.42966E+03     1.42966E+03        -14.2309        -14.2309         2.31318         2.31318
            2437     1.43199E+03     1.43199E+03        -14.3174        -14.3174        -1.71952        -1.71952
            2438     1.43380E+03     1.43380E+03        -13.4990        -13.4990        -5.90595        -5.90595
            2439     1.43492E+03     1.43492E+03        -11.5552        -11.5552        -9.97478        -9.97478
            2440     1.40391E+03     1.40391E+03         371.242         371.242        -230.655        -230.655
            2441     1.42730E+03     1.42730E+03         301.420         301.420        -222.578        -222.578
            2442     1.44397E+03     1.44397E+03         233.990         233.990        -199.880        -199.880
            2443     1.45118E+03     1.45118E+03         177.041         177.041        -170.668        -170.668
            2444     1.45131E+03     1.45131E+03         132.120         132.120        -139.430        -139.430
            2445     1.44479E+03     1.44479E+03         99.2988         99.2988        -109.890        -109.890
            2446     1.43595E+03     1.43595E+03         75.7297         75.7297        -85.0470        -85.0470
            2447     1.42655E+03     1.42655E+03         58.1692         58.1692        -64.1829        -64.1829
            2448     1.41762E+03     1.41762E+03         45.2840         45.2840        -47.1918        -47.1918
            2449     1.40976E+03     1.40976E+03         35.4209         35.4209        -33.3287        -33.3287
            2450     1.40308E+03     1.40308E+03         27.9344         27.9344        -22.0973        -22.0973
            2451     1.39764E+03     1.39764E+03         22.0683         22.0683        -13.0068        -13.0068
            2452     1.39335E+03     1.39335E+03         17.4881         17.4881        -5.65966        -5.65966
            2453     1.39012E+03     1.39012E+03         13.8360         13.8360     257.595E-03     257.595E-03
            2454     1.38782E+03     1.38782E+03         10.9285         10.9285         5.01512         5.01512
            2455     1.38633E+03     1.38633E+03         8.58389         8.58389         8.81719         8.81719
            2456     1.38554E+03     1.38554E+03         6.69579         6.69579         11.8426         11.8426
            2457     1.38534E+03     1.38534E+03         5.16367         5.16367         14.2275         14.2275
            2458     1.38565E+03     1.38565E+03         3.92147         3.92147         16.0905         16.0905
            2459     1.38637E+03     1.38637E+03         2.90785         2.90785         17.5232         17.5232
            2460     1.38745E+03     1.38745E+03         2.07796         2.07796         18.6041         18.6041
            2461     1.38882E+03     1.38882E+03         1.38984         1.38984         19.3934         19.3934
            2462     1.39043E+03     1.39043E+03     809.533E-03     809.533E-03         19.9408         19.9408
            2463     1.39224E+03     1.39224E+03     304.463E-03     304.463E-03         20.2829         20.2829
            2464     1.39421E+03     1.39421E+03    -154.140E-03    -154.140E-03         20.4470         20.4470
            2465     1.39632E+03     1.39632E+03    -594.541E-03    -594.541E-03         20.4500         20.4500
            2466     1.39854E+03     1.39854E+03        -1.04307        -1.04307         20.2999         20.2999
            2467     1.40086E+03     1.40086E+03        -1.52548        -1.52548         19.9956         19.9956
            2468     1.40325E+03     1.40325E+03        -2.06553        -2.06553         19.5280         19.5280
            2469     1.40571E+03     1.40571E+03        -2.68472        -2.68472         18.8795         18.8795
            2470     1.40823E+03     1.40823E+03        -3.40004        -3.40004         18.0253         18.0253
            2471     1.41080E+03     1.41080E+03        -4.22195        -4.22195         16.9342         16.9342
            2472     1.41340E+03     1.41340E+03        -5.15049        -5.15049         15.5707         15.5707
            2473     1.41601E+03     1.41601E+03        -6.17147        -6.17147         13.8977         13.8977
            2474     1.41860E+03     1.41860E+03        -7.25082        -7.25082         11.8809         11.8809
            2475     1.42113E+03     1.42113E+03        -8.33018        -8.33018         9.49498         9.49498
            2476     1.42355E+03     1.42355E+03        -9.32158        -9.32158         6.73207         6.73207
            2477     1.42576E+03     1.42576E+03        -10.1063        -10.1063         3.61296         3.61296
            2478     1.42768E+03     1.42768E+03        -10.5366        -10.5366     198.873E-03     198.873E-03
            2479     1.42918E+03     1.42918E+03        -10.4457        -10.4457        -3.39382        -3.39382
            2480     1.43013E+03     1.43013E+03        -9.66780        -9.66780        -6.98377        -6.98377
            2481     1.43044E+03     1.43044E+03        -8.06770        -8.06770        -10.3184        -10.3184
            2482     1.44000E+03     1.44000E+03         364.822         364.822        -257.998        -257.998
            2483     1.46331E+03     1.46331E+03         279.289         279.289        -241.540        -241.540
            2484     1.47525E+03     1.47525E+03         201.693         201.693        -209.225        -209.225
            2485     1.47568E+03     1.47568E+03         140.106         140.106        -168.659        -168.659
            2486     1.46319E+03     1.46319E+03         98.7839         98.7839        -129.253        -129.253
            2487     1.44757E+03     1.44757E+03         72.0253         72.0253        -98.0567        -98.0567
            2488     1.43223E+03     1.43223E+03         53.1189         53.1189        -72.9163        -72.9163
            2489     1.41840E+03     1.41840E+03         40.2045         40.2045        -53.2608        -53.2608
            2490     1.40681E+03     1.40681E+03         30.6838         30.6838        -37.7675        -37.7675
            2491     1.39733E+03     1.39733E+03         23.7832         23.7832        -25.5394        -25.5394
            2492     1.38990E+03     1.38990E+03         18.5220         18.5220        -15.8795        -15.8795
            2493     1.38423E+03     1.38423E+03         14.5330         14.5330        -8.20488        -8.20488
            2494     1.38013E+03     1.38013E+03         11.4129         11.4129        -2.12546        -2.12546
            2495     1.37733E+03     1.37733E+03         8.97412         8.97412         2.70644         2.70644
            2496     1.37565E+03     1.37565E+03         7.03268         7.03268         6.52423         6.52423
            2497     1.37489E+03     1.37489E+03         5.48685         5.48685         9.53795         9.53795
            2498     1.37491E+03     1.37491E+03         4.24322         4.24322         11.8947         11.8947
            2499     1.37556E+03     1.37556E+03         3.24288         3.24288         13.7255         13.7255
            2500     1.37674E+03     1.37674E+03         2.43288         2.43288         15.1259         15.1259
            2501     1.37835E+03     1.37835E+03         1.77605         1.77605         16.1793         16.1793
            2502     1.38030E+03     1.38030E+03         1.23860         1.23860         16.9480         16.9480
            2503     1.38253E+03     1.38253E+03     794.308E-03     794.308E-03         17.4845         17.4845
            2504     1.38497E+03     1.38497E+03     418.546E-03     418.546E-03         17.8272         17.8272
            2505     1.38759E+03     1.38759E+03     90.3406E-03     90.3406E-03         18.0061         18.0061
            2506     1.39034E+03     1.39034E+03    -210.763E-03    -210.763E-03         18.0408         18.0408
            2507     1.39319E+03     1.39319E+03    -503.467E-03    -503.467E-03         17.9431         17.9431
            2508     1.39610E+03     1.39610E+03    -806.282E-03    -806.282E-03         17.7162         17.7162
            2509     1.39906E+03     1.39906E+03        -1.13650        -1.13650         17.3558         17.3558
            2510     1.40203E+03     1.40203E+03        -1.51057        -1.51057         16.8500         16.8500
            2511     1.40499E+03     1.40499E+03        -1.94272        -1.94272         16.1801         16.1801
            2512     1.40792E+03     1.40792E+03        -2.44410        -2.44410         15.3218         15.3218
            2513     1.41080E+03     1.41080E+03        -3.02050        -3.02050         14.2458         14.2458
            2514     1.41359E+03     1.41359E+03        -3.67020        -3.67020         12.9210         12.9210
            2515     1.41626E+03     1.41626E+03        -4.38048        -4.38048         11.3170         11.3170
            2516     1.41877E+03     1.41877E+03        -5.12456        -5.12456         9.40924         9.40924
            2517     1.42106E+03     1.42106E+03        -5.85775        -5.85775         7.18499         7.18499
            2518     1.42308E+03     1.42308E+03        -6.51554        -6.51554         4.65119         4.65119
            2519     1.42475E+03     1.42475E+03        -7.01258        -7.01258         1.84316         1.84316
            2520     1.42600E+03     1.42600E+03        -7.24632        -7.24632        -1.16524        -1.16524
            2521     1.42674E+03     1.42674E+03        -7.10515        -7.10515        -4.25412        -4.25412
            2522     1.42692E+03     1.42692E+03        -6.48334        -6.48334        -7.25232        -7.25232
            2523     1.42649E+03     1.42649E+03        -5.30245        -5.30245        -9.93895        -9.93895
            2524     1.49280E+03     1.49280E+03         353.705         353.705        -285.599        -285.599
            2525     1.51665E+03     1.51665E+03         244.154         244.154        -260.228        -260.228
            2526     1.52013E+03     1.52013E+03         150.488         150.488        -205.252        -205.252
            2527     1.49521E+03     1.49521E+03         94.6207         94.6207        -148.577        -148.577
            2528     1.46641E+03     1.46641E+03         64.7549         64.7549        -108.384        -108.384
            2529     1.44103E+03     1.44103E+03         44.9240         44.9240        -78.3369        -78.3369
            2530     1.41955E+03     1.41955E+03         32.7477         32.7477        -56.1387        -56.1387
            2531     1.40260E+03     1.40260E+03         24.1693         24.1693        -39.5372        -39.5372
            2532     1.38934E+03     1.38934E+03         18.3148         18.3148        -26.8562        -26.8562
            2533     1.37939E+03     1.37939E+03         14.0040         14.0040        -17.1723        -17.1723
            2534     1.37208E+03     1.37208E+03         10.8470         10.8470        -9.63407        -9.63407
            2535     1.36700E+03     1.36700E+03         8.44013         8.44013        -3.79214        -3.79214
            2536     1.36372E+03     1.36372E+03         6.59636         6.59636     789.135E-03     789.135E-03
            2537     1.36192E+03     1.36192E+03         5.15399         5.15399         4.35668         4.35668
            2538     1.36131E+03     1.36131E+03         4.01876         4.01876         7.14687         7.14687
            2539     1.36167E+03     1.36167E+03         3.11556         3.11556         9.30695         9.30695
            2540     1.36282E+03     1.36282E+03         2.39407         2.39407         10.9736         10.9736
            2541     1.36459E+03     1.36459E+03         1.81437         1.81437         12.2393         12.2393
            2542     1.36687E+03     1.36687E+03         1.34737         1.34737         13.1871         13.1871
            2543     1.36954E+03     1.36954E+03     968.940E-03     968.940E-03         13.8764         13.8764
            2544     1.37252E+03     1.37252E+03     660.343E-03     660.343E-03         14.3584         14.3584
            2545     1.37574E+03     1.37574E+03     404.900E-03     404.900E-03         14.6703         14.6703
            2546     1.37914E+03     1.37914E+03     188.741E-03     188.741E-03         14.8422         14.8422
            2547     1.38267E+03     1.38267E+03    -1.34756E-03    -1.34756E-03         14.8946         14.8946
            2548     1.38629E+03     1.38629E+03    -177.161E-03    -177.161E-03         14.8416         14.8416
            2549     1.38995E+03     1.38995E+03    -350.423E-03    -350.423E-03         14.6893         14.6893
            2550     1.39362E+03     1.39362E+03    -532.060E-03    -532.060E-03         14.4381         14.4381
            2551     1.39728E+03     1.39728E+03    -732.857E-03    -732.857E-03         14.0814         14.0814
            2552     1.40088E+03     1.40088E+03    -962.610E-03    -962.610E-03         13.6068         13.6068
            2553     1.40440E+03     1.40440E+03        -1.23005        -1.23005         12.9965         12.9965
            2554     1.40780E+03     1.40780E+03        -1.54159        -1.54159         12.2281         12.2281
            2555     1.41104E+03     1.41104E+03        -1.90038        -1.90038         11.2760         11.2760
            2556     1.41408E+03     1.41408E+03        -2.30440        -2.30440         10.1138         10.1138
            2557     1.41687E+03     1.41687E+03        -2.74479        -2.74479         8.71727         8.71727
            2558     1.41934E+03     1.41934E+03        -3.20331        -3.20331         7.06876         7.06876
            2559     1.42145E+03     1.42145E+03        -3.65083        -3.65083         5.16273         5.16273
            2560     1.42313E+03     1.42313E+03        -4.04554        -4.04554         3.01211         3.01211
            2561     1.42431E+03     1.42431E+03        -4.33361        -4.33361     655.823E-03     655.823E-03
            2562     1.42494E+03     1.42494E+03        -4.45143        -4.45143        -1.83488        -1.83488
            2563     1.42496E+03     1.42496E+03        -4.33165        -4.33165        -4.35106        -4.35106
            2564     1.42437E+03     1.42437E+03        -3.91284        -3.91284        -6.74557        -6.74557
            2565     1.42317E+03     1.42317E+03        -3.15215        -3.15215        -8.83644        -8.83644
            2566     1.59866E+03     1.59866E+03         325.912         325.912        -325.647        -325.647
            2567     1.60799E+03     1.60799E+03         168.523         168.523        -251.469        -251.469
            2568     1.55207E+03     1.55207E+03         83.2853         83.2853        -162.805        -162.805
            2569     1.49523E+03     1.49523E+03         52.2690         52.2690        -110.100        -110.100
            2570     1.45247E+03     1.45247E+03         33.0129         33.0129        -76.1028        -76.1028
            2571     1.41931E+03     1.41931E+03         22.8703         22.8703        -52.6497        -52.6497
            2572     1.39504E+03     1.39504E+03         16.1655         16.1655        -36.5020        -36.5020
            2573     1.37708E+03     1.37708E+03         11.8798         11.8798        -24.5989        -24.5989
            2574     1.36425E+03     1.36425E+03         8.89711         8.89711        -15.9344        -15.9344
            2575     1.35527E+03     1.35527E+03         6.77197         6.77197        -9.33206        -9.33206
            2576     1.34935E+03     1.34935E+03         5.22199         5.22199        -4.36108        -4.36108
            2577     1.34580E+03     1.34580E+03         4.04779         4.04779    -516.281E-03    -516.281E-03
            2578     1.34413E+03     1.34413E+03         3.15734         3.15734         2.42385         2.42385
            2579     1.34393E+03     1.34393E+03         2.45936         2.45936         4.70157         4.70157
            2580     1.34490E+03     1.34490E+03         1.91477         1.91477         6.44357         6.44357
            2581     1.34678E+03     1.34678E+03         1.48021         1.48021         7.77815         7.77815
            2582     1.34939E+03     1.34939E+03         1.13495         1.13495         8.78267         8.78267
            2583     1.35255E+03     1.35255E+03     857.052E-03     857.052E-03         9.53074         9.53074
            2584     1.35615E+03     1.35615E+03     633.691E-03     633.691E-03         10.0713         10.0713
            2585     1.36007E+03     1.36007E+03     452.569E-03     452.569E-03         10.4487         10.4487
            2586     1.36424E+03     1.36424E+03     304.745E-03     304.745E-03         10.6938         10.6938
            2587     1.36859E+03     1.36859E+03     182.221E-03     182.221E-03         10.8329         10.8329
            2588     1.37305E+03     1.37305E+03     78.0108E-03     78.0108E-03         10.8841         10.8841
            2589     1.37758E+03     1.37758E+03    -14.0917E-03    -14.0917E-03         10.8610         10.8610
            2590     1.38214E+03     1.38214E+03    -100.174E-03    -100.174E-03         10.7711         10.7711
            2591     1.38669E+03     1.38669E+03    -185.803E-03    -185.803E-03         10.6177         10.6177
            2592     1.39119E+03     1.39119E+03    -276.649E-03    -276.649E-03         10.3986         10.3986
            2593     1.39562E+03     1.39562E+03    -377.926E-03    -377.926E-03         10.1076         10.1076
            2594     1.39993E+03     1.39993E+03    -494.702E-03    -494.702E-03         9.73382         9.73382
            2595     1.40408E+03     1.40408E+03    -631.202E-03    -631.202E-03         9.26264         9.26264
            2596     1.40803E+03     1.40803E+03    -790.694E-03    -790.694E-03         8.67602         8.67602
            2597     1.41172E+03     1.41172E+03    -974.504E-03    -974.504E-03         7.95393         7.95393
            2598     1.41510E+03     1.41510E+03        -1.18146        -1.18146         7.07599         7.07599
            2599     1.41810E+03     1.41810E+03        -1.40654        -1.40654         6.02402         6.02402
            2600     1.42064E+03     1.42064E+03        -1.64014        -1.64014         4.78548         4.78548
            2601     1.42265E+03     1.42265E+03        -1.86666        -1.86666         3.35766         3.35766
            2602     1.42407E+03     1.42407E+03        -2.06438        -2.06438         1.75282         1.75282
            2603     1.42482E+03     1.42482E+03        -2.20528        -2.20528     3.11646E-03     3.11646E-03
            2604     1.42485E+03     1.42485E+03        -2.25690        -2.25690        -1.83453        -1.83453
            2605     1.42414E+03     1.42414E+03        -2.18540        -2.18540        -3.67584        -3.67584
            2606     1.42270E+03     1.42270E+03        -1.96058        -1.96058        -5.40942        -5.40942
            2607     1.42060E+03     1.42060E+03        -1.56223        -1.56223        -6.89986        -6.89986
            2608     1.80161E+03     1.80161E+03         221.029         221.029        -285.771        -285.771
            2609     1.65053E+03     1.65053E+03         62.4262         62.4262        -154.635        -154.635
            2610     1.53217E+03     1.53217E+03         33.3743         33.3743        -88.6713        -88.6713
            2611     1.46088E+03     1.46088E+03         18.7128         18.7128        -58.0178        -58.0178
            2612     1.41189E+03     1.41189E+03         11.7479         11.7479        -37.8029        -37.8029
            2613     1.37903E+03     1.37903E+03         8.04611         8.04611        -25.7593        -25.7593
            2614     1.35636E+03     1.35636E+03         5.55591         5.55591        -17.0610        -17.0610
            2615     1.34108E+03     1.34108E+03         4.13785         4.13785        -11.1810        -11.1810
            2616     1.33106E+03     1.33106E+03         3.03481         3.03481        -6.75896        -6.75896
            2617     1.32494E+03     1.32494E+03         2.34772         2.34772        -3.56094        -3.56094
            2618     1.32176E+03     1.32176E+03         1.78510         1.78510        -1.11021        -1.11021
            2619     1.32080E+03     1.32080E+03         1.40260         1.40260     721.787E-03     721.787E-03
            2620     1.32154E+03     1.32154E+03         1.08572         1.08572         2.13203         2.13203
            2621     1.32359E+03     1.32359E+03     854.649E-03     854.649E-03         3.19645         3.19645
            2622     1.32664E+03     1.32664E+03     663.659E-03     663.659E-03         4.00858         4.00858
            2623     1.33045E+03     1.33045E+03     517.453E-03     517.453E-03         4.61514         4.61514
            2624     1.33483E+03     1.33483E+03     397.319E-03     397.319E-03         5.06597         5.06597
            2625     1.33965E+03     1.33965E+03     302.492E-03     302.492E-03         5.39064         5.39064
            2626     1.34477E+03     1.34477E+03     224.896E-03     224.896E-03         5.61794         5.61794
            2627     1.35012E+03     1.35012E+03     162.276E-03     162.276E-03         5.76675         5.76675
            2628     1.35561E+03     1.35561E+03     110.699E-03     110.699E-03         5.85418         5.85418
            2629     1.36119E+03     1.36119E+03     67.7324E-03     67.7324E-03         5.89172         5.89172
            2630     1.36681E+03     1.36681E+03     30.9903E-03     30.9903E-03         5.88891         5.88891
            2631     1.37243E+03     1.37243E+03    -1.83415E-03    -1.83415E-03         5.85147         5.85147
            2632     1.37801E+03     1.37801E+03    -32.6305E-03    -32.6305E-03         5.78305         5.78305
            2633     1.38352E+03     1.38352E+03    -63.5757E-03    -63.5757E-03         5.68427         5.68427
            2634     1.38893E+03     1.38893E+03    -96.4411E-03    -96.4411E-03         5.55354         5.55354
            2635     1.39421E+03     1.39421E+03    -133.253E-03    -133.253E-03         5.38660         5.38660
            2636     1.39931E+03     1.39931E+03    -175.635E-03    -175.635E-03         5.17698         5.17698
            2637     1.40418E+03     1.40418E+03    -225.210E-03    -225.210E-03         4.91596         4.91596
            2638     1.40878E+03     1.40878E+03    -283.002E-03    -283.002E-03         4.59310         4.59310
            2639     1.41304E+03     1.41304E+03    -349.544E-03    -349.544E-03         4.19682         4.19682
            2640     1.41688E+03     1.41688E+03    -424.263E-03    -424.263E-03         3.71540         3.71540
            2641     1.42022E+03     1.42022E+03    -505.378E-03    -505.378E-03         3.13845         3.13845
            2642     1.42296E+03     1.42296E+03    -589.233E-03    -589.233E-03         2.45876         2.45876
            2643     1.42501E+03     1.42501E+03    -670.229E-03    -670.229E-03         1.67486         1.67486
            2644     1.42627E+03     1.42627E+03    -740.320E-03    -740.320E-03     793.625E-03     793.625E-03
            2645     1.42666E+03     1.42666E+03    -789.474E-03    -789.474E-03    -166.618E-03    -166.618E-03
            2646     1.42613E+03     1.42613E+03    -805.881E-03    -805.881E-03        -1.17382        -1.17382
            2647     1.42464E+03     1.42464E+03    -777.596E-03    -777.596E-03        -2.18079        -2.18079
            2648     1.42223E+03     1.42223E+03    -694.124E-03    -694.124E-03        -3.12555        -3.12555
            2649     1.41900E+03     1.41900E+03    -548.346E-03    -548.346E-03        -3.93241        -3.93241
            2650     1.48515E+03     1.48515E+03        -46.3285        -46.3285         2.68904         2.68904
            2651     1.47574E+03     1.47574E+03        -32.2018        -32.2018         11.7824         11.7824
            2652     1.46558E+03     1.46558E+03        -21.4381        -21.4381         16.2340         16.2340
            2653     1.45614E+03     1.45614E+03        -13.7449        -13.7449         17.9350         17.9350
            2654     1.44781E+03     1.44781E+03        -8.47463        -8.47463         18.1094         18.1094
            2655     1.44056E+03     1.44056E+03        -4.98735        -4.98735         17.4771         17.4771
            2656     1.43423E+03     1.43423E+03        -2.76353        -2.76353         16.4084         16.4084
            2657     1.42860E+03     1.42860E+03        -1.41015        -1.41015         15.0503         15.0503
            2658     1.42348E+03     1.42348E+03    -638.587E-03    -638.587E-03         13.3960         13.3960
            2659     1.41869E+03     1.41869E+03    -238.580E-03    -238.580E-03         11.3186         11.3186
            2660     1.41409E+03     1.41409E+03    -59.3550E-03    -59.3550E-03         8.57466         8.57466
            2661     1.40960E+03     1.40960E+03    -1.26394E-03    -1.26394E-03         4.81254         4.81254
            2662     1.49562E+03     1.49562E+03        -27.5779        -27.5779         21.9701         21.9701
            2663     1.47981E+03     1.47981E+03        -13.4419        -13.4419         25.5561         25.5561
            2664     1.46628E+03     1.46628E+03        -4.65400        -4.65400         25.4329         25.4329
            2665     1.45518E+03     1.45518E+03     383.847E-03     383.847E-03         23.7564         23.7564
            2666     1.44614E+03     1.44614E+03         2.96024         2.96024         21.5782         21.5782
            2667     1.43863E+03     1.43863E+03         3.97740         3.97740         19.3566         19.3566
            2668     1.43219E+03     1.43219E+03         4.03453         4.03453         17.2427         17.2427
            2669     1.42643E+03     1.42643E+03         3.52695         3.52695         15.2243         15.2243
            2670     1.42104E+03     1.42104E+03         2.72480         2.72480         13.1894         13.1894
            2671     1.41571E+03     1.41571E+03         1.82670         1.82670         10.9437         10.9437
            2672     1.41015E+03     1.41015E+03     994.939E-03     994.939E-03         8.20088         8.20088
            2673     1.40410E+03     1.40410E+03     379.120E-03     379.120E-03         4.57840         4.57840
            2674     1.49712E+03     1.49712E+03         6.77473         6.77473         38.3359         38.3359
            2675     1.47724E+03     1.47724E+03         14.8641         14.8641         34.4028         34.4028
            2676     1.46245E+03     1.46245E+03         17.6355         17.6355         29.5269         29.5269
            2677     1.45130E+03     1.45130E+03         17.5463         17.5463         24.9805         24.9805
            2678     1.44262E+03     1.44262E+03         15.9848         15.9848         21.1307         21.1307
            2679     1.43555E+03     1.43555E+03         13.7183         13.7183         17.9692         17.9692
            2680     1.42949E+03     1.42949E+03         11.1674         11.1674         15.3680         15.3680
            2681     1.42395E+03     1.42395E+03         8.57557         8.57557         13.1572         13.1572
            2682     1.41854E+03     1.41854E+03         6.10113         6.10113         11.1432         11.1432
            2683     1.41289E+03     1.41289E+03         3.87306         3.87306         9.10166         9.10166
            2684     1.40660E+03     1.40660E+03         2.03045         2.03045         6.75411         6.75411
            2685     1.39921E+03     1.39921E+03     751.281E-03     751.281E-03         3.75135         3.75135
            2686     1.48895E+03     1.48895E+03         51.7955         51.7955         42.2210         42.2210
            2687     1.46932E+03     1.46932E+03         47.2077         47.2077         32.8061         32.8061
            2688     1.45582E+03     1.45582E+03         40.8116         40.8116         25.5177         25.5177
            2689     1.44605E+03     1.44605E+03         34.2191         34.2191         20.0796         20.0796
            2690     1.43852E+03     1.43852E+03         28.0239         28.0239         16.0433         16.0433
            2691     1.43235E+03     1.43235E+03         22.3884         22.3884         13.0259         13.0259
            2692     1.42692E+03     1.42692E+03         17.3347         17.3347         10.7272         10.7272
            2693     1.42177E+03     1.42177E+03         12.8443         12.8443         8.90996         8.90996
            2694     1.41651E+03     1.41651E+03         8.90807         8.90807         7.37072         7.37072
            2695     1.41073E+03     1.41073E+03         5.55410         5.55410         5.91639         5.91639
            2696     1.40397E+03     1.40397E+03         2.87375         2.87375         4.33853         4.33853
            2697     1.39563E+03     1.39563E+03         1.05132         1.05132         2.39320         2.39320
            2698     1.47719E+03     1.47719E+03         92.0056         92.0056         26.8276         26.8276
            2699     1.46091E+03     1.46091E+03         73.0964         73.0964         18.4756         18.4756
            2700     1.44989E+03     1.44989E+03         58.0074         58.0074         13.0357         13.0357
            2701     1.44183E+03     1.44183E+03         45.9437         45.9437         9.39278         9.39278
            2702     1.43550E+03     1.43550E+03         36.1389         36.1389         6.88967         6.88967
            2703     1.43015E+03     1.43015E+03         28.0349         28.0349         5.14138         5.14138
            2704     1.42529E+03     1.42529E+03         21.2361         21.2361         3.90242         3.90242
            2705     1.42050E+03     1.42050E+03         15.4780         15.4780         3.00438         3.00438
            2706     1.41542E+03     1.41542E+03         10.6030         10.6030         2.32475         2.32475
            2707     1.40964E+03     1.40964E+03         6.55251         6.55251         1.76439         1.76439
            2708     1.40267E+03     1.40267E+03         3.37181         3.37181         1.23608         1.23608
            2709     1.39388E+03     1.39388E+03         1.23094         1.23094     658.237E-03     658.237E-03
            2710     1.47251E+03     1.47251E+03         105.794         105.794        -4.59982        -4.59982
            2711     1.45819E+03     1.45819E+03         80.7283         80.7283        -4.96229        -4.96229
            2712     1.44827E+03     1.44827E+03         62.5256         62.5256        -4.96010        -4.96010
            2713     1.44087E+03     1.44087E+03         48.7034         48.7034        -4.82672        -4.82672
            2714     1.43496E+03     1.43496E+03         37.8447         37.8447        -4.62146        -4.62146
            2715     1.42990E+03     1.42990E+03         29.0818         29.0818        -4.37004        -4.37004
            2716     1.42523E+03     1.42523E+03         21.8603         21.8603        -4.07735        -4.07735
            2717     1.42058E+03     1.42058E+03         15.8278         15.8278        -3.73605        -3.73605
            2718     1.41560E+03     1.41560E+03         10.7776         10.7776        -3.32759        -3.32759
            2719     1.40989E+03     1.40989E+03         6.62190         6.62190        -2.81736        -2.81736
            2720     1.40299E+03     1.40299E+03         3.38837         3.38837        -2.14642        -2.14642
            2721     1.39428E+03     1.39428E+03         1.23086         1.23086        -1.21866        -1.21866
            2722     1.48026E+03     1.48026E+03         81.4605         81.4605        -35.1232        -35.1232
            2723     1.46364E+03     1.46364E+03         64.7455         64.7455        -27.5760        -27.5760
            2724     1.45225E+03     1.45225E+03         51.5540         51.5540        -22.3670        -22.3670
            2725     1.44389E+03     1.44389E+03         40.9483         40.9483        -18.6062        -18.6062
            2726     1.43733E+03     1.43733E+03         32.2682         32.2682        -15.7933        -15.7933
            2727     1.43184E+03     1.43184E+03         25.0439         25.0439        -13.6057        -13.6057
            2728     1.42690E+03     1.42690E+03         18.9507         18.9507        -11.8187        -11.8187
            2729     1.42212E+03     1.42212E+03         13.7754         13.7754        -10.2586        -10.2586
            2730     1.41713E+03     1.41713E+03         9.39496         9.39496        -8.77219        -8.77219
            2731     1.41155E+03     1.41155E+03         5.76980         5.76980        -7.20068        -7.20068
            2732     1.40496E+03     1.40496E+03         2.94674         2.94674        -5.35016        -5.35016
            2733     1.39684E+03     1.39684E+03         1.06806         1.06806        -2.97545        -2.97545
            2734     1.49238E+03     1.49238E+03         32.3378         32.3378        -45.0399        -45.0399
            2735     1.47298E+03     1.47298E+03         31.9858         31.9858        -38.0122        -38.0122
            2736     1.45937E+03     1.45937E+03         28.9513         28.9513        -32.0478        -32.0478
            2737     1.44937E+03     1.44937E+03         25.0199         25.0199        -27.2511        -27.2511
            2738     1.44163E+03     1.44163E+03         20.9036         20.9036        -23.4140        -23.4140
            2739     1.43532E+03     1.43532E+03         16.9122         16.9122        -20.2972        -20.2972
            2740     1.42986E+03     1.42986E+03         13.1837         13.1837        -17.6756        -17.6756
            2741     1.42479E+03     1.42479E+03         9.78677         9.78677        -15.3441        -15.3441
            2742     1.41976E+03     1.41976E+03         6.77216         6.77216        -13.0995        -13.0995
            2743     1.41441E+03     1.41441E+03         4.20069         4.20069        -10.7184        -10.7184
            2744     1.40839E+03     1.40839E+03         2.16266         2.16266        -7.92630        -7.92630
            2745     1.40128E+03     1.40128E+03     790.683E-03     790.683E-03        -4.38541        -4.38541
            2746     1.49564E+03     1.49564E+03        -13.9708        -13.9708        -32.3162        -32.3162
            2747     1.47847E+03     1.47847E+03        -2.60440        -2.60440        -32.9912        -32.9912
            2748     1.46491E+03     1.46491E+03         3.43749         3.43749        -31.1035        -31.1035
            2749     1.45432E+03     1.45432E+03         6.21516         6.21516        -28.4306        -28.4306
            2750     1.44592E+03     1.44592E+03         7.06911         7.06911        -25.6691        -25.6691
            2751     1.43906E+03     1.43906E+03         6.80500         6.80500        -23.0372        -23.0372
            2752     1.43321E+03     1.43321E+03         5.91786         5.91786        -20.5568        -20.5568
            2753     1.42798E+03     1.42798E+03         4.72152         4.72152        -18.1463        -18.1463
            2754     1.42303E+03     1.42303E+03         3.42799         3.42799        -15.6605        -15.6605
            2755     1.41807E+03     1.41807E+03         2.19495         2.19495        -12.8912        -12.8912
            2756     1.41285E+03     1.41285E+03         1.15407         1.15407        -9.55428        -9.55428
            2757     1.40709E+03     1.40709E+03     428.329E-03     428.329E-03        -5.28570        -5.28570
            2758     1.48578E+03     1.48578E+03        -40.7809        -40.7809        -10.5282        -10.5282
            2759     1.47556E+03     1.47556E+03        -26.9223        -26.9223        -18.6947        -18.6947
            2760     1.46528E+03     1.46528E+03        -16.8835        -16.8835        -22.2958        -22.2958
            2761     1.45615E+03     1.45615E+03        -10.0589        -10.0589        -23.3238        -23.3238
            2762     1.44835E+03     1.44835E+03        -5.62306        -5.62306        -22.9702        -22.9702
            2763     1.44172E+03     1.44172E+03        -2.86055        -2.86055        -21.8775        -21.8775
            2764     1.43600E+03     1.43600E+03        -1.23875        -1.23875        -20.3493        -20.3493
            2765     1.43095E+03     1.43095E+03    -371.304E-03    -371.304E-03        -18.4906        -18.4906
            2766     1.42635E+03     1.42635E+03     19.2301E-03     19.2301E-03        -16.2718        -16.2718
            2767     1.42202E+03     1.42202E+03     132.800E-03     132.800E-03        -13.5586        -13.5586
            2768     1.41781E+03     1.41781E+03     112.682E-03     112.682E-03        -10.1126        -10.1126
            2769     1.41362E+03     1.41362E+03     54.3474E-03     54.3474E-03        -5.60572        -5.60572
            2770     1.32285E+03     1.32285E+03         385.214         385.214         71.6011         71.6011
            2771     1.33612E+03     1.33612E+03         353.633         353.633         71.1810         71.1810
            2772     1.34911E+03     1.34911E+03         322.029         322.029         68.9784         68.9784
            2773     1.36148E+03     1.36148E+03         291.001         291.001         65.7075         65.7075
            2774     1.37301E+03     1.37301E+03         260.964         260.964         61.4864         61.4864
            2775     1.38352E+03     1.38352E+03         232.293         232.293         56.4572         56.4572
            2776     1.39285E+03     1.39285E+03         205.296         205.296         50.8274         50.8274
            2777     1.40095E+03     1.40095E+03         180.193         180.193         44.8046         44.8046
            2778     1.40778E+03     1.40778E+03         157.124         157.124         38.6062         38.6062
            2779     1.41340E+03     1.41340E+03         136.144         136.144         32.4253         32.4253
            2780     1.41784E+03     1.41784E+03         117.248         117.248         26.4231         26.4231
            2781     1.42122E+03     1.42122E+03         100.372         100.372         20.7301         20.7301
            2782     1.42365E+03     1.42365E+03         85.4158         85.4158         15.4318         15.4318
            2783     1.42523E+03     1.42523E+03         72.2574         72.2574         10.5886         10.5886
            2784     1.42607E+03     1.42607E+03         60.7562         60.7562         6.22254         6.22254
            2785     1.42629E+03     1.42629E+03         50.7697         50.7697         2.34039         2.34039
            2786     1.42597E+03     1.42597E+03         42.1510         42.1510        -1.07621        -1.07621
            2787     1.42521E+03     1.42521E+03         34.7608         34.7608        -4.05284        -4.05284
            2788     1.42408E+03     1.42408E+03         28.4621         28.4621        -6.62855        -6.62855
            2789     1.42265E+03     1.42265E+03         23.1284         23.1284        -8.84418        -8.84418
            2790     1.42096E+03     1.42096E+03         18.6382         18.6382        -10.7465        -10.7465
            2791     1.41908E+03     1.41908E+03         14.8800         14.8800        -12.3814        -12.3814
            2792     1.41703E+03     1.41703E+03         11.7483         11.7483        -13.7968        -13.7968
            2793     1.41486E+03     1.41486E+03         9.14550         9.14550        -15.0388        -15.0388
            2794     1.41259E+03     1.41259E+03         6.97944         6.97944        -16.1546        -16.1546
            2795     1.41025E+03     1.41025E+03         5.16388         5.16388        -17.1903        -17.1903
            2796     1.40786E+03     1.40786E+03         3.61620         3.61620        -18.1936        -18.1936
            2797     1.40544E+03     1.40544E+03         2.25727         2.25727        -19.2130        -19.2130
            2798     1.40302E+03     1.40302E+03         1.00913         1.00913        -20.3003        -20.3003
            2799     1.40062E+03     1.40062E+03    -206.226E-03    -206.226E-03        -21.5114        -21.5114
            2800     1.39826E+03     1.39826E+03        -1.46967        -1.46967        -22.9075        -22.9075
            2801     1.39600E+03     1.39600E+03        -2.86793        -2.86793        -24.5573        -24.5573
            2802     1.39388E+03     1.39388E+03        -4.49806        -4.49806        -26.5372        -26.5372
            2803     1.39200E+03     1.39200E+03        -6.47381        -6.47381        -28.9326        -28.9326
            2804     1.39047E+03     1.39047E+03        -8.93351        -8.93351        -31.8351        -31.8351
            2805     1.38950E+03     1.38950E+03        -12.0529        -12.0529        -35.3376        -35.3376
            2806     1.38937E+03     1.38937E+03        -16.0575        -16.0575        -39.5188        -39.5188
            2807     1.39053E+03     1.39053E+03        -21.2428        -21.2428        -44.4115        -44.4115
            2808     1.39364E+03     1.39364E+03        -27.9767        -27.9767        -49.9342        -49.9342
            2809     1.39972E+03     1.39972E+03        -36.6891        -36.6891        -55.7533        -55.7533
            2810     1.41009E+03     1.41009E+03        -47.6721        -47.6721        -61.0185        -61.0185
            2811     1.42630E+03     1.42630E+03        -60.7009        -60.7009        -64.0584        -64.0584
            2812     1.32070E+03     1.32070E+03         385.806         385.806         55.0112         55.0112
            2813     1.33354E+03     1.33354E+03         355.404         355.404         54.6720         54.6720
            2814     1.34613E+03     1.34613E+03         325.008         325.008         53.0062         53.0062
            2815     1.35820E+03     1.35820E+03         295.119         295.119         50.5757         50.5757
            2816     1.36956E+03     1.36956E+03         266.092         266.092         47.4414         47.4414
            2817     1.38004E+03     1.38004E+03         238.243         238.243         43.7169         43.7169
            2818     1.38950E+03     1.38950E+03         211.841         211.841         39.5264         39.5264
            2819     1.39785E+03     1.39785E+03         187.099         187.099         35.0243         35.0243
            2820     1.40507E+03     1.40507E+03         164.160         164.160         30.3574         30.3574
            2821     1.41114E+03     1.41114E+03         143.110         143.110         25.6678         25.6678
            2822     1.41611E+03     1.41611E+03         123.973         123.973         21.0790         21.0790
            2823     1.42002E+03     1.42002E+03         106.728         106.728         16.6882         16.6882
            2824     1.42296E+03     1.42296E+03         91.3141         91.3141         12.5725         12.5725
            2825     1.42501E+03     1.42501E+03         77.6425         77.6425         8.77844         8.77844
            2826     1.42628E+03     1.42628E+03         65.6063         65.6063         5.33669         5.33669
            2827     1.42685E+03     1.42685E+03         55.0840         55.0840         2.25329         2.25329
            2828     1.42681E+03     1.42681E+03         45.9510         45.9510    -475.234E-03    -475.234E-03
            2829     1.42625E+03     1.42625E+03         38.0784         38.0784        -2.86834        -2.86834
            2830     1.42524E+03     1.42524E+03         31.3414         31.3414        -4.94983        -4.94983
            2831     1.42385E+03     1.42385E+03         25.6168         25.6168        -6.75211        -6.75211
            2832     1.42213E+03     1.42213E+03         20.7889         20.7889        -8.30869        -8.30869
            2833     1.42014E+03     1.42014E+03         16.7463         16.7463        -9.65708        -9.65708
            2834     1.41792E+03     1.41792E+03         13.3857         13.3857        -10.8345        -10.8345
            2835     1.41550E+03     1.41550E+03         10.6093         10.6093        -11.8800        -11.8800
            2836     1.41292E+03     1.41292E+03         8.32629         8.32629        -12.8326        -12.8326
            2837     1.41019E+03     1.41019E+03         6.45143         6.45143        -13.7329        -13.7329
            2838     1.40733E+03     1.40733E+03         4.90524         4.90524        -14.6233        -14.6233
            2839     1.40436E+03     1.40436E+03         3.61251         3.61251        -15.5491        -15.5491
            2840     1.40127E+03     1.40127E+03         2.50185         2.50185        -16.5602        -16.5602
            2841     1.39807E+03     1.39807E+03         1.50390         1.50390        -17.7133        -17.7133
            2842     1.39476E+03     1.39476E+03     549.679E-03     549.679E-03        -19.0738        -19.0738
            2843     1.39134E+03     1.39134E+03    -432.294E-03    -432.294E-03        -20.7199        -20.7199
            2844     1.38780E+03     1.38780E+03        -1.52016        -1.52016        -22.7463        -22.7463
            2845     1.38417E+03     1.38417E+03        -2.80459        -2.80459        -25.2695        -25.2695
            2846     1.38047E+03     1.38047E+03        -4.39908        -4.39908        -28.4343        -28.4343
            2847     1.37677E+03     1.37677E+03        -6.45353        -6.45353        -32.4214        -32.4214
            2848     1.37320E+03     1.37320E+03        -9.18009        -9.18009        -37.4545        -37.4545
            2849     1.37002E+03     1.37002E+03        -12.8859        -12.8859        -43.8048        -43.8048
            2850     1.36773E+03     1.36773E+03        -18.0384        -18.0384        -51.7795        -51.7795
            2851     1.36720E+03     1.36720E+03        -25.3373        -25.3373        -61.6708        -61.6708
            2852     1.37011E+03     1.37011E+03        -35.8500        -35.8500        -73.5424        -73.5424
            2853     1.37929E+03     1.37929E+03        -50.8673        -50.8673        -86.7374        -86.7374
            2854     1.31923E+03     1.31923E+03         386.244         386.244         38.9110         38.9110
            2855     1.33175E+03     1.33175E+03         356.675         356.675         38.6234         38.6234
            2856     1.34406E+03     1.34406E+03         327.123         327.123         37.4284         37.4284
            2857     1.35590E+03     1.35590E+03         298.042         298.042         35.7128         35.7128
            2858     1.36712E+03     1.36712E+03         269.734         269.734         33.5300         33.5300
            2859     1.37755E+03     1.37755E+03         242.481         242.481         30.9396         30.9396
            2860     1.38706E+03     1.38706E+03         216.528         216.528         28.0343         28.0343
            2861     1.39557E+03     1.39557E+03         192.072         192.072         24.9057         24.9057
            2862     1.40303E+03     1.40303E+03         169.263         169.263         21.6567         21.6567
            2863     1.40940E+03     1.40940E+03         148.197         148.197         18.3806         18.3806
            2864     1.41471E+03     1.41471E+03         128.920         128.920         15.1616         15.1616
            2865     1.41898E+03     1.41898E+03         111.437         111.437         12.0705         12.0705
            2866     1.42228E+03     1.42228E+03         95.7135         95.7135         9.15926         9.15926
            2867     1.42468E+03     1.42468E+03         81.6863         81.6863         6.46728         6.46728
            2868     1.42626E+03     1.42626E+03         69.2694         69.2694         4.01435         4.01435
            2869     1.42709E+03     1.42709E+03         58.3625         58.3625         1.81166         1.81166
            2870     1.42726E+03     1.42726E+03         48.8535         48.8535    -144.780E-03    -144.780E-03
            2871     1.42685E+03     1.42685E+03         40.6269         40.6269        -1.86368        -1.86368
            2872     1.42594E+03     1.42594E+03         33.5643         33.5643        -3.36330        -3.36330
            2873     1.42458E+03     1.42458E+03         27.5498         27.5498        -4.66371        -4.66371
            2874     1.42285E+03     1.42285E+03         22.4698         22.4698        -5.79016        -5.79016
            2875     1.42079E+03     1.42079E+03         18.2167         18.2167        -6.76814        -6.76814
            2876     1.41844E+03     1.41844E+03         14.6877         14.6877        -7.62572        -7.62572
            2877     1.41584E+03     1.41584E+03         11.7870         11.7870        -8.39092        -8.39092
            2878     1.41302E+03     1.41302E+03         9.42515         9.42515        -9.09351        -9.09351
            2879     1.40999E+03     1.40999E+03         7.51954         7.51954        -9.76399        -9.76399
            2880     1.40676E+03     1.40676E+03         5.99396         5.99396        -10.4353        -10.4353
            2881     1.40333E+03     1.40333E+03         4.77873         4.77873        -11.1432        -11.1432
            2882     1.39969E+03     1.39969E+03         3.80992         3.80992        -11.9280        -11.9280
            2883     1.39582E+03     1.39582E+03         3.02905         3.02905        -12.8366        -12.8366
            2884     1.39169E+03     1.39169E+03         2.38201         2.38201        -13.9253        -13.9253
            2885     1.38724E+03     1.38724E+03         1.81770         1.81770        -15.2631        -15.2631
            2886     1.38243E+03     1.38243E+03         1.28601         1.28601        -16.9378        -16.9378
            2887     1.37717E+03     1.37717E+03     733.834E-03     733.834E-03        -19.0626        -19.0626
            2888     1.37136E+03     1.37136E+03     99.9201E-03     99.9201E-03        -21.7881        -21.7881
            2889     1.36489E+03     1.36489E+03    -696.531E-03    -696.531E-03        -25.3168        -25.3168
            2890     1.35764E+03     1.35764E+03        -1.77098        -1.77098        -29.9291        -29.9291
            2891     1.34949E+03     1.34949E+03        -3.30858        -3.30858        -36.0176        -36.0176
            2892     1.34035E+03     1.34035E+03        -5.61480        -5.61480        -44.1456        -44.1456
            2893     1.33030E+03     1.33030E+03        -9.23674        -9.23674        -55.1241        -55.1241
            2894     1.31983E+03     1.31983E+03        -15.1883        -15.1883        -70.1448        -70.1448
            2895     1.31066E+03     1.31066E+03        -25.4336        -25.4336        -90.7661        -90.7661
            2896     1.31829E+03     1.31829E+03         386.539         386.539         23.1423         23.1423
            2897     1.33062E+03     1.33062E+03         357.497         357.497         22.8963         22.8963
            2898     1.34275E+03     1.34275E+03         328.479         328.479         22.1192         22.1192
            2899     1.35445E+03     1.35445E+03         299.907         299.907         21.0542         21.0542
            2900     1.36557E+03     1.36557E+03         272.056         272.056         19.7222         19.7222
            2901     1.37596E+03     1.37596E+03         245.185         245.185         18.1688         18.1688
            2902     1.38550E+03     1.38550E+03         219.522         219.522         16.4378         16.4378
            2903     1.39409E+03     1.39409E+03         195.257         195.257         14.5889         14.5889
            2904     1.40168E+03     1.40168E+03         172.540         172.540         12.6756         12.6756
            2905     1.40823E+03     1.40823E+03         151.474         151.474         10.7536         10.7536
            2906     1.41375E+03     1.41375E+03         132.119         132.119         8.87037         8.87037
            2907     1.41825E+03     1.41825E+03         114.492         114.492         7.06530         7.06530
            2908     1.42178E+03     1.42178E+03         98.5765         98.5765         5.37043         5.37043
            2909     1.42439E+03     1.42439E+03         84.3251         84.3251         3.80538         3.80538
            2910     1.42616E+03     1.42616E+03         71.6670         71.6670         2.38472         2.38472
            2911     1.42716E+03     1.42716E+03         60.5128         60.5128         1.11150         1.11150
            2912     1.42747E+03     1.42747E+03         50.7622         50.7622    -13.9535E-03    -13.9535E-03
            2913     1.42717E+03     1.42717E+03         42.3059         42.3059    -999.615E-03    -999.615E-03
            2914     1.42632E+03     1.42632E+03         35.0325         35.0325        -1.85434        -1.85434
            2915     1.42499E+03     1.42499E+03         28.8292         28.8292        -2.59201        -2.59201
            2916     1.42325E+03     1.42325E+03         23.5861         23.5861        -3.22633        -3.22633
            2917     1.42114E+03     1.42114E+03         19.1965         19.1965        -3.77365        -3.77365
            2918     1.41871E+03     1.41871E+03         15.5597         15.5597        -4.24981        -4.24981
            2919     1.41599E+03     1.41599E+03         12.5807         12.5807        -4.67211        -4.67211
            2920     1.41301E+03     1.41301E+03         10.1717         10.1717        -5.05760        -5.05760
            2921     1.40978E+03     1.40978E+03         8.25183         8.25183        -5.42465        -5.42465
            2922     1.40630E+03     1.40630E+03         6.74796         6.74796        -5.79230        -5.79230
            2923     1.40257E+03     1.40257E+03         5.59452         5.59452        -6.18169        -6.18169
            2924     1.39855E+03     1.39855E+03         4.73386         4.73386        -6.61642        -6.61642
            2925     1.39422E+03     1.39422E+03         4.11622         4.11622        -7.12422        -7.12422
            2926     1.38952E+03     1.38952E+03         3.69989         3.69989        -7.73842        -7.73842
            2927     1.38436E+03     1.38436E+03         3.45136         3.45136        -8.50081        -8.50081
            2928     1.37863E+03     1.37863E+03         3.34512         3.34512        -9.46491        -9.46491
            2929     1.37218E+03     1.37218E+03         3.36380         3.36380        -10.7018        -10.7018
            2930     1.36480E+03     1.36480E+03         3.49683         3.49683        -12.3081        -12.3081
            2931     1.35622E+03     1.35622E+03         3.74000         3.74000        -14.4190        -14.4190
            2932     1.34607E+03     1.34607E+03         4.08959         4.08959        -17.2288        -17.2288
            2933     1.33382E+03     1.33382E+03         4.53799         4.53799        -21.0273        -21.0273
            2934     1.31875E+03     1.31875E+03         5.05021         5.05021        -26.2580        -26.2580
            2935     1.29982E+03     1.29982E+03         5.53151         5.53151        -33.6388        -33.6388
            2936     1.27551E+03     1.27551E+03         5.72686         5.72686        -44.3837        -44.3837
            2937     1.24358E+03     1.24358E+03         4.92338         4.92338        -60.7803        -60.7803
            2938     1.31784E+03     1.31784E+03         386.682         386.682         7.58471         7.58471
            2939     1.33007E+03     1.33007E+03         357.890         357.890         7.38404         7.38404
            2940     1.34212E+03     1.34212E+03         329.124         329.124         7.02185         7.02185
            2941     1.35375E+03     1.35375E+03         300.791         300.791         6.57431         6.57431
            2942     1.36483E+03     1.36483E+03         273.153         273.153         6.05994         6.05994
            2943     1.37520E+03     1.37520E+03         246.457         246.457         5.48844         5.48844
            2944     1.38475E+03     1.38475E+03         220.926         220.926         4.88289         4.88289
            2945     1.39338E+03     1.39338E+03         196.746         196.746         4.25782         4.25782
            2946     1.40104E+03     1.40104E+03         174.068         174.068         3.63435         3.63435
            2947     1.40767E+03     1.40767E+03         152.998         152.998         3.02704         3.02704
            2948     1.41329E+03     1.41329E+03         133.601         133.601         2.45013         2.45013
            2949     1.41789E+03     1.41789E+03         115.903         115.903         1.91452         1.91452
            2950     1.42152E+03     1.42152E+03         99.8952         99.8952         1.42637         1.42637
            2951     1.42423E+03     1.42423E+03         85.5368         85.5368     991.369E-03     991.369E-03
            2952     1.42609E+03     1.42609E+03         72.7637         72.7637     609.221E-03     609.221E-03
            2953     1.42717E+03     1.42717E+03         61.4932         61.4932     280.826E-03     280.826E-03
            2954     1.42754E+03     1.42754E+03         51.6288         51.6288     2.00563E-03     2.00563E-03
            2955     1.42728E+03     1.42728E+03         43.0657         43.0657    -229.599E-03    -229.599E-03
            2956     1.42646E+03     1.42646E+03         35.6943         35.6943    -419.799E-03    -419.799E-03
            2957     1.42514E+03     1.42514E+03         29.4041         29.4041    -572.589E-03    -572.589E-03
            2958     1.42340E+03     1.42340E+03         24.0860         24.0860    -693.941E-03    -693.941E-03
            2959     1.42127E+03     1.42127E+03         19.6343         19.6343    -788.287E-03    -788.287E-03
            2960     1.41880E+03     1.41880E+03         15.9486         15.9486    -861.021E-03    -861.021E-03
            2961     1.41603E+03     1.41603E+03         12.9344         12.9344    -916.349E-03    -916.349E-03
            2962     1.41298E+03     1.41298E+03         10.5042         10.5042    -958.871E-03    -958.871E-03
            2963     1.40966E+03     1.40966E+03         8.57801         8.57801    -992.337E-03    -992.337E-03
            2964     1.40608E+03     1.40608E+03         7.08375         7.08375        -1.02064        -1.02064
            2965     1.40221E+03     1.40221E+03         5.95750         5.95750        -1.04713        -1.04713
            2966     1.39804E+03     1.39804E+03         5.14424         5.14424        -1.07526        -1.07526
            2967     1.39352E+03     1.39352E+03         4.59781         4.59781        -1.10820        -1.10820
            2968     1.38857E+03     1.38857E+03         4.28200         4.28200        -1.14935        -1.14935
            2969     1.38310E+03     1.38310E+03         4.17069         4.17069        -1.20208        -1.20208
            2970     1.37698E+03     1.37698E+03         4.24978         4.24978        -1.27029        -1.27029
            2971     1.37003E+03     1.37003E+03         4.51735         4.51735        -1.35810        -1.35810
            2972     1.36199E+03     1.36199E+03         4.98754         4.98754        -1.47081        -1.47081
            2973     1.35251E+03     1.35251E+03         5.69052         5.69052        -1.61418        -1.61418
            2974     1.34110E+03     1.34110E+03         6.68096         6.68096        -1.79659        -1.79659
            2975     1.32706E+03     1.32706E+03         8.03640         8.03640        -2.02659        -2.02659
            2976     1.30935E+03     1.30935E+03         9.87690         9.87690        -2.31790        -2.31790
            2977     1.28636E+03     1.28636E+03         12.3597         12.3597        -2.68023        -2.68023
            2978     1.25549E+03     1.25549E+03         15.7296         15.7296        -3.12201        -3.12201
            2979     1.21209E+03     1.21209E+03         20.3366         20.3366        -3.55102        -3.55102
            2980     1.31784E+03     1.31784E+03         386.682         386.682        -7.88121        -7.88121
            2981     1.33008E+03     1.33008E+03         357.878         357.878        -7.99973        -7.99973
            2982     1.34213E+03     1.34213E+03         329.100         329.100        -7.93084        -7.93084
            2983     1.35378E+03     1.35378E+03         300.751         300.751        -7.74018        -7.74018
            2984     1.36486E+03     1.36486E+03         273.094         273.094        -7.43654        -7.43654
            2985     1.37524E+03     1.37524E+03         246.377         246.377        -7.02149        -7.02149
            2986     1.38480E+03     1.38480E+03         220.825         220.825        -6.51289        -6.51289
            2987     1.39343E+03     1.39343E+03         196.625         196.625        -5.92295        -5.92295
            2988     1.40109E+03     1.40109E+03         173.929         173.929        -5.27386        -5.27386
            2989     1.40772E+03     1.40772E+03         152.844         152.844        -4.58393        -4.58393
            2990     1.41333E+03     1.41333E+03         133.436         133.436        -3.87353        -3.87353
            2991     1.41792E+03     1.41792E+03         115.731         115.731        -3.16121        -3.16121
            2992     1.42154E+03     1.42154E+03         99.7207         99.7207        -2.46159        -2.46159
            2993     1.42424E+03     1.42424E+03         85.3635         85.3635        -1.78901        -1.78901
            2994     1.42609E+03     1.42609E+03         72.5951         72.5951        -1.15129        -1.15129
            2995     1.42716E+03     1.42716E+03         61.3319         61.3319    -556.735E-03    -556.735E-03
            2996     1.42752E+03     1.42752E+03         51.4767         51.4767    -7.27657E-03    -7.27657E-03
            2997     1.42725E+03     1.42725E+03         42.9241         42.9241     494.461E-03     494.461E-03
            2998     1.42642E+03     1.42642E+03         35.5637         35.5637     950.801E-03     950.801E-03
            2999     1.42510E+03     1.42510E+03         29.2844         29.2844         1.36348         1.36348
            3000     1.42335E+03     1.42335E+03         23.9765         23.9765         1.73763         1.73763
            3001     1.42123E+03     1.42123E+03         19.5338         19.5338         2.07804         2.07804
            3002     1.41877E+03     1.41877E+03         15.8552         15.8552         2.39179         2.39179
            3003     1.41601E+03     1.41601E+03         12.8458         12.8458         2.68602         2.68602
            3004     1.41297E+03     1.41297E+03         10.4172         10.4172         2.96969         2.96969
            3005     1.40968E+03     1.40968E+03         8.48897         8.48897         3.25242         3.25242
            3006     1.40613E+03     1.40613E+03         6.98787         6.98787         3.54589         3.54589
            3007     1.40231E+03     1.40231E+03         5.84897         5.84897         3.86354         3.86354
            3008     1.39819E+03     1.39819E+03         5.01548         5.01548         4.22194         4.22194
            3009     1.39374E+03     1.39374E+03         4.43923         4.43923         4.64140         4.64140
            3010     1.38889E+03     1.38889E+03         4.08076         4.08076         5.14795         5.14795
            3011     1.38355E+03     1.38355E+03         3.90993         3.90993         5.77515         5.77515
            3012     1.37760E+03     1.37760E+03         3.90604         3.90604         6.56803         6.56803
            3013     1.37087E+03     1.37087E+03         4.05858         4.05858         7.58729         7.58729
            3014     1.36314E+03     1.36314E+03         4.36715         4.36715         8.91845         8.91845
            3015     1.35411E+03     1.35411E+03         4.84186         4.84186         10.6823         10.6823
            3016     1.34334E+03     1.34334E+03         5.50141         5.50141         13.0588         13.0588
            3017     1.33024E+03     1.33024E+03         6.37003         6.37003         16.3172         16.3172
            3018     1.31398E+03     1.31398E+03         7.46481         7.46481         20.8887         20.8887
            3019     1.29334E+03     1.29334E+03         8.76791         8.76791         27.4756         27.4756
            3020     1.26647E+03     1.26647E+03         10.1426         10.1426         37.3311         37.3311
            3021     1.23075E+03     1.23075E+03         11.0189         11.0189         52.8526         52.8526
            3022     1.31829E+03     1.31829E+03         386.543         386.543        -23.3953        -23.3953
            3023     1.33064E+03     1.33064E+03         357.475         357.475        -23.4170        -23.4170
            3024     1.34279E+03     1.34279E+03         328.423         328.423        -22.8878        -22.8878
            3025     1.35451E+03     1.35451E+03         299.808         299.808        -22.0390        -22.0390
            3026     1.36565E+03     1.36565E+03         271.907         271.907        -20.8829        -20.8829
            3027     1.37606E+03     1.37606E+03         244.981         244.981        -19.4586        -19.4586
            3028     1.38562E+03     1.38562E+03         219.262         219.262        -17.8052        -17.8052
            3029     1.39422E+03     1.39422E+03         194.944         194.944        -15.9811        -15.9811
            3030     1.40182E+03     1.40182E+03         172.180         172.180        -14.0411        -14.0411
            3031     1.40836E+03     1.40836E+03         151.075         151.075        -12.0445        -12.0445
            3032     1.41387E+03     1.41387E+03         131.691         131.691        -10.0447        -10.0447
            3033     1.41834E+03     1.41834E+03         114.047         114.047        -8.08762        -8.08762
            3034     1.42184E+03     1.42184E+03         98.1249         98.1249        -6.21291        -6.21291
            3035     1.42443E+03     1.42443E+03         83.8770         83.8770        -4.44746        -4.44746
            3036     1.42617E+03     1.42617E+03         71.2310         71.2310        -2.81280        -2.81280
            3037     1.42714E+03     1.42714E+03         60.0959         60.0959        -1.31794        -1.31794
            3038     1.42742E+03     1.42742E+03         50.3693         50.3693     31.6221E-03     31.6221E-03
            3039     1.42708E+03     1.42708E+03         41.9402         41.9402         1.24000         1.24000
            3040     1.42622E+03     1.42622E+03         34.6955         34.6955         2.31316         2.31316
            3041     1.42488E+03     1.42488E+03         28.5205         28.5205         3.26331         3.26331
            3042     1.42313E+03     1.42313E+03         23.3039         23.3039         4.10343         4.10343
            3043     1.42103E+03     1.42103E+03         18.9375         18.9375         4.85026         4.85026
            3044     1.41862E+03     1.41862E+03         15.3193         15.3193         5.52090         5.52090
            3045     1.41593E+03     1.41593E+03         12.3528         12.3528         6.13495         6.13495
            3046     1.41299E+03     1.41299E+03         9.94856         9.94856         6.71277         6.71277
            3047     1.40983E+03     1.40983E+03         8.02392         8.02392         7.27714         7.27714
            3048     1.40643E+03     1.40643E+03         6.50348         6.50348         7.85289         7.85289
            3049     1.40281E+03     1.40281E+03         5.31869         5.31869         8.46857         8.46857
            3050     1.39894E+03     1.39894E+03         4.40798         4.40798         9.15718         9.15718
            3051     1.39480E+03     1.39480E+03         3.71625         3.71625         9.95866         9.95866
            3052     1.39033E+03     1.39033E+03         3.19447         3.19447         10.9220         10.9220
            3053     1.38549E+03     1.38549E+03         2.79874         2.79874         12.1094         12.1094
            3054     1.38018E+03     1.38018E+03         2.48894         2.48894         13.6014         13.6014
            3055     1.37429E+03     1.37429E+03         2.22623         2.22623         15.5053         15.5053
            3056     1.36769E+03     1.36769E+03         1.96855         1.96855         17.9655         17.9655
            3057     1.36019E+03     1.36019E+03         1.66343         1.66343         21.1840         21.1840
            3058     1.35158E+03     1.35158E+03         1.23263         1.23263         25.4448         25.4448
            3059     1.34159E+03     1.34159E+03     547.888E-03     547.888E-03         31.1640         31.1640
            3060     1.32992E+03     1.32992E+03    -625.622E-03    -625.622E-03         38.9537         38.9537
            3061     1.31632E+03     1.31632E+03        -2.73044        -2.73044         49.7541         49.7541
            3062     1.30080E+03     1.30080E+03        -6.67442        -6.67442         65.0088         65.0088
            3063     1.28428E+03     1.28428E+03        -14.3253        -14.3253         86.8168         86.8168
            3064     1.31923E+03     1.31923E+03         386.255         386.255        -39.1061        -39.1061
            3065     1.33177E+03     1.33177E+03         356.655         356.655        -39.0199        -39.0199
            3066     1.34411E+03     1.34411E+03         327.057         327.057        -38.0109        -38.0109
            3067     1.35599E+03     1.35599E+03         297.919         297.919        -36.4567        -36.4567
            3068     1.36723E+03     1.36723E+03         269.546         269.546        -34.4033        -34.4033
            3069     1.37769E+03     1.37769E+03         242.221         242.221        -31.9051        -31.9051
            3070     1.38722E+03     1.38722E+03         216.195         216.195        -29.0517        -29.0517
            3071     1.39575E+03     1.39575E+03         191.671         191.671        -25.9340        -25.9340
            3072     1.40320E+03     1.40320E+03         168.801         168.801        -22.6570        -22.6570
            3073     1.40957E+03     1.40957E+03         147.686         147.686        -19.3173        -19.3173
            3074     1.41485E+03     1.41485E+03         128.374         128.374        -16.0043        -16.0043
            3075     1.41910E+03     1.41910E+03         110.870         110.870        -12.7948        -12.7948
            3076     1.42236E+03     1.42236E+03         95.1397         95.1397        -9.74629        -9.74629
            3077     1.42472E+03     1.42472E+03         81.1185         81.1185        -6.90408        -6.90408
            3078     1.42625E+03     1.42625E+03         68.7183         68.7183        -4.29294        -4.29294
            3079     1.42705E+03     1.42705E+03         57.8367         57.8367        -1.92852        -1.92852
            3080     1.42718E+03     1.42718E+03         48.3591         48.3591     189.760E-03     189.760E-03
            3081     1.42674E+03     1.42674E+03         40.1678         40.1678         2.06784         2.06784
            3082     1.42580E+03     1.42580E+03         33.1420         33.1420         3.72222         3.72222
            3083     1.42443E+03     1.42443E+03         27.1639         27.1639         5.17183         5.17183
            3084     1.42269E+03     1.42269E+03         22.1179         22.1179         6.44156         6.44156
            3085     1.42064E+03     1.42064E+03         17.8947         17.8947         7.55711         7.55711
            3086     1.41831E+03     1.41831E+03         14.3899         14.3899         8.54745         8.54745
            3087     1.41575E+03     1.41575E+03         11.5060         11.5060         9.44195         9.44195
            3088     1.41298E+03     1.41298E+03         9.15154         9.15154         10.2724         10.2724
            3089     1.41003E+03     1.41003E+03         7.24195         7.24195         11.0718         11.0718
            3090     1.40690E+03     1.40690E+03         5.69835         5.69835         11.8763         11.8763
            3091     1.40361E+03     1.40361E+03         4.44772         4.44772         12.7255         12.7255
            3092     1.40015E+03     1.40015E+03         3.42177         3.42177         13.6648         13.6648
            3093     1.39650E+03     1.39650E+03         2.55613         2.55613         14.7466         14.7466
            3094     1.39265E+03     1.39265E+03         1.78874         1.78874         16.0344         16.0344
            3095     1.38858E+03     1.38858E+03         1.05757         1.05757         17.6056         17.6056
            3096     1.38426E+03     1.38426E+03     297.313E-03     297.313E-03         19.5579         19.5579
            3097     1.37965E+03     1.37965E+03    -566.512E-03    -566.512E-03         22.0156         22.0156
            3098     1.37472E+03     1.37472E+03        -1.62559        -1.62559         25.1407         25.1407
            3099     1.36945E+03     1.36945E+03        -3.00478        -3.00478         29.1452         29.1452
            3100     1.36387E+03     1.36387E+03        -4.88345        -4.88345         34.3118         34.3118
            3101     1.35809E+03     1.35809E+03        -7.54156        -7.54156         41.0131         41.0131
            3102     1.35239E+03     1.35239E+03        -11.4203        -11.4203         49.7412         49.7412
            3103     1.34742E+03     1.34742E+03        -17.2605        -17.2605         61.1021         61.1021
            3104     1.34459E+03     1.34459E+03        -26.2782        -26.2782         75.7313         75.7313
            3105     1.34670E+03     1.34670E+03        -40.3294        -40.3294         93.9111         93.9111
            3106     1.32070E+03     1.32070E+03         385.818         385.818        -55.1469        -55.1469
            3107     1.33356E+03     1.33356E+03         355.385         355.385        -54.9434        -54.9434
            3108     1.34618E+03     1.34618E+03         324.945         324.945        -53.4003        -53.4003
            3109     1.35828E+03     1.35828E+03         295.002         295.002        -51.0760        -51.0760
            3110     1.36967E+03     1.36967E+03         265.911         265.911        -48.0250        -48.0250
            3111     1.38017E+03     1.38017E+03         237.994         237.994        -44.3572        -44.3572
            3112     1.38965E+03     1.38965E+03         211.523         211.523        -40.1946        -40.1946
            3113     1.39801E+03     1.39801E+03         186.717         186.717        -35.6922        -35.6922
            3114     1.40523E+03     1.40523E+03         163.723         163.723        -30.9987        -30.9987
            3115     1.41129E+03     1.41129E+03         142.630         142.630        -26.2596        -26.2596
            3116     1.41623E+03     1.41623E+03         123.462         123.462        -21.6024        -21.6024
            3117     1.42011E+03     1.42011E+03         106.200         106.200        -17.1287        -17.1287
            3118     1.42302E+03     1.42302E+03         90.7833         90.7833        -12.9201        -12.9201
            3119     1.42504E+03     1.42504E+03         77.1199         77.1199        -9.02660        -9.02660
            3120     1.42626E+03     1.42626E+03         65.1016         65.1016        -5.48238        -5.48238
            3121     1.42679E+03     1.42679E+03         54.6047         54.6047        -2.29601        -2.29601
            3122     1.42672E+03     1.42672E+03         45.5024         45.5024     533.845E-03     533.845E-03
            3123     1.42613E+03     1.42613E+03         37.6636         37.6636         3.02525         3.02525
            3124     1.42509E+03     1.42509E+03         30.9615         30.9615         5.20097         5.20097
            3125     1.42368E+03     1.42368E+03         25.2712         25.2712         7.09296         7.09296
            3126     1.42196E+03     1.42196E+03         20.4754         20.4754         8.73453         8.73453
            3127     1.41998E+03     1.41998E+03         16.4611         16.4611         10.1634         10.1634
            3128     1.41778E+03     1.41778E+03         13.1237         13.1237         11.4172         11.4172
            3129     1.41540E+03     1.41540E+03         10.3639         10.3639         12.5357         12.5357
            3130     1.41286E+03     1.41286E+03         8.08961         8.08961         13.5588         13.5588
            3131     1.41021E+03     1.41021E+03         6.21376         6.21376         14.5281         14.5281
            3132     1.40744E+03     1.40744E+03         4.65490         4.65490         15.4871         15.4871
            3133     1.40458E+03     1.40458E+03         3.33525         3.33525         16.4826         16.4826
            3134     1.40164E+03     1.40164E+03         2.18012         2.18012         17.5656         17.5656
            3135     1.39863E+03     1.39863E+03         1.11588         1.11588         18.7942         18.7942
            3136     1.39555E+03     1.39555E+03     67.8487E-03     67.8487E-03         20.2347         20.2347
            3137     1.39244E+03     1.39244E+03        -1.04291        -1.04291         21.9656         21.9656
            3138     1.38930E+03     1.38930E+03        -2.30451        -2.30451         24.0803         24.0803
            3139     1.38618E+03     1.38618E+03        -3.82066        -3.82066         26.6913         26.6913
            3140     1.38316E+03     1.38316E+03        -5.72225        -5.72225         29.9335         29.9335
            3141     1.38036E+03     1.38036E+03        -8.18081        -8.18081         33.9681         33.9681
            3142     1.37799E+03     1.37799E+03        -11.4359        -11.4359         38.9793         38.9793
            3143     1.37644E+03     1.37644E+03        -15.8220        -15.8220         45.1641         45.1641
            3144     1.37634E+03     1.37634E+03        -21.8260        -21.8260         52.6881         52.6881
            3145     1.37874E+03     1.37874E+03        -30.1100        -30.1100         61.5789         61.5789
            3146     1.38536E+03     1.38536E+03        -41.5258        -41.5258         71.4501         71.4501
            3147     1.39873E+03     1.39873E+03        -56.8165        -56.8165         81.0793         81.0793
            3148     1.32284E+03     1.32284E+03         385.222         385.222        -71.6742        -71.6742
            3149     1.33613E+03     1.33613E+03         353.618         353.618        -71.3195        -71.3195
            3150     1.34914E+03     1.34914E+03         321.987         321.987        -69.1762        -69.1762
            3151     1.36152E+03     1.36152E+03         290.923         290.923        -65.9567        -65.9567
            3152     1.37308E+03     1.37308E+03         260.846         260.846        -61.7752        -61.7752
            3153     1.38359E+03     1.38359E+03         232.131         232.131        -56.7712        -56.7712
            3154     1.39294E+03     1.39294E+03         205.092         205.092        -51.1518        -51.1518
            3155     1.40104E+03     1.40104E+03         179.949         179.949        -45.1248        -45.1248
            3156     1.40787E+03     1.40787E+03         156.848         156.848        -38.9091        -38.9091
            3157     1.41348E+03     1.41348E+03         135.843         135.843        -32.6999        -32.6999
            3158     1.41791E+03     1.41791E+03         116.930         116.930        -26.6610        -26.6610
            3159     1.42127E+03     1.42127E+03         100.046         100.046        -20.9252        -20.9252
            3160     1.42367E+03     1.42367E+03         85.0897         85.0897        -15.5802        -15.5802
            3161     1.42522E+03     1.42522E+03         71.9384         71.9384        -10.6882        -10.6882
            3162     1.42604E+03     1.42604E+03         60.4498         60.4498        -6.27296        -6.27296
            3163     1.42624E+03     1.42624E+03         50.4803         50.4803        -2.34236        -2.34236
            3164     1.42590E+03     1.42590E+03         41.8815         41.8815         1.12123         1.12123
            3165     1.42512E+03     1.42512E+03         34.5129         34.5129         4.14267         4.14267
            3166     1.42397E+03     1.42397E+03         28.2363         28.2363         6.76078         6.76078
            3167     1.42253E+03     1.42253E+03         22.9241         22.9241         9.01620         9.01620
            3168     1.42084E+03     1.42084E+03         18.4538         18.4538         10.9557         10.9557
            3169     1.41896E+03     1.41896E+03         14.7134         14.7134         12.6253         12.6253
            3170     1.41693E+03     1.41693E+03         11.5962         11.5962         14.0730         14.0730
            3171     1.41478E+03     1.41478E+03         9.00425         9.00425         15.3453         15.3453
            3172     1.41254E+03     1.41254E+03         6.84434         6.84434         16.4893         16.4893
            3173     1.41024E+03     1.41024E+03         5.02941         5.02941         17.5517         17.5517
            3174     1.40790E+03     1.40790E+03         3.47578         3.47578         18.5800         18.5800
            3175     1.40555E+03     1.40555E+03         2.10302         2.10302         19.6230         19.6230
            3176     1.40321E+03     1.40321E+03     831.519E-03     831.519E-03         20.7322         20.7322
            3177     1.40092E+03     1.40092E+03    -418.806E-03    -418.806E-03         21.9629         21.9629
            3178     1.39869E+03     1.39869E+03        -1.73143        -1.73143         23.3752         23.3752
            3179     1.39660E+03     1.39660E+03        -3.19641        -3.19641         25.0355         25.0355
            3180     1.39469E+03     1.39469E+03        -4.91468        -4.91468         27.0164         27.0164
            3181     1.39308E+03     1.39308E+03        -7.00478        -7.00478         29.3963         29.3963
            3182     1.39190E+03     1.39190E+03        -9.60967        -9.60967         32.2556         32.2556
            3183     1.39137E+03     1.39137E+03        -12.9095        -12.9095         35.6679         35.6679
            3184     1.39180E+03     1.39180E+03        -17.1293        -17.1293         39.6803         39.6803
            3185     1.39366E+03     1.39366E+03        -22.5556        -22.5556         44.2751         44.2751
            3186     1.39763E+03     1.39763E+03        -29.5185        -29.5185         49.2918         49.2918
            3187     1.40465E+03     1.40465E+03        -38.3591        -38.3591         54.2928         54.2928
            3188     1.41591E+03     1.41591E+03        -49.1928        -49.1928         58.3436         58.3436
            3189     1.43265E+03     1.43265E+03        -61.5591        -61.5591         59.7503         59.7503
            3190     1.45670E+03     1.45670E+03        -51.1788        -51.1788        -23.3013        -23.3013
            3191     1.44407E+03     1.44407E+03        -46.7391        -46.7391        -29.6328        -29.6328
            3192     1.43302E+03     1.43302E+03        -40.7485        -40.7485        -33.1786        -33.1786
            3193     1.42399E+03     1.42399E+03        -34.3843        -34.3843        -34.5853        -34.5853
            3194     1.41702E+03     1.41702E+03        -28.3617        -28.3617        -34.5965        -34.5965
            3195     1.41188E+03     1.41188E+03        -23.0027        -23.0027        -33.7942        -33.7942
            3196     1.40827E+03     1.40827E+03        -18.4023        -18.4023        -32.5917        -32.5917
            3197     1.40588E+03     1.40588E+03        -14.5303        -14.5303        -31.2435        -31.2435
            3198     1.40446E+03     1.40446E+03        -11.3076        -11.3076        -29.8972        -29.8972
            3199     1.40378E+03     1.40378E+03        -8.63377        -8.63377        -28.6266        -28.6266
            3200     1.40368E+03     1.40368E+03        -6.40669        -6.40669        -27.4602        -27.4602
            3201     1.40403E+03     1.40403E+03        -4.52695        -4.52695        -26.3982        -26.3982
            3202     1.40472E+03     1.40472E+03        -2.90087        -2.90087        -25.4240        -25.4240
            3203     1.40568E+03     1.40568E+03        -1.44005        -1.44005        -24.5108        -24.5108
            3204     1.40683E+03     1.40683E+03    -60.2761E-03    -60.2761E-03        -23.6255        -23.6255
            3205     1.40815E+03     1.40815E+03         1.31937         1.31937        -22.7313        -22.7313
            3206     1.40958E+03     1.40958E+03         2.77884         2.77884        -21.7880        -21.7880
            3207     1.41109E+03     1.41109E+03         4.39726         4.39726        -20.7527        -20.7527
            3208     1.41267E+03     1.41267E+03         6.25623         6.25623        -19.5795        -19.5795
            3209     1.41427E+03     1.41427E+03         8.43882         8.43882        -18.2192        -18.2192
            3210     1.41589E+03     1.41589E+03         11.0344         11.0344        -16.6190        -16.6190
            3211     1.41749E+03     1.41749E+03         14.1356         14.1356        -14.7226        -14.7226
            3212     1.41903E+03     1.41903E+03         17.8461         17.8461        -12.4695        -12.4695
            3213     1.42050E+03     1.42050E+03         22.2744         22.2744        -9.79666        -9.79666
            3214     1.42184E+03     1.42184E+03         27.5454         27.5454        -6.63728        -6.63728
            3215     1.42299E+03     1.42299E+03         33.7899         33.7899        -2.92637        -2.92637
            3216     1.42390E+03     1.42390E+03         41.1617         41.1617         1.40320         1.40320
            3217     1.42448E+03     1.42448E+03         49.8194         49.8194         6.40661         6.40661
            3218     1.42463E+03     1.42463E+03         59.9507         59.9507         12.1367         12.1367
            3219     1.42422E+03     1.42422E+03         71.7435         71.7435         18.6151         18.6151
            3220     1.42312E+03     1.42312E+03         85.4140         85.4140         25.8522         25.8522
            3221     1.42116E+03     1.42116E+03         101.167         101.167         33.7967         33.7967
            3222     1.41816E+03     1.41816E+03         119.215         119.215         42.3718         42.3718
            3223     1.41393E+03     1.41393E+03         139.734         139.734         51.4062         51.4062
            3224     1.40832E+03     1.40832E+03         162.848         162.848         60.6847         60.6847
            3225     1.40115E+03     1.40115E+03         188.609         188.609         69.8972         69.8972
            3226     1.39239E+03     1.39239E+03         216.921         216.921         78.6803         78.6803
            3227     1.38202E+03     1.38202E+03         247.580         247.580         86.6540         86.6540
            3228     1.37020E+03     1.37020E+03         280.181         280.181         93.4080         93.4080
            3229     1.35715E+03     1.35715E+03         314.202         314.202         98.6623         98.6623
            3230     1.34318E+03     1.34318E+03         348.997         348.997         102.157         102.157
            3231     1.32880E+03     1.32880E+03         383.708         383.708         102.861         102.861
            3232     1.45711E+03     1.45711E+03        -43.1419        -43.1419        -11.7419        -11.7419
            3233     1.44725E+03     1.44725E+03        -41.3353        -41.3353        -18.8848        -18.8848
            3234     1.43803E+03     1.43803E+03        -37.6123        -37.6123        -23.8418        -23.8418
            3235     1.42991E+03     1.42991E+03        -32.9320        -32.9320        -26.9533        -26.9533
            3236     1.42314E+03     1.42314E+03        -28.0288        -28.0288        -28.6393        -28.6393
            3237     1.41773E+03     1.41773E+03        -23.3461        -23.3461        -29.3369        -29.3369
            3238     1.41359E+03     1.41359E+03        -19.1096        -19.1096        -29.3966        -29.3966
            3239     1.41054E+03     1.41054E+03        -15.4034        -15.4034        -29.0791        -29.0791
            3240     1.40840E+03     1.40840E+03        -12.2274        -12.2274        -28.5571        -28.5571
            3241     1.40701E+03     1.40701E+03        -9.53795        -9.53795        -27.9393        -27.9393
            3242     1.40621E+03     1.40621E+03        -7.26856        -7.26856        -27.2866        -27.2866
            3243     1.40590E+03     1.40590E+03        -5.34373        -5.34373        -26.6280        -26.6280
            3244     1.40598E+03     1.40598E+03        -3.68467        -3.68467        -25.9703        -25.9703
            3245     1.40636E+03     1.40636E+03        -2.21266        -2.21266        -25.3057        -25.3057
            3246     1.40698E+03     1.40698E+03    -850.321E-03    -850.321E-03        -24.6160        -24.6160
            3247     1.40781E+03     1.40781E+03     478.764E-03     478.764E-03        -23.8757        -23.8757
            3248     1.40879E+03     1.40879E+03         1.84974         1.84974        -23.0528        -23.0528
            3249     1.40990E+03     1.40990E+03         3.33869         3.33869        -22.1106        -22.1106
            3250     1.41112E+03     1.41112E+03         5.02191         5.02191        -21.0068        -21.0068
            3251     1.41242E+03     1.41242E+03         6.97981         6.97981        -19.6941        -19.6941
            3252     1.41378E+03     1.41378E+03         9.29496         9.29496        -18.1199        -18.1199
            3253     1.41519E+03     1.41519E+03         12.0583         12.0583        -16.2256        -16.2256
            3254     1.41662E+03     1.41662E+03         15.3650         15.3650        -13.9476        -13.9476
            3255     1.41804E+03     1.41804E+03         19.3246         19.3246        -11.2157        -11.2157
            3256     1.41943E+03     1.41943E+03         24.0524         24.0524        -7.95665        -7.95665
            3257     1.42074E+03     1.42074E+03         29.6867         29.6867        -4.09084        -4.09084
            3258     1.42191E+03     1.42191E+03         36.3722         36.3722     458.343E-03     458.343E-03
            3259     1.42288E+03     1.42288E+03         44.2875         44.2875         5.77177         5.77177
            3260     1.42354E+03     1.42354E+03         53.6162         53.6162         11.9127         11.9127
            3261     1.42378E+03     1.42378E+03         64.5874         64.5874         18.9438         18.9438
            3262     1.42344E+03     1.42344E+03         77.4282         77.4282         26.8803         26.8803
            3263     1.42235E+03     1.42235E+03         92.4123         92.4123         35.7266         35.7266
            3264     1.42027E+03     1.42027E+03         109.796         109.796         45.3903         45.3903
            3265     1.41701E+03     1.41701E+03         129.844         129.844         55.7485         55.7485
            3266     1.41227E+03     1.41227E+03         152.774         152.774         66.5334         66.5334
            3267     1.40588E+03     1.40588E+03         178.701         178.701         77.4167         77.4167
            3268     1.39764E+03     1.39764E+03         207.640         207.640         87.9485         87.9485
            3269     1.38756E+03     1.38756E+03         239.362         239.362         97.6056         97.6056
            3270     1.37569E+03     1.37569E+03         273.481         273.481         105.907         105.907
            3271     1.36231E+03     1.36231E+03         309.339         309.339         112.347         112.347
            3272     1.34782E+03     1.34782E+03         346.139         346.139         116.681         116.681
            3273     1.33270E+03     1.33270E+03         382.858         382.858         117.592         117.592
            3274     1.45444E+03     1.45444E+03        -35.0587        -35.0587        -3.24195        -3.24195
            3275     1.44714E+03     1.44714E+03        -35.2077        -35.2077        -10.3859        -10.3859
            3276     1.43979E+03     1.43979E+03        -33.2562        -33.2562        -15.9334        -15.9334
            3277     1.43291E+03     1.43291E+03        -30.0836        -30.0836        -20.0116        -20.0116
            3278     1.42679E+03     1.42679E+03        -26.3300        -26.3300        -22.8351        -22.8351
            3279     1.42160E+03     1.42160E+03        -22.4633        -22.4633        -24.6682        -24.6682
            3280     1.41735E+03     1.41735E+03        -18.7713        -18.7713        -25.7729        -25.7729
            3281     1.41398E+03     1.41398E+03        -15.4099        -15.4099        -26.3657        -26.3657
            3282     1.41141E+03     1.41141E+03        -12.4429        -12.4429        -26.6131        -26.6131
            3283     1.40950E+03     1.40950E+03        -9.87529        -9.87529        -26.6318        -26.6318
            3284     1.40817E+03     1.40817E+03        -7.67737        -7.67737        -26.4997        -26.4997
            3285     1.40731E+03     1.40731E+03        -5.79920        -5.79920        -26.2637        -26.2637
            3286     1.40683E+03     1.40683E+03        -4.18030        -4.18030        -25.9487        -25.9487
            3287     1.40668E+03     1.40668E+03        -2.75502        -2.75502        -25.5622        -25.5622
            3288     1.40679E+03     1.40679E+03        -1.45541        -1.45541        -25.0997        -25.0997
            3289     1.40712E+03     1.40712E+03    -213.072E-03    -213.072E-03        -24.5464        -24.5464
            3290     1.40764E+03     1.40764E+03         1.04127         1.04127        -23.8795        -23.8795
            3291     1.40832E+03     1.40832E+03         2.37678         2.37678        -23.0688        -23.0688
            3292     1.40915E+03     1.40915E+03         3.86505         3.86505        -22.0773        -22.0773
            3293     1.41009E+03     1.41009E+03         5.57872         5.57872        -20.8606        -20.8606
            3294     1.41115E+03     1.41115E+03         7.59626         7.59626        -19.3676        -19.3676
            3295     1.41232E+03     1.41232E+03         9.99905         9.99905        -17.5397        -17.5397
            3296     1.41357E+03     1.41357E+03         12.8797         12.8797        -15.3103        -15.3103
            3297     1.41490E+03     1.41490E+03         16.3358         16.3358        -12.6055        -12.6055
            3298     1.41629E+03     1.41629E+03         20.4844         20.4844        -9.34300        -9.34300
            3299     1.41771E+03     1.41771E+03         25.4493         25.4493        -5.43555        -5.43555
            3300     1.41912E+03     1.41912E+03         31.3866         31.3866    -787.018E-03    -787.018E-03
            3301     1.42046E+03     1.42046E+03         38.4595         38.4595         4.69513         4.69513
            3302     1.42165E+03     1.42165E+03         46.8819         46.8819         11.1112         11.1112
            3303     1.42258E+03     1.42258E+03         56.8718         56.8718         18.5365         18.5365
            3304     1.42311E+03     1.42311E+03         68.7191         68.7191         27.0500         27.0500
            3305     1.42303E+03     1.42303E+03         82.7081         82.7081         36.6584         36.6584
            3306     1.42212E+03     1.42212E+03         99.1992         99.1992         47.3608         47.3608
            3307     1.42005E+03     1.42005E+03         118.525         118.525         59.0025         59.0025
            3308     1.41655E+03     1.41655E+03         141.028         141.028         71.3911         71.3911
            3309     1.41121E+03     1.41121E+03         166.973         166.973         84.1091         84.1091
            3310     1.40387E+03     1.40387E+03         196.438         196.438         96.6510         96.6510
            3311     1.39426E+03     1.39426E+03         229.345         229.345         108.371         108.371
            3312     1.38251E+03     1.38251E+03         265.206         265.206         118.522         118.522
            3313     1.36884E+03     1.36884E+03         303.316         303.316         126.546         126.546
            3314     1.35367E+03     1.35367E+03         342.639         342.639         131.867         131.867
            3315     1.33781E+03     1.33781E+03         381.818         381.818         133.133         133.133
            3316     1.45005E+03     1.45005E+03        -27.6399        -27.6399         2.61808         2.61808
            3317     1.44495E+03     1.44495E+03        -29.0121        -29.0121        -3.95207        -3.95207
            3318     1.43935E+03     1.43935E+03        -28.3693        -28.3693        -9.54142        -9.54142
            3319     1.43376E+03     1.43376E+03        -26.4054        -26.4054        -14.0520        -14.0520
            3320     1.42851E+03     1.42851E+03        -23.6886        -23.6886        -17.5477        -17.5477
            3321     1.42380E+03     1.42380E+03        -20.6424        -20.6424        -20.1602        -20.1602
            3322     1.41972E+03     1.41972E+03        -17.5694        -17.5694        -22.0517        -22.0517
            3323     1.41630E+03     1.41630E+03        -14.6579        -14.6579        -23.3817        -23.3817
            3324     1.41351E+03     1.41351E+03        -12.0114        -12.0114        -24.2862        -24.2862
            3325     1.41127E+03     1.41127E+03        -9.67150        -9.67150        -24.8737        -24.8737
            3326     1.40954E+03     1.40954E+03        -7.63863        -7.63863        -25.2239        -25.2239
            3327     1.40822E+03     1.40822E+03        -5.88673        -5.88673        -25.3925        -25.3925
            3328     1.40727E+03     1.40727E+03        -4.37366        -4.37366        -25.4150        -25.4150
            3329     1.40662E+03     1.40662E+03        -3.04789        -3.04789        -25.3109        -25.3109
            3330     1.40623E+03     1.40623E+03        -1.85295        -1.85295        -25.0864        -25.0864
            3331     1.40607E+03     1.40607E+03    -729.396E-03    -729.396E-03        -24.7367        -24.7367
            3332     1.40611E+03     1.40611E+03     383.207E-03     383.207E-03        -24.2475        -24.2475
            3333     1.40633E+03     1.40633E+03         1.54720         1.54720        -23.5958        -23.5958
            3334     1.40671E+03     1.40671E+03         2.82545         2.82545        -22.7501        -22.7501
            3335     1.40725E+03     1.40725E+03         4.28458         4.28458        -21.6706        -21.6706
            3336     1.40795E+03     1.40795E+03         5.99286         5.99286        -20.3088        -20.3088
            3337     1.40880E+03     1.40880E+03         8.02647         8.02647        -18.6071        -18.6071
            3338     1.40980E+03     1.40980E+03         10.4651         10.4651        -16.4987        -16.4987
            3339     1.41097E+03     1.41097E+03         13.4034         13.4034        -13.9065        -13.9065
            3340     1.41228E+03     1.41228E+03         16.9415         16.9415        -10.7435        -10.7435
            3341     1.41374E+03     1.41374E+03         21.2065         21.2065        -6.91160        -6.91160
            3342     1.41532E+03     1.41532E+03         26.3323         26.3323        -2.30508        -2.30508
            3343     1.41700E+03     1.41700E+03         32.4993         32.4993         3.19448         3.19448
            3344     1.41870E+03     1.41870E+03         39.8946         39.8946         9.70228         9.70228
            3345     1.42035E+03     1.42035E+03         48.7819         48.7819         17.3473         17.3473
            3346     1.42180E+03     1.42180E+03         59.4266         59.4266         26.2242         26.2242
            3347     1.42289E+03     1.42289E+03         72.2092         72.2092         36.4402         36.4402
            3348     1.42332E+03     1.42332E+03         87.4970         87.4970         47.9917         47.9917
            3349     1.42281E+03     1.42281E+03         105.785         105.785         60.8776         60.8776
            3350     1.42087E+03     1.42087E+03         127.523         127.523         74.8422         74.8422
            3351     1.41715E+03     1.41715E+03         153.157         153.157         89.5836         89.5836
            3352     1.41104E+03     1.41104E+03         183.016         183.016         104.442         104.442
            3353     1.40241E+03     1.40241E+03         217.050         217.050         118.620         118.620
            3354     1.39098E+03     1.39098E+03         254.961         254.961         131.209         131.209
            3355     1.37709E+03     1.37709E+03         295.783         295.783         141.160         141.160
            3356     1.36131E+03     1.36131E+03         338.250         338.250         147.936         147.936
            3357     1.34434E+03     1.34434E+03         380.630         380.630         149.599         149.599
            3358     1.44499E+03     1.44499E+03        -21.2409        -21.2409         6.42920         6.42920
            3359     1.44158E+03     1.44158E+03        -23.2003        -23.2003     681.801E-03     681.801E-03
            3360     1.43750E+03     1.43750E+03        -23.4010        -23.4010        -4.58237        -4.58237
            3361     1.43314E+03     1.43314E+03        -22.3413        -22.3413        -9.15093        -9.15093
            3362     1.42880E+03     1.42880E+03        -20.4750        -20.4750        -12.9579        -12.9579
            3363     1.42470E+03     1.42470E+03        -18.1744        -18.1744        -16.0349        -16.0349
            3364     1.42098E+03     1.42098E+03        -15.7170        -15.7170        -18.4600        -18.4600
            3365     1.41768E+03     1.41768E+03        -13.2972        -13.2972        -20.3321        -20.3321
            3366     1.41483E+03     1.41483E+03        -11.0348        -11.0348        -21.7506        -21.7506
            3367     1.41240E+03     1.41240E+03        -8.99334        -8.99334        -22.8036        -22.8036
            3368     1.41037E+03     1.41037E+03        -7.19435        -7.19435        -23.5640        -23.5640
            3369     1.40868E+03     1.40868E+03        -5.63083        -5.63083        -24.0877        -24.0877
            3370     1.40730E+03     1.40730E+03        -4.27670        -4.27670        -24.4157        -24.4157
            3371     1.40619E+03     1.40619E+03        -3.09413        -3.09413        -24.5747        -24.5747
            3372     1.40532E+03     1.40532E+03        -2.03798        -2.03798        -24.5791        -24.5791
            3373     1.40465E+03     1.40465E+03        -1.05933        -1.05933        -24.4324        -24.4324
            3374     1.40418E+03     1.40418E+03    -106.427E-03    -106.427E-03        -24.1281        -24.1281
            3375     1.40390E+03     1.40390E+03     873.471E-03     873.471E-03        -23.6500        -23.6500
            3376     1.40379E+03     1.40379E+03         1.93566         1.93566        -22.9728        -22.9728
            3377     1.40386E+03     1.40386E+03         3.13630         3.13630        -22.0617        -22.0617
            3378     1.40412E+03     1.40412E+03         4.53662         4.53662        -20.8723        -20.8723
            3379     1.40458E+03     1.40458E+03         6.19996         6.19996        -19.3498        -19.3498
            3380     1.40524E+03     1.40524E+03         8.19987         8.19987        -17.4288        -17.4288
            3381     1.40614E+03     1.40614E+03         10.6140         10.6140        -15.0317        -15.0317
            3382     1.40728E+03     1.40728E+03         13.5393         13.5393        -12.0686        -12.0686
            3383     1.40868E+03     1.40868E+03         17.0791         17.0791        -8.43603        -8.43603
            3384     1.41033E+03     1.41033E+03         21.3725         21.3725        -4.01565        -4.01565
            3385     1.41225E+03     1.41225E+03         26.5660         26.5660         1.32288         1.32288
            3386     1.41439E+03     1.41439E+03         32.8717         32.8717         7.72834         7.72834
            3387     1.41671E+03     1.41671E+03         40.5070         40.5070         15.3493         15.3493
            3388     1.41911E+03     1.41911E+03         49.8061         49.8061         24.3581         24.3581
            3389     1.42144E+03     1.42144E+03         61.0980         61.0980         34.8819         34.8819
            3390     1.42344E+03     1.42344E+03         74.9014         74.9014         47.0792         47.0792
            3391     1.42476E+03     1.42476E+03         91.7049         91.7049         60.9352         60.9352
            3392     1.42495E+03     1.42495E+03         112.221         112.221         76.4630         76.4630
            3393     1.42329E+03     1.42329E+03         137.088         137.088         93.2330         93.2330
            3394     1.41930E+03     1.41930E+03         166.886         166.886         110.754         110.754
            3395     1.41208E+03     1.41208E+03         202.007         202.007         127.962         127.962
            3396     1.40160E+03     1.40160E+03         242.053         242.053         143.551         143.551
            3397     1.38772E+03     1.38772E+03         286.228         286.228         156.317         156.317
            3398     1.37114E+03     1.37114E+03         332.709         332.709         164.847         164.847
            3399     1.35318E+03     1.35318E+03         379.105         379.105         167.322         167.322
            3400     1.43984E+03     1.43984E+03        -15.9159        -15.9159         8.73529         8.73529
            3401     1.43773E+03     1.43773E+03        -18.0055        -18.0055         3.85846         3.85846
            3402     1.43489E+03     1.43489E+03        -18.6557        -18.6557    -897.873E-03    -897.873E-03
            3403     1.43162E+03     1.43162E+03        -18.2047        -18.2047        -5.27033        -5.27033
            3404     1.42816E+03     1.42816E+03        -16.9928        -16.9928        -9.12187        -9.12187
            3405     1.42472E+03     1.42472E+03        -15.3204        -15.3204        -12.4051        -12.4051
            3406     1.42142E+03     1.42142E+03        -13.4290        -13.4290        -15.1340        -15.1340
            3407     1.41834E+03     1.41834E+03        -11.4958        -11.4958        -17.3551        -17.3551
            3408     1.41554E+03     1.41554E+03        -9.64122        -9.64122        -19.1305        -19.1305
            3409     1.41301E+03     1.41301E+03        -7.93625        -7.93625        -20.5254        -20.5254
            3410     1.41076E+03     1.41076E+03        -6.41453        -6.41453        -21.6000        -21.6000
            3411     1.40876E+03     1.40876E+03        -5.08173        -5.08173        -22.4062        -22.4062
            3412     1.40699E+03     1.40699E+03        -3.92447        -3.92447        -22.9851        -22.9851
            3413     1.40544E+03     1.40544E+03        -2.91645        -2.91645        -23.3675        -23.3675
            3414     1.40407E+03     1.40407E+03        -2.02359        -2.02359        -23.5734        -23.5734
            3415     1.40289E+03     1.40289E+03        -1.20670        -1.20670        -23.6128        -23.6128
            3416     1.40188E+03     1.40188E+03    -424.107E-03    -424.107E-03        -23.4856        -23.4856
            3417     1.40105E+03     1.40105E+03     368.294E-03     368.294E-03        -23.1824        -23.1824
            3418     1.40039E+03     1.40039E+03         1.21540         1.21540        -22.6838        -22.6838
            3419     1.39992E+03     1.39992E+03         2.16519         2.16519        -21.9608        -21.9608
            3420     1.39965E+03     1.39965E+03         3.26674         3.26674        -20.9739        -20.9739
            3421     1.39962E+03     1.39962E+03         4.57543         4.57543        -19.6731        -19.6731
            3422     1.39984E+03     1.39984E+03         6.14909         6.14909        -17.9959        -17.9959
            3423     1.40035E+03     1.40035E+03         8.05830         8.05830        -15.8678        -15.8678
            3424     1.40118E+03     1.40118E+03         10.3780         10.3780        -13.1986        -13.1986
            3425     1.40237E+03     1.40237E+03         13.2079         13.2079        -9.88344        -9.88344
            3426     1.40395E+03     1.40395E+03         16.6538         16.6538        -5.79820        -5.79820
            3427     1.40595E+03     1.40595E+03         20.8694         20.8694    -799.893E-03    -799.893E-03
            3428     1.40840E+03     1.40840E+03         26.0148         26.0148         5.27538         5.27538
            3429     1.41128E+03     1.41128E+03         32.3433         32.3433         12.6176         12.6176
            3430     1.41455E+03     1.41455E+03         40.1084         40.1084         21.4256         21.4256
            3431     1.41812E+03     1.41812E+03         49.7435         49.7435         31.9384         31.9384
            3432     1.42180E+03     1.42180E+03         61.6618         61.6618         44.3409         44.3409
            3433     1.42527E+03     1.42527E+03         76.5974         76.5974         58.8848         58.8848
            3434     1.42800E+03     1.42800E+03         95.2192         95.2192         75.5482         75.5482
            3435     1.42937E+03     1.42937E+03         118.613         118.613         94.3989         94.3989
            3436     1.42815E+03     1.42815E+03         147.741         147.741         114.681         114.681
            3437     1.42373E+03     1.42373E+03         183.324         183.324         135.537         135.537
            3438     1.41474E+03     1.41474E+03         225.752         225.752         155.214         155.214
            3439     1.40150E+03     1.40150E+03         273.760         273.760         171.511         171.511
            3440     1.38441E+03     1.38441E+03         325.421         325.421         183.031         183.031
            3441     1.36474E+03     1.36474E+03         377.315         377.315         186.397         186.397
            3442     1.43494E+03     1.43494E+03        -11.5804        -11.5804         9.94010         9.94010
            3443     1.43382E+03     1.43382E+03        -13.5001        -13.5001         5.87954         5.87954
            3444     1.43200E+03     1.43200E+03        -14.3071        -14.3071         1.70226         1.70226
            3445     1.42967E+03     1.42967E+03        -14.2175        -14.2175        -2.32360        -2.32360
            3446     1.42703E+03     1.42703E+03        -13.4736        -13.4736        -6.02483        -6.02483
            3447     1.42422E+03     1.42422E+03        -12.3045        -12.3045        -9.30872        -9.30872
            3448     1.42137E+03     1.42137E+03        -10.9042        -10.9042        -12.1411        -12.1411
            3449     1.41856E+03     1.41856E+03        -9.42404        -9.42404        -14.5288        -14.5288
            3450     1.41585E+03     1.41585E+03        -7.97088        -7.97088        -16.5025        -16.5025
            3451     1.41328E+03     1.41328E+03        -6.61359        -6.61359        -18.1052        -18.1052
            3452     1.41085E+03     1.41085E+03        -5.38894        -5.38894        -19.3836        -19.3836
            3453     1.40857E+03     1.40857E+03        -4.30966        -4.30966        -20.3823        -20.3823
            3454     1.40643E+03     1.40643E+03        -3.37072        -3.37072        -21.1405        -21.1405
            3455     1.40443E+03     1.40443E+03        -2.55526        -2.55526        -21.6901        -21.6901
            3456     1.40256E+03     1.40256E+03        -1.83837        -1.83837        -22.0546        -22.0546
            3457     1.40083E+03     1.40083E+03        -1.19056        -1.19056        -22.2483        -22.2483
            3458     1.39924E+03     1.39924E+03    -579.046E-03    -579.046E-03        -22.2768        -22.2768
            3459     1.39780E+03     1.39780E+03     30.2865E-03     30.2865E-03        -22.1360        -22.1360
            3460     1.39652E+03     1.39652E+03     673.689E-03     673.689E-03        -21.8130        -21.8130
            3461     1.39543E+03     1.39543E+03         1.38801         1.38801        -21.2842        -21.2842
            3462     1.39454E+03     1.39454E+03         2.21363         2.21363        -20.5167        -20.5167
            3463     1.39391E+03     1.39391E+03         3.19219         3.19219        -19.4656        -19.4656
            3464     1.39355E+03     1.39355E+03         4.37270         4.37270        -18.0751        -18.0751
            3465     1.39352E+03     1.39352E+03         5.80691         5.80691        -16.2745        -16.2745
            3466     1.39388E+03     1.39388E+03         7.56157         7.56157        -13.9800        -13.9800
            3467     1.39468E+03     1.39468E+03         9.70796         9.70796        -11.0874        -11.0874
            3468     1.39599E+03     1.39599E+03         12.3476         12.3476        -7.47580        -7.47580
            3469     1.39788E+03     1.39788E+03         15.5877         15.5877        -2.99583        -2.99583
            3470     1.40040E+03     1.40040E+03         19.5976         19.5976         2.52475         2.52475
            3471     1.40363E+03     1.40363E+03         24.5505         24.5505         9.29533         9.29533
            3472     1.40757E+03     1.40757E+03         30.7495         30.7495         17.5605         17.5605
            3473     1.41225E+03     1.41225E+03         38.4889         38.4889         27.5969         27.5969
            3474     1.41756E+03     1.41756E+03         48.3399         48.3399         39.7450         39.7450
            3475     1.42331E+03     1.42331E+03         60.8223         60.8223         54.2964         54.2964
            3476     1.42907E+03     1.42907E+03         77.0172         77.0172         71.6757         71.6757
            3477     1.43410E+03     1.43410E+03         97.8629         97.8629         91.8770         91.8770
            3478     1.43737E+03     1.43737E+03         125.143         125.143         115.134         115.134
            3479     1.43673E+03     1.43673E+03         160.431         160.431         140.016         140.016
            3480     1.43146E+03     1.43146E+03         204.448         204.448         164.850         164.850
            3481     1.41955E+03     1.41955E+03         257.258         257.258         186.749         186.749
            3482     1.40214E+03     1.40214E+03         315.537         315.537         201.962         201.962
            3483     1.38135E+03     1.38135E+03         374.687         374.687         207.597         207.597
            3484     1.43047E+03     1.43047E+03        -8.09587        -8.09587         10.2992         10.2992
            3485     1.43015E+03     1.43015E+03        -9.67564        -9.67564         6.96494         6.96494
            3486     1.42918E+03     1.42918E+03        -10.4419        -10.4419         3.37891         3.37891
            3487     1.42769E+03     1.42769E+03        -10.5278        -10.5278    -209.573E-03    -209.573E-03
            3488     1.42577E+03     1.42577E+03        -10.0968        -10.0968        -3.62024        -3.62024
            3489     1.42356E+03     1.42356E+03        -9.31347        -9.31347        -6.73709        -6.73709
            3490     1.42114E+03     1.42114E+03        -8.32398        -8.32398        -9.49860        -9.49860
            3491     1.41861E+03     1.41861E+03        -7.24642        -7.24642        -11.8837        -11.8837
            3492     1.41601E+03     1.41601E+03        -6.16842        -6.16842        -13.8999        -13.8999
            3493     1.41340E+03     1.41340E+03        -5.14841        -5.14841        -15.5724        -15.5724
            3494     1.41080E+03     1.41080E+03        -4.22047        -4.22047        -16.9354        -16.9354
            3495     1.40824E+03     1.40824E+03        -3.39896        -3.39896        -18.0261        -18.0261
            3496     1.40571E+03     1.40571E+03        -2.68389        -2.68389        -18.8798        -18.8798
            3497     1.40325E+03     1.40325E+03        -2.06486        -2.06486        -19.5280        -19.5280
            3498     1.40086E+03     1.40086E+03        -1.52493        -1.52493        -19.9953        -19.9953
            3499     1.39854E+03     1.39854E+03        -1.04261        -1.04261        -20.2992        -20.2992
            3500     1.39632E+03     1.39632E+03    -594.157E-03    -594.157E-03        -20.4490        -20.4490
            3501     1.39421E+03     1.39421E+03    -153.816E-03    -153.816E-03        -20.4459        -20.4459
            3502     1.39224E+03     1.39224E+03     304.739E-03     304.739E-03        -20.2816        -20.2816
            3503     1.39043E+03     1.39043E+03     809.772E-03     809.772E-03        -19.9393        -19.9393
            3504     1.38882E+03     1.38882E+03         1.39005         1.39005        -19.3918        -19.3918
            3505     1.38745E+03     1.38745E+03         2.07815         2.07815        -18.6024        -18.6024
            3506     1.38637E+03     1.38637E+03         2.90801         2.90801        -17.5215        -17.5215
            3507     1.38565E+03     1.38565E+03         3.92161         3.92161        -16.0887        -16.0887
            3508     1.38534E+03     1.38534E+03         5.16379         5.16379        -14.2256        -14.2256
            3509     1.38554E+03     1.38554E+03         6.69586         6.69586        -11.8407        -11.8407
            3510     1.38633E+03     1.38633E+03         8.58391         8.58391        -8.81524        -8.81524
            3511     1.38782E+03     1.38782E+03         10.9284         10.9284        -5.01316        -5.01316
            3512     1.39012E+03     1.39012E+03         13.8358         13.8358    -255.647E-03    -255.647E-03
            3513     1.39335E+03     1.39335E+03         17.4878         17.4878         5.66155         5.66155
            3514     1.39764E+03     1.39764E+03         22.0678         22.0678         13.0086         13.0086
            3515     1.40308E+03     1.40308E+03         27.9337         27.9337         22.0990         22.0990
            3516     1.40976E+03     1.40976E+03         35.4201         35.4201         33.3301         33.3301
            3517     1.41763E+03     1.41763E+03         45.2829         45.2829         47.1930         47.1930
            3518     1.42655E+03     1.42655E+03         58.1679         58.1679         64.1837         64.1837
            3519     1.43595E+03     1.43595E+03         75.7282         75.7282         85.0474         85.0474
            3520     1.44479E+03     1.44479E+03         99.2971         99.2971         109.889         109.889
            3521     1.45131E+03     1.45131E+03         132.118         132.118         139.430         139.430
            3522     1.45118E+03     1.45118E+03         177.039         177.039         170.667         170.667
            3523     1.44397E+03     1.44397E+03         233.989         233.989         199.878         199.878
            3524     1.42730E+03     1.42730E+03         301.419         301.419         222.576         222.576
            3525     1.40391E+03     1.40391E+03         371.242         371.242         230.653         230.653
            3526     1.42651E+03     1.42651E+03        -5.32716        -5.32716         9.93122         9.93122
            3527     1.42693E+03     1.42693E+03        -6.49222        -6.49222         7.24016         7.24016
            3528     1.42675E+03     1.42675E+03        -7.10431        -7.10431         4.24203         4.24203
            3529     1.42600E+03     1.42600E+03        -7.24081        -7.24081         1.15521         1.15521
            3530     1.42475E+03     1.42475E+03        -7.00583        -7.00583        -1.85065        -1.85065
            3531     1.42308E+03     1.42308E+03        -6.50931        -6.50931        -4.65637        -4.65637
            3532     1.42106E+03     1.42106E+03        -5.85283        -5.85283        -7.18845        -7.18845
            3533     1.41877E+03     1.41877E+03        -5.12099        -5.12099        -9.41147        -9.41147
            3534     1.41626E+03     1.41626E+03        -4.37806        -4.37806        -11.3184        -11.3184
            3535     1.41359E+03     1.41359E+03        -3.66861        -3.66861        -12.9218        -12.9218
            3536     1.41080E+03     1.41080E+03        -3.01947        -3.01947        -14.2462        -14.2462
            3537     1.40792E+03     1.40792E+03        -2.44341        -2.44341        -15.3218        -15.3218
            3538     1.40499E+03     1.40499E+03        -1.94225        -1.94225        -16.1799        -16.1799
            3539     1.40203E+03     1.40203E+03        -1.51022        -1.51022        -16.8494        -16.8494
            3540     1.39906E+03     1.39906E+03        -1.13622        -1.13622        -17.3551        -17.3551
            3541     1.39610E+03     1.39610E+03    -806.054E-03    -806.054E-03        -17.7153        -17.7153
            3542     1.39319E+03     1.39319E+03    -503.274E-03    -503.274E-03        -17.9420        -17.9420
            3543     1.39034E+03     1.39034E+03    -210.596E-03    -210.596E-03        -18.0396        -18.0396
            3544     1.38759E+03     1.38759E+03     90.4872E-03     90.4872E-03        -18.0047        -18.0047
            3545     1.38497E+03     1.38497E+03     418.677E-03     418.677E-03        -17.8258        -17.8258
            3546     1.38252E+03     1.38252E+03     794.426E-03     794.426E-03        -17.4830        -17.4830
            3547     1.38030E+03     1.38030E+03         1.23870         1.23870        -16.9465        -16.9465
            3548     1.37835E+03     1.37835E+03         1.77615         1.77615        -16.1777        -16.1777
            3549     1.37674E+03     1.37674E+03         2.43296         2.43296        -15.1242        -15.1242
            3550     1.37556E+03     1.37556E+03         3.24294         3.24294        -13.7238        -13.7238
            3551     1.37491E+03     1.37491E+03         4.24326         4.24326        -11.8930        -11.8930
            3552     1.37489E+03     1.37489E+03         5.48685         5.48685        -9.53621        -9.53621
            3553     1.37565E+03     1.37565E+03         7.03263         7.03263        -6.52250        -6.52250
            3554     1.37733E+03     1.37733E+03         8.97400         8.97400        -2.70473        -2.70473
            3555     1.38013E+03     1.38013E+03         11.4127         11.4127         2.12711         2.12711
            3556     1.38423E+03     1.38423E+03         14.5327         14.5327         8.20643         8.20643
            3557     1.38990E+03     1.38990E+03         18.5215         18.5215         15.8809         15.8809
            3558     1.39733E+03     1.39733E+03         23.7826         23.7826         25.5406         25.5406
            3559     1.40681E+03     1.40681E+03         30.6830         30.6830         37.7684         37.7684
            3560     1.41840E+03     1.41840E+03         40.2036         40.2036         53.2614         53.2614
            3561     1.43223E+03     1.43223E+03         53.1178         53.1178         72.9165         72.9165
            3562     1.44757E+03     1.44757E+03         72.0241         72.0241         98.0564         98.0564
            3563     1.46319E+03     1.46319E+03         98.7827         98.7827         129.252         129.252
            3564     1.47568E+03     1.47568E+03         140.105         140.105         168.658         168.658
            3565     1.47525E+03     1.47525E+03         201.692         201.692         209.223         209.223
            3566     1.46331E+03     1.46331E+03         279.288         279.288         241.538         241.538
            3567     1.44001E+03     1.44001E+03         364.821         364.821         257.996         257.996
            3568     1.42318E+03     1.42318E+03        -3.16983        -3.16983         8.83530         8.83530
            3569     1.42438E+03     1.42438E+03        -3.91931        -3.91931         6.73756         6.73756
            3570     1.42497E+03     1.42497E+03        -4.33153        -4.33153         4.34122         4.34122
            3571     1.42494E+03     1.42494E+03        -4.44812        -4.44812         1.82587         1.82587
            3572     1.42431E+03     1.42431E+03        -4.32922        -4.32922    -662.853E-03    -662.853E-03
            3573     1.42313E+03     1.42313E+03        -4.04137        -4.04137        -3.01706        -3.01706
            3574     1.42145E+03     1.42145E+03        -3.64742        -3.64742        -5.16587        -5.16587
            3575     1.41934E+03     1.41934E+03        -3.20084        -3.20084        -7.07056        -7.07056
            3576     1.41686E+03     1.41686E+03        -2.74311        -2.74311        -8.71811        -8.71811
            3577     1.41408E+03     1.41408E+03        -2.30334        -2.30334        -10.1140        -10.1140
            3578     1.41104E+03     1.41104E+03        -1.89973        -1.89973        -11.2758        -11.2758
            3579     1.40780E+03     1.40780E+03        -1.54119        -1.54119        -12.2276        -12.2276
            3580     1.40440E+03     1.40440E+03        -1.22981        -1.22981        -12.9958        -12.9958
            3581     1.40088E+03     1.40088E+03    -962.450E-03    -962.450E-03        -13.6060        -13.6060
            3582     1.39727E+03     1.39727E+03    -732.739E-03    -732.739E-03        -14.0804        -14.0804
            3583     1.39362E+03     1.39362E+03    -531.966E-03    -531.966E-03        -14.4371        -14.4371
            3584     1.38994E+03     1.38994E+03    -350.342E-03    -350.342E-03        -14.6883        -14.6883
            3585     1.38628E+03     1.38628E+03    -177.089E-03    -177.089E-03        -14.8404        -14.8404
            3586     1.38267E+03     1.38267E+03    -1.28066E-03    -1.28066E-03        -14.8934        -14.8934
            3587     1.37914E+03     1.37914E+03     188.803E-03     188.803E-03        -14.8410        -14.8410
            3588     1.37574E+03     1.37574E+03     404.959E-03     404.959E-03        -14.6690        -14.6690
            3589     1.37252E+03     1.37252E+03     660.399E-03     660.399E-03        -14.3570        -14.3570
            3590     1.36954E+03     1.36954E+03     968.992E-03     968.992E-03        -13.8750        -13.8750
            3591     1.36687E+03     1.36687E+03         1.34741         1.34741        -13.1857        -13.1857
            3592     1.36459E+03     1.36459E+03         1.81440         1.81440        -12.2379        -12.2379
            3593     1.36282E+03     1.36282E+03         2.39409         2.39409        -10.9722        -10.9722
            3594     1.36167E+03     1.36167E+03         3.11556         3.11556        -9.30551        -9.30551
            3595     1.36131E+03     1.36131E+03         4.01872         4.01872        -7.14544        -7.14544
            3596     1.36192E+03     1.36192E+03         5.15391         5.15391        -4.35527        -4.35527
            3597     1.36372E+03     1.36372E+03         6.59622         6.59622    -787.790E-03    -787.790E-03
            3598     1.36700E+03     1.36700E+03         8.43993         8.43993         3.79339         3.79339
            3599     1.37208E+03     1.37208E+03         10.8467         10.8467         9.63519         9.63519
            3600     1.37939E+03     1.37939E+03         14.0036         14.0036         17.1732         17.1732
            3601     1.38934E+03     1.38934E+03         18.3144         18.3144         26.8569         26.8569
            3602     1.40260E+03     1.40260E+03         24.1687         24.1687         39.5376         39.5376
            3603     1.41955E+03     1.41955E+03         32.7470         32.7470         56.1388         56.1388
            3604     1.44103E+03     1.44103E+03         44.9233         44.9233         78.3366         78.3366
            3605     1.46641E+03     1.46641E+03         64.7542         64.7542         108.383         108.383
            3606     1.49521E+03     1.49521E+03         94.6200         94.6200         148.576         148.576
            3607     1.52013E+03     1.52013E+03         150.487         150.487         205.250         205.250
            3608     1.51665E+03     1.51665E+03         244.153         244.153         260.226         260.226
            3609     1.49280E+03     1.49280E+03         353.705         353.705         285.597         285.597
            3610     1.42061E+03     1.42061E+03        -1.57168        -1.57168         6.90024         6.90024
            3611     1.42271E+03     1.42271E+03        -1.96362        -1.96362         5.40314         5.40314
            3612     1.42414E+03     1.42414E+03        -2.18525        -2.18525         3.66789         3.66789
            3613     1.42485E+03     1.42485E+03        -2.25510        -2.25510         1.82719         1.82719
            3614     1.42482E+03     1.42482E+03        -2.20291        -2.20291    -8.92092E-03    -8.92092E-03
            3615     1.42407E+03     1.42407E+03        -2.06208        -2.06208        -1.75685        -1.75685
            3616     1.42265E+03     1.42265E+03        -1.86479        -1.86479        -3.36014        -3.36014
            3617     1.42064E+03     1.42064E+03        -1.63875        -1.63875        -4.78674        -4.78674
            3618     1.41809E+03     1.41809E+03        -1.40562        -1.40562        -6.02444        -6.02444
            3619     1.41510E+03     1.41510E+03        -1.18088        -1.18088        -7.07586        -7.07586
            3620     1.41172E+03     1.41172E+03    -974.166E-03    -974.166E-03        -7.95347        -7.95347
            3621     1.40803E+03     1.40803E+03    -790.502E-03    -790.502E-03        -8.67537        -8.67537
            3622     1.40408E+03     1.40408E+03    -631.097E-03    -631.097E-03        -9.26188        -9.26188
            3623     1.39993E+03     1.39993E+03    -494.639E-03    -494.639E-03        -9.73300        -9.73300
            3624     1.39562E+03     1.39562E+03    -377.885E-03    -377.885E-03        -10.1067        -10.1067
            3625     1.39119E+03     1.39119E+03    -276.618E-03    -276.618E-03        -10.3977        -10.3977
            3626     1.38668E+03     1.38668E+03    -185.775E-03    -185.775E-03        -10.6168        -10.6168
            3627     1.38213E+03     1.38213E+03    -100.148E-03    -100.148E-03        -10.7702        -10.7702
            3628     1.37758E+03     1.37758E+03    -14.0658E-03    -14.0658E-03        -10.8601        -10.8601
            3629     1.37304E+03     1.37304E+03     78.0364E-03     78.0364E-03        -10.8832        -10.8832
            3630     1.36858E+03     1.36858E+03     182.246E-03     182.246E-03        -10.8319        -10.8319
            3631     1.36424E+03     1.36424E+03     304.770E-03     304.770E-03        -10.6928        -10.6928
            3632     1.36007E+03     1.36007E+03     452.592E-03     452.592E-03        -10.4477        -10.4477
            3633     1.35615E+03     1.35615E+03     633.712E-03     633.712E-03        -10.0703        -10.0703
            3634     1.35255E+03     1.35255E+03     857.069E-03     857.069E-03        -9.52970        -9.52970
            3635     1.34939E+03     1.34939E+03         1.13496         1.13496        -8.78162        -8.78162
            3636     1.34678E+03     1.34678E+03         1.48020         1.48020        -7.77709        -7.77709
            3637     1.34490E+03     1.34490E+03         1.91475         1.91475        -6.44253        -6.44253
            3638     1.34393E+03     1.34393E+03         2.45932         2.45932        -4.70055        -4.70055
            3639     1.34413E+03     1.34413E+03         3.15727         3.15727        -2.42288        -2.42288
            3640     1.34580E+03     1.34580E+03         4.04769         4.04769     517.186E-03     517.186E-03
            3641     1.34935E+03     1.34935E+03         5.22184         5.22184         4.36188         4.36188
            3642     1.35527E+03     1.35527E+03         6.77177         6.77177         9.33273         9.33273
            3643     1.36425E+03     1.36425E+03         8.89686         8.89686         15.9349         15.9349
            3644     1.37708E+03     1.37708E+03         11.8795         11.8795         24.5992         24.5992
            3645     1.39504E+03     1.39504E+03         16.1652         16.1652         36.5020         36.5020
            3646     1.41932E+03     1.41932E+03         22.8699         22.8699         52.6493         52.6493
            3647     1.45247E+03     1.45247E+03         33.0125         33.0125         76.1022         76.1022
            3648     1.49523E+03     1.49523E+03         52.2686         52.2686         110.099         110.099
            3649     1.55207E+03     1.55207E+03         83.2850         83.2850         162.803         162.803
            3650     1.60799E+03     1.60799E+03         168.522         168.522         251.467         251.467
            3651     1.59866E+03     1.59866E+03         325.912         325.912         325.645         325.645
            3652     1.41901E+03     1.41901E+03    -551.406E-03    -551.406E-03         3.93174         3.93174
            3653     1.42224E+03     1.42224E+03    -694.910E-03    -694.910E-03         3.12121         3.12121
            3654     1.42465E+03     1.42465E+03    -777.459E-03    -777.459E-03         2.17588         2.17588
            3655     1.42613E+03     1.42613E+03    -805.178E-03    -805.178E-03         1.16940         1.16940
            3656     1.42666E+03     1.42666E+03    -788.557E-03    -788.557E-03     163.187E-03     163.187E-03
            3657     1.42627E+03     1.42627E+03    -739.450E-03    -739.450E-03    -795.979E-03    -795.979E-03
            3658     1.42501E+03     1.42501E+03    -669.506E-03    -669.506E-03        -1.67623        -1.67623
            3659     1.42296E+03     1.42296E+03    -588.708E-03    -588.708E-03        -2.45940        -2.45940
            3660     1.42021E+03     1.42021E+03    -505.023E-03    -505.023E-03        -3.13857        -3.13857
            3661     1.41688E+03     1.41688E+03    -424.045E-03    -424.045E-03        -3.71520        -3.71520
            3662     1.41303E+03     1.41303E+03    -349.417E-03    -349.417E-03        -4.19643        -4.19643
            3663     1.40878E+03     1.40878E+03    -282.933E-03    -282.933E-03        -4.59262        -4.59262
            3664     1.40418E+03     1.40418E+03    -225.175E-03    -225.175E-03        -4.91543        -4.91543
            3665     1.39930E+03     1.39930E+03    -175.615E-03    -175.615E-03        -5.17645        -5.17645
            3666     1.39420E+03     1.39420E+03    -133.242E-03    -133.242E-03        -5.38607        -5.38607
            3667     1.38893E+03     1.38893E+03    -96.4319E-03    -96.4319E-03        -5.55301        -5.55301
            3668     1.38352E+03     1.38352E+03    -63.5681E-03    -63.5681E-03        -5.68374        -5.68374
            3669     1.37800E+03     1.37800E+03    -32.6221E-03    -32.6221E-03        -5.78252        -5.78252
            3670     1.37242E+03     1.37242E+03    -1.82609E-03    -1.82609E-03        -5.85093        -5.85093
            3671     1.36681E+03     1.36681E+03     30.9991E-03     30.9991E-03        -5.88837        -5.88837
            3672     1.36119E+03     1.36119E+03     67.7410E-03     67.7410E-03        -5.89118        -5.89118
            3673     1.35561E+03     1.35561E+03     110.708E-03     110.708E-03        -5.85363        -5.85363
            3674     1.35012E+03     1.35012E+03     162.284E-03     162.284E-03        -5.76620        -5.76620
            3675     1.34477E+03     1.34477E+03     224.904E-03     224.904E-03        -5.61738        -5.61738
            3676     1.33964E+03     1.33964E+03     302.498E-03     302.498E-03        -5.39007        -5.39007
            3677     1.33483E+03     1.33483E+03     397.322E-03     397.322E-03        -5.06540        -5.06540
            3678     1.33045E+03     1.33045E+03     517.452E-03     517.452E-03        -4.61457        -4.61457
            3679     1.32664E+03     1.32664E+03     663.652E-03     663.652E-03        -4.00801        -4.00801
            3680     1.32359E+03     1.32359E+03     854.633E-03     854.633E-03        -3.19590        -3.19590
            3681     1.32154E+03     1.32154E+03         1.08569         1.08569        -2.13150        -2.13150
            3682     1.32080E+03     1.32080E+03         1.40256         1.40256    -721.299E-03    -721.299E-03
            3683     1.32176E+03     1.32176E+03         1.78504         1.78504         1.11064         1.11064
            3684     1.32495E+03     1.32495E+03         2.34765         2.34765         3.56129         3.56129
            3685     1.33106E+03     1.33106E+03         3.03471         3.03471         6.75921         6.75921
            3686     1.34109E+03     1.34109E+03         4.13774         4.13774         11.1811         11.1811
            3687     1.35636E+03     1.35636E+03         5.55579         5.55579         17.0610         17.0610
            3688     1.37903E+03     1.37903E+03         8.04597         8.04597         25.7592         25.7592
            3689     1.41189E+03     1.41189E+03         11.7477         11.7477         37.8026         37.8026
            3690     1.46088E+03     1.46088E+03         18.7126         18.7126         58.0173         58.0173
            3691     1.53217E+03     1.53217E+03         33.3741         33.3741         88.6706         88.6706
            3692     1.65053E+03     1.65053E+03         62.4261         62.4261         154.634         154.634
            3693     1.80161E+03     1.80161E+03         221.029         221.029         285.770         285.770
            3694         83.3997         83.3997        -624.469        -624.469        -79.5886        -79.5886
            3695         300.438         300.438        -253.942        -253.942        -205.152        -205.152
            3696         582.410         582.410        -78.9793        -78.9793        -221.934        -221.934
            3697         846.505         846.505        -12.9994        -12.9994        -182.808        -182.808
            3698     1.05252E+03     1.05252E+03         4.85035         4.85035        -129.205        -129.205
            3699         264.694         264.694        -461.024        -461.024        -181.266        -181.266
            3700         580.927         580.927        -255.193        -255.193        -358.063        -358.063
            3701         861.389         861.389        -150.287        -150.287        -354.363        -354.363
            3702     1.06998E+03     1.06998E+03        -93.2392        -93.2392        -274.974        -274.974
            3703     1.20924E+03     1.20924E+03        -58.8685        -58.8685        -186.673        -186.673
            3704         564.962         564.962        -262.693        -262.693        -298.920        -298.920
            3705         956.353         956.353        -257.436        -257.436        -419.511        -419.511
            3706     1.18533E+03     1.18533E+03        -215.748        -215.748        -363.600        -363.600
            3707     1.30406E+03     1.30406E+03        -158.326        -158.326        -260.335        -260.335
            3708     1.36191E+03     1.36191E+03        -106.401        -106.401        -167.188        -167.188
            3709         958.710         958.710        -86.4554        -86.4554        -398.496        -398.496
            3710     1.32482E+03     1.32482E+03        -247.247        -247.247        -380.807        -380.807
            3711     1.44824E+03     1.44824E+03        -237.950        -237.950        -281.712        -281.712
            3712     1.47057E+03     1.47057E+03        -177.812        -177.812        -184.405        -184.405
            3713     1.46017E+03     1.46017E+03        -117.991        -117.991        -111.168        -111.168
            3714     1.57854E+03     1.57854E+03         176.604         176.604         62.7711         62.7711
            3715     1.70906E+03     1.70906E+03         271.451         271.451         72.8201         72.8201
            3716     1.94277E+03     1.94277E+03         368.525         368.525         50.1738         50.1738
            3717     2.34790E+03     2.34790E+03         418.275         418.275        -45.1920        -45.1920
            3718     3.00409E+03     3.00409E+03         343.257         343.257        -256.994        -256.994
            3719     1.59599E+03     1.59599E+03         65.3509         65.3509         74.8652         74.8652
            3720     1.71679E+03     1.71679E+03         119.717         119.717         88.0671         88.0671
            3721     1.90705E+03     1.90705E+03         197.551         197.551         56.8630         56.8630
            3722     2.20585E+03     2.20585E+03         285.698         285.698        -88.0183        -88.0183
            3723     2.67151E+03     2.67151E+03         340.805         340.805        -439.454        -439.454
            3724     1.59015E+03     1.59015E+03        -34.7475        -34.7475         39.3093         39.3093
            3725     1.69650E+03     1.69650E+03        -30.0157        -30.0157         41.8515         41.8515
            3726     1.84137E+03     1.84137E+03         4.82182         4.82182         7.08408         7.08408
            3727     2.01997E+03     2.01997E+03         103.540         103.540        -136.820        -136.820
            3728     2.23136E+03     2.23136E+03         294.834         294.834        -518.005        -518.005
            3729     1.55668E+03     1.55668E+03        -88.3997        -88.3997        -10.5962        -10.5962
            3730     1.64112E+03     1.64112E+03        -122.585        -122.585        -29.8915        -29.8915
            3731     1.74325E+03     1.74325E+03        -138.739        -138.739        -78.5089        -78.5089
            3732     1.82169E+03     1.82169E+03        -74.9663        -74.9663        -202.895        -202.895
            3733     1.78219E+03     1.78219E+03         188.877         188.877        -512.600        -512.600
            3734     1.02453E+03     1.02453E+03        -59.5637        -59.5637         413.422         413.422
            3735     1.38104E+03     1.38104E+03        -244.753        -244.753         370.707         370.707
            3736     1.48586E+03     1.48586E+03        -239.296        -239.296         265.786         265.786
            3737     1.49310E+03     1.49310E+03        -178.747        -178.747         170.576         170.576
            3738     1.47283E+03     1.47283E+03        -118.171        -118.171         101.285         101.285
            3739         682.502         682.502        -199.200        -199.200         336.439         336.439
            3740     1.08338E+03     1.08338E+03        -257.530        -257.530         421.490         421.490
            3741     1.28488E+03     1.28488E+03        -231.211        -231.211         348.006         348.006
            3742     1.37132E+03     1.37132E+03        -172.423        -172.423         241.703         241.703
            3743     1.40361E+03     1.40361E+03        -115.924        -115.924         151.777         151.777
            3744         395.605         395.605        -364.928        -364.928         238.654         238.654
            3745         759.163         759.163        -257.955        -257.955         405.273         405.273
            3746     1.02410E+03     1.02410E+03        -187.751        -187.751         378.909         378.909
            3747     1.19255E+03     1.19255E+03        -132.105        -132.105         283.557         283.557
            3748     1.29159E+03     1.29159E+03        -88.2231        -88.2231         187.591         187.591
            3749         186.385         186.385        -529.603        -529.603         143.058         143.058
            3750         466.750         466.750        -256.342        -256.342         318.435         318.435
            3751         751.881         751.881        -124.667        -124.667         328.506         328.506
            3752         984.960         984.960        -65.0823        -65.0823         262.323         262.323
            3753     1.15098E+03     1.15098E+03        -37.1126        -37.1126         181.532         181.532
            3754         62.5997         62.5997        -653.802        -653.802         64.0696         64.0696
            3755         263.793         263.793        -256.863        -256.863         174.922         174.922
            3756         541.991         541.991        -69.2478        -69.2478         192.277         192.277
            3757         811.347         811.347     118.744E-03     118.744E-03         160.349         160.349
            3758     1.02643E+03     1.02643E+03         16.1434         16.1434         114.488         114.488
            3759     1.55836E+03     1.55836E+03        -90.7619        -90.7619         13.8021         13.8021
            3760     1.64266E+03     1.64266E+03        -124.610        -124.610         32.3196         32.3196
            3761     1.74465E+03     1.74465E+03        -140.387        -140.387         80.3274         80.3274
            3762     1.82328E+03     1.82328E+03        -76.2465        -76.2465         204.312         204.312
            3763     1.78422E+03     1.78422E+03         188.025         188.025         513.815         513.815
            3764     1.59140E+03     1.59140E+03        -36.5395        -36.5395        -36.2757        -36.2757
            3765     1.69766E+03     1.69766E+03        -31.4547        -31.4547        -39.5280        -39.5280
            3766     1.84246E+03     1.84246E+03         3.82221         3.82221        -5.33487        -5.33487
            3767     2.02123E+03     2.02123E+03         103.023         103.023         138.093         138.093
            3768     2.23329E+03     2.23329E+03         294.990         294.990         519.148         519.148
            3769     1.59678E+03     1.59678E+03         64.2065         64.2065        -71.9413        -71.9413
            3770     1.71751E+03     1.71751E+03         118.909         118.909        -85.7329        -85.7329
            3771     1.90772E+03     1.90772E+03         197.167         197.167        -55.0318        -55.0318
            3772     2.20668E+03     2.20668E+03         285.831         285.831         89.4664         89.4664
            3773     2.67310E+03     2.67310E+03         341.276         341.276         440.673         440.673
            3774     1.57892E+03     1.57892E+03         176.073         176.073        -59.8614        -59.8614
            3775     1.70938E+03     1.70938E+03         271.135         271.135        -70.3856        -70.3856
            3776     1.94305E+03     1.94305E+03         368.502         368.502        -48.1164        -48.1164
            3777     2.34830E+03     2.34830E+03         418.530         418.530         46.9218         46.9218
            3778     3.00500E+03     3.00500E+03         343.585         343.585         258.226         258.226
            3779     1.71095E+03     1.71095E+03         170.479         170.479        -509.149        -509.149
            3780     1.79023E+03     1.79023E+03        -102.443        -102.443        -215.204        -215.204
            3781     1.72717E+03     1.72717E+03        -159.751        -159.751        -94.7475        -94.7475
            3782     1.63219E+03     1.63219E+03        -136.072        -136.072        -44.1479        -44.1479
            3783     1.55189E+03     1.55189E+03        -96.9426        -96.9426        -21.8794        -21.8794
            3784     2.08081E+03     2.08081E+03         270.321         270.321        -528.583        -528.583
            3785     1.95623E+03     1.95623E+03         41.5977         41.5977        -157.143        -157.143
            3786     1.81477E+03     1.81477E+03        -53.3270        -53.3270        -19.0725        -19.0725
            3787     1.68452E+03     1.68452E+03        -72.1454        -72.1454         17.4306         17.4306
            3788     1.58430E+03     1.58430E+03        -62.0372        -62.0372         19.9679         19.9679
            3789     2.46384E+03     2.46384E+03         328.249         328.249        -497.512        -497.512
            3790     2.11867E+03     2.11867E+03         200.023         200.023        -112.436        -112.436
            3791     1.88050E+03     1.88050E+03         98.8454         98.8454         38.7243         38.7243
            3792     1.71384E+03     1.71384E+03         37.9712         37.9712         70.9414         70.9414
            3793     1.59951E+03     1.59951E+03         7.74550         7.74550         59.9169         59.9169
            3794     2.80925E+03     2.80925E+03         345.781         345.781        -396.050        -396.050
            3795     2.26471E+03     2.26471E+03         340.348         340.348        -76.3418        -76.3418
            3796     1.92421E+03     1.92421E+03         263.682         263.682         60.6046         60.6046
            3797     1.71771E+03     1.71771E+03         175.618         175.618         91.2172         91.2172
            3798     1.59312E+03     1.59312E+03         104.487         104.487         77.1253         77.1253
            3799     3.05418E+03     3.05418E+03         340.472         340.472        -221.845        -221.845
            3800     2.37048E+03     2.37048E+03         434.377         434.377        -40.2780        -40.2780
            3801     1.94888E+03     1.94888E+03         392.596         392.596         42.9096         42.9096
            3802     1.70753E+03     1.70753E+03         294.693         294.693         63.2677         63.2677
            3803     1.57509E+03     1.57509E+03         194.596         194.596         54.4007         54.4007
            3804     1.55642E+03     1.55642E+03        -88.6745        -88.6745         10.8758         10.8758
            3805     1.64074E+03     1.64074E+03        -122.980        -122.980         30.3112         30.3112
            3806     1.74271E+03     1.74271E+03        -139.210        -139.210         79.0607         79.0607
            3807     1.82110E+03     1.82110E+03        -75.5928        -75.5928         203.471         203.471
            3808     1.78161E+03     1.78161E+03         187.831         187.831         512.753         512.753
            3809     1.59001E+03     1.59001E+03        -35.1616        -35.1616        -39.0334        -39.0334
            3810     1.69625E+03     1.69625E+03        -30.5215        -30.5215        -41.4288        -41.4288
            3811     1.84095E+03     1.84095E+03         4.29103         4.29103        -6.52733        -6.52733
            3812     2.01926E+03     2.01926E+03         102.973         102.973         137.276         137.276
            3813     2.23036E+03     2.23036E+03         294.457         294.457         518.038         518.038
            3814     1.59598E+03     1.59598E+03         64.8166         64.8166        -74.6063        -74.6063
            3815     1.71667E+03     1.71667E+03         119.172         119.172        -87.6155        -87.6155
            3816     1.90670E+03     1.90670E+03         197.047         197.047        -56.3223        -56.3223
            3817     2.20505E+03     2.20505E+03         285.330         285.330         88.5395         88.5395
            3818     2.66998E+03     2.66998E+03         340.554         340.554         439.693         439.693
            3819     1.57871E+03     1.57871E+03         176.000         176.000        -62.6152        -62.6152
            3820     1.70913E+03     1.70913E+03         270.813         270.813        -72.4469        -72.4469
            3821     1.94247E+03     1.94247E+03         368.109         368.109        -49.5909        -49.5909
            3822     2.34705E+03     2.34705E+03         418.296         418.296         45.7561         45.7561
            3823     3.00208E+03     3.00208E+03         343.531         343.531         257.194         257.194
            3824     1.02635E+03     1.02635E+03        -60.4109        -60.4109         414.248         414.248
            3825     1.38329E+03     1.38329E+03        -246.467        -246.467         371.741         371.741
            3826     1.48822E+03     1.48822E+03        -241.377        -241.377         267.163         267.163
            3827     1.49563E+03     1.49563E+03        -181.192        -181.192         172.508         172.508
            3828     1.47561E+03     1.47561E+03        -121.104        -121.104         104.036         104.036
            3829         683.810         683.810        -200.657        -200.657         337.117         337.117
            3830     1.08538E+03     1.08538E+03        -259.545        -259.545         422.586         422.586
            3831     1.28720E+03     1.28720E+03        -233.516        -233.516         349.355         349.355
            3832     1.37395E+03     1.37395E+03        -175.055        -175.055         243.420         243.420
            3833     1.40667E+03     1.40667E+03        -119.055        -119.055         154.121         154.121
            3834         396.402         396.402        -367.059        -367.059         239.140         239.140
            3835         760.693         760.693        -260.208        -260.208         406.346         406.346
            3836     1.02616E+03     1.02616E+03        -190.177        -190.177         380.190         380.190
            3837     1.19512E+03     1.19512E+03        -134.846        -134.846         285.047         285.047
            3838     1.29480E+03     1.29480E+03        -91.4929        -91.4929         189.497         189.497
            3839         186.736         186.736        -532.400        -532.400         143.370         143.370
            3840         467.728         467.728        -258.763        -258.763         319.335         319.335
            3841         753.532         753.532        -127.108        -127.108         329.585         329.585
            3842         987.328         987.328        -67.8342        -67.8342         263.498         263.498
            3843     1.15420E+03     1.15420E+03        -40.4398        -40.4398         182.932         182.932
            3844         62.6426         62.6426        -657.113        -657.113         64.2522         64.2522
            3845         264.302         264.302        -259.390        -259.390         175.494         175.494
            3846         543.234         543.234        -71.6465        -71.6465         192.960         192.960
            3847         813.458         813.458        -2.57900        -2.57900         161.057         161.057
            3848     1.02957E+03     1.02957E+03         12.8248         12.8248         115.274         115.274
            3849     1.46289E+03     1.46289E+03        -120.910        -120.910        -113.835        -113.835
            3850     1.47292E+03     1.47292E+03        -180.192        -180.192        -186.299        -186.299
            3851     1.45021E+03     1.45021E+03        -239.914        -239.914        -283.051        -283.051
            3852     1.32650E+03     1.32650E+03        -248.927        -248.927        -381.619        -381.619
            3853         959.986         959.986        -87.6914        -87.6914        -398.829        -398.829
            3854     1.36491E+03     1.36491E+03        -109.535        -109.535        -169.328        -169.328
            3855     1.30645E+03     1.30645E+03        -160.911        -160.911        -261.916        -261.916
            3856     1.18721E+03     1.18721E+03        -218.011        -218.011        -364.797        -364.797
            3857         957.788         957.788        -259.577        -259.577        -420.368        -420.368
            3858         565.710         565.710        -264.739        -264.739        -299.194        -299.194
            3859     1.21234E+03     1.21234E+03        -62.1089        -62.1089        -188.203        -188.203
            3860     1.07223E+03     1.07223E+03        -95.9026        -95.9026        -276.154        -276.154
            3861         862.935         862.935        -152.661        -152.661        -355.336        -355.336
            3862         581.823         581.823        -257.586        -257.586        -358.785        -358.785
            3863         264.971         264.971        -463.812        -463.812        -181.379        -181.379
            3864     1.05558E+03     1.05558E+03         1.57924         1.57924        -129.988        -129.988
            3865         848.537         848.537        -15.6517        -15.6517        -183.423        -183.423
            3866         583.571         583.571        -81.3473        -81.3473        -222.449        -222.449
            3867         300.870         300.870        -256.470        -256.470        -205.515        -205.515
            3868         83.3829         83.3829        -627.812        -627.812        -79.5763        -79.5763


  Minimum               -23.3765        -23.3765        -988.304        -988.304        -793.535        -793.535
         At Node              28              28              28              28             590             590

  Maximum            3.57973E+03     3.57973E+03         466.719         466.719         788.710         788.710
         At Node              27              27             585             585             574             574

           Total     5.44589E+06     5.44589E+06     88.0480E+03     88.0480E+03     2.61221E+03     2.61221E+03


