********************************************************************************
Field Output Report, written Sat Feb 24 11:10:47 2024

Source 1
---------

   ODB: C:/Users/Isabel Haycock/OneDrive - Imperial College London/Fourth Year/FYP/Isabel Haycock/06 - FE models/Specimen_2/Plate_hole_1.odb
   Step: load
   Frame: Increment      4: Step Time =   0.2857

Loc 1 : Nodal values at shell < composite > < elset = ASSEMBLY_PLATE_1-1_COMPOSITELAYUP-1-1 > from source 1 : SNEG, (fraction = -1.0), Layer = 1
Loc 2 : Nodal values at shell < composite > < elset = ASSEMBLY_PLATE_1-1_COMPOSITELAYUP-1-1 > from source 1 : SPOS, (fraction = 1.0), Layer = 8

Output sorted by column "Node Label".

Field Output reported at nodes for part: PLATE_1-1
   Computation algorithm: EXTRAPOLATE_COMPUTE_AVERAGE
   Averaged at nodes
   Averaging regions: ODB_REGIONS

      Node Label           S.S11           S.S11           S.S22           S.S22           S.S12           S.S12
                          @Loc 1          @Loc 2          @Loc 1          @Loc 2          @Loc 1          @Loc 2
-----------------------------------------------------------------------------------------------------------------
               1         492.911         492.911        -23.0151        -23.0151        -9.96258        -9.96258
               2         468.790         468.790     647.328E-03     647.328E-03    -29.6432E-03    -29.6432E-03
               3         468.879         468.879     3.06230E-03     3.06230E-03    -3.34262E-03    -3.34262E-03
               4         473.963         473.963    -30.1014E-03    -30.1014E-03     999.332E-03     999.332E-03
               5         493.109         493.109        -22.9325        -22.9325         9.59471         9.59471
               6         468.790         468.790     647.421E-03     647.421E-03     29.6405E-03     29.6405E-03
               7         377.397         377.397         10.5464         10.5464        -1.45943        -1.45943
               8         472.221         472.221    -36.8071E-03    -36.8071E-03    -840.395E-03    -840.395E-03
               9         493.922         493.922        -23.9806        -23.9806         10.9592         10.9592
              10         501.353         501.353         49.4054         49.4054     570.261E-03     570.261E-03
              11         474.056         474.056    -31.2974E-03    -31.2974E-03    -999.295E-03    -999.295E-03
              12         468.879         468.879     3.06295E-03     3.06295E-03     3.34330E-03     3.34330E-03
              13         440.813         440.813         134.068         134.068        -29.2278        -29.2278
              14         717.084         717.084         99.4857         99.4857        -116.018        -116.018
              15         493.391         493.391        -24.1352        -24.1352        -11.6186        -11.6186
              16         472.280         472.280    -38.3036E-03    -38.3036E-03     841.252E-03     841.252E-03
              17         501.165         501.165         50.0275         50.0275        -1.44256        -1.44256
              18         440.815         440.815         134.064         134.064         29.2211         29.2211
              19         378.816         378.816         9.16845         9.16845        -1.45767        -1.45767
              20         717.084         717.084         99.4856         99.4856         116.018         116.018
              21        -7.67793        -7.67793        -331.972        -331.972     300.761E-03     300.761E-03
              22         388.333         388.333         87.2597         87.2597        -189.319        -189.319
              23     1.19659E+03     1.19659E+03         77.4262         77.4262     137.688E-03     137.688E-03
              24         394.335         394.335         89.8632         89.8632         191.965         191.965
              25         395.056         395.056         89.9669         89.9669         192.347         192.347
              26         381.283         381.283         86.0060         86.0060        -187.303        -187.303
              27     1.19894E+03     1.19894E+03         76.6080         76.6080         5.54521         5.54521
              28        -7.73151        -7.73151        -333.424        -333.424     325.126E-03     325.126E-03
              29         483.732         483.732        -18.4956        -18.4956        -11.7512        -11.7512
              30         478.397         478.397        -15.5782        -15.5782        -12.9295        -12.9295
              31         474.159         474.159        -12.5067        -12.5067        -13.0044        -13.0044
              32         471.002         471.002        -9.68466        -9.68466        -12.4189        -12.4189
              33         468.751         468.751        -7.25127        -7.25127        -11.5046        -11.5046
              34         467.207         467.207        -5.22414        -5.22414        -10.4751        -10.4751
              35         466.188         466.188        -3.56344        -3.56344        -9.45007        -9.45007
              36         465.554         465.554        -2.21750        -2.21750        -8.48940        -8.48940
              37         465.196         465.196        -1.13481        -1.13481        -7.61850        -7.61850
              38         465.035         465.035    -270.650E-03    -270.650E-03        -6.84323        -6.84323
              39         465.013         465.013     412.772E-03     412.772E-03        -6.15966        -6.15966
              40         465.088         465.088     946.552E-03     946.552E-03        -5.55909        -5.55909
              41         465.229         465.229         1.35635         1.35635        -5.03129        -5.03129
              42         465.413         465.413         1.66336         1.66336        -4.56599        -4.56599
              43         465.624         465.624         1.88521         1.88521        -4.15375        -4.15375
              44         465.849         465.849         2.03667         2.03667        -3.78629        -3.78629
              45         466.081         466.081         2.13020         2.13020        -3.45659        -3.45659
              46         466.312         466.312         2.17637         2.17637        -3.15880        -3.15880
              47         466.538         466.538         2.18416         2.18416        -2.88816        -2.88816
              48         466.756         466.756         2.16125         2.16125        -2.64081        -2.64081
              49         466.964         466.964         2.11415         2.11415        -2.41367        -2.41367
              50         467.160         467.160         2.04844         2.04844        -2.20428        -2.20428
              51         467.343         467.343         1.96884         1.96884        -2.01066        -2.01066
              52         467.513         467.513         1.87934         1.87934        -1.83123        -1.83123
              53         467.670         467.670         1.78332         1.78332        -1.66469        -1.66469
              54         467.813         467.813         1.68361         1.68361        -1.50998        -1.50998
              55         467.945         467.945         1.58254         1.58254        -1.36617        -1.36617
              56         468.064         468.064         1.48208         1.48208        -1.23246        -1.23246
              57         468.171         468.171         1.38381         1.38381        -1.10813        -1.10813
              58         468.268         468.268         1.28904         1.28904    -992.511E-03    -992.511E-03
              59         468.354         468.354         1.19882         1.19882    -884.961E-03    -884.961E-03
              60         468.431         468.431         1.11397         1.11397    -784.860E-03    -784.860E-03
              61         468.499         468.499         1.03516         1.03516    -691.597E-03    -691.597E-03
              62         468.558         468.558     962.896E-03     962.896E-03    -604.563E-03    -604.563E-03
              63         468.610         468.610     897.570E-03     897.570E-03    -523.151E-03    -523.151E-03
              64         468.654         468.654     839.475E-03     839.475E-03    -446.747E-03    -446.747E-03
              65         468.691         468.691     788.825E-03     788.825E-03    -374.737E-03    -374.737E-03
              66         468.722         468.722     745.778E-03     745.778E-03    -306.501E-03    -306.501E-03
              67         468.747         468.747     710.441E-03     710.441E-03    -241.415E-03    -241.415E-03
              68         468.766         468.766     682.889E-03     682.889E-03    -178.853E-03    -178.853E-03
              69         468.779         468.779     663.171E-03     663.171E-03    -118.187E-03    -118.187E-03
              70         468.787         468.787     651.302E-03     651.302E-03    -58.9461E-03    -58.9461E-03
              71         468.846         468.846     582.663E-03     582.663E-03    -32.1329E-03    -32.1329E-03
              72         468.899         468.899     517.832E-03     517.832E-03    -33.6532E-03    -33.6532E-03
              73         468.951         468.951     450.791E-03     450.791E-03    -34.3946E-03    -34.3946E-03
              74         468.998         468.998     383.119E-03     383.119E-03    -34.3172E-03    -34.3172E-03
              75         469.038         469.038     316.451E-03     316.451E-03    -33.4054E-03    -33.4054E-03
              76         469.068         469.068     252.439E-03     252.439E-03    -31.6572E-03    -31.6572E-03
              77         469.087         469.087     192.714E-03     192.714E-03    -29.0946E-03    -29.0946E-03
              78         469.091         469.091     138.853E-03     138.853E-03    -25.7533E-03    -25.7533E-03
              79         469.078         469.078     92.3262E-03     92.3262E-03    -21.7029E-03    -21.7029E-03
              80         469.047         469.047     54.4651E-03     54.4651E-03    -17.0150E-03    -17.0150E-03
              81         468.995         468.995     26.3914E-03     26.3914E-03    -11.8306E-03    -11.8306E-03
              82         468.922         468.922     8.99339E-03     8.99339E-03    -6.24385E-03    -6.24385E-03
              83         468.885         468.885     3.12978E-03     3.12978E-03    -6.13403E-03    -6.13403E-03
              84         468.903         468.903     3.22584E-03     3.22584E-03    -12.0179E-03    -12.0179E-03
              85         468.933         468.933     3.32196E-03     3.32196E-03    -18.3002E-03    -18.3002E-03
              86         468.975         468.975     3.48517E-03     3.48517E-03    -24.8463E-03    -24.8463E-03
              87         469.031         469.031     3.69557E-03     3.69557E-03    -31.7709E-03    -31.7709E-03
              88         469.101         469.101     3.95232E-03     3.95232E-03    -39.1682E-03    -39.1682E-03
              89         469.186         469.186     4.25678E-03     4.25678E-03    -47.1348E-03    -47.1348E-03
              90         469.288         469.288     4.60636E-03     4.60636E-03    -55.7657E-03    -55.7657E-03
              91         469.407         469.407     5.00149E-03     5.00149E-03    -65.1548E-03    -65.1548E-03
              92         469.545         469.545     5.43931E-03     5.43931E-03    -75.3941E-03    -75.3941E-03
              93         469.705         469.705     5.91793E-03     5.91793E-03    -86.5716E-03    -86.5716E-03
              94         469.888         469.888     6.43291E-03     6.43291E-03    -98.7698E-03    -98.7698E-03
              95         470.096         470.096     6.97900E-03     6.97900E-03    -112.063E-03    -112.063E-03
              96         470.331         470.331     7.54834E-03     7.54834E-03    -126.512E-03    -126.512E-03
              97         470.596         470.596     8.13042E-03     8.13042E-03    -142.164E-03    -142.164E-03
              98         470.893         470.893     8.71142E-03     8.71142E-03    -159.039E-03    -159.039E-03
              99         471.224         471.224     9.27246E-03     9.27246E-03    -177.129E-03    -177.129E-03
             100         471.593         471.593     9.79027E-03     9.79027E-03    -196.384E-03    -196.384E-03
             101         472.000         472.000     10.2329E-03     10.2329E-03    -216.703E-03    -216.703E-03
             102         472.448         472.448     10.5629E-03     10.5629E-03    -237.914E-03    -237.914E-03
             103         472.939         472.939     10.7287E-03     10.7287E-03    -259.763E-03    -259.763E-03
             104         473.474         473.474     10.6735E-03     10.6735E-03    -281.885E-03    -281.885E-03
             105         474.051         474.051     10.3179E-03     10.3179E-03    -303.783E-03    -303.783E-03
             106         474.671         474.671     9.58067E-03     9.58067E-03    -324.803E-03    -324.803E-03
             107         475.331         475.331     8.34784E-03     8.34784E-03    -344.095E-03    -344.095E-03
             108         476.026         476.026     6.51333E-03     6.51333E-03    -360.590E-03    -360.590E-03
             109         476.750         476.750     3.92849E-03     3.92849E-03    -372.966E-03    -372.966E-03
             110         477.493         477.493     474.861E-06     474.861E-06    -379.629E-03    -379.629E-03
             111         478.241         478.241    -4.00995E-03    -4.00995E-03    -378.707E-03    -378.707E-03
             112         478.978         478.978    -9.61816E-03    -9.61816E-03    -368.059E-03    -368.059E-03
             113         479.682         479.682    -16.4608E-03    -16.4608E-03    -345.339E-03    -345.339E-03
             114         480.326         480.326    -24.5224E-03    -24.5224E-03    -308.085E-03    -308.085E-03
             115         480.881         480.881    -33.7281E-03    -33.7281E-03    -253.914E-03    -253.914E-03
             116         481.310         481.310    -43.8222E-03    -43.8222E-03    -180.739E-03    -180.739E-03
             117         481.574         481.574    -54.3434E-03    -54.3434E-03    -87.1722E-03    -87.1722E-03
             118         481.633         481.633    -64.6409E-03    -64.6409E-03     27.1117E-03     27.1117E-03
             119         481.447         481.447    -73.6957E-03    -73.6957E-03     160.799E-03     160.799E-03
             120         480.981         480.981    -80.3992E-03    -80.3992E-03     310.495E-03     310.495E-03
             121         480.210         480.210    -83.2713E-03    -83.2713E-03     470.261E-03     470.261E-03
             122         479.122         479.122    -81.0027E-03    -81.0027E-03     631.391E-03     631.391E-03
             123         477.725         477.725    -72.3790E-03    -72.3790E-03     782.684E-03     782.684E-03
             124         476.053         476.053    -56.5678E-03    -56.5678E-03     910.088E-03     910.088E-03
             125         474.378         474.378    -86.7244E-03    -86.7244E-03         1.84326         1.84326
             126         475.293         475.293    -251.073E-03    -251.073E-03         3.31586         3.31586
             127         476.363         476.363    -520.446E-03    -520.446E-03         4.40859         4.40859
             128         477.572         477.572    -912.598E-03    -912.598E-03         5.21097         5.21097
             129         478.926         478.926        -1.46807        -1.46807         5.78100         5.78100
             130         480.445         480.445        -2.24841        -2.24841         6.13767         6.13767
             131         482.154         482.154        -3.33626        -3.33626         6.25667         6.25667
             132         484.066         484.066        -4.83394        -4.83394         6.06090         6.06090
             133         486.160         486.160        -6.85670        -6.85670         5.40009         5.40009
             134         488.325         488.325        -9.50310        -9.50310         4.03288         4.03288
             135         490.275         490.275        -12.7960        -12.7960         1.61423         1.61423
             136         491.424         491.424        -16.5442        -16.5442        -2.22335        -2.22335
             137         483.979         483.979        -18.4446        -18.4446         11.3819         11.3819
             138         478.683         478.683        -15.5930        -15.5930         12.6263         12.6263
             139         474.457         474.457        -12.5702        -12.5702         12.7774         12.7774
             140         471.283         471.283        -9.77285        -9.77285         12.2646         12.2646
             141         468.999         468.999        -7.34465        -7.34465         11.4087         11.4087
             142         467.416         467.416        -5.31100        -5.31100         10.4215         10.4215
             143         466.361         466.361        -3.63892        -3.63892         9.42468         9.42468
             144         465.694         465.694        -2.28076        -2.28076         8.48223         8.48223
             145         465.310         465.310        -1.18665        -1.18665         7.62255         7.62255
             146         465.127         465.127    -312.645E-03    -312.645E-03         6.85391         6.85391
             147         465.088         465.088     378.959E-03     378.959E-03         6.17397         6.17397
             148         465.149         465.149     919.352E-03     919.352E-03         5.57510         5.57510
             149         465.279         465.279         1.33443         1.33443         5.04778         5.04778
             150         465.454         465.454         1.64561         1.64561         4.58221         4.58221
             151         465.658         465.658         1.87075         1.87075         4.16924         4.16924
             152         465.878         465.878         2.02480         2.02480         3.80079         3.80079
             153         466.105         466.105         2.12037         2.12037         3.46997         3.46997
             154         466.332         466.332         2.16815         2.16815         3.17100         3.17100
             155         466.555         466.555         2.17724         2.17724         2.89919         2.89919
             156         466.771         466.771         2.15537         2.15537         2.65070         2.65070
             157         466.976         466.976         2.10912         2.10912         2.42248         2.42248
             158         467.170         467.170         2.04412         2.04412         2.21207         2.21207
             159         467.351         467.351         1.96511         1.96511         2.01751         2.01751
             160         467.520         467.520         1.87611         1.87611         1.83722         1.83722
             161         467.676         467.676         1.78053         1.78053         1.66989         1.66989
             162         467.818         467.818         1.68118         1.68118         1.51446         1.51446
             163         467.949         467.949         1.58045         1.58045         1.37001         1.37001
             164         468.067         468.067         1.48027         1.48027         1.23573         1.23573
             165         468.174         468.174         1.38226         1.38226         1.11090         1.11090
             166         468.270         468.270         1.28772         1.28772     994.830E-03     994.830E-03
             167         468.356         468.356         1.19770         1.19770     886.887E-03     886.887E-03
             168         468.433         468.433         1.11303         1.11303     786.443E-03     786.443E-03
             169         468.500         468.500         1.03438         1.03438     692.883E-03     692.883E-03
             170         468.559         468.559     962.258E-03     962.258E-03     605.594E-03     605.594E-03
             171         468.610         468.610     897.057E-03     897.057E-03     523.964E-03     523.964E-03
             172         468.654         468.654     839.072E-03     839.072E-03     447.376E-03     447.376E-03
             173         468.691         468.691     788.523E-03     788.523E-03     375.211E-03     375.211E-03
             174         468.722         468.722     745.566E-03     745.566E-03     306.847E-03     306.847E-03
             175         468.747         468.747     710.312E-03     710.312E-03     241.657E-03     241.657E-03
             176         468.766         468.766     682.836E-03     682.836E-03     179.009E-03     179.009E-03
             177         468.779         468.779     663.189E-03     663.189E-03     118.273E-03     118.273E-03
             178         468.787         468.787     651.374E-03     651.374E-03     58.9718E-03     58.9718E-03
             179         468.730         468.730     712.968E-03     712.968E-03     25.9443E-03     25.9443E-03
             180         468.674         468.674     772.111E-03     772.111E-03     21.1966E-03     21.1966E-03
             181         468.630         468.630     818.394E-03     818.394E-03     15.7057E-03     15.7057E-03
             182         468.599         468.599     850.184E-03     850.184E-03     9.66366E-03     9.66366E-03
             183         468.583         468.583     866.360E-03     866.360E-03     3.28095E-03     3.28095E-03
             184         468.583         468.583     866.345E-03     866.345E-03    -3.22002E-03    -3.22002E-03
             185         468.599         468.599     850.149E-03     850.149E-03    -9.61157E-03    -9.61157E-03
             186         468.630         468.630     818.346E-03     818.346E-03    -15.6727E-03    -15.6727E-03
             187         468.674         468.674     772.043E-03     772.043E-03    -21.1847E-03    -21.1847E-03
             188         468.730         468.730     712.881E-03     712.881E-03    -25.9392E-03    -25.9392E-03
             189         387.859         387.859         5.45796         5.45796         25.7982         25.7982
             190         415.941         415.941        -7.37960        -7.37960         40.5118         40.5118
             191         446.928         446.928        -19.4589        -19.4589         41.1753         41.1753
             192         470.858         470.858        -25.8329        -25.8329         32.6693         32.6693
             193         485.023         485.023        -26.3282        -26.3282         21.3671         21.3671
             194         482.438         482.438        -26.2935        -26.2935        -23.6107        -23.6107
             195         461.994         461.994        -23.6436        -23.6436        -36.3046        -36.3046
             196         428.897         428.897        -12.5505        -12.5505        -41.3670        -41.3670
             197         394.041         394.041         2.59733         2.59733        -29.0699        -29.0699
             198         472.674         472.674    -106.234E-03    -106.234E-03        -1.53442        -1.53442
             199         473.689         473.689    -307.450E-03    -307.450E-03        -2.71727        -2.71727
             200         474.900         474.900    -634.450E-03    -634.450E-03        -3.54463        -3.54463
             201         476.284         476.284        -1.10133        -1.10133        -4.11266        -4.11266
             202         477.840         477.840        -1.74505        -1.74505        -4.48347        -4.48347
             203         479.581         479.581        -2.62368        -2.62368        -4.67903        -4.67903
             204         481.524         481.524        -3.81664        -3.81664        -4.67689        -4.67689
             205         483.677         483.677        -5.42314        -5.42314        -4.40076        -4.40076
             206         486.012         486.012        -7.55562        -7.55562        -3.70021        -3.70021
             207         488.411         488.411        -10.3100        -10.3100        -2.33225        -2.33225
             208         490.584         490.584        -13.7066        -13.7066     50.7488E-03     50.7488E-03
             209         491.935         491.935        -17.5544        -17.5544         3.82470         3.82470
             210         504.051         504.051        -20.9351        -20.9351     834.140E-03     834.140E-03
             211         510.435         510.435        -9.61253        -9.61253        -10.1831        -10.1831
             212         510.303         510.303         12.5156         12.5156        -18.0103        -18.0103
             213         504.829         504.829         37.7466         37.7466        -14.6210        -14.6210
             214         504.703         504.703         37.9675         37.9675         15.7717         15.7717
             215         510.043         510.043         12.9630         12.9630         19.1961         19.1961
             216         510.036         510.036        -8.94238        -8.94238         11.4349         11.4349
             217         503.506         503.506        -20.0569        -20.0569     510.066E-03     510.066E-03
             218         471.358         471.358     9.72646E-03     9.72646E-03         1.02239         1.02239
             219         468.648         468.648     56.6411E-03     56.6411E-03     937.717E-03     937.717E-03
             220         466.343         466.343     100.125E-03     100.125E-03     730.014E-03     730.014E-03
             221         464.751         464.751     130.844E-03     130.844E-03     421.297E-03     421.297E-03
             222         464.091         464.091     141.549E-03     141.549E-03     56.1563E-03     56.1563E-03
             223         464.438         464.438     129.466E-03     129.466E-03    -307.052E-03    -307.052E-03
             224         465.707         465.707     97.3711E-03     97.3711E-03    -609.972E-03    -609.972E-03
             225         467.667         467.667     52.5343E-03     52.5343E-03    -808.033E-03    -808.033E-03
             226         470.001         470.001     4.26241E-03     4.26241E-03    -879.202E-03    -879.202E-03
             227         491.345         491.345        -16.5791        -16.5791         2.27701         2.27701
             228         490.218         490.218        -12.8322        -12.8322        -1.57558        -1.57558
             229         488.282         488.282        -9.54178        -9.54178        -3.99989        -3.99989
             230         486.130         486.130        -6.89799        -6.89799        -5.37100        -5.37100
             231         484.048         484.048        -4.87620        -4.87620        -6.03633        -6.03633
             232         482.146         482.146        -3.37671        -3.37671        -6.23741        -6.23741
             233         480.448         480.448        -2.28417        -2.28417        -6.12363        -6.12363
             234         478.938         478.938        -1.49696        -1.49696        -5.77115        -5.77115
             235         477.596         477.596    -933.652E-03    -933.652E-03        -5.20399        -5.20399
             236         476.401         476.401    -533.752E-03    -533.752E-03        -4.40334        -4.40334
             237         475.349         475.349    -258.020E-03    -258.020E-03        -3.31191        -3.31191
             238         474.458         474.458    -89.4588E-03    -89.4588E-03        -1.84162        -1.84162
             239         476.080         476.080    -56.4902E-03    -56.4902E-03    -909.111E-03    -909.111E-03
             240         477.750         477.750    -72.4388E-03    -72.4388E-03    -781.441E-03    -781.441E-03
             241         479.144         479.144    -81.0066E-03    -81.0066E-03    -630.107E-03    -630.107E-03
             242         480.230         480.230    -83.2897E-03    -83.2897E-03    -468.966E-03    -468.966E-03
             243         480.999         480.999    -80.3686E-03    -80.3686E-03    -309.226E-03    -309.226E-03
             244         481.462         481.462    -73.6613E-03    -73.6613E-03    -159.605E-03    -159.605E-03
             245         481.646         481.646    -64.5843E-03    -64.5843E-03    -26.0173E-03    -26.0173E-03
             246         481.585         481.585    -54.2829E-03    -54.2829E-03     88.1421E-03     88.1421E-03
             247         481.319         481.319    -43.7591E-03    -43.7591E-03     181.581E-03     181.581E-03
             248         480.888         480.888    -33.6667E-03    -33.6667E-03     254.626E-03     254.626E-03
             249         480.333         480.333    -24.4686E-03    -24.4686E-03     308.679E-03     308.679E-03
             250         479.687         479.687    -16.4121E-03    -16.4121E-03     345.829E-03     345.829E-03
             251         478.982         478.982    -9.57942E-03    -9.57942E-03     368.459E-03     368.459E-03
             252         478.245         478.245    -3.97637E-03    -3.97637E-03     379.033E-03     379.033E-03
             253         477.496         477.496     500.062E-06     500.062E-06     379.896E-03     379.896E-03
             254         476.753         476.753     3.95004E-03     3.95004E-03     373.185E-03     373.185E-03
             255         476.029         476.029     6.52906E-03     6.52906E-03     360.771E-03     360.771E-03
             256         475.333         475.333     8.36148E-03     8.36148E-03     344.246E-03     344.246E-03
             257         474.673         474.673     9.59060E-03     9.59060E-03     324.930E-03     324.930E-03
             258         474.053         474.053     10.3268E-03     10.3268E-03     303.892E-03     303.892E-03
             259         473.475         473.475     10.6800E-03     10.6800E-03     281.977E-03     281.977E-03
             260         472.940         472.940     10.7348E-03     10.7348E-03     259.843E-03     259.843E-03
             261         472.449         472.449     10.5675E-03     10.5675E-03     237.983E-03     237.983E-03
             262         472.001         472.001     10.2372E-03     10.2372E-03     216.762E-03     216.762E-03
             263         471.593         471.593     9.79368E-03     9.79368E-03     196.436E-03     196.436E-03
             264         471.225         471.225     9.27572E-03     9.27572E-03     177.174E-03     177.174E-03
             265         470.893         470.893     8.71402E-03     8.71402E-03     159.078E-03     159.078E-03
             266         470.596         470.596     8.13289E-03     8.13289E-03     142.198E-03     142.198E-03
             267         470.331         470.331     7.55035E-03     7.55035E-03     126.542E-03     126.542E-03
             268         470.096         470.096     6.98090E-03     6.98090E-03     112.089E-03     112.089E-03
             269         469.888         469.888     6.43449E-03     6.43449E-03     98.7922E-03     98.7922E-03
             270         469.705         469.705     5.91941E-03     5.91941E-03     86.5909E-03     86.5909E-03
             271         469.545         469.545     5.44056E-03     5.44056E-03     75.4108E-03     75.4108E-03
             272         469.407         469.407     5.00266E-03     5.00266E-03     65.1691E-03     65.1691E-03
             273         469.288         469.288     4.60737E-03     4.60737E-03     55.7778E-03     55.7778E-03
             274         469.186         469.186     4.25772E-03     4.25772E-03     47.1449E-03     47.1449E-03
             275         469.101         469.101     3.95317E-03     3.95317E-03     39.1766E-03     39.1766E-03
             276         469.031         469.031     3.69637E-03     3.69637E-03     31.7777E-03     31.7777E-03
             277         468.975         468.975     3.48590E-03     3.48590E-03     24.8517E-03     24.8517E-03
             278         468.933         468.933     3.32267E-03     3.32267E-03     18.3041E-03     18.3041E-03
             279         468.903         468.903     3.22651E-03     3.22651E-03     12.0205E-03     12.0205E-03
             280         468.885         468.885     3.13044E-03     3.13044E-03     6.13533E-03     6.13533E-03
             281         468.921         468.921     8.99529E-03     8.99529E-03     6.24515E-03     6.24515E-03
             282         468.995         468.995     26.3970E-03     26.3970E-03     11.8330E-03     11.8330E-03
             283         469.047         469.047     54.4766E-03     54.4766E-03     17.0186E-03     17.0186E-03
             284         469.078         469.078     92.3456E-03     92.3456E-03     21.7074E-03     21.7074E-03
             285         469.091         469.091     138.882E-03     138.882E-03     25.7586E-03     25.7586E-03
             286         469.087         469.087     192.754E-03     192.754E-03     29.1005E-03     29.1005E-03
             287         469.068         469.068     252.491E-03     252.491E-03     31.6635E-03     31.6635E-03
             288         469.038         469.038     316.516E-03     316.516E-03     33.4118E-03     33.4118E-03
             289         468.998         468.998     383.197E-03     383.197E-03     34.3236E-03     34.3236E-03
             290         468.951         468.951     450.880E-03     450.880E-03     34.4000E-03     34.4000E-03
             291         468.899         468.899     517.931E-03     517.931E-03     33.6580E-03     33.6580E-03
             292         468.846         468.846     582.762E-03     582.762E-03     32.1280E-03     32.1280E-03
             293         443.115         443.115         128.598         128.598        -29.4202        -29.4202
             294         447.725         447.725         117.581         117.581        -29.2654        -29.2654
             295         452.206         452.206         106.547         106.547        -28.3417        -28.3417
             296         456.453         456.453         95.7221         95.7221        -26.9617        -26.9617
             297         460.362         460.362         85.2828         85.2828        -25.1591        -25.1591
             298         463.864         463.864         75.3804         75.3804        -23.0209        -23.0209
             299         466.917         466.917         66.1277         66.1277        -20.6290        -20.6290
             300         469.494         469.494         57.6081         57.6081        -18.0890        -18.0890
             301         471.612         471.612         49.8574         49.8574        -15.4931        -15.4931
             302         473.282         473.282         42.8865         42.8865        -12.9251        -12.9251
             303         474.555         474.555         36.6745         36.6745        -10.4552        -10.4552
             304         475.466         475.466         31.1846         31.1846        -8.12975        -8.12975
             305         476.071         476.071         26.3684         26.3684        -5.98643        -5.98643
             306         476.411         476.411         22.1685         22.1685        -4.03957        -4.03957
             307         476.532         476.532         18.5297         18.5297        -2.29957        -2.29957
             308         476.472         476.472         15.3922         15.3922    -760.631E-03    -760.631E-03
             309         476.266         476.266         12.7036         12.7036     583.868E-03     583.868E-03
             310         475.941         475.941         10.4101         10.4101         1.74969         1.74969
             311         475.523         475.523         8.46546         8.46546         2.75178         2.75178
             312         475.033         475.033         6.82348         6.82348         3.60934         3.60934
             313         474.487         474.487         5.44451         5.44451         4.34014         4.34014
             314         473.901         473.901         4.28955         4.28955         4.96344         4.96344
             315         473.286         473.286         3.32443         3.32443         5.49699         5.49699
             316         472.653         472.653         2.51578         2.51578         5.95880         5.95880
             317         472.013         472.013         1.83351         1.83351         6.36566         6.36566
             318         471.374         471.374         1.24804         1.24804         6.73424         6.73424
             319         470.745         470.745     731.739E-03     731.739E-03         7.08048         7.08048
             320         470.137         470.137     256.921E-03     256.921E-03         7.42034         7.42034
             321         469.561         469.561    -203.536E-03    -203.536E-03         7.76951         7.76951
             322         469.032         469.032    -677.675E-03    -677.675E-03         8.14389         8.14389
             323         468.567         468.567        -1.19455        -1.19455         8.55930         8.55930
             324         468.190         468.190        -1.78552        -1.78552         9.03136         9.03136
             325         467.933         467.933        -2.48501        -2.48501         9.57453         9.57453
             326         467.839         467.839        -3.33166        -3.33166         10.2006         10.2006
             327         467.967         467.967        -4.36957        -4.36957         10.9155         10.9155
             328         468.395         468.395        -5.64810        -5.64810         11.7138         11.7138
             329         469.230         469.230        -7.22177        -7.22177         12.5696         12.5696
             330         470.610         470.610        -9.14204        -9.14204         13.4208         13.4208
             331         472.707         472.707        -11.4451        -11.4451         14.1470         14.1470
             332         475.709         475.709        -14.1077        -14.1077         14.5378         14.5378
             333         479.777         479.777        -16.9878        -16.9878         14.2727         14.2727
             334         484.925         484.925        -19.6875        -19.6875         12.9227         12.9227
             335         473.952         473.952    -64.3258E-03    -64.3258E-03    -735.288E-03    -735.288E-03
             336         475.263         475.263    -81.0593E-03    -81.0593E-03    -591.215E-03    -591.215E-03
             337         476.264         476.264    -90.6624E-03    -90.6624E-03    -421.259E-03    -421.259E-03
             338         476.918         476.918    -93.8275E-03    -93.8275E-03    -239.485E-03    -239.485E-03
             339         477.211         477.211    -91.9499E-03    -91.9499E-03    -57.0757E-03    -57.0757E-03
             340         477.153         477.153    -86.1101E-03    -86.1101E-03     117.272E-03     117.272E-03
             341         476.764         476.764    -78.0452E-03    -78.0452E-03     277.605E-03     277.605E-03
             342         476.076         476.076    -68.5257E-03    -68.5257E-03     420.509E-03     420.509E-03
             343         475.124         475.124    -58.9566E-03    -58.9566E-03     544.605E-03     544.605E-03
             344         473.945         473.945    -49.4535E-03    -49.4535E-03     650.130E-03     650.130E-03
             345         472.576         472.576    -41.1118E-03    -41.1118E-03     738.327E-03     738.327E-03
             346         471.047         471.047    -33.2997E-03    -33.2997E-03     811.095E-03     811.095E-03
             347         469.388         469.388    -27.1712E-03    -27.1712E-03     870.555E-03     870.555E-03
             348         467.622         467.622    -21.2471E-03    -21.2471E-03     918.846E-03     918.846E-03
             349         465.771         465.771    -17.2627E-03    -17.2627E-03     957.895E-03     957.895E-03
             350         463.849         463.849    -12.6000E-03    -12.6000E-03     989.331E-03     989.331E-03
             351         461.872         461.872    -10.2504E-03    -10.2504E-03         1.01440         1.01440
             352         459.851         459.851    -5.82337E-03    -5.82337E-03         1.03392         1.03392
             353         457.796         457.796    -4.54661E-03    -4.54661E-03         1.04830         1.04830
             354         455.718         455.718     917.959E-06     917.959E-06         1.05748         1.05748
             355         453.628         453.628     1.52622E-03     1.52622E-03         1.06098         1.06098
             356         451.536         451.536     9.62581E-03     9.62581E-03         1.05778         1.05778
             357         449.459         449.459     9.68698E-03     9.68698E-03         1.04651         1.04651
             358         447.414         447.414     22.6368E-03     22.6368E-03         1.02501         1.02501
             359         445.423         445.423     21.8608E-03     21.8608E-03     990.826E-03     990.826E-03
             360         443.515         443.515     43.0939E-03     43.0939E-03     940.219E-03     940.219E-03
             361         441.727         441.727     40.5621E-03     40.5621E-03     869.335E-03     869.335E-03
             362         440.104         440.104     75.9380E-03     75.9380E-03     771.654E-03     771.654E-03
             363         438.705         438.705     69.6505E-03     69.6505E-03     641.421E-03     641.421E-03
             364         437.606         437.606     130.126E-03     130.126E-03     466.358E-03     466.358E-03
             365         436.905         436.905     115.899E-03     115.899E-03     238.239E-03     238.239E-03
             366         436.728         436.728     224.231E-03     224.231E-03    -69.0555E-03    -69.0555E-03
             367         437.247         437.247     192.521E-03     192.521E-03    -465.802E-03    -465.802E-03
             368         438.692         438.692     402.688E-03     402.688E-03        -1.01627        -1.01627
             369         441.389         441.389     328.065E-03     328.065E-03        -1.72665        -1.72665
             370         445.807         445.807     791.709E-03     791.709E-03        -2.78242        -2.78242
             371         452.647         452.647     593.529E-03     593.529E-03        -4.15355        -4.15355
             372         463.087         463.087         1.84350         1.84350        -6.48954        -6.48954
             373         478.966         478.966         1.21724         1.21724        -9.57398        -9.57398
             374         504.598         504.598         5.93480         5.93480        -16.5300        -16.5300
             375         547.057         547.057         3.46729         3.46729        -26.2743        -26.2743
             376         645.268         645.268         46.3161         46.3161        -73.2601        -73.2601
             377         627.452         627.452         120.936         120.936        -123.427        -123.427
             378         523.669         523.669         139.409         139.409        -115.315        -115.315
             379         495.321         495.321         136.859         136.859        -96.9297        -96.9297
             380         475.833         475.833         136.659         136.659        -87.1612        -87.1612
             381         465.446         465.446         135.669         135.669        -77.0465        -77.0465
             382         457.829         457.829         135.164         135.164        -69.4306        -69.4306
             383         452.928         452.928         134.756         134.756        -62.0793        -62.0793
             384         449.186         449.186         134.475         134.475        -55.7901        -55.7901
             385         446.556         446.556         134.310         134.310        -49.7864        -49.7864
             386         444.495         444.495         134.181         134.181        -44.3406        -44.3406
             387         442.975         442.975         134.123         134.123        -39.1261        -39.1261
             388         441.766         441.766         134.073         134.073        -34.2420        -34.2420
             389         491.740         491.740        -17.6351        -17.6351        -4.07694        -4.07694
             390         490.468         490.468        -13.8438        -13.8438    -288.087E-03    -288.087E-03
             391         488.366         488.366        -10.4777        -10.4777         2.13843         2.13843
             392         486.013         486.013        -7.72539        -7.72539         3.55917         3.55917
             393         483.703         483.703        -5.57534        -5.57534         4.30751         4.30751
             394         481.560         481.560        -3.94197        -3.94197         4.62059         4.62059
             395         479.618         479.618        -2.72054        -2.72054         4.64863         4.64863
             396         477.875         477.875        -1.81553        -1.81553         4.47016         4.47016
             397         476.318         476.318        -1.14909        -1.14909         4.10980         4.10980
             398         474.934         474.934    -663.489E-03    -663.489E-03         3.54732         3.54732
             399         473.727         473.727    -321.893E-03    -321.893E-03         2.72154         2.72154
             400         472.725         472.725    -111.072E-03    -111.072E-03         1.53694         1.53694
             401         470.215         470.215    -809.203E-06    -809.203E-06     887.071E-03     887.071E-03
             402         468.044         468.044     42.9189E-03     42.9189E-03     839.945E-03     839.945E-03
             403         466.129         466.129     85.9080E-03     85.9080E-03     685.045E-03     685.045E-03
             404         464.727         464.727     120.009E-03     120.009E-03     434.434E-03     434.434E-03
             405         464.045         464.045     141.262E-03     141.262E-03     115.334E-03     115.334E-03
             406         464.200         464.200     140.715E-03     140.715E-03    -228.612E-03    -228.612E-03
             407         465.186         465.186     121.499E-03     121.499E-03    -547.487E-03    -547.487E-03
             408         466.892         466.892     90.2772E-03     90.2772E-03    -803.614E-03    -803.614E-03
             409         469.123         469.123     48.2873E-03     48.2873E-03    -969.023E-03    -969.023E-03
             410         471.635         471.635     5.29740E-03     5.29740E-03        -1.02967        -1.02967
             411         503.633         503.633         42.2094         42.2094         13.2339         13.2339
             412         508.972         508.972         21.6099         21.6099         19.1240         19.1240
             413         511.674         511.674    -12.6393E-03    -12.6393E-03         15.4618         15.4618
             414         509.245         509.245        -15.0956        -15.0956         6.56033         6.56033
             415         502.757         502.757        -22.1864        -22.1864        -2.62082        -2.62082
             416         503.440         503.440        -20.1392        -20.1392    -433.705E-03    -433.705E-03
             417         510.006         510.006        -9.09837        -9.09837        -11.3560        -11.3560
             418         510.073         510.073         12.7225         12.7225        -19.1584        -19.1584
             419         504.796         504.796         37.6790         37.6790        -15.8398        -15.8398
             420         443.116         443.116         128.595         128.595         29.4118         29.4118
             421         447.726         447.726         117.580         117.580         29.2533         29.2533
             422         452.205         452.205         106.549         106.549         28.3255         28.3255
             423         456.449         456.449         95.7286         95.7286         26.9418         26.9418
             424         460.356         460.356         85.2936         85.2936         25.1362         25.1362
             425         463.857         463.857         75.3957         75.3957         22.9963         22.9963
             426         466.910         466.910         66.1472         66.1472         20.6036         20.6036
             427         469.486         469.486         57.6315         57.6315         18.0643         18.0643
             428         471.604         471.604         49.8838         49.8838         15.4701         15.4701
             429         473.275         473.275         42.9154         42.9154         12.9046         12.9046
             430         474.550         474.550         36.7049         36.7049         10.4379         10.4379
             431         475.463         475.463         31.2157         31.2157         8.11604         8.11604
             432         476.070         476.070         26.3994         26.3994         5.97661         5.97661
             433         476.412         476.412         22.1988         22.1988         4.03366         4.03366
             434         476.537         476.537         18.5586         18.5586         2.29766         2.29766
             435         476.478         476.478         15.4195         15.4195     762.504E-03     762.504E-03
             436         476.274         476.274         12.7290         12.7290    -578.278E-03    -578.278E-03
             437         475.951         475.951         10.4334         10.4334        -1.74067        -1.74067
             438         475.535         475.535         8.48662         8.48662        -2.73946        -2.73946
             439         475.045         475.045         6.84254         6.84254        -3.59403        -3.59403
             440         474.500         474.500         5.46170         5.46170        -4.32199        -4.32199
             441         473.913         473.913         4.30505         4.30505        -4.94271        -4.94271
             442         473.297         473.297         3.33860         3.33860        -5.47386        -5.47386
             443         472.662         472.662         2.52896         2.52896        -5.93349        -5.93349
             444         472.019         472.019         1.84621         1.84621        -6.33834        -6.33834
             445         471.376         471.376         1.26079         1.26079        -6.70514        -6.70514
             446         470.743         470.743     745.232E-03     745.232E-03        -7.04982        -7.04982
             447         470.129         470.129     271.929E-03     271.929E-03        -7.38842        -7.38842
             448         469.545         469.545    -186.033E-03    -186.033E-03        -7.73670        -7.73670
             449         469.006         469.006    -656.563E-03    -656.563E-03        -8.11078        -8.11078
             450         468.528         468.528        -1.16845        -1.16845        -8.52670        -8.52670
             451         468.136         468.136        -1.75288        -1.75288        -9.00056        -9.00056
             452         467.860         467.860        -2.44399        -2.44399        -9.54747        -9.54747
             453         467.743         467.743        -3.28039        -3.28039        -10.1803        -10.1803
             454         467.842         467.842        -4.30617        -4.30617        -10.9066        -10.9066
             455         468.236         468.236        -5.57157        -5.57157        -11.7233        -11.7233
             456         469.031         469.031        -7.13263        -7.13263        -12.6073        -12.6073
             457         470.370         470.370        -9.04493        -9.04493        -13.5008        -13.5008
             458         472.432         472.432        -11.3512        -11.3512        -14.2854        -14.2854
             459         475.415         475.415        -14.0363        -14.0363        -14.7482        -14.7482
             460         479.493         479.493        -16.9623        -16.9623        -14.5572        -14.5572
             461         484.683         484.683        -19.7254        -19.7254        -13.2682        -13.2682
             462         483.501         483.501        -27.4854        -27.4854        -24.7811        -24.7811
             463         463.233         463.233        -24.9244        -24.9244        -37.2346        -37.2346
             464         430.245         430.245        -13.8897        -13.8897        -42.0189        -42.0189
             465         395.440         395.440         1.23051         1.23051        -29.4031        -29.4031
             466         389.281         389.281         4.07705         4.07705         26.1056         26.1056
             467         417.340         417.340        -8.74780        -8.74780         41.0858         41.0858
             468         448.260         448.260        -20.7903        -20.7903         41.9862         41.9862
             469         472.071         472.071        -27.1012        -27.1012         33.6928         33.6928
             470         486.071         486.071        -27.5129        -27.5129         22.5807         22.5807
             471         439.983         439.983         134.058         134.058        -23.8459        -23.8459
             472         439.347         439.347         134.063         134.063        -18.3353        -18.3353
             473         438.906         438.906         134.068         134.068        -12.9978        -12.9978
             474         438.631         438.631         134.076         134.076        -7.76146        -7.76146
             475         438.498         438.498         134.079         134.079        -2.59811        -2.59811
             476         438.499         438.499         134.077         134.077         2.55401         2.55401
             477         438.635         438.635         134.071         134.071         7.72271         7.72271
             478         438.909         438.909         134.061         134.061         12.9670         12.9670
             479         439.351         439.351         134.055         134.055         18.3137         18.3137
             480         439.987         439.987         134.052         134.052         23.8329         23.8329
             481         441.767         441.767         134.070         134.070         34.2381         34.2381
             482         442.975         442.975         134.122         134.122         39.1233         39.1233
             483         444.495         444.495         134.180         134.180         44.3385         44.3385
             484         446.556         446.556         134.310         134.310         49.7847         49.7847
             485         449.186         449.186         134.474         134.474         55.7887         55.7887
             486         452.929         452.929         134.756         134.756         62.0782         62.0782
             487         457.829         457.829         135.164         135.164         69.4296         69.4296
             488         465.446         465.446         135.669         135.669         77.0456         77.0456
             489         475.833         475.833         136.658         136.658         87.1605         87.1605
             490         495.321         495.321         136.859         136.859         96.9291         96.9291
             491         523.669         523.669         139.409         139.409         115.315         115.315
             492         627.451         627.451         120.936         120.936         123.426         123.426
             493         645.268         645.268         46.3161         46.3161         73.2598         73.2598
             494         547.057         547.057         3.46727         3.46727         26.2742         26.2742
             495         504.599         504.599         5.93477         5.93477         16.5298         16.5298
             496         478.967         478.967         1.21722         1.21722         9.57388         9.57388
             497         463.088         463.088         1.84348         1.84348         6.48947         6.48947
             498         452.647         452.647     593.513E-03     593.513E-03         4.15351         4.15351
             499         445.808         445.808     791.694E-03     791.694E-03         2.78241         2.78241
             500         441.390         441.390     328.052E-03     328.052E-03         1.72668         1.72668
             501         438.693         438.693     402.677E-03     402.677E-03         1.01631         1.01631
             502         437.248         437.248     192.513E-03     192.513E-03     465.866E-03     465.866E-03
             503         436.728         436.728     224.225E-03     224.225E-03     69.1336E-03     69.1336E-03
             504         436.905         436.905     115.895E-03     115.895E-03    -238.150E-03    -238.150E-03
             505         437.607         437.607     130.123E-03     130.123E-03    -466.262E-03    -466.262E-03
             506         438.705         438.705     69.6489E-03     69.6489E-03    -641.321E-03    -641.321E-03
             507         440.104         440.104     75.9370E-03     75.9370E-03    -771.552E-03    -771.552E-03
             508         441.727         441.727     40.5620E-03     40.5620E-03    -869.231E-03    -869.231E-03
             509         443.515         443.515     43.0941E-03     43.0941E-03    -940.115E-03    -940.115E-03
             510         445.422         445.422     21.8611E-03     21.8611E-03    -990.723E-03    -990.723E-03
             511         447.413         447.413     22.6377E-03     22.6377E-03        -1.02491        -1.02491
             512         449.458         449.458     9.68719E-03     9.68719E-03        -1.04640        -1.04640
             513         451.535         451.535     9.62696E-03     9.62696E-03        -1.05768        -1.05768
             514         453.626         453.626     1.52587E-03     1.52587E-03        -1.06087        -1.06087
             515         455.717         455.717     919.256E-06     919.256E-06        -1.05738        -1.05738
             516         457.794         457.794    -4.54784E-03    -4.54784E-03        -1.04820        -1.04820
             517         459.849         459.849    -5.82197E-03    -5.82197E-03        -1.03382        -1.03382
             518         461.870         461.870    -10.2528E-03    -10.2528E-03        -1.01429        -1.01429
             519         463.847         463.847    -12.5984E-03    -12.5984E-03    -989.224E-03    -989.224E-03
             520         465.768         465.768    -17.2660E-03    -17.2660E-03    -957.786E-03    -957.786E-03
             521         467.619         467.619    -21.2443E-03    -21.2443E-03    -918.733E-03    -918.733E-03
             522         469.384         469.384    -27.1726E-03    -27.1726E-03    -870.443E-03    -870.443E-03
             523         471.043         471.043    -33.2916E-03    -33.2916E-03    -810.985E-03    -810.985E-03
             524         472.572         472.572    -41.1022E-03    -41.1022E-03    -738.233E-03    -738.233E-03
             525         473.941         473.941    -49.4289E-03    -49.4289E-03    -650.065E-03    -650.065E-03
             526         475.120         475.120    -58.9169E-03    -58.9169E-03    -544.602E-03    -544.602E-03
             527         476.072         476.072    -68.4673E-03    -68.4673E-03    -420.597E-03    -420.597E-03
             528         476.760         476.760    -77.9554E-03    -77.9554E-03    -277.838E-03    -277.838E-03
             529         477.150         477.150    -86.0149E-03    -86.0149E-03    -117.683E-03    -117.683E-03
             530         477.209         477.209    -91.8280E-03    -91.8280E-03     56.4520E-03     56.4520E-03
             531         476.917         476.917    -93.7530E-03    -93.7530E-03     238.669E-03     238.669E-03
             532         476.265         476.265    -90.6211E-03    -90.6211E-03     420.330E-03     420.330E-03
             533         475.266         475.266    -81.1199E-03    -81.1199E-03     590.308E-03     590.308E-03
             534         473.957         473.957    -64.5590E-03    -64.5590E-03     734.951E-03     734.951E-03
             535         7.50001         7.50001        -234.923        -234.923        -1.07339        -1.07339
             536         64.1259         64.1259        -87.4382        -87.4382        -2.92344        -2.92344
             537         155.004         155.004        -16.7159        -16.7159        -3.34310        -3.34310
             538         248.790         248.790         8.49908         8.49908        -2.92032        -2.92032
             539         326.673         326.673         12.6326         12.6326        -2.10713        -2.10713
             540         506.464         506.464        -36.7342        -36.7342        -18.6520        -18.6520
             541         525.051         525.051        -55.3061        -55.3061        -33.5597        -33.5597
             542         542.615         542.615        -72.5695        -72.5695        -57.7482        -57.7482
             543         538.535         538.535        -67.7379        -67.7379        -95.6663        -95.6663
             544         457.743         457.743         15.7047         15.7047        -153.999        -153.999
             545         229.850         229.850         15.1760         15.1760        -121.646        -121.646
             546         106.722         106.722        -88.8949        -88.8949        -55.8018        -55.8018
             547         34.4253         34.4253        -203.308        -203.308        -9.42553        -9.42553
             548         1.13090         1.13090        -294.177        -294.177         6.65107         6.65107
             549         522.969         522.969         76.4401         76.4401     501.045E-03     501.045E-03
             550         567.382         567.382         113.897         113.897     429.161E-03     429.161E-03
             551         651.177         651.177         148.680         148.680     375.340E-03     375.340E-03
             552         800.945         800.945         159.545         159.545     319.218E-03     319.218E-03
             553     1.04635E+03     1.04635E+03         116.502         116.502     211.877E-03     211.877E-03
             554     1.14022E+03     1.14022E+03         90.1563         90.1563        -131.672        -131.672
             555         988.932         988.932         118.562         118.562        -225.063        -225.063
             556         784.644         784.644         138.048         138.048        -260.816        -260.816
             557         573.630         573.630         127.805         127.805        -242.479        -242.479
             558         463.033         463.033         17.2400         17.2400         154.921         154.921
             559         542.159         542.159        -67.3938        -67.3938         94.5098         94.5098
             560         544.649         544.649        -72.3672        -72.3672         56.3619         56.3619
             561         526.082         526.082        -55.1161        -55.1161         32.4902         32.4902
             562         506.952         506.952        -36.5643        -36.5643         17.9345         17.9345
             563        -1.98437        -1.98437        -309.727        -309.727        -7.57081        -7.57081
             564         18.6352         18.6352        -241.388        -241.388    -800.211E-03    -800.211E-03
             565         62.9467         62.9467        -148.127        -148.127         27.6785         27.6785
             566         139.355         139.355        -51.3408        -51.3408         75.5335         75.5335
             567         251.832         251.832         31.0625         31.0625         132.945         132.945
             568         507.775         507.775        -37.4655        -37.4655         18.9579         18.9579
             569         526.866         526.866        -55.8530        -55.8530         33.1946         33.1946
             570         545.410         545.410        -72.9658        -72.9658         56.8290         56.8290
             571         542.945         542.945        -67.8376        -67.8376         94.8242         94.8242
             572         463.799         463.799         17.1177         17.1177         155.243         155.243
             573         574.397         574.397         127.611         127.611         242.867         242.867
             574         785.492         785.492         138.245         138.245         261.238         261.238
             575         989.685         989.685         118.744         118.744         225.452         225.452
             576     1.14066E+03     1.14066E+03         90.2587         90.2587         131.984         131.984
             577         452.744         452.744         13.8869         13.8869        -153.426        -153.426
             578         536.366         536.366        -69.8057        -69.8057        -96.9464        -96.9464
             579         541.619         541.619        -74.0782        -74.0782        -59.4166        -59.4166
             580         524.737         524.737        -56.4742        -56.4742        -35.1633        -35.1633
             581         506.612         506.612        -37.8122        -37.8122        -20.2484        -20.2484
             582         522.809         522.809         77.2110         77.2110        -1.56270        -1.56270
             583         567.395         567.395         114.713         114.713        -1.66627        -1.66627
             584         651.579         651.579         149.306         149.306        -1.19314        -1.19314
             585         801.941         801.941         159.781         159.781     329.507E-03     329.507E-03
             586     1.04820E+03     1.04820E+03         116.102         116.102         3.47765         3.47765
             587     1.16272E+03     1.16272E+03         85.3437         85.3437        -113.190        -113.190
             588     1.05197E+03     1.05197E+03         108.631         108.631        -202.678        -202.678
             589         893.059         893.059         132.076         132.076        -253.431        -253.431
             590         713.932         713.932         140.579         140.579        -262.765        -262.765
             591         539.999         539.999         125.152         125.152        -237.490        -237.490
             592         573.420         573.420         127.362         127.362         242.401         242.401
             593         784.268         784.268         137.996         137.996         260.737         260.737
             594         988.263         988.263         118.467         118.467         225.061         225.061
             595     1.13922E+03     1.13922E+03         90.2600         90.2600         131.655         131.655
             596         327.718         327.718         11.5062         11.5062        -2.09479        -2.09479
             597         249.459         249.459         7.59245         7.59245        -2.89547        -2.89547
             598         155.356         155.356        -17.5249        -17.5249        -3.30723        -3.30723
             599         64.2254         64.2254        -88.3196        -88.3196        -2.88391        -2.88391
             600         7.46969         7.46969        -236.133        -236.133        -1.04180        -1.04180
             601        -2.01535        -2.01535        -311.066        -311.066        -7.61160        -7.61160
             602         18.6532         18.6532        -242.456        -242.456    -850.283E-03    -850.283E-03
             603         63.0679         63.0679        -148.845        -148.845         27.6838         27.6838
             604         139.626         139.626        -51.7153        -51.7153         75.6559         75.6559
             605         252.322         252.322         30.9822         30.9822         133.189         133.189
             606         230.200         230.200         14.8656         14.8656        -121.692        -121.692
             607         106.823         106.823        -89.5750        -89.5750        -55.7518        -55.7518
             608         34.4205         34.4205        -204.368        -204.368        -9.31033        -9.31033
             609         1.08247         1.08247        -295.529        -295.529         6.74926         6.74926
             610         486.413         486.413        -16.1910        -16.1910        -5.92274        -5.92274
             611         482.088         482.088        -14.5720        -14.5720        -7.97556        -7.97556
             612         478.268         478.268        -12.4372        -12.4372        -9.08472        -9.08472
             613         475.106         475.106        -10.1758        -10.1758        -9.46251        -9.46251
             614         472.612         472.612        -8.03084        -8.03084        -9.35616        -9.35616
             615         470.716         470.716        -6.11507        -6.11507        -8.96177        -8.96177
             616         469.316         469.316        -4.46516        -4.46516        -8.42051        -8.42051
             617         468.313         468.313        -3.07568        -3.07568        -7.82105        -7.82105
             618         467.617         467.617        -1.92493        -1.92493        -7.21649        -7.21649
             619         467.156         467.156    -984.510E-03    -984.510E-03        -6.63561        -6.63561
             620         466.872         466.872    -226.086E-03    -226.086E-03        -6.09238        -6.09238
             621         466.721         466.721     377.021E-03     377.021E-03        -5.59178        -5.59178
             622         466.666         466.666     848.513E-03     848.513E-03        -5.13378        -5.13378
             623         466.682         466.682         1.20927         1.20927        -4.71577        -4.71577
             624         466.748         466.748         1.47736         1.47736        -4.33403        -4.33403
             625         466.847         466.847         1.66839         1.66839        -3.98457        -3.98457
             626         466.969         466.969         1.79577         1.79577        -3.66358        -3.66358
             627         467.105         467.105         1.87102         1.87102        -3.36768        -3.36768
             628         467.246         467.246         1.90399         1.90399        -3.09396        -3.09396
             629         467.389         467.389         1.90309         1.90309        -2.83999        -2.83999
             630         467.530         467.530         1.87546         1.87546        -2.60378        -2.60378
             631         467.666         467.666         1.82717         1.82717        -2.38370        -2.38370
             632         467.796         467.796         1.76334         1.76334        -2.17842        -2.17842
             633         467.917         467.917         1.68826         1.68826        -1.98682        -1.98682
             634         468.031         468.031         1.60554         1.60554        -1.80799        -1.80799
             635         468.135         468.135         1.51817         1.51817        -1.64112        -1.64112
             636         468.231         468.231         1.42859         1.42859        -1.48548        -1.48548
             637         468.318         468.318         1.33885         1.33885        -1.34040        -1.34040
             638         468.397         468.397         1.25059         1.25059        -1.20526        -1.20526
             639         468.467         468.467         1.16514         1.16514        -1.07943        -1.07943
             640         468.531         468.531         1.08356         1.08356    -962.289E-03    -962.289E-03
             641         468.587         468.587         1.00668         1.00668    -853.225E-03    -853.225E-03
             642         468.636         468.636     935.182E-03     935.182E-03    -751.606E-03    -751.606E-03
             643         468.679         468.679     869.555E-03     869.555E-03    -656.796E-03    -656.796E-03
             644         468.716         468.716     810.188E-03     810.188E-03    -568.146E-03    -568.146E-03
             645         468.748         468.748     757.369E-03     757.369E-03    -484.997E-03    -484.997E-03
             646         468.775         468.775     711.307E-03     711.307E-03    -406.682E-03    -406.682E-03
             647         468.797         468.797     672.154E-03     672.154E-03    -332.522E-03    -332.522E-03
             648         468.815         468.815     640.015E-03     640.015E-03    -261.837E-03    -261.837E-03
             649         468.829         468.829     614.961E-03     614.961E-03    -193.937E-03    -193.937E-03
             650         468.838         468.838     597.040E-03     597.040E-03    -128.132E-03    -128.132E-03
             651         468.844         468.844     586.264E-03     586.264E-03    -63.9002E-03    -63.9002E-03
             652         486.770         486.770        -13.5656        -13.5656        -1.95602        -1.95602
             653         483.408         483.408        -12.8446        -12.8446        -4.26830        -4.26830
             654         480.250         480.250        -11.4859        -11.4859        -5.83197        -5.83197
             655         477.442         477.442        -9.80668        -9.80668        -6.76516        -6.76516
             656         475.070         475.070        -8.05337        -8.05337        -7.20665        -7.20665
             657         473.142         473.142        -6.37807        -6.37807        -7.30298        -7.30298
             658         471.621         471.621        -4.86051        -4.86051        -7.17317        -7.17317
             659         470.452         470.452        -3.53337        -3.53337        -6.90715        -6.90715
             660         469.574         469.574        -2.40115        -2.40115        -6.56603        -6.56603
             661         468.932         468.932        -1.45422        -1.45422        -6.19000        -6.19000
             662         468.476         468.476    -675.711E-03    -675.711E-03        -5.80382        -5.80382
             663         468.165         468.165    -46.4316E-03    -46.4316E-03        -5.42215        -5.42215
             664         467.966         467.966     453.151E-03     453.151E-03        -5.05298        -5.05298
             665         467.851         467.851     841.476E-03     841.476E-03        -4.70026        -4.70026
             666         467.799         467.799         1.13549         1.13549        -4.36548        -4.36548
             667         467.794         467.794         1.35032         1.35032        -4.04881        -4.04881
             668         467.822         467.822         1.49937         1.49937        -3.74973        -3.74973
             669         467.872         467.872         1.59430         1.59430        -3.46744        -3.46744
             670         467.937         467.937         1.64520         1.64520        -3.20107        -3.20107
             671         468.010         468.010         1.66076         1.66076        -2.94978        -2.94978
             672         468.089         468.089         1.64837         1.64837        -2.71283        -2.71283
             673         468.168         468.168         1.61429         1.61429        -2.48957        -2.48957
             674         468.245         468.245         1.56382         1.56382        -2.27942        -2.27942
             675         468.320         468.320         1.50137         1.50137        -2.08186        -2.08186
             676         468.390         468.390         1.43062         1.43062        -1.89640        -1.89640
             677         468.456         468.456         1.35460         1.35460        -1.72256        -1.72256
             678         468.516         468.516         1.27582         1.27582        -1.55988        -1.55988
             679         468.571         468.571         1.19631         1.19631        -1.40786        -1.40786
             680         468.621         468.621         1.11771         1.11771        -1.26599        -1.26599
             681         468.666         468.666         1.04135         1.04135        -1.13373        -1.13373
             682         468.705         468.705     968.266E-03     968.266E-03        -1.01053        -1.01053
             683         468.740         468.740     899.285E-03     899.285E-03    -895.780E-03    -895.780E-03
             684         468.771         468.771     835.046E-03     835.046E-03    -788.861E-03    -788.861E-03
             685         468.798         468.798     776.039E-03     776.039E-03    -689.129E-03    -689.129E-03
             686         468.821         468.821     722.633E-03     722.633E-03    -595.915E-03    -595.915E-03
             687         468.840         468.840     675.101E-03     675.101E-03    -508.534E-03    -508.534E-03
             688         468.857         468.857     633.643E-03     633.643E-03    -426.283E-03    -426.283E-03
             689         468.870         468.870     598.399E-03     598.399E-03    -348.449E-03    -348.449E-03
             690         468.881         468.881     569.468E-03     569.468E-03    -274.310E-03    -274.310E-03
             691         468.889         468.889     546.914E-03     546.914E-03    -203.134E-03    -203.134E-03
             692         468.895         468.895     530.782E-03     530.782E-03    -134.186E-03    -134.186E-03
             693         468.898         468.898     521.079E-03     521.079E-03    -66.9150E-03    -66.9150E-03
             694         486.101         486.101        -10.9240        -10.9240     937.778E-03     937.778E-03
             695         483.648         483.648        -10.8834        -10.8834        -1.36452        -1.36452
             696         481.164         481.164        -10.1350        -10.1350        -3.11308        -3.11308
             697         478.824         478.824        -8.97725        -8.97725        -4.35616        -4.35616
             698         476.728         476.728        -7.62477        -7.62477        -5.16618        -5.16618
             699         474.929         474.929        -6.23670        -6.23670        -5.63161        -5.63161
             700         473.434         473.434        -4.91282        -4.91282        -5.84128        -5.84128
             701         472.222         472.222        -3.70923        -3.70923        -5.86952        -5.86952
             702         471.263         471.263        -2.65146        -2.65146        -5.77487        -5.77487
             703         470.517         470.517        -1.74568        -1.74568        -5.59980        -5.59980
             704         469.949         469.949    -986.841E-03    -986.841E-03        -5.37450        -5.37450
             705         469.524         469.524    -363.609E-03    -363.609E-03        -5.11951        -5.11951
             706         469.213         469.213     138.136E-03     138.136E-03        -4.84870        -4.84870
             707         468.993         468.993     533.488E-03     533.488E-03        -4.57122        -4.57122
             708         468.841         468.841     837.222E-03     837.222E-03        -4.29311        -4.29311
             709         468.743         468.743         1.06323         1.06323        -4.01833        -4.01833
             710         468.684         468.684         1.22415         1.22415        -3.74951        -3.74951
             711         468.655         468.655         1.33124         1.33124        -3.48842        -3.48842
             712         468.646         468.646         1.39438         1.39438        -3.23627        -3.23627
             713         468.652         468.652         1.42214         1.42214        -2.99389        -2.99389
             714         468.667         468.667         1.42185         1.42185        -2.76186        -2.76186
             715         468.688         468.688         1.39975         1.39975        -2.54058        -2.54058
             716         468.713         468.713         1.36108         1.36108        -2.33029        -2.33029
             717         468.739         468.739         1.31021         1.31021        -2.13111        -2.13111
             718         468.765         468.765         1.25080         1.25080        -1.94304        -1.94304
             719         468.790         468.790         1.18582         1.18582        -1.76598        -1.76598
             720         468.813         468.813         1.11773         1.11773        -1.59972        -1.59972
             721         468.834         468.834         1.04850         1.04850        -1.44400        -1.44400
             722         468.853         468.853     979.735E-03     979.735E-03        -1.29843        -1.29843
             723         468.870         468.870     912.699E-03     912.699E-03        -1.16259        -1.16259
             724         468.885         468.885     848.397E-03     848.397E-03        -1.03597        -1.03597
             725         468.898         468.898     787.611E-03     787.611E-03    -918.016E-03    -918.016E-03
             726         468.909         468.909     730.945E-03     730.945E-03    -808.132E-03    -808.132E-03
             727         468.918         468.918     678.860E-03     678.860E-03    -705.675E-03    -705.675E-03
             728         468.926         468.926     631.699E-03     631.699E-03    -609.970E-03    -609.970E-03
             729         468.933         468.933     589.717E-03     589.717E-03    -520.316E-03    -520.316E-03
             730         468.938         468.938     553.094E-03     553.094E-03    -435.994E-03    -435.994E-03
             731         468.942         468.942     521.960E-03     521.960E-03    -356.265E-03    -356.265E-03
             732         468.945         468.945     496.403E-03     496.403E-03    -280.379E-03    -280.379E-03
             733         468.948         468.948     476.480E-03     476.480E-03    -207.578E-03    -207.578E-03
             734         468.949         468.949     462.229E-03     462.229E-03    -137.096E-03    -137.096E-03
             735         468.950         468.950     453.658E-03     453.658E-03    -68.3669E-03    -68.3669E-03
             736         484.869         484.869        -8.51519        -8.51519         2.88968         2.88968
             737         483.200         483.200        -8.90632        -8.90632     794.684E-03     794.684E-03
             738         481.355         481.355        -8.61466        -8.61466    -957.254E-03    -957.254E-03
             739         479.502         479.502        -7.87724        -7.87724        -2.33452        -2.33452
             740         477.755         477.755        -6.88684        -6.88684        -3.35954        -3.35954
             741         476.179         476.179        -5.78708        -5.78708        -4.07682        -4.07682
             742         474.808         474.808        -4.68206        -4.68206        -4.54129        -4.54129
             743         473.648         473.648        -3.63804        -3.63804        -4.80786        -4.80786
             744         472.687         472.687        -2.69329        -2.69329        -4.92428        -4.92428
             745         471.905         471.905        -1.86565        -1.86565        -4.92979        -4.92979
             746         471.278         471.278        -1.15951        -1.15951        -4.85476        -4.85476
             747         470.782         470.782    -570.860E-03    -570.860E-03        -4.72238        -4.72238
             748         470.393         470.393    -90.8290E-03    -90.8290E-03        -4.54984        -4.54984
             749         470.091         470.091     291.861E-03     291.861E-03        -4.34998        -4.34998
             750         469.859         469.859     589.390E-03     589.390E-03        -4.13230        -4.13230
             751         469.681         469.681     813.813E-03     813.813E-03        -3.90393        -3.90393
             752         469.545         469.545     976.518E-03     976.518E-03        -3.67024        -3.67024
             753         469.441         469.441         1.08789         1.08789        -3.43531        -3.43531
             754         469.362         469.362         1.15719         1.15719        -3.20229        -3.20229
             755         469.302         469.302         1.19252         1.19252        -2.97361        -2.97361
             756         469.256         469.256         1.20085         1.20085        -2.75114        -2.75114
             757         469.219         469.219         1.18815         1.18815        -2.53630        -2.53630
             758         469.190         469.190         1.15942         1.15942        -2.33013        -2.33013
             759         469.167         469.167         1.11884         1.11884        -2.13340        -2.13340
             760         469.147         469.147         1.06989         1.06989        -1.94659        -1.94659
             761         469.130         469.130         1.01539         1.01539        -1.76997        -1.76997
             762         469.114         469.114     957.661E-03     957.661E-03        -1.60362        -1.60362
             763         469.101         469.101     898.570E-03     898.570E-03        -1.44748        -1.44748
             764         469.088         469.088     839.609E-03     839.609E-03        -1.30132        -1.30132
             765         469.076         469.076     781.960E-03     781.960E-03        -1.16482        -1.16482
             766         469.065         469.065     726.554E-03     726.554E-03        -1.03755        -1.03755
             767         469.055         469.055     674.111E-03     674.111E-03    -918.994E-03    -918.994E-03
             768         469.046         469.046     625.183E-03     625.183E-03    -808.592E-03    -808.592E-03
             769         469.037         469.037     580.189E-03     580.189E-03    -705.715E-03    -705.715E-03
             770         469.029         469.029     539.439E-03     539.439E-03    -609.692E-03    -609.692E-03
             771         469.022         469.022     503.159E-03     503.159E-03    -519.824E-03    -519.824E-03
             772         469.016         469.016     471.511E-03     471.511E-03    -435.382E-03    -435.382E-03
             773         469.010         469.010     444.607E-03     444.607E-03    -355.619E-03    -355.619E-03
             774         469.006         469.006     422.524E-03     422.524E-03    -279.773E-03    -279.773E-03
             775         469.002         469.002     405.311E-03     405.311E-03    -207.069E-03    -207.069E-03
             776         469.000         469.000     392.999E-03     392.999E-03    -136.732E-03    -136.732E-03
             777         468.998         468.998     385.595E-03     385.595E-03    -68.1869E-03    -68.1869E-03
             778         483.423         483.423        -6.46380        -6.46380         4.10232         4.10232
             779         482.372         482.372        -7.06682        -7.06682         2.29614         2.29614
             780         481.087         481.087        -7.07347        -7.07347     662.426E-03     662.426E-03
             781         479.701         479.701        -6.65390        -6.65390    -726.900E-03    -726.900E-03
             782         478.319         478.319        -5.96220        -5.96220        -1.84953        -1.84953
             783         477.014         477.014        -5.12517        -5.12517        -2.71634        -2.71634
             784         475.827         475.827        -4.23779        -4.23779        -3.35404        -3.35404
             785         474.780         474.780        -3.36785        -3.36785        -3.79674        -3.79674
             786         473.877         473.877        -2.55838        -2.55838        -4.07949        -4.07949
             787         473.112         473.112        -1.83393        -1.83393        -4.23422        -4.23422
             788         472.472         472.472        -1.20531        -1.20531        -4.28856        -4.28856
             789         471.940         471.940    -674.083E-03    -674.083E-03        -4.26531        -4.26531
             790         471.502         471.502    -235.930E-03    -235.930E-03        -4.18303        -4.18303
             791         471.141         471.141     116.905E-03     116.905E-03        -4.05656        -4.05656
             792         470.843         470.843     393.867E-03     393.867E-03        -3.89777        -3.89777
             793         470.597         470.597     604.960E-03     604.960E-03        -3.71610        -3.71610
             794         470.393         470.393     759.984E-03     759.984E-03        -3.51911        -3.51911
             795         470.222         470.222     868.121E-03     868.121E-03        -3.31280        -3.31280
             796         470.077         470.077     937.679E-03     937.679E-03        -3.10197        -3.10197
             797         469.953         469.953     976.009E-03     976.009E-03        -2.89043        -2.89043
             798         469.846         469.846     989.484E-03     989.484E-03        -2.68118        -2.68118
             799         469.752         469.752     983.555E-03     983.555E-03        -2.47655        -2.47655
             800         469.669         469.669     962.815E-03     962.815E-03        -2.27833        -2.27833
             801         469.595         469.595     931.102E-03     931.102E-03        -2.08783        -2.08783
             802         469.529         469.529     891.582E-03     891.582E-03        -1.90601        -1.90601
             803         469.469         469.469     846.847E-03     846.847E-03        -1.73345        -1.73345
             804         469.414         469.414     798.999E-03     798.999E-03        -1.57051        -1.57051
             805         469.365         469.365     749.727E-03     749.727E-03        -1.41729        -1.41729
             806         469.320         469.320     700.375E-03     700.375E-03        -1.27373        -1.27373
             807         469.278         469.278     652.006E-03     652.006E-03        -1.13959        -1.13959
             808         469.241         469.241     605.448E-03     605.448E-03        -1.01452        -1.01452
             809         469.207         469.207     561.338E-03     561.338E-03    -898.062E-03    -898.062E-03
             810         469.177         469.177     520.164E-03     520.164E-03    -789.681E-03    -789.681E-03
             811         469.150         469.150     482.291E-03     482.291E-03    -688.774E-03    -688.774E-03
             812         469.126         469.126     447.989E-03     447.989E-03    -594.689E-03    -594.689E-03
             813         469.105         469.105     417.451E-03     417.451E-03    -506.734E-03    -506.734E-03
             814         469.087         469.087     390.815E-03     390.815E-03    -424.188E-03    -424.188E-03
             815         469.072         469.072     368.176E-03     368.176E-03    -346.308E-03    -346.308E-03
             816         469.059         469.059     349.596E-03     349.596E-03    -272.334E-03    -272.334E-03
             817         469.050         469.050     335.115E-03     335.115E-03    -201.497E-03    -201.497E-03
             818         469.043         469.043     324.758E-03     324.758E-03    -133.020E-03    -133.020E-03
             819         469.039         469.039     318.532E-03     318.532E-03    -66.3395E-03    -66.3395E-03
             820         481.959         481.959        -4.78483        -4.78483         4.76404         4.76404
             821         481.384         481.384        -5.44188        -5.44188         3.25729         3.25729
             822         480.566         480.566        -5.61190        -5.61190         1.79885         1.79885
             823         479.603         479.603        -5.40942        -5.40942     478.786E-03     478.786E-03
             824         478.577         478.577        -4.94995        -4.94995    -656.392E-03    -656.392E-03
             825         477.555         477.555        -4.33557        -4.33557        -1.59060        -1.59060
             826         476.583         476.583        -3.64905        -3.64905        -2.32877        -2.32877
             827         475.687         475.687        -2.95173        -2.95173        -2.88720        -2.88720
             828         474.882         474.882        -2.28626        -2.28626        -3.28802        -3.28802
             829         474.171         474.171        -1.67903        -1.67903        -3.55499        -3.55499
             830         473.549         473.549        -1.14417        -1.14417        -3.71099        -3.71099
             831         473.010         473.010    -686.742E-03    -686.742E-03        -3.77682        -3.77682
             832         472.545         472.545    -305.773E-03    -305.773E-03        -3.77067        -3.77067
             833         472.142         472.142     3.56188E-03     3.56188E-03        -3.70811        -3.70811
             834         471.793         471.793     248.227E-03     248.227E-03        -3.60226        -3.60226
             835         471.489         471.489     436.145E-03     436.145E-03        -3.46406        -3.46406
             836         471.224         471.224     575.413E-03     575.413E-03        -3.30256        -3.30256
             837         470.989         470.989     673.791E-03     673.791E-03        -3.12518        -3.12518
             838         470.781         470.781     738.421E-03     738.421E-03        -2.93797        -2.93797
             839         470.596         470.596     775.677E-03     775.677E-03        -2.74581        -2.74581
             840         470.429         470.429     791.123E-03     791.123E-03        -2.55260        -2.55260
             841         470.278         470.278     789.528E-03     789.528E-03        -2.36139        -2.36139
             842         470.141         470.141     774.920E-03     774.920E-03        -2.17457        -2.17457
             843         470.017         470.017     750.657E-03     750.657E-03        -1.99390        -1.99390
             844         469.904         469.904     719.509E-03     719.509E-03        -1.82067        -1.82067
             845         469.800         469.800     683.735E-03     683.735E-03        -1.65577        -1.65577
             846         469.706         469.706     645.161E-03     645.161E-03        -1.49974        -1.49974
             847         469.620         469.620     605.250E-03     605.250E-03        -1.35285        -1.35285
             848         469.542         469.542     565.159E-03     565.159E-03        -1.21513        -1.21513
             849         469.471         469.471     525.799E-03     525.799E-03        -1.08645        -1.08645
             850         469.407         469.407     487.875E-03     487.875E-03    -966.521E-03    -966.521E-03
             851         469.350         469.350     451.928E-03     451.928E-03    -854.928E-03    -854.928E-03
             852         469.298         469.298     418.368E-03     418.368E-03    -751.174E-03    -751.174E-03
             853         469.253         469.253     387.500E-03     387.500E-03    -654.687E-03    -654.687E-03
             854         469.213         469.213     359.546E-03     359.546E-03    -564.840E-03    -564.840E-03
             855         469.178         469.178     334.666E-03     334.666E-03    -480.965E-03    -480.965E-03
             856         469.148         469.148     312.972E-03     312.972E-03    -402.359E-03    -402.359E-03
             857         469.123         469.123     294.537E-03     294.537E-03    -328.301E-03    -328.301E-03
             858         469.103         469.103     279.411E-03     279.411E-03    -258.050E-03    -258.050E-03
             859         469.088         469.088     267.624E-03     267.624E-03    -190.854E-03    -190.854E-03
             860         469.077         469.077     259.196E-03     259.196E-03    -125.959E-03    -125.959E-03
             861         469.070         469.070     254.130E-03     254.130E-03    -62.8241E-03    -62.8241E-03
             862         480.578         480.578        -3.44328        -3.44328         5.01469         5.01469
             863         480.377         480.377        -4.05163        -4.05163         3.78203         3.78203
             864         479.949         479.949        -4.28461        -4.28461         2.51723         2.51723
             865         479.357         479.357        -4.21471        -4.21471         1.31160         1.31160
             866         478.663         478.663        -3.92375        -3.92375     224.069E-03     224.069E-03
             867         477.921         477.921        -3.48956        -3.48956    -713.906E-03    -713.906E-03
             868         477.173         477.173        -2.97843        -2.97843        -1.49079        -1.49079
             869         476.446         476.446        -2.44255        -2.44255        -2.10928        -2.10928
             870         475.760         475.760        -1.91950        -1.91950        -2.58052        -2.58052
             871         475.125         475.125        -1.43430        -1.43430        -2.92042        -2.92042
             872         474.543         474.543        -1.00145        -1.00145        -3.14677        -3.14677
             873         474.014         474.014    -627.612E-03    -627.612E-03        -3.27739        -3.27739
             874         473.535         473.535    -313.804E-03    -313.804E-03        -3.32913        -3.32913
             875         473.103         473.103    -57.3618E-03    -57.3618E-03        -3.31724        -3.31724
             876         472.711         472.711     146.604E-03     146.604E-03        -3.25517        -3.25517
             877         472.356         472.356     304.108E-03     304.108E-03        -3.15454        -3.15454
             878         472.033         472.033     421.537E-03     421.537E-03        -3.02521        -3.02521
             879         471.738         471.738     505.156E-03     505.156E-03        -2.87546        -2.87546
             880         471.469         471.469     560.804E-03     560.804E-03        -2.71212        -2.71212
             881         471.223         471.223     593.740E-03     593.740E-03        -2.54074        -2.54074
             882         470.997         470.997     608.575E-03     608.575E-03        -2.36582        -2.36582
             883         470.789         470.789     609.270E-03     609.270E-03        -2.19089        -2.19089
             884         470.598         470.598     599.173E-03     599.173E-03        -2.01870        -2.01870
             885         470.424         470.424     581.072E-03     581.072E-03        -1.85133        -1.85133
             886         470.263         470.263     557.262E-03     557.262E-03        -1.69029        -1.69029
             887         470.116         470.116     529.608E-03     529.608E-03        -1.53666        -1.53666
             888         469.982         469.982     499.616E-03     499.616E-03        -1.39110        -1.39110
             889         469.860         469.860     468.483E-03     468.483E-03        -1.25399        -1.25399
             890         469.749         469.749     437.155E-03     437.155E-03        -1.12545        -1.12545
             891         469.649         469.649     406.370E-03     406.370E-03        -1.00540        -1.00540
             892         469.559         469.559     376.698E-03     376.698E-03    -893.604E-03    -893.604E-03
             893         469.478         469.478     348.573E-03     348.573E-03    -789.694E-03    -789.694E-03
             894         469.405         469.405     322.321E-03     322.321E-03    -693.211E-03    -693.211E-03
             895         469.342         469.342     298.183E-03     298.183E-03    -603.619E-03    -603.619E-03
             896         469.286         469.286     276.333E-03     276.333E-03    -520.327E-03    -520.327E-03
             897         469.238         469.238     256.894E-03     256.894E-03    -442.699E-03    -442.699E-03
             898         469.197         469.197     239.951E-03     239.951E-03    -370.072E-03    -370.072E-03
             899         469.163         469.163     225.559E-03     225.559E-03    -301.758E-03    -301.758E-03
             900         469.135         469.135     213.755E-03     213.755E-03    -237.055E-03    -237.055E-03
             901         469.114         469.114     204.558E-03     204.558E-03    -175.249E-03    -175.249E-03
             902         469.099         469.099     197.982E-03     197.982E-03    -115.622E-03    -115.622E-03
             903         469.090         469.090     194.032E-03     194.032E-03    -57.6792E-03    -57.6792E-03
             904         479.328         479.328        -2.38543        -2.38543         4.94228         4.94228
             905         479.438         479.438        -2.88742        -2.88742         3.94666         3.94666
             906         479.345         479.345        -3.11575        -3.11575         2.87316         2.87316
             907         479.084         479.084        -3.11466        -3.11466         1.80637         1.80637
             908         478.696         478.696        -2.93908        -2.93908     807.425E-03     807.425E-03
             909         478.220         478.220        -2.64475        -2.64475    -84.2085E-03    -84.2085E-03
             910         477.691         477.691        -2.28157        -2.28157    -847.652E-03    -847.652E-03
             911         477.137         477.137        -1.89012        -1.89012        -1.47590        -1.47590
             912         476.576         476.576        -1.50101        -1.50101        -1.97203        -1.97203
             913         476.024         476.024        -1.13516        -1.13516        -2.34548        -2.34548
             914         475.490         475.490    -805.570E-03    -805.570E-03        -2.60935        -2.60935
             915         474.979         474.979    -518.751E-03    -518.751E-03        -2.77835        -2.77835
             916         474.493         474.493    -276.613E-03    -276.613E-03        -2.86740        -2.86740
             917         474.035         474.035    -77.8512E-03    -77.8512E-03        -2.89073        -2.89073
             918         473.603         473.603     80.8081E-03     80.8081E-03        -2.86135        -2.86135
             919         473.199         473.199     203.720E-03     203.720E-03        -2.79082        -2.79082
             920         472.820         472.820     295.664E-03     295.664E-03        -2.68915        -2.68915
             921         472.465         472.465     361.417E-03     361.417E-03        -2.56484        -2.56484
             922         472.135         472.135     405.479E-03     405.479E-03        -2.42499        -2.42499
             923         471.827         471.827     431.927E-03     431.927E-03        -2.27542        -2.27542
             924         471.542         471.542     444.346E-03     444.346E-03        -2.12082        -2.12082
             925         471.277         471.277     445.821E-03     445.821E-03        -1.96491        -1.96491
             926         471.032         471.032     438.957E-03     438.957E-03        -1.81059        -1.81059
             927         470.807         470.807     425.918E-03     425.918E-03        -1.66004        -1.66004
             928         470.599         470.599     408.484E-03     408.484E-03        -1.51488        -1.51488
             929         470.409         470.409     388.096E-03     388.096E-03        -1.37622        -1.37622
             930         470.236         470.236     365.912E-03     365.912E-03        -1.24480        -1.24480
             931         470.078         470.078     342.849E-03     342.849E-03        -1.12103        -1.12103
             932         469.935         469.935     319.629E-03     319.629E-03        -1.00507        -1.00507
             933         469.806         469.806     296.811E-03     296.811E-03    -896.883E-03    -896.883E-03
             934         469.690         469.690     274.826E-03     274.826E-03    -796.262E-03    -796.262E-03
             935         469.586         469.586     253.996E-03     253.996E-03    -702.882E-03    -702.882E-03
             936         469.494         469.494     234.566E-03     234.566E-03    -616.323E-03    -616.323E-03
             937         469.413         469.413     216.712E-03     216.712E-03    -536.094E-03    -536.094E-03
             938         469.342         469.342     200.561E-03     200.561E-03    -461.650E-03    -461.650E-03
             939         469.281         469.281     186.201E-03     186.201E-03    -392.405E-03    -392.405E-03
             940         469.229         469.229     173.693E-03     173.693E-03    -327.747E-03    -327.747E-03
             941         469.186         469.186     163.073E-03     163.073E-03    -267.045E-03    -267.045E-03
             942         469.151         469.151     154.365E-03     154.365E-03    -209.651E-03    -209.651E-03
             943         469.125         469.125     147.583E-03     147.583E-03    -154.912E-03    -154.912E-03
             944         469.106         469.106     142.734E-03     142.734E-03    -102.168E-03    -102.168E-03
             945         469.095         469.095     139.823E-03     139.823E-03    -50.9831E-03    -50.9831E-03
             946         478.235         478.235        -1.55948        -1.55948         4.58806         4.58806
             947         478.632         478.632        -1.92977        -1.92977         3.79526         3.79526
             948         478.845         478.845        -2.11440        -2.11440         2.90543         2.90543
             949         478.888         478.888        -2.13894        -2.13894         1.99241         1.99241
             950         478.782         478.782        -2.03831        -2.03831         1.11371         1.11371
             951         478.555         478.555        -1.84971        -1.84971     309.886E-03     309.886E-03
             952         478.233         478.233        -1.60764        -1.60764    -393.971E-03    -393.971E-03
             953         477.840         477.840        -1.34112        -1.34112    -985.859E-03    -985.859E-03
             954         477.399         477.399        -1.07244        -1.07244        -1.46360        -1.46360
             955         476.926         476.926    -817.420E-03    -817.420E-03        -1.83209        -1.83209
             956         476.435         476.435    -586.052E-03    -586.052E-03        -2.10066        -2.10066
             957         475.937         475.937    -383.725E-03    -383.725E-03        -2.28110        -2.28110
             958         475.441         475.441    -212.301E-03    -212.301E-03        -2.38619        -2.38619
             959         474.953         474.953    -71.2449E-03    -71.2449E-03        -2.42860        -2.42860
             960         474.478         474.478     41.5434E-03     41.5434E-03        -2.42028        -2.42028
             961         474.021         474.021     129.021E-03     129.021E-03        -2.37201        -2.37201
             962         473.583         473.583     194.524E-03     194.524E-03        -2.29328        -2.29328
             963         473.166         473.166     241.424E-03     241.424E-03        -2.19219        -2.19219
             964         472.772         472.772     272.922E-03     272.922E-03        -2.07555        -2.07555
             965         472.402         472.402     291.925E-03     291.925E-03        -1.94896        -1.94896
             966         472.056         472.056     300.994E-03     300.994E-03        -1.81694        -1.81694
             967         471.733         471.733     302.332E-03     302.332E-03        -1.68306        -1.68306
             968         471.434         471.434     297.793E-03     297.793E-03        -1.55011        -1.55011
             969         471.158         471.158     288.920E-03     288.920E-03        -1.42016        -1.42016
             970         470.904         470.904     276.971E-03     276.971E-03        -1.29476        -1.29476
             971         470.671         470.671     262.965E-03     262.965E-03        -1.17498        -1.17498
             972         470.459         470.459     247.716E-03     247.716E-03        -1.06152        -1.06152
             973         470.266         470.266     231.867E-03     231.867E-03    -954.772E-03    -954.772E-03
             974         470.092         470.092     215.920E-03     215.920E-03    -854.892E-03    -854.892E-03
             975         469.935         469.935     200.263E-03     200.263E-03    -761.852E-03    -761.852E-03
             976         469.795         469.795     185.190E-03     185.190E-03    -675.475E-03    -675.475E-03
             977         469.670         469.670     170.924E-03     170.924E-03    -595.471E-03    -595.471E-03
             978         469.559         469.559     157.630E-03     157.630E-03    -521.467E-03    -521.467E-03
             979         469.462         469.462     145.424E-03     145.424E-03    -453.024E-03    -453.024E-03
             980         469.377         469.377     134.393E-03     134.393E-03    -389.659E-03    -389.659E-03
             981         469.304         469.304     124.593E-03     124.593E-03    -330.854E-03    -330.854E-03
             982         469.242         469.242     116.062E-03     116.062E-03    -276.067E-03    -276.067E-03
             983         469.191         469.191     108.826E-03     108.826E-03    -224.742E-03    -224.742E-03
             984         469.150         469.150     102.894E-03     102.894E-03    -176.314E-03    -176.314E-03
             985         469.118         469.118     98.2736E-03     98.2736E-03    -130.205E-03    -130.205E-03
             986         469.096         469.096     94.9692E-03     94.9692E-03    -85.8382E-03    -85.8382E-03
             987         469.083         469.083     92.9865E-03     92.9865E-03    -42.8608E-03    -42.8608E-03
             988         477.319         477.319    -924.697E-03    -924.697E-03         3.95347         3.95347
             989         478.014         478.014        -1.16241        -1.16241         3.34078         3.34078
             990         478.530         478.530        -1.28693        -1.28693         2.63271         2.63271
             991         478.864         478.864        -1.31220        -1.31220         1.89005         1.89005
             992         479.024         479.024        -1.25846        -1.25846         1.16223         1.16223
             993         479.025         479.025        -1.14811        -1.14811     486.044E-03     486.044E-03
             994         478.890         478.890        -1.00244        -1.00244    -114.268E-03    -114.268E-03
             995         478.640         478.640    -839.682E-03    -839.682E-03    -625.416E-03    -625.416E-03
             996         478.298         478.298    -674.160E-03    -674.160E-03        -1.04304        -1.04304
             997         477.885         477.885    -516.106E-03    -516.106E-03        -1.36927        -1.36927
             998         477.421         477.421    -372.167E-03    -372.167E-03        -1.61071        -1.61071
             999         476.921         476.921    -245.967E-03    -245.967E-03        -1.77656        -1.77656
            1000         476.401         476.401    -138.900E-03    -138.900E-03        -1.87729        -1.87729
            1001         475.872         475.872    -50.7420E-03    -50.7420E-03        -1.92356        -1.92356
            1002         475.344         475.344     19.7422E-03     19.7422E-03        -1.92557        -1.92557
            1003         474.825         474.825     74.3799E-03     74.3799E-03        -1.89266        -1.89266
            1004         474.321         474.321     115.253E-03     115.253E-03        -1.83307        -1.83307
            1005         473.836         473.836     144.483E-03     144.483E-03        -1.75388        -1.75388
            1006         473.375         473.375     164.087E-03     164.087E-03        -1.66103        -1.66103
            1007         472.939         472.939     175.899E-03     175.899E-03        -1.55941        -1.55941
            1008         472.529         472.529     181.532E-03     181.532E-03        -1.45294        -1.45294
            1009         472.148         472.148     182.370E-03     182.370E-03        -1.34473        -1.34473
            1010         471.794         471.794     179.579E-03     179.579E-03        -1.23716        -1.23716
            1011         471.467         471.467     174.122E-03     174.122E-03        -1.13205        -1.13205
            1012         471.167         471.167     166.782E-03     166.782E-03        -1.03068        -1.03068
            1013         470.893         470.893     158.193E-03     158.193E-03    -933.970E-03    -933.970E-03
            1014         470.644         470.644     148.857E-03     148.857E-03    -842.501E-03    -842.501E-03
            1015         470.418         470.418     139.169E-03     139.169E-03    -756.598E-03    -756.598E-03
            1016         470.215         470.215     129.436E-03     129.436E-03    -676.384E-03    -676.384E-03
            1017         470.032         470.032     119.894E-03     119.894E-03    -601.824E-03    -601.824E-03
            1018         469.869         469.869     110.721E-03     110.721E-03    -532.760E-03    -532.760E-03
            1019         469.724         469.724     102.051E-03     102.051E-03    -468.945E-03    -468.945E-03
            1020         469.596         469.596     93.9807E-03     93.9807E-03    -410.062E-03    -410.062E-03
            1021         469.484         469.484     86.5799E-03     86.5799E-03    -355.742E-03    -355.742E-03
            1022         469.387         469.387     79.8976E-03     79.8976E-03    -305.580E-03    -305.580E-03
            1023         469.304         469.304     73.9665E-03     73.9665E-03    -259.147E-03    -259.147E-03
            1024         469.233         469.233     68.8081E-03     68.8081E-03    -215.997E-03    -215.997E-03
            1025         469.175         469.175     64.4349E-03     64.4349E-03    -175.669E-03    -175.669E-03
            1026         469.128         469.128     60.8558E-03     60.8558E-03    -137.700E-03    -137.700E-03
            1027         469.092         469.092     58.0676E-03     58.0676E-03    -101.627E-03    -101.627E-03
            1028         469.067         469.067     56.0642E-03     56.0642E-03    -66.9731E-03    -66.9731E-03
            1029         469.052         469.052     54.8621E-03     54.8621E-03    -33.4773E-03    -33.4773E-03
            1030         476.617         476.617    -458.228E-03    -458.228E-03         3.00349         3.00349
            1031         477.650         477.650    -581.662E-03    -581.662E-03         2.56733         2.56733
            1032         478.489         478.489    -647.946E-03    -647.946E-03         2.05439         2.05439
            1033         479.117         479.117    -663.656E-03    -663.656E-03         1.50995         1.50995
            1034         479.530         479.530    -638.735E-03    -638.735E-03     971.431E-03     971.431E-03
            1035         479.738         479.738    -584.369E-03    -584.369E-03     467.349E-03     467.349E-03
            1036         479.761         479.761    -511.398E-03    -511.398E-03     17.0983E-03     17.0983E-03
            1037         479.621         479.621    -429.226E-03    -429.226E-03    -368.265E-03    -368.265E-03
            1038         479.346         479.346    -345.260E-03    -345.260E-03    -684.501E-03    -684.501E-03
            1039         478.961         478.961    -264.884E-03    -264.884E-03    -932.594E-03    -932.594E-03
            1040         478.493         478.493    -191.570E-03    -191.570E-03        -1.11707        -1.11707
            1041         477.964         477.964    -127.266E-03    -127.266E-03        -1.24466        -1.24466
            1042         477.396         477.396    -72.7139E-03    -72.7139E-03        -1.32316        -1.32316
            1043         476.805         476.805    -27.8316E-03    -27.8316E-03        -1.36060        -1.36060
            1044         476.206         476.206     8.01295E-03     8.01295E-03        -1.36472        -1.36472
            1045         475.611         475.611     35.7547E-03     35.7547E-03        -1.34261        -1.34261
            1046         475.029         475.029     56.4678E-03     56.4678E-03        -1.30053        -1.30053
            1047         474.468         474.468     71.2459E-03     71.2459E-03        -1.24385        -1.24385
            1048         473.933         473.933     81.1279E-03     81.1279E-03        -1.17706        -1.17706
            1049         473.427         473.427     87.0576E-03     87.0576E-03        -1.10384        -1.10384
            1050         472.952         472.952     89.8624E-03     89.8624E-03        -1.02713        -1.02713
            1051         472.510         472.510     90.2512E-03     90.2512E-03    -949.226E-03    -949.226E-03
            1052         472.101         472.101     88.8175E-03     88.8175E-03    -871.908E-03    -871.908E-03
            1053         471.725         471.725     86.0511E-03     86.0511E-03    -796.488E-03    -796.488E-03
            1054         471.380         471.380     82.3493E-03     82.3493E-03    -723.912E-03    -723.912E-03
            1055         471.067         471.067     78.0311E-03     78.0311E-03    -654.826E-03    -654.826E-03
            1056         470.782         470.782     73.3489E-03     73.3489E-03    -589.640E-03    -589.640E-03
            1057         470.526         470.526     68.5003E-03     68.5003E-03    -528.571E-03    -528.571E-03
            1058         470.295         470.295     63.6380E-03     63.6380E-03    -471.691E-03    -471.691E-03
            1059         470.089         470.089     58.8788E-03     58.8788E-03    -418.957E-03    -418.957E-03
            1060         469.906         469.906     54.3104E-03     54.3104E-03    -370.241E-03    -370.241E-03
            1061         469.744         469.744     49.9977E-03     49.9977E-03    -325.349E-03    -325.349E-03
            1062         469.601         469.601     45.9882E-03     45.9882E-03    -284.040E-03    -284.040E-03
            1063         469.477         469.477     42.3151E-03     42.3151E-03    -246.037E-03    -246.037E-03
            1064         469.369         469.369     39.0018E-03     39.0018E-03    -211.042E-03    -211.042E-03
            1065         469.277         469.277     36.0633E-03     36.0633E-03    -178.739E-03    -178.739E-03
            1066         469.199         469.199     33.5098E-03     33.5098E-03    -148.799E-03    -148.799E-03
            1067         469.135         469.135     31.3465E-03     31.3465E-03    -120.891E-03    -120.891E-03
            1068         469.084         469.084     29.5771E-03     29.5771E-03    -94.6754E-03    -94.6754E-03
            1069         469.045         469.045     28.2075E-03     28.2075E-03    -69.8169E-03    -69.8169E-03
            1070         469.017         469.017     27.2174E-03     27.2174E-03    -45.9933E-03    -45.9933E-03
            1071         469.001         469.001     26.6015E-03     26.6015E-03    -23.0656E-03    -23.0656E-03
            1072         476.189         476.189    -161.029E-03    -161.029E-03         1.67660         1.67660
            1073         477.633         477.633    -205.485E-03    -205.485E-03         1.43990         1.43990
            1074         478.836         478.836    -229.605E-03    -229.605E-03         1.15951         1.15951
            1075         479.768         479.768    -235.729E-03    -235.729E-03     860.753E-03     860.753E-03
            1076         480.422         480.422    -227.282E-03    -227.282E-03     564.483E-03     564.483E-03
            1077         480.808         480.808    -208.212E-03    -208.212E-03     286.689E-03     286.689E-03
            1078         480.947         480.947    -182.417E-03    -182.417E-03     38.3269E-03     38.3269E-03
            1079         480.871         480.871    -153.250E-03    -153.250E-03    -174.277E-03    -174.277E-03
            1080         480.613         480.613    -123.405E-03    -123.405E-03    -348.692E-03    -348.692E-03
            1081         480.208         480.208    -94.8051E-03    -94.8051E-03    -485.390E-03    -485.390E-03
            1082         479.691         479.691    -68.7227E-03    -68.7227E-03    -586.910E-03    -586.910E-03
            1083         479.093         479.093    -45.8508E-03    -45.8508E-03    -656.997E-03    -656.997E-03
            1084         478.441         478.441    -26.4637E-03    -26.4637E-03    -700.026E-03    -700.026E-03
            1085         477.758         477.758    -10.5285E-03    -10.5285E-03    -720.491E-03    -720.491E-03
            1086         477.064         477.064     2.18258E-03     2.18258E-03    -722.719E-03    -722.719E-03
            1087         476.375         476.375     12.0064E-03     12.0064E-03    -710.655E-03    -710.655E-03
            1088         475.701         475.701     19.3311E-03     19.3311E-03    -687.776E-03    -687.776E-03
            1089         475.053         475.053     24.5483E-03     24.5483E-03    -657.048E-03    -657.048E-03
            1090         474.436         474.436     28.0318E-03     28.0318E-03    -620.939E-03    -620.939E-03
            1091         473.854         473.854     30.1181E-03     30.1181E-03    -581.460E-03    -581.460E-03
            1092         473.311         473.311     31.1032E-03     31.1032E-03    -540.210E-03    -540.210E-03
            1093         472.808         472.808     31.2386E-03     31.2386E-03    -498.434E-03    -498.434E-03
            1094         472.344         472.344     30.7352E-03     30.7352E-03    -457.079E-03    -457.079E-03
            1095         471.920         471.920     29.7660E-03     29.7660E-03    -416.842E-03    -416.842E-03
            1096         471.533         471.533     28.4712E-03     28.4712E-03    -378.222E-03    -378.222E-03
            1097         471.182         471.182     26.9628E-03     26.9628E-03    -341.551E-03    -341.551E-03
            1098         470.866         470.866     25.3294E-03     25.3294E-03    -307.036E-03    -307.036E-03
            1099         470.582         470.582     23.6398E-03     23.6398E-03    -274.781E-03    -274.781E-03
            1100         470.328         470.328     21.9473E-03     21.9473E-03    -244.812E-03    -244.812E-03
            1101         470.102         470.102     20.2923E-03     20.2923E-03    -217.095E-03    -217.095E-03
            1102         469.901         469.901     18.7049E-03     18.7049E-03    -191.553E-03    -191.553E-03
            1103         469.725         469.725     17.2077E-03     17.2077E-03    -168.074E-03    -168.074E-03
            1104         469.570         469.570     15.8167E-03     15.8167E-03    -146.522E-03    -146.522E-03
            1105         469.436         469.436     14.5434E-03     14.5434E-03    -126.744E-03    -126.744E-03
            1106         469.320         469.320     13.3952E-03     13.3952E-03    -108.578E-03    -108.578E-03
            1107         469.221         469.221     12.3779E-03     12.3779E-03    -91.8491E-03    -91.8491E-03
            1108         469.139         469.139     11.4935E-03     11.4935E-03    -76.3824E-03    -76.3824E-03
            1109         469.070         469.070     10.7459E-03     10.7459E-03    -61.9975E-03    -61.9975E-03
            1110         469.016         469.016     10.1332E-03     10.1332E-03    -48.5143E-03    -48.5143E-03
            1111         468.974         468.974     9.66289E-03     9.66289E-03    -35.7471E-03    -35.7471E-03
            1112         468.945         468.945     9.33627E-03     9.33627E-03    -23.5237E-03    -23.5237E-03
            1113         468.927         468.927     9.09955E-03     9.09955E-03    -11.8864E-03    -11.8864E-03
            1114         477.981         477.981        -19.5460        -19.5460         18.4964         18.4964
            1115         472.166         472.166        -15.2287        -15.2287         18.0113         18.0113
            1116         468.163         468.163        -11.4224        -11.4224         16.6119         16.6119
            1117         465.565         465.565        -8.29008        -8.29008         14.8683         14.8683
            1118         463.977         463.977        -5.79855        -5.79855         13.0997         13.0997
            1119         463.082         463.082        -3.83802        -3.83802         11.4579         11.4579
            1120         462.653         462.653        -2.30164        -2.30164         10.0012         10.0012
            1121         462.531         462.531        -1.09749        -1.09749         8.73969         8.73969
            1122         462.610         462.610    -154.896E-03    -154.896E-03         7.66095         7.66095
            1123         462.817         462.817     580.869E-03     580.869E-03         6.74395         6.74395
            1124         463.103         463.103         1.15105         1.15105         5.96538         5.96538
            1125         463.435         463.435         1.58752         1.58752         5.30308         5.30308
            1126         463.791         463.791         1.91493         1.91493         4.73721         4.73721
            1127         464.156         464.156         2.15285         2.15285         4.25078         4.25078
            1128         464.520         464.520         2.31706         2.31706         3.82953         3.82953
            1129         464.876         464.876         2.42047         2.42047         3.46175         3.46175
            1130         465.219         465.219         2.47388         2.47388         3.13791         3.13791
            1131         465.547         465.547         2.48637         2.48637         2.85034         2.85034
            1132         465.857         465.857         2.46567         2.46567         2.59293         2.59293
            1133         466.149         466.149         2.41840         2.41840         2.36080         2.36080
            1134         466.421         466.421         2.35026         2.35026         2.15012         2.15012
            1135         466.674         466.674         2.26611         2.26611         1.95784         1.95784
            1136         466.908         466.908         2.17017         2.17017         1.78157         1.78157
            1137         467.124         467.124         2.06600         2.06600         1.61939         1.61939
            1138         467.322         467.322         1.95669         1.95669         1.46976         1.46976
            1139         467.503         467.503         1.84480         1.84480         1.33144         1.33144
            1140         467.668         467.668         1.73254         1.73254         1.20338         1.20338
            1141         467.817         467.817         1.62172         1.62172         1.08470         1.08470
            1142         467.951         467.951         1.51386         1.51386     974.633E-03     974.633E-03
            1143         468.072         468.072         1.41020         1.41020     872.484E-03     872.484E-03
            1144         468.181         468.181         1.31176         1.31176     777.615E-03     777.615E-03
            1145         468.277         468.277         1.21936         1.21936     689.424E-03     689.424E-03
            1146         468.362         468.362         1.13363         1.13363     607.334E-03     607.334E-03
            1147         468.437         468.437         1.05510         1.05510     530.780E-03     530.780E-03
            1148         468.502         468.502     984.155E-03     984.155E-03     459.209E-03     459.209E-03
            1149         468.558         468.558     921.092E-03     921.092E-03     392.068E-03     392.068E-03
            1150         468.605         468.605     866.135E-03     866.135E-03     328.809E-03     328.809E-03
            1151         468.644         468.644     819.447E-03     819.447E-03     268.883E-03     268.883E-03
            1152         468.675         468.675     781.146E-03     781.146E-03     211.741E-03     211.741E-03
            1153         468.699         468.699     751.313E-03     751.313E-03     156.832E-03     156.832E-03
            1154         468.716         468.716     730.003E-03     730.003E-03     103.607E-03     103.607E-03
            1155         468.727         468.727     717.226E-03     717.226E-03     51.6456E-03     51.6456E-03
            1156         466.430         466.430        -17.9021        -17.9021         25.9634         25.9634
            1157         461.681         461.681        -12.5665        -12.5665         22.7292         22.7292
            1158         459.185         459.185        -8.53947        -8.53947         19.3803         19.3803
            1159         458.092         458.092        -5.57741        -5.57741         16.3363         16.3363
            1160         457.832         457.832        -3.39775        -3.39775         13.7346         13.7346
            1161         458.045         458.045        -1.78071        -1.78071         11.5716         11.5716
            1162         458.517         458.517    -565.818E-03    -565.818E-03         9.79553         9.79553
            1163         459.120         459.120     355.411E-03     355.411E-03         8.34371         8.34371
            1164         459.779         459.779         1.05850         1.05850         7.15709         7.15709
            1165         460.451         460.451         1.59506         1.59506         6.18442         6.18442
            1166         461.111         461.111         2.00178         2.00178         5.38338         5.38338
            1167         461.745         461.745         2.30493         2.30493         4.71951         4.71951
            1168         462.347         462.347         2.52412         2.52412         4.16521         4.16521
            1169         462.914         462.914         2.67430         2.67430         3.69843         3.69843
            1170         463.444         463.444         2.76736         2.76736         3.30174         3.30174
            1171         463.938         463.938         2.81295         2.81295         2.96129         2.96129
            1172         464.397         464.397         2.81917         2.81917         2.66622         2.66622
            1173         464.823         464.823         2.79290         2.79290         2.40794         2.40794
            1174         465.217         465.217         2.74011         2.74011         2.17976         2.17976
            1175         465.581         465.581         2.66600         2.66600         1.97638         1.97638
            1176         465.917         465.917         2.57514         2.57514         1.79371         1.79371
            1177         466.225         466.225         2.47152         2.47152         1.62850         1.62850
            1178         466.508         466.508         2.35866         2.35866         1.47822         1.47822
            1179         466.767         466.767         2.23961         2.23961         1.34088         1.34088
            1180         467.003         467.003         2.11703         2.11703         1.21489         1.21489
            1181         467.219         467.219         1.99321         1.99321         1.09897         1.09897
            1182         467.414         467.414         1.87012         1.87012     992.081E-03     992.081E-03
            1183         467.591         467.591         1.74940         1.74940     893.341E-03     893.341E-03
            1184         467.751         467.751         1.63247         1.63247     802.009E-03     802.009E-03
            1185         467.894         467.894         1.52048         1.52048     717.432E-03     717.432E-03
            1186         468.022         468.022         1.41440         1.41440     639.023E-03     639.023E-03
            1187         468.136         468.136         1.31500         1.31500     566.238E-03     566.238E-03
            1188         468.237         468.237         1.22291         1.22291     498.569E-03     498.569E-03
            1189         468.326         468.326         1.13862         1.13862     435.526E-03     435.526E-03
            1190         468.403         468.403         1.06252         1.06252     376.634E-03     376.634E-03
            1191         468.469         468.469     994.917E-03     994.917E-03     321.430E-03     321.430E-03
            1192         468.525         468.525     936.022E-03     936.022E-03     269.452E-03     269.452E-03
            1193         468.572         468.572     886.006E-03     886.006E-03     220.247E-03     220.247E-03
            1194         468.609         468.609     844.989E-03     844.989E-03     173.361E-03     173.361E-03
            1195         468.638         468.638     813.056E-03     813.056E-03     128.343E-03     128.343E-03
            1196         468.658         468.658     790.267E-03     790.267E-03     84.7428E-03     84.7428E-03
            1197         468.670         468.670     776.637E-03     776.637E-03     42.2188E-03     42.2188E-03
            1198         448.771         448.771        -12.2740        -12.2740         30.6406         30.6406
            1199         447.758         447.758        -7.33118        -7.33118         24.5225         24.5225
            1200         448.402         448.402        -4.09877        -4.09877         19.5700         19.5700
            1201         449.761         449.761        -1.95345        -1.95345         15.6987         15.6987
            1202         451.358         451.358    -486.736E-03    -486.736E-03         12.7020         12.7020
            1203         452.970         452.970     548.951E-03     548.951E-03         10.3802         10.3802
            1204         454.497         454.497         1.29934         1.29934         8.57078         8.57078
            1205         455.901         455.901         1.85449         1.85449         7.15049         7.15049
            1206         457.173         457.173         2.26949         2.26949         6.02631         6.02631
            1207         458.319         458.319         2.57980         2.57980         5.12896         5.12896
            1208         459.349         459.349         2.80842         2.80842         4.40616         4.40616
            1209         460.274         460.274         2.97119         2.97119         3.81855         3.81855
            1210         461.108         461.108         3.07938         3.07938         3.33614         3.33614
            1211         461.860         461.860         3.14157         3.14157         2.93608         2.93608
            1212         462.541         462.541         3.16459         3.16459         2.60078         2.60078
            1213         463.158         463.158         3.15419         3.15419         2.31671         2.31671
            1214         463.720         463.720         3.11538         3.11538         2.07342         2.07342
            1215         464.231         464.231         3.05266         3.05266         1.86281         1.86281
            1216         464.697         464.697         2.97009         2.97009         1.67862         1.67862
            1217         465.123         465.123         2.87142         2.87142         1.51597         1.51597
            1218         465.511         465.511         2.76007         2.76007         1.37110         1.37110
            1219         465.865         465.865         2.63913         2.63913         1.24106         1.24106
            1220         466.188         466.188         2.51144         2.51144         1.12356         1.12356
            1221         466.482         466.482         2.37952         2.37952         1.01681         1.01681
            1222         466.750         466.750         2.24563         2.24563     919.381E-03     919.381E-03
            1223         466.993         466.993         2.11176         2.11176     830.138E-03     830.138E-03
            1224         467.213         467.213         1.97964         1.97964     748.163E-03     748.163E-03
            1225         467.412         467.412         1.85077         1.85077     672.695E-03     672.695E-03
            1226         467.591         467.591         1.72642         1.72642     603.096E-03     603.096E-03
            1227         467.752         467.752         1.60767         1.60767     538.811E-03     538.811E-03
            1228         467.896         467.896         1.49541         1.49541     479.351E-03     479.351E-03
            1229         468.025         468.025         1.39040         1.39040     424.271E-03     424.271E-03
            1230         468.138         468.138         1.29321         1.29321     373.159E-03     373.159E-03
            1231         468.237         468.237         1.20433         1.20433     325.626E-03     325.626E-03
            1232         468.324         468.324         1.12414         1.12414     281.299E-03     281.299E-03
            1233         468.399         468.399         1.05293         1.05293     239.816E-03     239.816E-03
            1234         468.462         468.462     990.909E-03     990.909E-03     200.825E-03     200.825E-03
            1235         468.514         468.514     938.251E-03     938.251E-03     163.978E-03     163.978E-03
            1236         468.557         468.557     895.075E-03     895.075E-03     128.932E-03     128.932E-03
            1237         468.589         468.589     861.467E-03     861.467E-03     95.3476E-03     95.3476E-03
            1238         468.612         468.612     837.488E-03     837.488E-03     62.8894E-03     62.8894E-03
            1239         468.625         468.625     823.153E-03     823.153E-03     31.3029E-03     31.3029E-03
            1240         427.584         427.584        -3.39657        -3.39657         28.6251         28.6251
            1241         432.821         432.821    -611.235E-03    -611.235E-03         21.2686         21.2686
            1242         437.728         437.728     907.083E-03     907.083E-03         16.1026         16.1026
            1243         441.981         441.981         1.78876         1.78876         12.4278         12.4278
            1244         445.574         445.574         2.33950         2.33950         9.76182         9.76182
            1245         448.589         448.589         2.70649         2.70649         7.79025         7.79025
            1246         451.123         451.123         2.96536         2.96536         6.30830         6.30830
            1247         453.261         453.261         3.15471         3.15471         5.17708         5.17708
            1248         455.078         455.078         3.29500         3.29500         4.30209         4.30209
            1249         456.634         456.634         3.39685         3.39685         3.61659         3.61659
            1250         457.976         457.976         3.46605         3.46605         3.07329         3.07329
            1251         459.143         459.143         3.50595         3.50595         2.63766         2.63766
            1252         460.165         460.165         3.51883         3.51883         2.28445         2.28445
            1253         461.067         461.067         3.50662         3.50662         1.99476         1.99476
            1254         461.867         461.867         3.47121         3.47121         1.75445         1.75445
            1255         462.582         462.582         3.41465         3.41465         1.55279         1.55279
            1256         463.223         463.223         3.33911         3.33911         1.38162         1.38162
            1257         463.799         463.799         3.24694         3.24694         1.23469         1.23469
            1258         464.320         464.320         3.14056         3.14056         1.10721         1.10721
            1259         464.792         464.792         3.02244         3.02244     995.477E-03     995.477E-03
            1260         465.220         465.220         2.89500         2.89500     896.649E-03     896.649E-03
            1261         465.608         465.608         2.76061         2.76061     808.519E-03     808.519E-03
            1262         465.960         465.960         2.62151         2.62151     729.371E-03     729.371E-03
            1263         466.280         466.280         2.47979         2.47979     657.865E-03     657.865E-03
            1264         466.570         466.570         2.33737         2.33737     592.944E-03     592.944E-03
            1265         466.834         466.834         2.19598         2.19598     533.769E-03     533.769E-03
            1266         467.071         467.071         2.05717         2.05717     479.662E-03     479.662E-03
            1267         467.286         467.286         1.92229         1.92229     430.064E-03     430.064E-03
            1268         467.480         467.480         1.79252         1.79252     384.511E-03     384.511E-03
            1269         467.653         467.653         1.66886         1.66886     342.601E-03     342.601E-03
            1270         467.808         467.808         1.55215         1.55215     303.985E-03     303.985E-03
            1271         467.946         467.946         1.44309         1.44309     268.348E-03     268.348E-03
            1272         468.068         468.068         1.34226         1.34226     235.403E-03     235.403E-03
            1273         468.176         468.176         1.25010         1.25010     204.880E-03     204.880E-03
            1274         468.269         468.269         1.16699         1.16699     176.526E-03     176.526E-03
            1275         468.349         468.349         1.09320         1.09320     150.097E-03     150.097E-03
            1276         468.418         468.418         1.02895         1.02895     125.359E-03     125.359E-03
            1277         468.474         468.474     974.410E-03     974.410E-03     102.084E-03     102.084E-03
            1278         468.520         468.520     929.686E-03     929.686E-03     80.0490E-03     80.0490E-03
            1279         468.554         468.554     894.866E-03     894.866E-03     59.0376E-03     59.0376E-03
            1280         468.579         468.579     870.010E-03     870.010E-03     38.8382E-03     38.8382E-03
            1281         468.594         468.594     855.132E-03     855.132E-03     19.2895E-03     19.2895E-03
            1282         409.402         409.402         5.26359         5.26359         17.5151         17.5151
            1283         421.114         421.114         5.15402         5.15402         12.2738         12.2738
            1284         429.847         429.847         4.86490         4.86490         8.93647         8.93647
            1285         436.475         436.475         4.58812         4.58812         6.69859         6.69859
            1286         441.611         441.611         4.36776         4.36776         5.13872         5.13872
            1287         445.665         445.665         4.20642         4.20642         4.02076         4.02076
            1288         448.917         448.917         4.09405         4.09405         3.19990         3.19990
            1289         451.566         451.566         4.01712         4.01712         2.58588         2.58588
            1290         453.754         453.754         3.96300         3.96300         2.11851         2.11851
            1291         455.583         455.583         3.92078         3.92078         1.75766         1.75766
            1292         457.130         457.130         3.88189         3.88189         1.47512         1.47512
            1293         458.454         458.454         3.83982         3.83982         1.25113         1.25113
            1294         459.597         459.597         3.78999         3.78999         1.07133         1.07133
            1295         460.594         460.594         3.72939         3.72939     925.265E-03     925.265E-03
            1296         461.469         461.469         3.65638         3.65638     805.165E-03     805.165E-03
            1297         462.244         462.244         3.57036         3.57036     705.247E-03     705.247E-03
            1298         462.933         462.933         3.47160         3.47160     621.143E-03     621.143E-03
            1299         463.550         463.550         3.36094         3.36094     549.550E-03     549.550E-03
            1300         464.104         464.104         3.23972         3.23972     487.950E-03     487.950E-03
            1301         464.603         464.603         3.10955         3.10955     434.422E-03     434.422E-03
            1302         465.054         465.054         2.97223         2.97223     387.486E-03     387.486E-03
            1303         465.463         465.463         2.82963         2.82963     346.005E-03     346.005E-03
            1304         465.832         465.832         2.68361         2.68361     309.093E-03     309.093E-03
            1305         466.167         466.167         2.53599         2.53599     276.062E-03     276.062E-03
            1306         466.471         466.471         2.38847         2.38847     246.365E-03     246.365E-03
            1307         466.745         466.745         2.24261         2.24261     219.569E-03     219.569E-03
            1308         466.994         466.994         2.09986         2.09986     195.322E-03     195.322E-03
            1309         467.217         467.217         1.96146         1.96146     173.336E-03     173.336E-03
            1310         467.419         467.419         1.82854         1.82854     153.368E-03     153.368E-03
            1311         467.599         467.599         1.70203         1.70203     135.209E-03     135.209E-03
            1312         467.761         467.761         1.58275         1.58275     118.681E-03     118.681E-03
            1313         467.904         467.904         1.47138         1.47138     103.621E-03     103.621E-03
            1314         468.031         468.031         1.36845         1.36845     89.8836E-03     89.8836E-03
            1315         468.143         468.143         1.27443         1.27443     77.3369E-03     77.3369E-03
            1316         468.240         468.240         1.18965         1.18965     65.8572E-03     65.8572E-03
            1317         468.323         468.323         1.11440         1.11440     55.3297E-03     55.3297E-03
            1318         468.394         468.394         1.04889         1.04889     45.6467E-03     45.6467E-03
            1319         468.453         468.453     993.263E-03     993.263E-03     36.7072E-03     36.7072E-03
            1320         468.500         468.500     947.642E-03     947.642E-03     28.4163E-03     28.4163E-03
            1321         468.537         468.537     912.104E-03     912.104E-03     20.6854E-03     20.6854E-03
            1322         468.562         468.562     886.704E-03     886.704E-03     13.4324E-03     13.4324E-03
            1323         468.577         468.577     871.452E-03     871.452E-03     6.59826E-03     6.59826E-03
            1324         403.063         403.063         8.44742         8.44742        -1.19235        -1.19235
            1325         417.373         417.373         7.06863         7.06863        -1.04066        -1.04066
            1326         427.456         427.456         6.10009         6.10009    -884.273E-03    -884.273E-03
            1327         434.874         434.874         5.42160         5.42160    -754.422E-03    -754.422E-03
            1328         440.501         440.501         4.94730         4.94730    -648.112E-03    -648.112E-03
            1329         444.872         444.872         4.62010         4.62010    -562.006E-03    -562.006E-03
            1330         448.338         448.338         4.39485         4.39485    -491.482E-03    -491.482E-03
            1331         451.135         451.135         4.23980         4.23980    -433.640E-03    -433.640E-03
            1332         453.426         453.426         4.13005         4.13005    -385.721E-03    -385.721E-03
            1333         455.331         455.331         4.04782         4.04782    -345.858E-03    -345.858E-03
            1334         456.934         456.934         3.97956         3.97956    -312.424E-03    -312.424E-03
            1335         458.298         458.298         3.91580         3.91580    -284.222E-03    -284.222E-03
            1336         459.473         459.473         3.84970         3.84970    -260.237E-03    -260.237E-03
            1337         460.493         460.493         3.77685         3.77685    -239.676E-03    -239.676E-03
            1338         461.387         461.387         3.69450         3.69450    -221.874E-03    -221.874E-03
            1339         462.176         462.176         3.60132         3.60132    -206.299E-03    -206.299E-03
            1340         462.878         462.878         3.49699         3.49699    -192.507E-03    -192.507E-03
            1341         463.504         463.504         3.38199         3.38199    -180.141E-03    -180.141E-03
            1342         464.065         464.065         3.25733         3.25733    -168.912E-03    -168.912E-03
            1343         464.571         464.571         3.12442         3.12442    -158.585E-03    -158.585E-03
            1344         465.027         465.027         2.98487         2.98487    -148.976E-03    -148.976E-03
            1345         465.440         465.440         2.84045         2.84045    -139.941E-03    -139.941E-03
            1346         465.813         465.813         2.69291         2.69291    -131.367E-03    -131.367E-03
            1347         466.151         466.151         2.54402         2.54402    -123.172E-03    -123.172E-03
            1348         466.457         466.457         2.39541         2.39541    -115.292E-03    -115.292E-03
            1349         466.734         466.734         2.24862         2.24862    -107.683E-03    -107.683E-03
            1350         466.984         466.984         2.10506         2.10506    -100.311E-03    -100.311E-03
            1351         467.209         467.209         1.96595         1.96595    -93.1541E-03    -93.1541E-03
            1352         467.412         467.412         1.83241         1.83241    -86.1951E-03    -86.1951E-03
            1353         467.594         467.594         1.70535         1.70535    -79.4211E-03    -79.4211E-03
            1354         467.756         467.756         1.58559         1.58559    -72.8207E-03    -72.8207E-03
            1355         467.901         467.901         1.47379         1.47379    -66.3828E-03    -66.3828E-03
            1356         468.028         468.028         1.37049         1.37049    -60.0946E-03    -60.0946E-03
            1357         468.140         468.140         1.27614         1.27614    -53.9407E-03    -53.9407E-03
            1358         468.238         468.238         1.19107         1.19107    -47.9026E-03    -47.9026E-03
            1359         468.322         468.322         1.11557         1.11557    -41.9575E-03    -41.9575E-03
            1360         468.393         468.393         1.04982         1.04982    -36.0778E-03    -36.0778E-03
            1361         468.452         468.452     993.999E-03     993.999E-03    -30.2311E-03    -30.2311E-03
            1362         468.500         468.500     948.196E-03     948.196E-03    -24.3792E-03    -24.3792E-03
            1363         468.536         468.536     912.491E-03     912.491E-03    -18.4780E-03    -18.4780E-03
            1364         468.562         468.562     886.932E-03     886.932E-03    -12.4769E-03    -12.4769E-03
            1365         468.577         468.577     871.520E-03     871.520E-03    -6.33229E-03    -6.33229E-03
            1366         413.771         413.771         3.17325         3.17325        -20.1368        -20.1368
            1367         424.205         424.205         3.63503         3.63503        -14.5898        -14.5898
            1368         432.074         432.074         3.74725         3.74725        -10.9401        -10.9401
            1369         438.124         438.124         3.75004         3.75004        -8.42020        -8.42020
            1370         442.861         442.861         3.72774         3.72774        -6.62210        -6.62210
            1371         446.633         446.633         3.70924         3.70924        -5.30477        -5.30477
            1372         449.682         449.682         3.70222         3.70222        -4.31936        -4.31936
            1373         452.180         452.180         3.70411         3.70411        -3.56880        -3.56880
            1374         454.254         454.254         3.70998         3.70998        -2.98834        -2.98834
            1375         455.996         455.996         3.71394         3.71394        -2.53316        -2.53316
            1376         457.476         457.476         3.71102         3.71102        -2.17170        -2.17170
            1377         458.746         458.746         3.69720         3.69720        -1.88120        -1.88120
            1378         459.847         459.847         3.66971         3.66971        -1.64499        -1.64499
            1379         460.810         460.810         3.62690         3.62690        -1.45065        -1.45065
            1380         461.657         461.657         3.56812         3.56812        -1.28888        -1.28888
            1381         462.409         462.409         3.49354         3.49354        -1.15258        -1.15258
            1382         463.079         463.079         3.40402         3.40402        -1.03637        -1.03637
            1383         463.680         463.680         3.30087         3.30087    -936.090E-03    -936.090E-03
            1384         464.221         464.221         3.18580         3.18580    -848.553E-03    -848.553E-03
            1385         464.708         464.708         3.06070         3.06070    -771.292E-03    -771.292E-03
            1386         465.149         465.149         2.92760         2.92760    -702.405E-03    -702.405E-03
            1387         465.548         465.548         2.78855         2.78855    -640.419E-03    -640.419E-03
            1388         465.910         465.910         2.64557         2.64557    -584.193E-03    -584.193E-03
            1389         466.238         466.238         2.50058         2.50058    -532.841E-03    -532.841E-03
            1390         466.535         466.535         2.35536         2.35536    -485.671E-03    -485.671E-03
            1391         466.804         466.804         2.21156         2.21156    -442.139E-03    -442.139E-03
            1392         467.047         467.047         2.07066         2.07066    -401.812E-03    -401.812E-03
            1393         467.266         467.266         1.93395         1.93395    -364.340E-03    -364.340E-03
            1394         467.462         467.462         1.80257         1.80257    -329.434E-03    -329.434E-03
            1395         467.639         467.639         1.67749         1.67749    -296.849E-03    -296.849E-03
            1396         467.797         467.797         1.55953         1.55953    -266.368E-03    -266.368E-03
            1397         467.937         467.937         1.44937         1.44937    -237.798E-03    -237.798E-03
            1398         468.061         468.061         1.34756         1.34756    -210.958E-03    -210.958E-03
            1399         468.170         468.170         1.25454         1.25454    -185.676E-03    -185.676E-03
            1400         468.264         468.264         1.17067         1.17067    -161.782E-03    -161.782E-03
            1401         468.346         468.346         1.09622         1.09622    -139.109E-03    -139.109E-03
            1402         468.415         468.415         1.03139         1.03139    -117.487E-03    -117.487E-03
            1403         468.472         468.472     976.319E-03     976.319E-03    -96.7458E-03    -96.7458E-03
            1404         468.518         468.518     931.123E-03     931.123E-03    -76.7096E-03    -76.7096E-03
            1405         468.553         468.553     895.868E-03     895.868E-03    -57.1988E-03    -57.1988E-03
            1406         468.578         468.578     870.598E-03     870.598E-03    -38.0292E-03    -38.0292E-03
            1407         468.594         468.594     855.306E-03     855.306E-03    -19.0590E-03    -19.0590E-03
            1408         436.559         436.559        -7.20159        -7.20159        -29.8173        -29.8173
            1409         439.326         439.326        -3.53921        -3.53921        -22.8600        -22.8600
            1410         442.534         442.534        -1.34181        -1.34181        -17.7662        -17.7662
            1411         445.598         445.598     53.4514E-03     53.4514E-03        -14.0202        -14.0202
            1412         448.346         448.346     987.838E-03     987.838E-03        -11.2259        -11.2259
            1413         450.750         450.750         1.64376         1.64376        -9.11314        -9.11314
            1414         452.834         452.834         2.12092         2.12092        -7.49420        -7.49420
            1415         454.636         454.636         2.47729         2.47729        -6.23845        -6.23845
            1416         456.198         456.198         2.74620         2.74620        -5.25311        -5.25311
            1417         457.558         457.558         2.94811         2.94811        -4.47157        -4.47157
            1418         458.747         458.747         3.09562         3.09562        -3.84507        -3.84507
            1419         459.794         459.794         3.19725         3.19725        -3.33760        -3.33760
            1420         460.720         460.720         3.25901         3.25901        -2.92216        -2.92216
            1421         461.544         461.544         3.28572         3.28572        -2.57836        -2.57836
            1422         462.282         462.282         3.28144         3.28144        -2.29065        -2.29065
            1423         462.944         462.944         3.24987         3.24987        -2.04715        -2.04715
            1424         463.542         463.542         3.19451         3.19451        -1.83868        -1.83868
            1425         464.083         464.083         3.11873         3.11873        -1.65819        -1.65819
            1426         464.573         464.573         3.02576         3.02576        -1.50020        -1.50020
            1427         465.018         465.018         2.91870         2.91870        -1.36049        -1.36049
            1428         465.423         465.423         2.80050         2.80050        -1.23578        -1.23578
            1429         465.791         465.791         2.67390         2.67390        -1.12353        -1.12353
            1430         466.125         466.125         2.54146         2.54146        -1.02176        -1.02176
            1431         466.429         466.429         2.40551         2.40551    -928.940E-03    -928.940E-03
            1432         466.705         466.705         2.26818         2.26818    -843.848E-03    -843.848E-03
            1433         466.956         466.956         2.13132         2.13132    -765.528E-03    -765.528E-03
            1434         467.182         467.182         1.99659         1.99659    -693.210E-03    -693.210E-03
            1435         467.386         467.386         1.86543         1.86543    -626.264E-03    -626.264E-03
            1436         467.570         467.570         1.73906         1.73906    -564.162E-03    -564.162E-03
            1437         467.735         467.735         1.61853         1.61853    -506.453E-03    -506.453E-03
            1438         467.882         467.882         1.50470         1.50470    -452.735E-03    -452.735E-03
            1439         468.013         468.013         1.39830         1.39830    -402.646E-03    -402.646E-03
            1440         468.128         468.128         1.29988         1.29988    -355.848E-03    -355.848E-03
            1441         468.230         468.230         1.20993         1.20993    -312.018E-03    -312.018E-03
            1442         468.318         468.318         1.12878         1.12878    -270.842E-03    -270.842E-03
            1443         468.394         468.394         1.05673         1.05673    -232.013E-03    -232.013E-03
            1444         468.458         468.458     993.966E-03     993.966E-03    -195.223E-03    -195.223E-03
            1445         468.512         468.512     940.646E-03     940.646E-03    -160.165E-03    -160.165E-03
            1446         468.555         468.555     896.873E-03     896.873E-03    -126.532E-03    -126.532E-03
            1447         468.588         468.588     862.715E-03     862.715E-03    -94.0117E-03    -94.0117E-03
            1448         468.611         468.611     838.214E-03     838.214E-03    -62.2912E-03    -62.2912E-03
            1449         468.625         468.625     823.364E-03     823.364E-03    -31.1321E-03    -31.1321E-03
            1450         459.852         459.852        -15.8834        -15.8834        -28.0162        -28.0162
            1451         456.487         456.487        -10.6292        -10.6292        -23.5778        -23.5778
            1452         455.223         455.223        -6.90036        -6.90036        -19.5504        -19.5504
            1453         455.104         455.104        -4.26696        -4.26696        -16.1662        -16.1662
            1454         455.573         455.573        -2.37264        -2.37264        -13.4113        -13.4113
            1455         456.326         456.326    -984.336E-03    -984.336E-03        -11.1928        -11.1928
            1456         457.196         457.196     52.1303E-03     52.1303E-03        -9.41070        -9.41070
            1457         458.095         458.095     836.149E-03     836.149E-03        -7.97680        -7.97680
            1458         458.976         458.976         1.43405         1.43405        -6.81842        -6.81842
            1459         459.815         459.815         1.89010         1.89010        -5.87738        -5.87738
            1460         460.602         460.602         2.23507         2.23507        -5.10778        -5.10778
            1461         461.335         461.335         2.49076         2.49076        -4.47355        -4.47355
            1462         462.013         462.013         2.67335         2.67335        -3.94641        -3.94641
            1463         462.640         462.640         2.79520         2.79520        -3.50420        -3.50420
            1464         463.217         463.217         2.86621         2.86621        -3.12954        -3.12954
            1465         463.750         463.750         2.89455         2.89455        -2.80883        -2.80883
            1466         464.240         464.240         2.88716         2.88716        -2.53141        -2.53141
            1467         464.691         464.691         2.85006         2.85006        -2.28895        -2.28895
            1468         465.106         465.106         2.78857         2.78857        -2.07492        -2.07492
            1469         465.488         465.488         2.70739         2.70739        -1.88425        -1.88425
            1470         465.837         465.837         2.61071         2.61071        -1.71297        -1.71297
            1471         466.158         466.158         2.50224         2.50224        -1.55798        -1.55798
            1472         466.451         466.451         2.38528         2.38528        -1.41687        -1.41687
            1473         466.719         466.719         2.26274         2.26274        -1.28774        -1.28774
            1474         466.963         466.963         2.13714         2.13714        -1.16909        -1.16909
            1475         467.185         467.185         2.01069         2.01069        -1.05971        -1.05971
            1476         467.386         467.386         1.88529         1.88529    -958.627E-03    -958.627E-03
            1477         467.568         467.568         1.76254         1.76254    -865.036E-03    -865.036E-03
            1478         467.731         467.731         1.64381         1.64381    -778.250E-03    -778.250E-03
            1479         467.878         467.878         1.53023         1.53023    -697.667E-03    -697.667E-03
            1480         468.009         468.009         1.42274         1.42274    -622.752E-03    -622.752E-03
            1481         468.126         468.126         1.32209         1.32209    -553.007E-03    -553.007E-03
            1482         468.229         468.229         1.22889         1.22889    -487.966E-03    -487.966E-03
            1483         468.319         468.319         1.14363         1.14363    -427.179E-03    -427.179E-03
            1484         468.398         468.398         1.06668         1.06668    -370.208E-03    -370.208E-03
            1485         468.465         468.465     998.312E-03     998.312E-03    -316.619E-03    -316.619E-03
            1486         468.522         468.522     938.747E-03     938.747E-03    -265.983E-03    -265.983E-03
            1487         468.570         468.570     888.134E-03     888.134E-03    -217.869E-03    -217.869E-03
            1488         468.608         468.608     846.578E-03     846.578E-03    -171.846E-03    -171.846E-03
            1489         468.637         468.637     814.150E-03     814.150E-03    -127.482E-03    -127.482E-03
            1490         468.658         468.658     790.893E-03     790.893E-03    -84.3458E-03    -84.3458E-03
            1491         468.670         468.670     776.802E-03     776.802E-03    -42.1075E-03    -42.1075E-03
            1492         475.831         475.831        -19.2591        -19.2591        -20.0116        -20.0116
            1493         470.181         470.181        -14.7147        -14.7147        -18.9797        -18.9797
            1494         466.467         466.467        -10.8529        -10.8529        -17.1709        -17.1709
            1495         464.179         464.179        -7.75910        -7.75910        -15.1508        -15.1508
            1496         462.870         462.870        -5.34170        -5.34170        -13.2110        -13.2110
            1497         462.205         462.205        -3.46041        -3.46041        -11.4686        -11.4686
            1498         461.959         461.959        -1.99552        -1.99552        -9.95529        -9.95529
            1499         461.981         461.981    -851.846E-03    -851.846E-03        -8.66384        -8.66384
            1500         462.171         462.171     41.5257E-03     41.5257E-03        -7.57123        -7.57123
            1501         462.464         462.464     737.897E-03     737.897E-03        -6.64976        -6.64976
            1502         462.818         462.818         1.27694         1.27694        -5.87219        -5.87219
            1503         463.203         463.203         1.68890         1.68890        -5.21392        -5.21392
            1504         463.601         463.601         1.99707         1.99707        -4.65369        -4.65369
            1505         463.999         463.999         2.21991         2.21991        -4.17363        -4.17363
            1506         464.390         464.390         2.37225         2.37225        -3.75898        -3.75898
            1507         464.767         464.767         2.46630         2.46630        -3.39774        -3.39774
            1508         465.128         465.128         2.51227         2.51227        -3.08020        -3.08020
            1509         465.470         465.470         2.51880         2.51880        -2.79860        -2.79860
            1510         465.792         465.792         2.49328         2.49328        -2.54677        -2.54677
            1511         466.094         466.094         2.44208         2.44208        -2.31982        -2.31982
            1512         466.375         466.375         2.37067         2.37067        -2.11392        -2.11392
            1513         466.635         466.635         2.28379         2.28379        -1.92602        -1.92602
            1514         466.875         466.875         2.18553         2.18553        -1.75374        -1.75374
            1515         467.096         467.096         2.07937         2.07937        -1.59518        -1.59518
            1516         467.298         467.298         1.96832         1.96832        -1.44882        -1.44882
            1517         467.483         467.483         1.85493         1.85493        -1.31344        -1.31344
            1518         467.651         467.651         1.74133         1.74133        -1.18801        -1.18801
            1519         467.803         467.803         1.62933         1.62933        -1.07167        -1.07167
            1520         467.940         467.940         1.52043         1.52043    -963.672E-03    -963.672E-03
            1521         468.063         468.063         1.41585         1.41585    -863.348E-03    -863.348E-03
            1522         468.173         468.173         1.31659         1.31659    -770.077E-03    -770.077E-03
            1523         468.271         468.271         1.22345         1.22345    -683.279E-03    -683.279E-03
            1524         468.357         468.357         1.13708         1.13708    -602.393E-03    -602.393E-03
            1525         468.433         468.433         1.05798         1.05798    -526.874E-03    -526.874E-03
            1526         468.499         468.499     986.534E-03     986.534E-03    -456.183E-03    -456.183E-03
            1527         468.555         468.555     923.026E-03     923.026E-03    -389.783E-03    -389.783E-03
            1528         468.603         468.603     867.676E-03     867.676E-03    -327.140E-03    -327.140E-03
            1529         468.643         468.643     820.637E-03     820.637E-03    -267.716E-03    -267.716E-03
            1530         468.675         468.675     782.019E-03     782.019E-03    -210.974E-03    -210.974E-03
            1531         468.699         468.699     751.894E-03     751.894E-03    -156.373E-03    -156.373E-03
            1532         468.716         468.716     730.311E-03     730.311E-03    -103.374E-03    -103.374E-03
            1533         468.727         468.727     717.270E-03     717.270E-03    -51.5737E-03    -51.5737E-03
            1534         470.785         470.785     9.21330E-03     9.21330E-03        -1.60868        -1.60868
            1535         472.353         472.353     15.8203E-03     15.8203E-03        -2.86635        -2.86635
            1536         473.931         473.931     2.74281E-03     2.74281E-03        -3.78921        -3.78921
            1537         475.557         475.557    -63.4207E-03    -63.4207E-03        -4.49767        -4.49767
            1538         477.280         477.280    -231.236E-03    -231.236E-03        -5.07795        -5.07795
            1539         479.164         479.164    -568.068E-03    -568.068E-03        -5.57973        -5.57973
            1540         481.281         481.281        -1.16751        -1.16751        -6.01602        -6.01602
            1541         483.713         483.713        -2.16075        -2.16075        -6.35351        -6.35351
            1542         486.544         486.544        -3.73008        -3.73008        -6.48960        -6.48960
            1543         489.828         489.828        -6.11890        -6.11890        -6.20535        -6.20535
            1544         493.499         493.499        -9.60795        -9.60795        -5.09468        -5.09468
            1545         497.157         497.157        -14.4008        -14.4008        -2.48079        -2.48079
            1546         468.794         468.794     145.283E-03     145.283E-03        -1.47989        -1.47989
            1547         470.917         470.917     398.357E-03     398.357E-03        -2.64692        -2.64692
            1548         472.830         472.830     762.180E-03     762.180E-03        -3.53184        -3.53184
            1549         474.636         474.636         1.18940         1.18940        -4.26312        -4.26312
            1550         476.434         476.434         1.63294         1.63294        -4.93978        -4.93978
            1551         478.326         478.326         2.03882         2.03882        -5.63458        -5.63458
            1552         480.425         480.425         2.33479         2.33479        -6.39961        -6.39961
            1553         482.869         482.869         2.41279         2.41279        -7.26506        -7.26506
            1554         485.833         485.833         2.10027         2.10027        -8.22614        -8.22614
            1555         489.540         489.540         1.11305         1.11305        -9.20706        -9.20706
            1556         494.254         494.254        -1.01533        -1.01533        -9.96383        -9.96383
            1557         500.174         500.174        -4.99165        -4.99165        -9.88219        -9.88219
            1558         467.120         467.120     271.928E-03     271.928E-03        -1.11663        -1.11663
            1559         469.695         469.695     755.580E-03     755.580E-03        -1.99900        -1.99900
            1560         471.854         471.854         1.47561         1.47561        -2.67984        -2.67984
            1561         473.757         473.757         2.37844         2.37844        -3.26890        -3.26890
            1562         475.537         475.537         3.43061         3.43061        -3.85527        -3.85527
            1563         477.319         477.319         4.61124         4.61124        -4.51361        -4.51361
            1564         479.228         479.228         5.90349         5.90349        -5.31402        -5.31402
            1565         481.416         481.416         7.28302         7.28302        -6.32932        -6.32932
            1566         484.081         484.081         8.69824         8.69824        -7.64051        -7.64051
            1567         487.511         487.511         10.0305         10.0305        -9.33580        -9.33580
            1568         492.165         492.165         11.0006         11.0006        -11.4861        -11.4861
            1569         498.774         498.774         10.9424         10.9424        -14.0352        -14.0352
            1570         466.042         466.042     362.648E-03     362.648E-03    -559.151E-03    -559.151E-03
            1571         468.911         468.911         1.01196         1.01196    -994.483E-03    -994.483E-03
            1572         471.216         471.216         1.98964         1.98964        -1.32747        -1.32747
            1573         473.153         473.153         3.24093         3.24093        -1.62285        -1.62285
            1574         474.878         474.878         4.74803         4.74803        -1.93457        -1.93457
            1575         476.522         476.522         6.52437         6.52437        -2.31105        -2.31105
            1576         478.206         478.206         8.61219         8.61219        -2.80268        -2.80268
            1577         480.068         480.068         11.0841         11.0841        -3.47029        -3.47029
            1578         482.278         482.278         14.0482         14.0482        -4.39607        -4.39607
            1579         485.086         485.086         17.6560         17.6560        -5.70084        -5.70084
            1580         488.905         488.905         22.1087         22.1087        -7.58026        -7.58026
            1581         494.494         494.494         27.6244         27.6244        -10.3729        -10.3729
            1582         465.760         465.760     396.824E-03     396.824E-03     110.026E-03     110.026E-03
            1583         468.727         468.727         1.10868         1.10868     215.722E-03     215.722E-03
            1584         471.073         471.073         2.18400         2.18400     315.332E-03     315.332E-03
            1585         473.008         473.008         3.56795         3.56795     405.595E-03     405.595E-03
            1586         474.696         474.696         5.24936         5.24936     484.215E-03     484.215E-03
            1587         476.266         476.266         7.25597         7.25597     549.417E-03     549.417E-03
            1588         477.841         477.841         9.65522         9.65522     599.878E-03     599.878E-03
            1589         479.543         479.543         12.5624         12.5624     634.775E-03     634.775E-03
            1590         481.526         481.526         16.1596         16.1596     653.646E-03     653.646E-03
            1591         484.005         484.005         20.7312         20.7312     656.506E-03     656.506E-03
            1592         487.321         487.321         26.7420         26.7420     643.938E-03     643.938E-03
            1593         492.096         492.096         35.0286         35.0286     616.164E-03     616.164E-03
            1594         466.349         466.349     366.651E-03     366.651E-03     782.891E-03     782.891E-03
            1595         469.204         469.204         1.02353         1.02353         1.43288         1.43288
            1596         471.486         471.486         2.01306         2.01306         1.96786         1.96786
            1597         473.393         473.393         3.27977         3.27977         2.44603         2.44603
            1598         475.082         475.082         4.80518         4.80518         2.91679         2.91679
            1599         476.686         476.686         6.60205         6.60205         3.42500         3.42500
            1600         478.327         478.327         8.71201         8.71201         4.01850         4.01850
            1601         480.144         480.144         11.2071         11.2071         4.75641         4.75641
            1602         482.308         482.308         14.1949         14.1949         5.72020         5.72020
            1603         485.072         485.072         17.8266         17.8266         7.03063         7.03063
            1604         488.848         488.848         22.3025         22.3025         8.88393         8.88393
            1605         494.396         494.396         27.8408         27.8408         11.6212         11.6212
            1606         467.745         467.745     279.920E-03     279.920E-03         1.35142         1.35142
            1607         470.290         470.290     778.677E-03     778.677E-03         2.45823         2.45823
            1608         472.402         472.402         1.52235         1.52235         3.34934         3.34934
            1609         474.243         474.243         2.45596         2.45596         4.12799         4.12799
            1610         475.950         475.950         3.54463         3.54463         4.87874         4.87874
            1611         477.650         477.650         4.76616         4.76616         5.67281         5.67281
            1612         479.472         479.472         6.10247         6.10247         6.57778         6.57778
            1613         481.569         481.569         7.52808         7.52808         7.66500         7.66500
            1614         484.142         484.142         8.99038         8.99038         9.01477         9.01477
            1615         487.482         487.482         10.3699         10.3699         10.7155         10.7155
            1616         492.048         492.048         11.3869         11.3869         12.8387         12.8387
            1617         498.575         498.575         11.3732         11.3732         15.3290         15.3290
            1618         469.757         469.757     157.230E-03     157.230E-03         1.73307         1.73307
            1619         471.831         471.831     432.900E-03     432.900E-03         3.14079         3.14079
            1620         473.668         473.668     832.083E-03     832.083E-03         4.24975         4.24975
            1621         475.378         475.378         1.30528         1.30528         5.18186         5.18186
            1622         477.064         477.064         1.80330         1.80330         6.03171         6.03171
            1623         478.830         478.830         2.27014         2.27014         6.86876         6.86876
            1624         480.795         480.795         2.63166         2.63166         7.74275         7.74275
            1625         483.101         483.101         2.77803         2.77803         8.68255         8.68255
            1626         485.924         485.924         2.53515         2.53515         9.68296         9.68296
            1627         489.494         489.494         1.61760         1.61760         10.6688         10.6688
            1628         494.075         494.075    -442.097E-03    -442.097E-03         11.3972         11.3972
            1629         499.868         499.868        -4.35031        -4.35031         11.2539         11.2539
            1630         472.116         472.116     25.0912E-03     25.0912E-03         1.88757         1.88757
            1631         473.610         473.610     61.7201E-03     61.7201E-03         3.40863         3.40863
            1632         475.082         475.082     95.5981E-03     95.5981E-03         4.57467         4.57467
            1633         476.573         476.573     90.4193E-03     90.4193E-03         5.49952         5.49952
            1634         478.140         478.140    -5.25524E-03    -5.25524E-03         6.26514         6.26514
            1635         479.850         479.850    -261.524E-03    -261.524E-03         6.91803         6.91803
            1636         481.783         481.783    -774.578E-03    -774.578E-03         7.46910         7.46910
            1637         484.025         484.025        -1.67801        -1.67801         7.88394         7.88394
            1638         486.666         486.666        -3.15627        -3.15627         8.05993         8.05993
            1639         489.763         489.763        -5.45474        -5.45474         7.77906         7.77906
            1640         493.255         493.255        -8.85526        -8.85526         6.63768         6.63768
            1641         496.742         496.742        -13.5612        -13.5612         3.96149         3.96149
            1642         468.844         468.844     586.373E-03     586.373E-03     63.8992E-03     63.8992E-03
            1643         468.838         468.838     597.162E-03     597.162E-03     128.146E-03     128.146E-03
            1644         468.829         468.829     615.090E-03     615.090E-03     193.969E-03     193.969E-03
            1645         468.815         468.815     640.147E-03     640.147E-03     261.885E-03     261.885E-03
            1646         468.797         468.797     672.290E-03     672.290E-03     332.584E-03     332.584E-03
            1647         468.775         468.775     711.449E-03     711.449E-03     406.756E-03     406.756E-03
            1648         468.748         468.748     757.519E-03     757.519E-03     485.085E-03     485.085E-03
            1649         468.716         468.716     810.349E-03     810.349E-03     568.246E-03     568.246E-03
            1650         468.679         468.679     869.730E-03     869.730E-03     656.910E-03     656.910E-03
            1651         468.636         468.636     935.375E-03     935.375E-03     751.735E-03     751.735E-03
            1652         468.586         468.586         1.00690         1.00690     853.370E-03     853.370E-03
            1653         468.530         468.530         1.08379         1.08379     962.454E-03     962.454E-03
            1654         468.467         468.467         1.16540         1.16540         1.07961         1.07961
            1655         468.396         468.396         1.25088         1.25088         1.20547         1.20547
            1656         468.318         468.318         1.33918         1.33918         1.34064         1.34064
            1657         468.230         468.230         1.42895         1.42895         1.48574         1.48574
            1658         468.135         468.135         1.51856         1.51856         1.64142         1.64142
            1659         468.030         468.030         1.60598         1.60598         1.80832         1.80832
            1660         467.917         467.917         1.68874         1.68874         1.98719         1.98719
            1661         467.795         467.795         1.76384         1.76384         2.17882         2.17882
            1662         467.665         467.665         1.82770         1.82770         2.38415         2.38415
            1663         467.529         467.529         1.87601         1.87601         2.60426         2.60426
            1664         467.388         467.388         1.90365         1.90365         2.84050         2.84050
            1665         467.245         467.245         1.90454         1.90454         3.09448         3.09448
            1666         467.104         467.104         1.87152         1.87152         3.36819         3.36819
            1667         466.968         466.968         1.79617         1.79617         3.66404         3.66404
            1668         466.846         466.846         1.66864         1.66864         3.98491         3.98491
            1669         466.747         466.747         1.47739         1.47739         4.33414         4.33414
            1670         466.681         466.681         1.20900         1.20900         4.71550         4.71550
            1671         466.665         466.665     847.829E-03     847.829E-03         5.13289         5.13289
            1672         466.720         466.720     375.844E-03     375.844E-03         5.58992         5.58992
            1673         466.872         466.872    -227.817E-03    -227.817E-03         6.08905         6.08905
            1674         467.156         467.156    -986.738E-03    -986.738E-03         6.63009         6.63009
            1675         467.616         467.616        -1.92741        -1.92741         7.20783         7.20783
            1676         468.310         468.310        -3.07776        -3.07776         7.80804         7.80804
            1677         469.310         469.310        -4.46555        -4.46555         8.40187         8.40187
            1678         470.702         470.702        -6.11148        -6.11148         8.93655         8.93655
            1679         472.585         472.585        -8.01986        -8.01986         9.32510         9.32510
            1680         475.057         475.057        -10.1545        -10.1545         9.43054         9.43054
            1681         478.192         478.192        -12.4070        -12.4070         9.06200         9.06200
            1682         481.989         481.989        -14.5445        -14.5445         7.97700         7.97700
            1683         486.317         486.317        -16.1909        -16.1909         5.95269         5.95269
            1684         468.898         468.898     521.180E-03     521.180E-03     66.9241E-03     66.9241E-03
            1685         468.895         468.895     530.888E-03     530.888E-03     134.206E-03     134.206E-03
            1686         468.889         468.889     547.027E-03     547.027E-03     203.168E-03     203.168E-03
            1687         468.881         468.881     569.585E-03     569.585E-03     274.359E-03     274.359E-03
            1688         468.870         468.870     598.521E-03     598.521E-03     348.513E-03     348.513E-03
            1689         468.857         468.857     633.771E-03     633.771E-03     426.360E-03     426.360E-03
            1690         468.840         468.840     675.238E-03     675.238E-03     508.625E-03     508.625E-03
            1691         468.821         468.821     722.781E-03     722.781E-03     596.021E-03     596.021E-03
            1692         468.798         468.798     776.200E-03     776.200E-03     689.249E-03     689.249E-03
            1693         468.771         468.771     835.223E-03     835.223E-03     788.998E-03     788.998E-03
            1694         468.740         468.740     899.481E-03     899.481E-03     895.933E-03     895.933E-03
            1695         468.705         468.705     968.483E-03     968.483E-03         1.01070         1.01070
            1696         468.665         468.665         1.04159         1.04159         1.13393         1.13393
            1697         468.621         468.621         1.11798         1.11798         1.26620         1.26620
            1698         468.571         468.571         1.19661         1.19661         1.40810         1.40810
            1699         468.516         468.516         1.27615         1.27615         1.56014         1.56014
            1700         468.455         468.455         1.35497         1.35497         1.72286         1.72286
            1701         468.390         468.390         1.43102         1.43102         1.89672         1.89672
            1702         468.319         468.319         1.50181         1.50181         2.08222         2.08222
            1703         468.245         468.245         1.56429         1.56429         2.27981         2.27981
            1704         468.167         468.167         1.61480         1.61480         2.48999         2.48999
            1705         468.088         468.088         1.64890         1.64890         2.71327         2.71327
            1706         468.010         468.010         1.66131         1.66131         2.95023         2.95023
            1707         467.936         467.936         1.64576         1.64576         3.20151         3.20151
            1708         467.871         467.871         1.59484         1.59484         3.46784         3.46784
            1709         467.821         467.821         1.49987         1.49987         3.75004         3.75004
            1710         467.793         467.793         1.35076         1.35076         4.04896         4.04896
            1711         467.798         467.798         1.13583         1.13583         4.36536         4.36536
            1712         467.850         467.850     841.690E-03     841.690E-03         4.69972         4.69972
            1713         467.964         467.964     453.226E-03     453.226E-03         5.05181         5.05181
            1714         468.163         468.163    -46.4823E-03    -46.4823E-03         5.42005         5.42005
            1715         468.474         468.474    -675.797E-03    -675.797E-03         5.80042         5.80042
            1716         468.929         468.929        -1.45415        -1.45415         6.18482         6.18482
            1717         469.569         469.569        -2.40051        -2.40051         6.55853         6.55853
            1718         470.444         470.444        -3.53147        -3.53147         6.89685         6.89685
            1719         471.608         471.608        -4.85629        -4.85629         7.15987         7.15987
            1720         473.121         473.121        -6.37019        -6.37019         7.28732         7.28732
            1721         475.038         475.038        -8.04084        -8.04084         7.19097         7.19097
            1722         477.397         477.397        -9.79029        -9.79029         6.75373         6.75373
            1723         480.192         480.192        -11.4702        -11.4702         5.83073         5.83073
            1724         483.347         483.347        -12.8392        -12.8392         4.27968         4.27968
            1725         486.716         486.716        -13.5766        -13.5766         1.97308         1.97308
            1726         468.950         468.950     453.748E-03     453.748E-03     68.3784E-03     68.3784E-03
            1727         468.949         468.949     462.323E-03     462.323E-03     137.120E-03     137.120E-03
            1728         468.948         468.948     476.578E-03     476.578E-03     207.615E-03     207.615E-03
            1729         468.945         468.945     496.505E-03     496.505E-03     280.431E-03     280.431E-03
            1730         468.942         468.942     522.068E-03     522.068E-03     356.332E-03     356.332E-03
            1731         468.938         468.938     553.208E-03     553.208E-03     436.076E-03     436.076E-03
            1732         468.933         468.933     589.839E-03     589.839E-03     520.414E-03     520.414E-03
            1733         468.926         468.926     631.832E-03     631.832E-03     610.083E-03     610.083E-03
            1734         468.918         468.918     679.004E-03     679.004E-03     705.805E-03     705.805E-03
            1735         468.909         468.909     731.104E-03     731.104E-03     808.281E-03     808.281E-03
            1736         468.898         468.898     787.787E-03     787.787E-03     918.184E-03     918.184E-03
            1737         468.885         468.885     848.593E-03     848.593E-03         1.03616         1.03616
            1738         468.870         468.870     912.918E-03     912.918E-03         1.16280         1.16280
            1739         468.853         468.853     979.979E-03     979.979E-03         1.29867         1.29867
            1740         468.834         468.834         1.04877         1.04877         1.44427         1.44427
            1741         468.813         468.813         1.11803         1.11803         1.60002         1.60002
            1742         468.789         468.789         1.18615         1.18615         1.76631         1.76631
            1743         468.764         468.764         1.25117         1.25117         1.94341         1.94341
            1744         468.739         468.739         1.31062         1.31062         2.13152         2.13152
            1745         468.713         468.713         1.36152         1.36152         2.33073         2.33073
            1746         468.688         468.688         1.40023         1.40023         2.54106         2.54106
            1747         468.667         468.667         1.42237         1.42237         2.76236         2.76236
            1748         468.651         468.651         1.42268         1.42268         2.99441         2.99441
            1749         468.645         468.645         1.39495         1.39495         3.23678         3.23678
            1750         468.654         468.654         1.33183         1.33183         3.48891         3.48891
            1751         468.683         468.683         1.22476         1.22476         3.74992         3.74992
            1752         468.742         468.742         1.06386         1.06386         4.01860         4.01860
            1753         468.840         468.840     837.867E-03     837.867E-03         4.29315         4.29315
            1754         468.991         468.991     534.168E-03     534.168E-03         4.57091         4.57091
            1755         469.211         469.211     138.887E-03     138.887E-03         4.84787         4.84787
            1756         469.521         469.521    -362.702E-03    -362.702E-03         5.11797         5.11797
            1757         469.945         469.945    -985.637E-03    -985.637E-03         5.37201         5.37201
            1758         470.512         470.512        -1.74393        -1.74393         5.59611         5.59611
            1759         471.255         471.255        -2.64880        -2.64880         5.76979         5.76979
            1760         472.212         472.212        -3.70516        -3.70516         5.86306         5.86306
            1761         473.418         473.418        -4.90679        -4.90679         5.83382         5.83382
            1762         474.908         474.908        -6.22838        -6.22838         5.62426         5.62426
            1763         476.699         476.699        -7.61461        -7.61461         5.16079         5.16079
            1764         478.788         478.788        -8.96719        -8.96719         4.35525         4.35525
            1765         481.123         481.123        -10.1291        -10.1291         3.11802         3.11802
            1766         483.607         483.607        -10.8849        -10.8849         1.37350         1.37350
            1767         486.064         486.064        -10.9330        -10.9330    -928.914E-03    -928.914E-03
            1768         468.998         468.998     385.673E-03     385.673E-03     68.1996E-03     68.1996E-03
            1769         469.000         469.000     393.079E-03     393.079E-03     136.757E-03     136.757E-03
            1770         469.002         469.002     405.395E-03     405.395E-03     207.109E-03     207.109E-03
            1771         469.006         469.006     422.612E-03     422.612E-03     279.826E-03     279.826E-03
            1772         469.010         469.010     444.700E-03     444.700E-03     355.688E-03     355.688E-03
            1773         469.016         469.016     471.609E-03     471.609E-03     435.467E-03     435.467E-03
            1774         469.022         469.022     503.265E-03     503.265E-03     519.925E-03     519.925E-03
            1775         469.029         469.029     539.554E-03     539.554E-03     609.810E-03     609.810E-03
            1776         469.037         469.037     580.315E-03     580.315E-03     705.851E-03     705.851E-03
            1777         469.046         469.046     625.322E-03     625.322E-03     808.749E-03     808.749E-03
            1778         469.055         469.055     674.265E-03     674.265E-03     919.172E-03     919.172E-03
            1779         469.065         469.065     726.726E-03     726.726E-03         1.03775         1.03775
            1780         469.076         469.076     782.152E-03     782.152E-03         1.16505         1.16505
            1781         469.088         469.088     839.823E-03     839.823E-03         1.30158         1.30158
            1782         469.101         469.101     898.809E-03     898.809E-03         1.44777         1.44777
            1783         469.114         469.114     957.928E-03     957.928E-03         1.60395         1.60395
            1784         469.129         469.129         1.01569         1.01569         1.77033         1.77033
            1785         469.147         469.147         1.07022         1.07022         1.94699         1.94699
            1786         469.167         469.167         1.11921         1.11921         2.13384         2.13384
            1787         469.190         469.190         1.15982         1.15982         2.33062         2.33062
            1788         469.219         469.219         1.18859         1.18859         2.53682         2.53682
            1789         469.255         469.255         1.20134         1.20134         2.75170         2.75170
            1790         469.302         469.302         1.19304         1.19304         2.97420         2.97420
            1791         469.362         469.362         1.15777         1.15777         3.20289         3.20289
            1792         469.441         469.441         1.08852         1.08852         3.43590         3.43590
            1793         469.544         469.544     977.214E-03     977.214E-03         3.67079         3.67079
            1794         469.680         469.680     814.588E-03     814.588E-03         3.90440         3.90440
            1795         469.858         469.858     590.272E-03     590.272E-03         4.13261         4.13261
            1796         470.090         470.090     292.891E-03     292.891E-03         4.35005         4.35005
            1797         470.391         470.391    -89.5797E-03    -89.5797E-03         4.54957         4.54957
            1798         470.779         470.779    -569.291E-03    -569.291E-03         4.72166         4.72166
            1799         471.274         471.274        -1.15746        -1.15746         4.85350         4.85350
            1800         471.900         471.900        -1.86294        -1.86294         4.92791         4.92791
            1801         472.679         472.679        -2.68965        -2.68965         4.92183         4.92183
            1802         473.637         473.637        -3.63323        -3.63323         4.80508         4.80508
            1803         474.794         474.794        -4.67597        -4.67597         4.53871         4.53871
            1804         476.160         476.160        -5.77998        -5.77998         4.07533         4.07533
            1805         477.731         477.731        -6.87961        -6.87961         3.36027         3.36027
            1806         479.475         479.475        -7.87169        -7.87169         2.33825         2.33825
            1807         481.326         481.326        -8.61264        -8.61264     963.652E-03     963.652E-03
            1808         483.171         483.171        -8.90893        -8.90893    -787.229E-03    -787.229E-03
            1809         484.841         484.841        -8.52133        -8.52133        -2.88330        -2.88330
            1810         469.039         469.039     318.598E-03     318.598E-03     66.3524E-03     66.3524E-03
            1811         469.043         469.043     324.825E-03     324.825E-03     133.046E-03     133.046E-03
            1812         469.050         469.050     335.185E-03     335.185E-03     201.537E-03     201.537E-03
            1813         469.059         469.059     349.669E-03     349.669E-03     272.388E-03     272.388E-03
            1814         469.072         469.072     368.253E-03     368.253E-03     346.376E-03     346.376E-03
            1815         469.087         469.087     390.898E-03     390.898E-03     424.272E-03     424.272E-03
            1816         469.105         469.105     417.540E-03     417.540E-03     506.835E-03     506.835E-03
            1817         469.126         469.126     448.086E-03     448.086E-03     594.808E-03     594.808E-03
            1818         469.150         469.150     482.398E-03     482.398E-03     688.912E-03     688.912E-03
            1819         469.177         469.177     520.282E-03     520.282E-03     789.839E-03     789.839E-03
            1820         469.207         469.207     561.469E-03     561.469E-03     898.243E-03     898.243E-03
            1821         469.241         469.241     605.594E-03     605.594E-03         1.01473         1.01473
            1822         469.278         469.278     652.170E-03     652.170E-03         1.13982         1.13982
            1823         469.320         469.320     700.559E-03     700.559E-03         1.27399         1.27399
            1824         469.365         469.365     749.932E-03     749.932E-03         1.41759         1.41759
            1825         469.414         469.414     799.229E-03     799.229E-03         1.57085         1.57085
            1826         469.469         469.469     847.104E-03     847.104E-03         1.73383         1.73383
            1827         469.529         469.529     891.869E-03     891.869E-03         1.90643         1.90643
            1828         469.595         469.595     931.423E-03     931.423E-03         2.08830         2.08830
            1829         469.669         469.669     963.172E-03     963.172E-03         2.27884         2.27884
            1830         469.752         469.752     983.952E-03     983.952E-03         2.47711         2.47711
            1831         469.846         469.846     989.928E-03     989.928E-03         2.68179         2.68179
            1832         469.953         469.953     976.506E-03     976.506E-03         2.89109         2.89109
            1833         470.077         470.077     938.239E-03     938.239E-03         3.10266         3.10266
            1834         470.221         470.221     868.757E-03     868.757E-03         3.31351         3.31351
            1835         470.392         470.392     760.715E-03     760.715E-03         3.51983         3.51983
            1836         470.597         470.597     605.815E-03     605.815E-03         3.71679         3.71679
            1837         470.842         470.842     394.884E-03     394.884E-03         3.89840         3.89840
            1838         471.139         471.139     118.140E-03     118.140E-03         4.05708         4.05708
            1839         471.500         471.500    -234.404E-03    -234.404E-03         4.18341         4.18341
            1840         471.938         471.938    -672.165E-03    -672.165E-03         4.26551         4.26551
            1841         472.468         472.468        -1.20288        -1.20288         4.28858         4.28858
            1842         473.107         473.107        -1.83086        -1.83086         4.23411         4.23411
            1843         473.870         473.870        -2.55454        -2.55454         4.07939         4.07939
            1844         474.770         474.770        -3.36321        -3.36321         3.79696         3.79696
            1845         475.815         475.815        -4.23250        -4.23250         3.35501         3.35501
            1846         476.999         476.999        -5.11966        -5.11966         2.71863         2.71863
            1847         478.302         478.302        -5.95735        -5.95735         1.85357         1.85357
            1848         479.681         479.681        -6.65071        -6.65071     732.719E-03     732.719E-03
            1849         481.066         481.066        -7.07290        -7.07290    -655.424E-03    -655.424E-03
            1850         482.351         482.351        -7.06897        -7.06897        -2.28913        -2.28913
            1851         483.402         483.402        -6.46801        -6.46801        -4.09623        -4.09623
            1852         469.070         469.070     254.183E-03     254.183E-03     62.8367E-03     62.8367E-03
            1853         469.077         469.077     259.250E-03     259.250E-03     125.984E-03     125.984E-03
            1854         469.088         469.088     267.680E-03     267.680E-03     190.893E-03     190.893E-03
            1855         469.103         469.103     279.470E-03     279.470E-03     258.102E-03     258.102E-03
            1856         469.123         469.123     294.599E-03     294.599E-03     328.367E-03     328.367E-03
            1857         469.148         469.148     313.038E-03     313.038E-03     402.441E-03     402.441E-03
            1858         469.178         469.178     334.739E-03     334.739E-03     481.063E-03     481.063E-03
            1859         469.213         469.213     359.625E-03     359.625E-03     564.956E-03     564.956E-03
            1860         469.253         469.253     387.587E-03     387.587E-03     654.822E-03     654.822E-03
            1861         469.298         469.298     418.465E-03     418.465E-03     751.329E-03     751.329E-03
            1862         469.350         469.350     452.035E-03     452.035E-03     855.106E-03     855.106E-03
            1863         469.407         469.407     487.995E-03     487.995E-03     966.725E-03     966.725E-03
            1864         469.471         469.471     525.934E-03     525.934E-03         1.08669         1.08669
            1865         469.542         469.542     565.310E-03     565.310E-03         1.21540         1.21540
            1866         469.620         469.620     605.420E-03     605.420E-03         1.35314         1.35314
            1867         469.706         469.706     645.352E-03     645.352E-03         1.50008         1.50008
            1868         469.800         469.800     683.949E-03     683.949E-03         1.65615         1.65615
            1869         469.904         469.904     719.750E-03     719.750E-03         1.82110         1.82110
            1870         470.017         470.017     750.928E-03     750.928E-03         1.99437         1.99437
            1871         470.141         470.141     775.225E-03     775.225E-03         2.17510         2.17510
            1872         470.278         470.278     789.873E-03     789.873E-03         2.36198         2.36198
            1873         470.429         470.429     791.515E-03     791.515E-03         2.55324         2.55324
            1874         470.596         470.596     776.125E-03     776.125E-03         2.74651         2.74651
            1875         470.781         470.781     738.938E-03     738.938E-03         2.93872         2.93872
            1876         470.989         470.989     674.394E-03     674.394E-03         3.12599         3.12599
            1877         471.223         471.223     576.127E-03     576.127E-03         3.30342         3.30342
            1878         471.489         471.489     437.002E-03     437.002E-03         3.46497         3.46497
            1879         471.792         471.792     249.270E-03     249.270E-03         3.60320         3.60320
            1880         472.141         472.141     4.84544E-03     4.84544E-03         3.70908         3.70908
            1881         472.543         472.543    -304.179E-03    -304.179E-03         3.77167         3.77167
            1882         473.008         473.008    -684.762E-03    -684.762E-03         3.77787         3.77787
            1883         473.546         473.546        -1.14172        -1.14172         3.71215         3.71215
            1884         474.167         474.167        -1.67605        -1.67605         3.55636         3.55636
            1885         474.877         474.877        -2.28272        -2.28272         3.28977         3.28977
            1886         475.680         475.680        -2.94772        -2.94772         2.88959         2.88959
            1887         476.574         476.574        -3.64480        -3.64480         2.33209         2.33209
            1888         477.544         477.544        -4.33151        -4.33151         1.59511         1.59511
            1889         478.565         478.565        -4.94665        -4.94665     662.190E-03     662.190E-03
            1890         479.589         479.589        -5.40751        -5.40751    -471.909E-03    -471.909E-03
            1891         480.553         480.553        -5.61169        -5.61169        -1.79147        -1.79147
            1892         481.370         481.370        -5.44339        -5.44339        -3.25016        -3.25016
            1893         481.945         481.945        -4.78768        -4.78768        -4.75774        -4.75774
            1894         469.090         469.090     194.073E-03     194.073E-03     57.6909E-03     57.6909E-03
            1895         469.099         469.099     198.023E-03     198.023E-03     115.646E-03     115.646E-03
            1896         469.114         469.114     204.601E-03     204.601E-03     175.285E-03     175.285E-03
            1897         469.135         469.135     213.800E-03     213.800E-03     237.104E-03     237.104E-03
            1898         469.163         469.163     225.607E-03     225.607E-03     301.820E-03     301.820E-03
            1899         469.197         469.197     240.003E-03     240.003E-03     370.149E-03     370.149E-03
            1900         469.238         469.238     256.950E-03     256.950E-03     442.791E-03     442.791E-03
            1901         469.286         469.286     276.394E-03     276.394E-03     520.435E-03     520.435E-03
            1902         469.342         469.342     298.251E-03     298.251E-03     603.746E-03     603.746E-03
            1903         469.405         469.405     322.396E-03     322.396E-03     693.358E-03     693.358E-03
            1904         469.478         469.478     348.657E-03     348.657E-03     789.863E-03     789.863E-03
            1905         469.559         469.559     376.792E-03     376.792E-03     893.797E-03     893.797E-03
            1906         469.649         469.649     406.475E-03     406.475E-03         1.00562         1.00562
            1907         469.749         469.749     437.274E-03     437.274E-03         1.12570         1.12570
            1908         469.860         469.860     468.617E-03     468.617E-03         1.25428         1.25428
            1909         469.982         469.982     499.767E-03     499.767E-03         1.39142         1.39142
            1910         470.116         470.116     529.779E-03     529.779E-03         1.53702         1.53702
            1911         470.263         470.263     557.455E-03     557.455E-03         1.69070         1.69070
            1912         470.424         470.424     581.291E-03     581.291E-03         1.85179         1.85179
            1913         470.599         470.599     599.422E-03     599.422E-03         2.01922         2.01922
            1914         470.789         470.789     609.555E-03     609.555E-03         2.19147         2.19147
            1915         470.997         470.997     608.902E-03     608.902E-03         2.36647         2.36647
            1916         471.223         471.223     594.121E-03     594.121E-03         2.54146         2.54146
            1917         471.469         471.469     561.252E-03     561.252E-03         2.71291         2.71291
            1918         471.739         471.739     505.691E-03     505.691E-03         2.87634         2.87634
            1919         472.033         472.033     422.182E-03     422.182E-03         3.02619         3.02619
            1920         472.356         472.356     304.895E-03     304.895E-03         3.15561         3.15561
            1921         472.711         472.711     147.571E-03     147.571E-03         3.25636         3.25636
            1922         473.102         473.102    -56.1638E-03    -56.1638E-03         3.31856         3.31856
            1923         473.535         473.535    -312.323E-03    -312.323E-03         3.33063         3.33063
            1924         474.013         474.013    -625.791E-03    -625.791E-03         3.27911         3.27911
            1925         474.541         474.541    -999.246E-03    -999.246E-03         3.14879         3.14879
            1926         475.122         475.122        -1.43170        -1.43170         2.92287         2.92287
            1927         475.757         475.757        -1.91653        -1.91653         2.58354         2.58354
            1928         476.442         476.442        -2.43934        -2.43934         2.11305         2.11305
            1929         477.167         477.167        -2.97521        -2.97521         1.49548         1.49548
            1930         477.915         477.915        -3.48664        -3.48664     719.602E-03     719.602E-03
            1931         478.656         478.656        -3.92153        -3.92153    -217.416E-03    -217.416E-03
            1932         479.349         479.349        -4.21346        -4.21346        -1.30424        -1.30424
            1933         479.941         479.941        -4.28448        -4.28448        -2.50961        -2.50961
            1934         480.369         480.369        -4.05247        -4.05247        -3.77471        -3.77471
            1935         480.570         480.570        -3.44512        -3.44512        -5.00818        -5.00818
            1936         469.095         469.095     139.852E-03     139.852E-03     50.9936E-03     50.9936E-03
            1937         469.106         469.106     142.764E-03     142.764E-03     102.189E-03     102.189E-03
            1938         469.125         469.125     147.615E-03     147.615E-03     154.944E-03     154.944E-03
            1939         469.151         469.151     154.398E-03     154.398E-03     209.695E-03     209.695E-03
            1940         469.186         469.186     163.108E-03     163.108E-03     267.101E-03     267.101E-03
            1941         469.229         469.229     173.730E-03     173.730E-03     327.816E-03     327.816E-03
            1942         469.281         469.281     186.242E-03     186.242E-03     392.488E-03     392.488E-03
            1943         469.342         469.342     200.606E-03     200.606E-03     461.748E-03     461.748E-03
            1944         469.413         469.413     216.762E-03     216.762E-03     536.209E-03     536.209E-03
            1945         469.494         469.494     234.622E-03     234.622E-03     616.456E-03     616.456E-03
            1946         469.586         469.586     254.058E-03     254.058E-03     703.035E-03     703.035E-03
            1947         469.690         469.690     274.895E-03     274.895E-03     796.437E-03     796.437E-03
            1948         469.806         469.806     296.889E-03     296.889E-03     897.084E-03     897.084E-03
            1949         469.935         469.935     319.717E-03     319.717E-03         1.00530         1.00530
            1950         470.078         470.078     342.948E-03     342.948E-03         1.12129         1.12129
            1951         470.236         470.236     366.024E-03     366.024E-03         1.24510         1.24510
            1952         470.409         470.409     388.224E-03     388.224E-03         1.37656         1.37656
            1953         470.600         470.600     408.629E-03     408.629E-03         1.51526         1.51526
            1954         470.807         470.807     426.084E-03     426.084E-03         1.66048         1.66048
            1955         471.033         471.033     439.147E-03     439.147E-03         1.81108         1.81108
            1956         471.277         471.277     446.041E-03     446.041E-03         1.96546         1.96546
            1957         471.542         471.542     444.603E-03     444.603E-03         2.12144         2.12144
            1958         471.828         471.828     432.229E-03     432.229E-03         2.27612         2.27612
            1959         472.135         472.135     405.840E-03     405.840E-03         2.42578         2.42578
            1960         472.466         472.466     361.853E-03     361.853E-03         2.56573         2.56573
            1961         472.820         472.820     296.198E-03     296.198E-03         2.69016         2.69016
            1962         473.199         473.199     204.377E-03     204.377E-03         2.79198         2.79198
            1963         473.604         473.604     81.6227E-03     81.6227E-03         2.86268         2.86268
            1964         474.035         474.035    -76.8424E-03    -76.8424E-03         2.89227         2.89227
            1965         474.493         474.493    -275.370E-03    -275.370E-03         2.86920         2.86920
            1966         474.979         474.979    -517.241E-03    -517.241E-03         2.78049         2.78049
            1967         475.490         475.490    -803.772E-03    -803.772E-03         2.61190         2.61190
            1968         476.024         476.024        -1.13309        -1.13309         2.34856         2.34856
            1969         476.575         476.575        -1.49871        -1.49871         1.97575         1.97575
            1970         477.135         477.135        -1.88773        -1.88773         1.48037         1.48037
            1971         477.690         477.690        -2.27926        -2.27926     852.950E-03     852.950E-03
            1972         478.218         478.218        -2.64275        -2.64275     90.3375E-03     90.3375E-03
            1973         478.694         478.694        -2.93760        -2.93760    -800.570E-03    -800.570E-03
            1974         479.082         479.082        -3.11386        -3.11386        -1.79899        -1.79899
            1975         479.343         479.343        -3.11559        -3.11559        -2.86558        -2.86558
            1976         479.437         479.437        -2.88776        -2.88776        -3.93927        -3.93927
            1977         479.327         479.327        -2.38617        -2.38617        -4.93575        -4.93575
            1978         469.083         469.083     93.0061E-03     93.0061E-03     42.8697E-03     42.8697E-03
            1979         469.096         469.096     94.9892E-03     94.9892E-03     85.8562E-03     85.8562E-03
            1980         469.118         469.118     98.2945E-03     98.2945E-03     130.233E-03     130.233E-03
            1981         469.150         469.150     102.916E-03     102.916E-03     176.351E-03     176.351E-03
            1982         469.191         469.191     108.849E-03     108.849E-03     224.790E-03     224.790E-03
            1983         469.242         469.242     116.088E-03     116.088E-03     276.126E-03     276.126E-03
            1984         469.304         469.304     124.620E-03     124.620E-03     330.925E-03     330.925E-03
            1985         469.377         469.377     134.423E-03     134.423E-03     389.743E-03     389.743E-03
            1986         469.462         469.462     145.458E-03     145.458E-03     453.122E-03     453.122E-03
            1987         469.559         469.559     157.667E-03     157.667E-03     521.580E-03     521.580E-03
            1988         469.670         469.670     170.966E-03     170.966E-03     595.602E-03     595.602E-03
            1989         469.795         469.795     185.237E-03     185.237E-03     675.626E-03     675.626E-03
            1990         469.935         469.935     200.316E-03     200.316E-03     762.025E-03     762.025E-03
            1991         470.092         470.092     215.980E-03     215.980E-03     855.091E-03     855.091E-03
            1992         470.267         470.267     231.935E-03     231.935E-03     954.999E-03     954.999E-03
            1993         470.459         470.459     247.794E-03     247.794E-03         1.06178         1.06178
            1994         470.671         470.671     263.053E-03     263.053E-03         1.17528         1.17528
            1995         470.904         470.904     277.071E-03     277.071E-03         1.29510         1.29510
            1996         471.158         471.158     289.035E-03     289.035E-03         1.42054         1.42054
            1997         471.434         471.434     297.927E-03     297.927E-03         1.55054         1.55054
            1998         471.733         471.733     302.487E-03     302.487E-03         1.68356         1.68356
            1999         472.056         472.056     301.177E-03     301.177E-03         1.81750         1.81750
            2000         472.403         472.403     292.143E-03     292.143E-03         1.94960         1.94960
            2001         472.773         472.773     273.185E-03     273.185E-03         2.07629         2.07629
            2002         473.167         473.167     241.746E-03     241.746E-03         2.19303         2.19303
            2003         473.584         473.584     194.921E-03     194.921E-03         2.29426         2.29426
            2004         474.022         474.022     129.514E-03     129.514E-03         2.37315         2.37315
            2005         474.479         474.479     42.1562E-03     42.1562E-03         2.42162         2.42162
            2006         474.954         474.954    -70.4849E-03    -70.4849E-03         2.43019         2.43019
            2007         475.442         475.442    -211.369E-03    -211.369E-03         2.38808         2.38808
            2008         475.938         475.938    -382.601E-03    -382.601E-03         2.28336         2.28336
            2009         476.436         476.436    -584.733E-03    -584.733E-03         2.10337         2.10337
            2010         476.927         476.927    -815.924E-03    -815.924E-03         1.83535         1.83535
            2011         477.400         477.400        -1.07082        -1.07082         1.46749         1.46749
            2012         477.842         477.842        -1.33947        -1.33947     990.431E-03     990.431E-03
            2013         478.234         478.234        -1.60610        -1.60610     399.251E-03     399.251E-03
            2014         478.557         478.557        -1.84841        -1.84841    -303.937E-03    -303.937E-03
            2015         478.784         478.784        -2.03740        -2.03740        -1.10720        -1.10720
            2016         478.891         478.891        -2.13846        -2.13846        -1.98550        -1.98550
            2017         478.849         478.849        -2.11432        -2.11432        -2.89830        -2.89830
            2018         478.637         478.637        -1.92978        -1.92978        -3.78817        -3.78817
            2019         478.240         478.240        -1.55927        -1.55927        -4.58161        -4.58161
            2020         469.052         469.052     54.8737E-03     54.8737E-03     33.4844E-03     33.4844E-03
            2021         469.067         469.067     56.0761E-03     56.0761E-03     66.9872E-03     66.9872E-03
            2022         469.092         469.092     58.0799E-03     58.0799E-03     101.648E-03     101.648E-03
            2023         469.128         469.128     60.8688E-03     60.8688E-03     137.729E-03     137.729E-03
            2024         469.175         469.175     64.4488E-03     64.4488E-03     175.706E-03     175.706E-03
            2025         469.233         469.233     68.8231E-03     68.8231E-03     216.043E-03     216.043E-03
            2026         469.304         469.304     73.9829E-03     73.9829E-03     259.203E-03     259.203E-03
            2027         469.387         469.387     79.9156E-03     79.9156E-03     305.646E-03     305.646E-03
            2028         469.484         469.484     86.5999E-03     86.5999E-03     355.819E-03     355.819E-03
            2029         469.596         469.596     94.0030E-03     94.0030E-03     410.152E-03     410.152E-03
            2030         469.724         469.724     102.076E-03     102.076E-03     469.050E-03     469.050E-03
            2031         469.869         469.869     110.750E-03     110.750E-03     532.881E-03     532.881E-03
            2032         470.032         470.032     119.926E-03     119.926E-03     601.962E-03     601.962E-03
            2033         470.215         470.215     129.472E-03     129.472E-03     676.543E-03     676.543E-03
            2034         470.418         470.418     139.210E-03     139.210E-03     756.780E-03     756.780E-03
            2035         470.644         470.644     148.903E-03     148.903E-03     842.709E-03     842.709E-03
            2036         470.894         470.894     158.246E-03     158.246E-03     934.207E-03     934.207E-03
            2037         471.168         471.168     166.843E-03     166.843E-03         1.03095         1.03095
            2038         471.468         471.468     174.192E-03     174.192E-03         1.13235         1.13235
            2039         471.794         471.794     179.661E-03     179.661E-03         1.23752         1.23752
            2040         472.148         472.148     182.467E-03     182.467E-03         1.34513         1.34513
            2041         472.530         472.530     181.646E-03     181.646E-03         1.45341         1.45341
            2042         472.939         472.939     176.036E-03     176.036E-03         1.55994         1.55994
            2043         473.376         473.376     164.254E-03     164.254E-03         1.66165         1.66165
            2044         473.837         473.837     144.689E-03     144.689E-03         1.75460         1.75460
            2045         474.322         474.322     115.509E-03     115.509E-03         1.83392         1.83392
            2046         474.826         474.826     74.6992E-03     74.6992E-03         1.89367         1.89367
            2047         475.346         475.346     20.1412E-03     20.1412E-03         1.92677         1.92677
            2048         475.874         475.874    -50.2475E-03    -50.2475E-03         1.92500         1.92500
            2049         476.403         476.403    -138.294E-03    -138.294E-03         1.87903         1.87903
            2050         476.924         476.924    -245.242E-03    -245.242E-03         1.77865         1.77865
            2051         477.424         477.424    -371.321E-03    -371.321E-03         1.61322         1.61322
            2052         477.889         477.889    -515.161E-03    -515.161E-03         1.37228         1.37228
            2053         478.302         478.302    -673.151E-03    -673.151E-03         1.04659         1.04659
            2054         478.645         478.645    -838.677E-03    -838.677E-03     629.554E-03     629.554E-03
            2055         478.895         478.895        -1.00151        -1.00151     118.977E-03     118.977E-03
            2056         479.031         479.031        -1.14736        -1.14736    -480.815E-03    -480.815E-03
            2057         479.031         479.031        -1.25796        -1.25796        -1.15658        -1.15658
            2058         478.872         478.872        -1.31198        -1.31198        -1.88412        -1.88412
            2059         478.540         478.540        -1.28693        -1.28693        -2.62662        -2.62662
            2060         478.025         478.025        -1.16238        -1.16238        -3.33456        -3.33456
            2061         477.331         477.331    -923.976E-03    -923.976E-03        -3.94748        -3.94748
            2062         469.001         469.001     26.6071E-03     26.6071E-03     23.0705E-03     23.0705E-03
            2063         469.017         469.017     27.2231E-03     27.2231E-03     46.0031E-03     46.0031E-03
            2064         469.045         469.045     28.2135E-03     28.2135E-03     69.8318E-03     69.8318E-03
            2065         469.084         469.084     29.5835E-03     29.5835E-03     94.6955E-03     94.6955E-03
            2066         469.135         469.135     31.3533E-03     31.3533E-03     120.917E-03     120.917E-03
            2067         469.199         469.199     33.5171E-03     33.5171E-03     148.831E-03     148.831E-03
            2068         469.277         469.277     36.0713E-03     36.0713E-03     178.777E-03     178.777E-03
            2069         469.369         469.369     39.0106E-03     39.0106E-03     211.088E-03     211.088E-03
            2070         469.477         469.477     42.3249E-03     42.3249E-03     246.091E-03     246.091E-03
            2071         469.601         469.601     45.9991E-03     45.9991E-03     284.102E-03     284.102E-03
            2072         469.744         469.744     50.0100E-03     50.0100E-03     325.422E-03     325.422E-03
            2073         469.906         469.906     54.3242E-03     54.3242E-03     370.325E-03     370.325E-03
            2074         470.090         470.090     58.8944E-03     58.8944E-03     419.054E-03     419.054E-03
            2075         470.296         470.296     63.6558E-03     63.6558E-03     471.802E-03     471.802E-03
            2076         470.526         470.526     68.5205E-03     68.5205E-03     528.699E-03     528.699E-03
            2077         470.783         470.783     73.3719E-03     73.3719E-03     589.786E-03     589.786E-03
            2078         471.067         471.067     78.0575E-03     78.0575E-03     654.994E-03     654.994E-03
            2079         471.381         471.381     82.3796E-03     82.3796E-03     724.103E-03     724.103E-03
            2080         471.725         471.725     86.0861E-03     86.0861E-03     796.708E-03     796.708E-03
            2081         472.102         472.102     88.8584E-03     88.8584E-03     872.161E-03     872.161E-03
            2082         472.511         472.511     90.2995E-03     90.2995E-03     949.517E-03     949.517E-03
            2083         472.953         472.953     89.9200E-03     89.9200E-03         1.02746         1.02746
            2084         473.428         473.428     87.1273E-03     87.1273E-03         1.10423         1.10423
            2085         473.934         473.934     81.2133E-03     81.2133E-03         1.17752         1.17752
            2086         474.470         474.470     71.3518E-03     71.3518E-03         1.24438         1.24438
            2087         475.031         475.031     56.6001E-03     56.6001E-03         1.30116         1.30116
            2088         475.613         475.613     35.9208E-03     35.9208E-03         1.34337         1.34337
            2089         476.208         476.208     8.22077E-03     8.22077E-03         1.36563         1.36563
            2090         476.807         476.807    -27.5732E-03    -27.5732E-03         1.36170         1.36170
            2091         477.399         477.399    -72.3983E-03    -72.3983E-03         1.32450         1.32450
            2092         477.968         477.968    -126.888E-03    -126.888E-03         1.24629         1.24629
            2093         478.498         478.498    -191.133E-03    -191.133E-03         1.11904         1.11904
            2094         478.967         478.967    -264.398E-03    -264.398E-03     934.946E-03     934.946E-03
            2095         479.352         479.352    -344.748E-03    -344.748E-03     687.273E-03     687.273E-03
            2096         479.628         479.628    -428.719E-03    -428.719E-03     371.470E-03     371.470E-03
            2097         479.769         479.769    -510.944E-03    -510.944E-03    -13.4765E-03    -13.4765E-03
            2098         479.748         479.748    -584.007E-03    -584.007E-03    -463.366E-03    -463.366E-03
            2099         479.541         479.541    -638.513E-03    -638.513E-03    -967.168E-03    -967.168E-03
            2100         479.130         479.130    -663.583E-03    -663.583E-03        -1.50552        -1.50552
            2101         478.504         478.504    -648.010E-03    -648.010E-03        -2.04989        -2.04989
            2102         477.667         477.667    -581.725E-03    -581.725E-03        -2.56276        -2.56276
            2103         476.636         476.636    -457.636E-03    -457.636E-03        -2.99889        -2.99889
            2104         468.927         468.927     9.10147E-03     9.10147E-03     11.8889E-03     11.8889E-03
            2105         468.945         468.945     9.33824E-03     9.33824E-03     23.5287E-03     23.5287E-03
            2106         468.974         468.974     9.66493E-03     9.66493E-03     35.7548E-03     35.7548E-03
            2107         469.016         469.016     10.1353E-03     10.1353E-03     48.5246E-03     48.5246E-03
            2108         469.070         469.070     10.7482E-03     10.7482E-03     62.0107E-03     62.0107E-03
            2109         469.139         469.139     11.4960E-03     11.4960E-03     76.3988E-03     76.3988E-03
            2110         469.221         469.221     12.3806E-03     12.3806E-03     91.8689E-03     91.8689E-03
            2111         469.320         469.320     13.3982E-03     13.3982E-03     108.601E-03     108.601E-03
            2112         469.436         469.436     14.5467E-03     14.5467E-03     126.772E-03     126.772E-03
            2113         469.570         469.570     15.8204E-03     15.8204E-03     146.554E-03     146.554E-03
            2114         469.725         469.725     17.2119E-03     17.2119E-03     168.111E-03     168.111E-03
            2115         469.901         469.901     18.7097E-03     18.7097E-03     191.597E-03     191.597E-03
            2116         470.102         470.102     20.2976E-03     20.2976E-03     217.145E-03     217.145E-03
            2117         470.328         470.328     21.9534E-03     21.9534E-03     244.870E-03     244.870E-03
            2118         470.582         470.582     23.6468E-03     23.6468E-03     274.847E-03     274.847E-03
            2119         470.866         470.866     25.3373E-03     25.3373E-03     307.112E-03     307.112E-03
            2120         471.183         471.183     26.9719E-03     26.9719E-03     341.639E-03     341.639E-03
            2121         471.533         471.533     28.4816E-03     28.4816E-03     378.322E-03     378.322E-03
            2122         471.920         471.920     29.7781E-03     29.7781E-03     416.958E-03     416.958E-03
            2123         472.345         472.345     30.7494E-03     30.7494E-03     457.211E-03     457.211E-03
            2124         472.809         472.809     31.2553E-03     31.2553E-03     498.587E-03     498.587E-03
            2125         473.313         473.313     31.1233E-03     31.1233E-03     540.388E-03     540.388E-03
            2126         473.856         473.856     30.1426E-03     30.1426E-03     581.667E-03     581.667E-03
            2127         474.437         474.437     28.0619E-03     28.0619E-03     621.182E-03     621.182E-03
            2128         475.054         475.054     24.5858E-03     24.5858E-03     657.335E-03     657.335E-03
            2129         475.703         475.703     19.3782E-03     19.3782E-03     688.119E-03     688.119E-03
            2130         476.377         476.377     12.0657E-03     12.0657E-03     711.069E-03     711.069E-03
            2131         477.067         477.067     2.25703E-03     2.25703E-03     723.220E-03     723.220E-03
            2132         477.762         477.762    -10.4359E-03    -10.4359E-03     721.102E-03     721.102E-03
            2133         478.445         478.445    -26.3504E-03    -26.3504E-03     700.772E-03     700.772E-03
            2134         479.098         479.098    -45.7156E-03    -45.7156E-03     657.907E-03     657.907E-03
            2135         479.697         479.697    -68.5663E-03    -68.5663E-03     588.011E-03     588.011E-03
            2136         480.215         480.215    -94.6324E-03    -94.6324E-03     486.710E-03     486.710E-03
            2137         480.621         480.621    -123.223E-03    -123.223E-03     350.246E-03     350.246E-03
            2138         480.881         480.881    -153.073E-03    -153.073E-03     176.072E-03     176.072E-03
            2139         480.959         480.959    -182.258E-03    -182.258E-03    -36.3072E-03    -36.3072E-03
            2140         480.821         480.821    -208.094E-03    -208.094E-03    -284.474E-03    -284.474E-03
            2141         480.438         480.438    -227.209E-03    -227.209E-03    -562.131E-03    -562.131E-03
            2142         479.786         479.786    -235.727E-03    -235.727E-03    -858.325E-03    -858.325E-03
            2143         478.856         478.856    -229.642E-03    -229.642E-03        -1.15708        -1.15708
            2144         477.656         477.656    -205.563E-03    -205.563E-03        -1.43750        -1.43750
            2145         476.214         476.214    -160.810E-03    -160.810E-03        -1.67434        -1.67434
            2146         444.191         444.191         128.342         128.342        -34.4418        -34.4418
            2147         448.984         448.984         116.779         116.779        -34.2250        -34.2250
            2148         453.642         453.642         105.178         105.178        -33.0801        -33.0801
            2149         457.997         457.997         93.8285         93.8285        -31.3474        -31.3474
            2150         461.948         461.948         82.9441         82.9441        -29.1120        -29.1120
            2151         465.416         465.416         72.7001         72.7001        -26.4652        -26.4652
            2152         468.350         468.350         63.2328         63.2328        -23.5428        -23.5428
            2153         470.756         470.756         54.6124         54.6124        -20.4708        -20.4708
            2154         472.643         472.643         46.8725         46.8725        -17.3707        -17.3707
            2155         474.068         474.068         39.9971         39.9971        -14.3465        -14.3465
            2156         475.079         475.079         33.9466         33.9466        -11.4707        -11.4707
            2157         475.744         475.744         28.6627         28.6627        -8.80180        -8.80180
            2158         476.118         476.118         24.0755         24.0755        -6.36631        -6.36631
            2159         476.259         476.259         20.1169         20.1169        -4.18254        -4.18254
            2160         476.213         476.213         16.7148         16.7148        -2.24771        -2.24771
            2161         476.023         476.023         13.8067         13.8067    -555.426E-03    -555.426E-03
            2162         475.720         475.720         11.3297         11.3297     911.428E-03     911.428E-03
            2163         475.334         475.334         9.23083         9.23083         2.17080         2.17080
            2164         474.886         474.886         7.45844         7.45844         3.24480         3.24480
            2165         474.395         474.395         5.96875         5.96875         4.15487         4.15487
            2166         473.875         473.875         4.71982         4.71982         4.92322         4.92322
            2167         473.339         473.339         3.67517         3.67517         5.57075         5.57075
            2168         472.796         472.796         2.80001         2.80001         6.11766         6.11766
            2169         472.257         472.257         2.06314         2.06314         6.58273         6.58273
            2170         471.729         471.729         1.43448         1.43448         6.98365         6.98365
            2171         471.221         471.221     886.041E-03     886.041E-03         7.33685         7.33685
            2172         470.742         470.742     390.342E-03     390.342E-03         7.65771         7.65771
            2173         470.303         470.303    -79.3070E-03    -79.3070E-03         7.96058         7.96058
            2174         469.918         469.918    -549.843E-03    -549.843E-03         8.25884         8.25884
            2175         469.602         469.602        -1.04854        -1.04854         8.56477         8.56477
            2176         469.375         469.375        -1.60373        -1.60373         8.88919         8.88919
            2177         469.266         469.266        -2.24511        -2.24511         9.24075         9.24075
            2178         469.307         469.307        -3.00401        -3.00401         9.62450         9.62450
            2179         469.544         469.544        -3.91354        -3.91354         10.0397         10.0397
            2180         470.033         470.033        -5.00732        -5.00732         10.4758         10.4758
            2181         470.844         470.844        -6.31798        -6.31798         10.9070         10.9070
            2182         472.062         472.062        -7.87027        -7.87027         11.2831         11.2831
            2183         473.787         473.787        -9.67192        -9.67192         11.5192         11.5192
            2184         476.115         476.115        -11.6894        -11.6894         11.4798         11.4798
            2185         479.118         479.118        -13.8162        -13.8162         10.9754         10.9754
            2186         482.793         482.793        -15.8206        -15.8206         9.76456         9.76456
            2187         487.008         487.008        -17.3261        -17.3261         7.62589         7.62589
            2188         445.493         445.493         128.067         128.067        -39.3736        -39.3736
            2189         450.530         450.530         115.834         115.834        -39.0939        -39.0939
            2190         455.363         455.363         103.565         103.565        -37.6737        -37.6737
            2191         459.833         459.833         91.5993         91.5993        -35.5502        -35.5502
            2192         463.804         463.804         80.2038         80.2038        -32.8011        -32.8011
            2193         467.180         467.180         69.5996         69.5996        -29.5940        -29.5940
            2194         469.946         469.946         59.9173         59.9173        -26.0875        -26.0875
            2195         472.091         472.091         51.2358         51.2358        -22.4557        -22.4557
            2196         473.690         473.690         43.5528         43.5528        -18.8496        -18.8496
            2197         474.793         474.793         36.8310         36.8310        -15.3793        -15.3793
            2198         475.497         475.497         30.9999         30.9999        -12.1359        -12.1359
            2199         475.869         475.869         25.9716         25.9716        -9.16154        -9.16154
            2200         475.988         475.988         21.6613         21.6613        -6.48863        -6.48863
            2201         475.912         475.912         17.9776         17.9776        -4.11666        -4.11666
            2202         475.693         475.693         14.8447         14.8447        -2.04158        -2.04158
            2203         475.371         475.371         12.1859         12.1859    -243.140E-03    -243.140E-03
            2204         474.978         474.978         9.93985         9.93985         1.29920         1.29920
            2205         474.539         474.539         8.04656         8.04656         2.61204         2.61204
            2206         474.072         474.072         6.45747         6.45747         3.72068         3.72068
            2207         473.593         473.593         5.12616         5.12616         4.65146         4.65146
            2208         473.112         473.112         4.01385         4.01385         5.42877         5.42877
            2209         472.638         472.638         3.08371         3.08371         6.07595         6.07595
            2210         472.179         472.179         2.30372         2.30372         6.61424         6.61424
            2211         471.742         471.742         1.64327         1.64327         7.06320         7.06320
            2212         471.333         471.333         1.07454         1.07454         7.44042         7.44042
            2213         470.959         470.959     570.441E-03     570.441E-03         7.76174         7.76174
            2214         470.629         470.629     105.260E-03     105.260E-03         8.04125         8.04125
            2215         470.354         470.354    -346.620E-03    -346.620E-03         8.29130         8.29130
            2216         470.146         470.146    -810.505E-03    -810.505E-03         8.52242         8.52242
            2217         470.022         470.022        -1.31207        -1.31207         8.74311         8.74311
            2218         470.001         470.001        -1.87728        -1.87728         8.95925         8.95925
            2219         470.111         470.111        -2.53242        -2.53242         9.17319         9.17319
            2220         470.384         470.384        -3.30371        -3.30371         9.38224         9.38224
            2221         470.858         470.858        -4.21601        -4.21601         9.57621         9.57621
            2222         471.583         471.583        -5.29089        -5.29089         9.73421         9.73421
            2223         472.611         472.611        -6.54189        -6.54189         9.81944         9.81944
            2224         474.002         474.002        -7.96776        -7.96776         9.77423         9.77423
            2225         475.809         475.809        -9.53910        -9.53910         9.51239         9.51239
            2226         478.068         478.068        -11.1803        -11.1803         8.91861         8.91861
            2227         480.774         480.774        -12.7447        -12.7447         7.84941         7.84941
            2228         483.847         483.847        -13.9922        -13.9922         6.16413         6.16413
            2229         487.141         487.141        -14.6032        -14.6032         3.73751         3.73751
            2230         447.199         447.199         127.731         127.731        -44.5776        -44.5776
            2231         452.484         452.484         114.679         114.679        -44.1852        -44.1852
            2232         457.543         457.543         101.566         101.566        -42.4428        -42.4428
            2233         462.115         462.115         88.8452         88.8452        -39.7951        -39.7951
            2234         466.049         466.049         76.8623         76.8623        -36.4325        -36.4325
            2235         469.274         469.274         65.8553         65.8553        -32.5373        -32.5373
            2236         471.743         471.743         55.9901         55.9901        -28.3579        -28.3579
            2237         473.544         473.544         47.2963         47.2963        -24.1103        -24.1103
            2238         474.728         474.728         39.7508         39.7508        -19.9637        -19.9637
            2239         475.434         475.434         33.2670         33.2670        -16.0598        -16.0598
            2240         475.748         475.748         27.7320         27.7320        -12.4641        -12.4641
            2241         475.782         475.782         23.0357         23.0357        -9.23060        -9.23060
            2242         475.609         475.609         19.0575         19.0575        -6.36074        -6.36074
            2243         475.298         475.298         15.7027         15.7027        -3.85362        -3.85362
            2244         474.899         474.899         12.8742         12.8742        -1.68375        -1.68375
            2245         474.448         474.448         10.4988         10.4988     173.320E-03     173.320E-03
            2246         473.974         473.974         8.50479         8.50479         1.75058         1.75058
            2247         473.496         473.496         6.83727         6.83727         3.07860         3.07860
            2248         473.027         473.027         5.44380         5.44380         4.18925         4.18925
            2249         472.577         472.577         4.28275         4.28275         5.11151         5.11151
            2250         472.153         472.153         3.31471         3.31471         5.87283         5.87283
            2251         471.760         471.760         2.50684         2.50684         6.49780         6.49780
            2252         471.401         471.401         1.82796         1.82796         7.00866         7.00866
            2253         471.081         471.081         1.25065         1.25065         7.42500         7.42500
            2254         470.803         470.803     748.480E-03     748.480E-03         7.76396         7.76396
            2255         470.574         470.574     296.958E-03     296.958E-03         8.04031         8.04031
            2256         470.399         470.399    -128.013E-03    -128.013E-03         8.26645         8.26645
            2257         470.287         470.287    -549.720E-03    -549.720E-03         8.45246         8.45246
            2258         470.251         470.251    -991.432E-03    -991.432E-03         8.60592         8.60592
            2259         470.304         470.304        -1.47610        -1.47610         8.73163         8.73163
            2260         470.466         470.466        -2.02642        -2.02642         8.83103         8.83103
            2261         470.759         470.759        -2.66424        -2.66424         8.90134         8.90134
            2262         471.211         471.211        -3.40949        -3.40949         8.93404         8.93404
            2263         471.853         471.853        -4.27843        -4.27843         8.91320         8.91320
            2264         472.721         472.721        -5.28029        -5.28029         8.81254         8.81254
            2265         473.850         473.850        -6.41249        -6.41249         8.59312         8.59312
            2266         475.273         475.273        -7.65275        -7.65275         8.19964         8.19964
            2267         477.007         477.007        -8.94826        -8.94826         7.56063         7.56063
            2268         479.046         479.046        -10.2028        -10.2028         6.58964         6.58964
            2269         481.339         481.339        -11.2608        -11.2608         5.19870         5.19870
            2270         483.786         483.786        -11.9085        -11.9085         3.31379         3.31379
            2271         486.211         486.211        -11.8467        -11.8467     886.294E-03     886.294E-03
            2272         449.376         449.376         127.350         127.350        -50.0910        -50.0910
            2273         455.032         455.032         113.230         113.230        -49.5754        -49.5754
            2274         460.302         460.302         99.0659         99.0659        -47.3542        -47.3542
            2275         464.949         464.949         85.4338         85.4338        -44.0703        -44.0703
            2276         468.783         468.783         72.7580         72.7580        -39.8958        -39.8958
            2277         471.687         471.687         61.3658         61.3658        -35.1796        -35.1796
            2278         473.749         473.749         51.3603         51.3603        -30.2235        -30.2235
            2279         475.013         475.013         42.7633         42.7633        -25.2941        -25.2941
            2280         475.679         475.679         35.4683         35.4683        -20.6150        -20.6150
            2281         475.862         475.862         29.3284         29.3284        -16.2887        -16.2887
            2282         475.724         475.724         24.1948         24.1948        -12.4037        -12.4037
            2283         475.366         475.366         19.9017         19.9017        -8.96204        -8.96204
            2284         474.880         474.880         16.3268         16.3268        -5.96672        -5.96672
            2285         474.327         474.327         13.3423         13.3423        -3.38299        -3.38299
            2286         473.753         473.753         10.8592         10.8592        -1.18007        -1.18007
            2287         473.189         473.189         8.78891         8.78891     684.508E-03     684.508E-03
            2288         472.654         472.654         7.06847         7.06847         2.24889         2.24889
            2289         472.160         472.160         5.63724         5.63724         3.55236         3.55236
            2290         471.713         471.713         4.45005         4.45005         4.63006         4.63006
            2291         471.318         471.318         3.46421         3.46421         5.51475         5.51475
            2292         470.975         470.975         2.64592         2.64592         6.23540         6.23540
            2293         470.685         470.685         1.96332         1.96332         6.81774         6.81774
            2294         470.447         470.447         1.38955         1.38955         7.28415         7.28415
            2295         470.262         470.262     898.950E-03     898.950E-03         7.65386         7.65386
            2296         470.131         470.131     468.500E-03     468.500E-03         7.94311         7.94311
            2297         470.057         470.057     75.7715E-03     75.7715E-03         8.16518         8.16518
            2298         470.043         470.043    -300.408E-03    -300.408E-03         8.33062         8.33062
            2299         470.096         470.096    -680.987E-03    -680.987E-03         8.44708         8.44708
            2300         470.225         470.225        -1.08626        -1.08626         8.51934         8.51934
            2301         470.443         470.443        -1.53609        -1.53609         8.54889         8.54889
            2302         470.764         470.764        -2.04931        -2.04931         8.53360         8.53360
            2303         471.206         471.206        -2.64295        -2.64295         8.46685         8.46685
            2304         471.791         471.791        -3.33078        -3.33078         8.33671         8.33671
            2305         472.541         472.541        -4.12103        -4.12103         8.12446         8.12446
            2306         473.479         473.479        -5.01292        -5.01292         7.80355         7.80355
            2307         474.623         474.623        -5.99179        -5.99179         7.33801         7.33801
            2308         475.984         475.984        -7.02228        -7.02228         6.68289         6.68289
            2309         477.554         477.554        -8.04089        -8.04089         5.78555         5.78555
            2310         479.302         479.302        -8.94614        -8.94614         4.59240         4.59240
            2311         481.160         481.160        -9.59603        -9.59603         3.05930         3.05930
            2312         483.016         483.016        -9.79855        -9.79855         1.16402         1.16402
            2313         484.700         484.700        -9.31678        -9.31678        -1.06198        -1.06198
            2314         452.328         452.328         126.859         126.859        -56.0273        -56.0273
            2315         458.312         458.312         111.401         111.401        -55.2498        -55.2498
            2316         463.854         463.854         95.8931         95.8931        -52.4546        -52.4546
            2317         468.506         468.506         81.1324         81.1324        -48.2362        -48.2362
            2318         472.031         472.031         67.7328         67.7328        -43.0623        -43.0623
            2319         474.473         474.473         55.9650         55.9650        -37.3315        -37.3315
            2320         475.833         475.833         45.9699         45.9699        -31.4788        -31.4788
            2321         476.411         476.411         37.6224         37.6224        -25.8641        -25.8641
            2322         476.361         476.361         30.7316         30.7316        -20.6538        -20.6538
            2323         475.931         475.931         25.0868         25.0868        -15.9960        -15.9960
            2324         475.264         475.264         20.4493         20.4493        -11.8888        -11.8888
            2325         474.487         474.487         16.6563         16.6563        -8.33942        -8.33942
            2326         473.680         473.680         13.5333         13.5333        -5.29643        -5.29643
            2327         472.897         472.897         10.9700         10.9700        -2.71823        -2.71823
            2328         472.173         472.173         8.85391         8.85391    -547.925E-03    -547.925E-03
            2329         471.525         471.525         7.11180         7.11180         1.26380         1.26380
            2330         470.963         470.963         5.67228         5.67228         2.76635         2.76635
            2331         470.488         470.488         4.48596         4.48596         4.00323         4.00323
            2332         470.098         470.098         3.50597         3.50597         5.01385         5.01385
            2333         469.791         469.791         2.69751         2.69751         5.83280         5.83280
            2334         469.560         469.560         2.02790         2.02790         6.49012         6.49012
            2335         469.401         469.401         1.47094         1.47094         7.01176         7.01176
            2336         469.309         469.309         1.00186         1.00186         7.41960         7.41960
            2337         469.280         469.280     599.302E-03     599.302E-03         7.73202         7.73202
            2338         469.312         469.312     242.653E-03     242.653E-03         7.96381         7.96381
            2339         469.405         469.405    -87.0165E-03    -87.0165E-03         8.12667         8.12667
            2340         469.560         469.560    -408.295E-03    -408.295E-03         8.22904         8.22904
            2341         469.781         469.781    -738.901E-03    -738.901E-03         8.27629         8.27629
            2342         470.073         470.073        -1.09617        -1.09617         8.27060         8.27060
            2343         470.444         470.444        -1.49643        -1.49643         8.21078         8.21078
            2344         470.906         470.906        -1.95467        -1.95467         8.09196         8.09196
            2345         471.471         471.471        -2.48333        -2.48333         7.90520         7.90520
            2346         472.153         472.153        -3.09080        -3.09080         7.63692         7.63692
            2347         472.965         472.965        -3.77896        -3.77896         7.26849         7.26849
            2348         473.919         473.919        -4.54005        -4.54005         6.77580         6.77580
            2349         475.019         475.019        -5.35218        -5.35218         6.12984         6.12984
            2350         476.262         476.262        -6.17469        -6.17469         5.29793         5.29793
            2351         477.625         477.625        -6.94193        -6.94193         4.24771         4.24771
            2352         479.065         479.065        -7.56061        -7.56061         2.95357         2.95357
            2353         480.510         480.510        -7.90507        -7.90507         1.40533         1.40533
            2354         481.856         481.856        -7.82189        -7.82189    -374.427E-03    -374.427E-03
            2355         482.968         482.968        -7.14083        -7.14083        -2.31349        -2.31349
            2356         456.181         456.181         126.286         126.286        -62.4162        -62.4162
            2357         462.744         462.744         108.993         108.993        -61.3580        -61.3580
            2358         468.464         468.464         91.7488         91.7488        -57.5743        -57.5743
            2359         472.913         472.913         75.6962         75.6962        -52.1848        -52.1848
            2360         475.953         475.953         61.4837         61.4837        -45.6448        -45.6448
            2361         477.464         477.464         49.5474         49.5474        -38.6869        -38.6869
            2362         477.903         477.903         39.7660         39.7660        -31.9021        -31.9021
            2363         477.468         477.468         31.9044         31.9044        -25.5795        -25.5795
            2364         476.565         476.565         25.6457         25.6457        -19.9798        -19.9798
            2365         475.409         475.409         20.6256         20.6256        -15.0840        -15.0840
            2366         474.177         474.177         16.6210         16.6210        -10.9022        -10.9022
            2367         472.978         472.978         13.3847         13.3847        -7.35263        -7.35263
            2368         471.874         471.874         10.7780         10.7780        -4.37413        -4.37413
            2369         470.901         470.901         8.65498         8.65498        -1.88776        -1.88776
            2370         470.072         470.072         6.92999         6.92999     172.783E-03     172.783E-03
            2371         469.390         469.390         5.51781         5.51781         1.87069         1.87069
            2372         468.849         468.849         4.36436         4.36436         3.26077         3.26077
            2373         468.441         468.441         3.41790         3.41790         4.39074         4.39074
            2374         468.154         468.154         2.64266         2.64266         5.30218         5.30218
            2375         467.975         467.975         2.00507         2.00507         6.03015         6.03015
            2376         467.893         467.893         1.47984         1.47984         6.60485         6.60485
            2377         467.898         467.898         1.04319         1.04319         7.05122         7.05122
            2378         467.981         467.981     675.622E-03     675.622E-03         7.39022         7.39022
            2379         468.133         468.133     358.482E-03     358.482E-03         7.63856         7.63856
            2380         468.349         468.349     75.2287E-03     75.2287E-03         7.80951         7.80951
            2381         468.626         468.626    -190.272E-03    -190.272E-03         7.91273         7.91273
            2382         468.961         468.961    -453.119E-03    -453.119E-03         7.95471         7.95471
            2383         469.354         469.354    -728.106E-03    -728.106E-03         7.93860         7.93860
            2384         469.809         469.809        -1.02917        -1.02917         7.86442         7.86442
            2385         470.329         470.329        -1.36937        -1.36937         7.72885         7.72885
            2386         470.919         470.919        -1.75999        -1.75999         7.52521         7.52521
            2387         471.587         471.587        -2.20960        -2.20960         7.24332         7.24332
            2388         472.340         472.340        -2.72238        -2.72238         6.86953         6.86953
            2389         473.184         473.184        -3.29604        -3.29604         6.38678         6.38678
            2390         474.119         474.119        -3.91884        -3.91884         5.77531         5.77531
            2391         475.143         475.143        -4.56653        -4.56653         5.01387         5.01387
            2392         476.240         476.240        -5.19826        -5.19826         4.08230         4.08230
            2393         477.384         477.384        -5.75425        -5.75425         2.96575         2.96575
            2394         478.527         478.527        -6.15290        -6.15290         1.66030         1.66030
            2395         479.606         479.606        -6.29298        -6.29298     182.650E-03     182.650E-03
            2396         480.534         480.534        -6.05937        -6.05937        -1.42025        -1.42025
            2397         481.216         481.216        -5.33771        -5.33771        -3.05795        -3.05795
            2398         461.730         461.730         125.438         125.438        -69.5222        -69.5222
            2399         468.666         468.666         105.725         105.725        -67.7214        -67.7214
            2400         474.507         474.507         86.2596         86.2596        -62.7240        -62.7240
            2401         478.532         478.532         68.5795         68.5795        -55.4664        -55.4664
            2402         480.340         480.340         53.8166         53.8166        -47.1952        -47.1952
            2403         480.600         480.600         41.9621         41.9621        -38.8803        -38.8803
            2404         479.534         479.534         32.7882         32.7882        -31.0821        -31.0821
            2405         477.868         477.868         25.7779         25.7779        -24.2944        -24.2944
            2406         475.944         475.944         20.3316         20.3316        -18.4447        -18.4447
            2407         474.017         474.017         16.1358         16.1358        -13.5390        -13.5390
            2408         472.233         472.233         12.8266         12.8266        -9.43819        -9.43819
            2409         470.655         470.655         10.2287         10.2287        -6.04528        -6.04528
            2410         469.320         469.320         8.14991         8.14991        -3.24747        -3.24747
            2411         468.227         468.227         6.49058         6.49058    -952.209E-03    -952.209E-03
            2412         467.368         467.368         5.14871         5.14871     922.054E-03     922.054E-03
            2413         466.722         466.722         4.06562         4.06562         2.44551         2.44551
            2414         466.271         466.271         3.18442         3.18442         3.67576         3.67576
            2415         465.990         465.990         2.46875         2.46875         4.66292         4.66292
            2416         465.860         465.860         1.88447         1.88447         5.44745         5.44745
            2417         465.859         465.859         1.40748         1.40748         6.06433         6.06433
            2418         465.970         465.970         1.01533         1.01533         6.54163         6.54163
            2419         466.177         466.177     690.534E-03     690.534E-03         6.90309         6.90309
            2420         466.467         466.467     416.617E-03     416.617E-03         7.16738         7.16738
            2421         466.828         466.828     179.533E-03     179.533E-03         7.34954         7.34954
            2422         467.252         467.252    -34.2946E-03    -34.2946E-03         7.46063         7.46063
            2423         467.730         467.730    -237.267E-03    -237.267E-03         7.50846         7.50846
            2424         468.260         468.260    -441.551E-03    -441.551E-03         7.49743         7.49743
            2425         468.836         468.836    -658.584E-03    -658.584E-03         7.42887         7.42887
            2426         469.458         469.458    -899.313E-03    -899.313E-03         7.30095         7.30095
            2427         470.126         470.126        -1.17355        -1.17355         7.10886         7.10886
            2428         470.840         470.840        -1.48950        -1.48950         6.84483         6.84483
            2429         471.602         471.602        -1.85263        -1.85263         6.49837         6.49837
            2430         472.412         472.412        -2.26439        -2.26439         6.05657         6.05657
            2431         473.269         473.269        -2.72016        -2.72016         5.50485         5.50485
            2432         474.170         474.170        -3.20730        -3.20730         4.82804         4.82804
            2433         475.102         475.102        -3.70233        -3.70233         4.01235         4.01235
            2434         476.047         476.047        -4.16903        -4.16903         3.04824         3.04824
            2435         476.976         476.976        -4.55627        -4.55627         1.93421         1.93421
            2436         477.848         477.848        -4.79864        -4.79864     682.618E-03     682.618E-03
            2437         478.610         478.610        -4.81882        -4.81882    -674.518E-03    -674.518E-03
            2438         479.199         479.199        -4.53533        -4.53533        -2.07783        -2.07783
            2439         479.554         479.554        -3.87577        -3.87577        -3.43571        -3.43571
            2440         469.260         469.260         124.331         124.331        -77.2496        -77.2496
            2441         477.082         477.082         101.050         101.050        -74.6709        -74.6709
            2442         482.701         482.701         78.5015         78.5015        -67.1832        -67.1832
            2443         485.172         485.172         59.4117         59.4117        -57.4806        -57.4806
            2444         485.284         485.284         44.3163         44.3163        -47.0556        -47.0556
            2445         483.146         483.146         33.2694         33.2694        -37.1519        -37.1519
            2446         480.207         480.207         25.3381         25.3381        -28.8036        -28.8036
            2447         477.065         477.065         19.4292         19.4292        -21.7805        -21.7805
            2448         474.071         474.071         15.0965         15.0965        -16.0518        -16.0518
            2449         471.426         471.426         11.7831         11.7831        -11.3724        -11.3724
            2450         469.171         469.171         9.27061         9.27061        -7.57607        -7.57607
            2451         467.332         467.332         7.30466         7.30466        -4.49980        -4.49980
            2452         465.877         465.877         5.77162         5.77162        -2.01007        -2.01007
            2453         464.777         464.777         4.55120         4.55120    -2.13782E-03    -2.13782E-03
            2454         463.989         463.989         3.58108         3.58108         1.61478         1.61478
            2455         463.475         463.475         2.80019         2.80019         2.90913         2.90913
            2456         463.195         463.195         2.17244         2.17244         3.94097         3.94097
            2457         463.117         463.117         1.66406         1.66406         4.75601         4.75601
            2458         463.207         463.207         1.25268         1.25268         5.39407         5.39407
            2459         463.441         463.441     917.702E-03     917.702E-03         5.88592         5.88592
            2460         463.793         463.793     643.976E-03     643.976E-03         6.25784         6.25784
            2461         464.245         464.245     417.408E-03     417.408E-03         6.53012         6.53012
            2462         464.778         464.778     226.547E-03     226.547E-03         6.71938         6.71938
            2463         465.379         465.379     60.4530E-03     60.4530E-03         6.83791         6.83791
            2464         466.036         466.036    -90.5574E-03    -90.5574E-03         6.89484         6.89484
            2465         466.739         466.739    -235.968E-03    -235.968E-03         6.89579         6.89579
            2466         467.480         467.480    -384.616E-03    -384.616E-03         6.84349         6.84349
            2467         468.253         468.253    -545.116E-03    -545.116E-03         6.73757         6.73757
            2468         469.052         469.052    -725.395E-03    -725.395E-03         6.57494         6.57494
            2469         469.874         469.874    -932.585E-03    -932.585E-03         6.34980         6.34980
            2470         470.715         470.715        -1.17227        -1.17227         6.05395         6.05395
            2471         471.570         471.570        -1.44778        -1.44778         5.67713         5.67713
            2472         472.435         472.435        -1.75893        -1.75893         5.20769         5.20769
            2473         473.303         473.303        -2.10068        -2.10068         4.63360         4.63360
            2474         474.164         474.164        -2.46135        -2.46135         3.94388         3.94388
            2475         475.004         475.004        -2.82109        -2.82109         3.13077         3.13077
            2476         475.802         475.802        -3.15021        -3.15021         2.19246         2.19246
            2477         476.531         476.531        -3.40888        -3.40888         1.13688         1.13688
            2478         477.158         477.158        -3.54775        -3.54775    -14.4416E-03    -14.4416E-03
            2479         477.644         477.644        -3.51145        -3.51145        -1.22158        -1.22158
            2480         477.949         477.949        -3.24525        -3.24525        -2.42310        -2.42310
            2481         478.037         478.037        -2.70501        -2.70501        -3.53413        -3.53413
            2482         481.331         481.331         122.235         122.235        -86.4363        -86.4363
            2483         489.142         489.142         93.6984         93.6984        -81.0807        -81.0807
            2484         493.206         493.206         67.7207         67.7207        -70.4046        -70.4046
            2485         493.461         493.461         47.0224         47.0224        -56.8918        -56.8918
            2486         489.354         489.354         33.0992         33.0992        -43.6790        -43.6790
            2487         484.147         484.147         24.0880         24.0880        -33.1894        -33.1894
            2488         479.014         479.014         17.7234         17.7234        -24.7242        -24.7242
            2489         474.369         474.369         13.3796         13.3796        -18.0949        -18.0949
            2490         470.467         470.467         10.1820         10.1820        -12.8646        -12.8646
            2491         467.266         467.266         7.86729         7.86729        -8.73145        -8.73145
            2492         464.753         464.753         6.10597         6.10597        -5.46310        -5.46310
            2493         462.830         462.830         4.77270         4.77270        -2.86321        -2.86321
            2494         461.432         461.432         3.73224         3.73224    -801.149E-03    -801.149E-03
            2495         460.473         460.473         2.92057         2.92057     840.136E-03     840.136E-03
            2496         459.891         459.891         2.27606         2.27606         2.13904         2.13904
            2497         459.620         459.620         1.76409         1.76409         3.16622         3.16622
            2498         459.612         459.612         1.35337         1.35337         3.97116         3.97116
            2499         459.818         459.818         1.02391         1.02391         4.59785         4.59785
            2500         460.202         460.202     758.000E-03     758.000E-03         5.07848         5.07848
            2501         460.731         460.731     543.055E-03     543.055E-03         5.44105         5.44105
            2502         461.377         461.377     367.764E-03     367.764E-03         5.70650         5.70650
            2503         462.118         462.118     223.289E-03     223.289E-03         5.89242         5.89242
            2504         462.933         462.933     101.380E-03     101.380E-03         6.01171         6.01171
            2505         463.807         463.807    -5.01982E-03    -5.01982E-03         6.07444         6.07444
            2506         464.726         464.726    -102.761E-03    -102.761E-03         6.08716         6.08716
            2507         465.677         465.677    -198.121E-03    -198.121E-03         6.05381         6.05381
            2508         466.651         466.651    -297.293E-03    -297.293E-03         5.97543         5.97543
            2509         467.638         467.638    -406.059E-03    -406.059E-03         5.85059         5.85059
            2510         468.630         468.630    -529.896E-03    -529.896E-03         5.67532         5.67532
            2511         469.620         469.620    -673.517E-03    -673.517E-03         5.44346         5.44346
            2512         470.598         470.598    -840.581E-03    -840.581E-03         5.14687         5.14687
            2513         471.556         471.556        -1.03291        -1.03291         4.77604         4.77604
            2514         472.484         472.484        -1.24980        -1.24980         4.32073         4.32073
            2515         473.371         473.371        -1.48681        -1.48681         3.77122         3.77122
            2516         474.201         474.201        -1.73481        -1.73481         3.11979         3.11979
            2517         474.959         474.959        -1.97866        -1.97866         2.36280         2.36280
            2518         475.622         475.622        -2.19667        -2.19667         1.50335         1.50335
            2519         476.169         476.169        -2.36029        -2.36029     554.115E-03     554.115E-03
            2520         476.573         476.573        -2.43535        -2.43535    -459.354E-03    -459.354E-03
            2521         476.808         476.808        -2.38489        -2.38489        -1.49620        -1.49620
            2522         476.855         476.855        -2.17410        -2.17410        -2.49870        -2.49870
            2523         476.699         476.699        -1.77746        -1.77746        -3.39285        -3.39285
            2524         498.969         498.969         118.606         118.606        -95.7081        -95.7081
            2525         507.013         507.013         82.0099         82.0099        -87.4738        -87.4738
            2526         508.372         508.372         50.5485         50.5485        -69.2072        -69.2072
            2527         500.148         500.148         31.7048         31.7048        -50.1982        -50.1982
            2528         490.525         490.525         21.6393         21.6393        -36.6680        -36.6680
            2529         482.016         482.016         14.9636         14.9636        -26.5456        -26.5456
            2530         474.794         474.794         10.8679         10.8679        -19.0546        -19.0546
            2531         469.085         469.085         7.98977         7.98977        -13.4489        -13.4489
            2532         464.609         464.609         6.02813         6.02813        -9.16238        -9.16238
            2533         461.241         461.241         4.58808         4.58808        -5.88625        -5.88625
            2534         458.761         458.761         3.53550         3.53550        -3.33332        -3.33332
            2535         457.031         457.031         2.73567         2.73567        -1.35262        -1.35262
            2536         455.906         455.906         2.12450         2.12450     202.658E-03     202.658E-03
            2537         455.279         455.279         1.64811         1.64811         1.41566         1.41566
            2538         455.055         455.055         1.27431         1.27431         2.36598         2.36598
            2539         455.160         455.160     978.115E-03     978.115E-03         3.10321         3.10321
            2540         455.530         455.530     742.406E-03     742.406E-03         3.67337         3.67337
            2541         456.113         456.113     553.898E-03     553.898E-03         4.10758         4.10758
            2542         456.866         456.866     402.750E-03     402.750E-03         4.43378         4.43378
            2543         457.755         457.755     280.927E-03     280.927E-03         4.67192         4.67192
            2544         458.749         458.749     182.113E-03     182.113E-03         4.83924         4.83924
            2545         459.824         459.824     100.753E-03     100.753E-03         4.94823         4.94823
            2546         460.961         460.961     32.1887E-03     32.1887E-03         5.00898         5.00898
            2547         462.141         462.141    -27.9873E-03    -27.9873E-03         5.02834         5.02834
            2548         463.351         463.351    -83.7281E-03    -83.7281E-03         5.01100         5.01100
            2549         464.576         464.576    -138.946E-03    -138.946E-03         4.95906         4.95906
            2550         465.806         465.806    -197.294E-03    -197.294E-03         4.87255         4.87255
            2551         467.029         467.029    -262.368E-03    -262.368E-03         4.74928         4.74928
            2552         468.235         468.235    -337.428E-03    -337.428E-03         4.58514         4.58514
            2553         469.411         469.411    -425.364E-03    -425.364E-03         4.37418         4.37418
            2554         470.546         470.546    -528.278E-03    -528.278E-03         4.10900         4.10900
            2555         471.626         471.626    -647.170E-03    -647.170E-03         3.78119         3.78119
            2556         472.637         472.637    -781.288E-03    -781.288E-03         3.38215         3.38215
            2557         473.561         473.561    -927.583E-03    -927.583E-03         2.90410         2.90410
            2558         474.380         474.380        -1.07988        -1.07988         2.34160         2.34160
            2559         475.075         475.075        -1.22835        -1.22835         1.69333         1.69333
            2560         475.623         475.623        -1.35902        -1.35902     964.288E-03     964.288E-03
            2561         476.004         476.004        -1.45390        -1.45390     168.180E-03     168.180E-03
            2562         476.200         476.200        -1.49189        -1.49189    -670.490E-03    -670.490E-03
            2563         476.194         476.194        -1.45073        -1.45073        -1.51474        -1.51474
            2564         475.982         475.982        -1.31023        -1.31023        -2.31503        -2.31503
            2565         475.570         475.570        -1.05647        -1.05647        -3.01051        -3.01051
            2566         534.434         534.434         109.391         109.391        -109.312        -109.312
            2567         537.846         537.846         56.6477         56.6477        -84.7376        -84.7376
            2568         519.305         519.305         27.9039         27.9039        -55.0030        -55.0030
            2569         500.268         500.268         17.4375         17.4375        -37.2341        -37.2341
            2570         485.909         485.909         10.9639         10.9639        -25.7741        -25.7741
            2571         474.754         474.754         7.55371         7.55371        -17.8554        -17.8554
            2572         466.570         466.570         5.31014         5.31014        -12.4014        -12.4014
            2573         460.506         460.506         3.87743         3.87743        -8.37774        -8.37774
            2574         456.163         456.163         2.88541         2.88541        -5.44674        -5.44674
            2575         453.116         453.116         2.17996         2.17996        -3.21158        -3.21158
            2576         451.098         451.098         1.66822         1.66822        -1.52688        -1.52688
            2577         449.879         449.879         1.28163         1.28163    -222.479E-03    -222.479E-03
            2578         449.293         449.293     990.138E-03     990.138E-03     776.522E-03     776.522E-03
            2579         449.205         449.205     762.513E-03     762.513E-03         1.55164         1.55164
            2580         449.512         449.512     586.013E-03     586.013E-03         2.14571         2.14571
            2581         450.129         450.129     445.865E-03     445.865E-03         2.60187         2.60187
            2582         450.991         450.991     335.303E-03     335.303E-03         2.94626         2.94626
            2583         452.042         452.042     246.888E-03     246.888E-03         3.20359         3.20359
            2584         453.241         453.241     176.414E-03     176.414E-03         3.39041         3.39041
            2585         454.552         454.552     119.740E-03     119.740E-03         3.52155         3.52155
            2586         455.947         455.947     73.9226E-03     73.9226E-03         3.60743         3.60743
            2587         457.401         457.401     36.2822E-03     36.2822E-03         3.65689         3.65689
            2588         458.896         458.896     4.51208E-03     4.51208E-03         3.67596         3.67596
            2589         460.415         460.415    -23.4593E-03    -23.4593E-03         3.66921         3.66921
            2590         461.944         461.944    -49.6488E-03    -49.6488E-03         3.63913         3.63913
            2591         463.471         463.471    -75.9114E-03    -75.9114E-03         3.58677         3.58677
            2592         464.982         464.982    -104.130E-03    -104.130E-03         3.51145         3.51145
            2593         466.466         466.466    -136.039E-03    -136.039E-03         3.41102         3.41102
            2594         467.909         467.909    -173.322E-03    -173.322E-03         3.28187         3.28187
            2595         469.298         469.298    -217.379E-03    -217.379E-03         3.11910         3.11910
            2596         470.618         470.618    -269.286E-03    -269.286E-03         2.91674         2.91674
            2597         471.849         471.849    -329.468E-03    -329.468E-03         2.66820         2.66820
            2598         472.973         472.973    -397.511E-03    -397.511E-03         2.36683         2.36683
            2599         473.966         473.966    -471.721E-03    -471.721E-03         2.00680         2.00680
            2600         474.806         474.806    -548.867E-03    -548.867E-03         1.58425         1.58425
            2601         475.467         475.467    -623.748E-03    -623.748E-03         1.09870         1.09870
            2602         475.926         475.926    -689.122E-03    -689.122E-03     554.715E-03     554.715E-03
            2603         476.160         476.160    -735.694E-03    -735.694E-03    -36.4184E-03    -36.4184E-03
            2604         476.155         476.155    -752.727E-03    -752.727E-03    -655.182E-03    -655.182E-03
            2605         475.903         475.903    -729.075E-03    -729.075E-03        -1.27300        -1.27300
            2606         475.408         475.408    -654.831E-03    -654.831E-03        -1.85242        -1.85242
            2607         474.693         474.693    -523.422E-03    -523.422E-03        -2.34815        -2.34815
            2608         602.771         602.771         74.2747         74.2747        -96.0942        -96.0942
            2609         552.401         552.401         20.9483         20.9483        -52.2374        -52.2374
            2610         512.720         512.720         11.1080         11.1080        -29.9767        -29.9767
            2611         488.756         488.756         6.19433         6.19433        -19.6361        -19.6361
            2612         472.270         472.270         3.85238         3.85238        -12.8100        -12.8100
            2613         461.194         461.194         2.62060         2.62060        -8.74040        -8.74040
            2614         453.540         453.540         1.79019         1.79019        -5.80101        -5.80101
            2615         448.372         448.372         1.32271         1.32271        -3.81198        -3.81198
            2616         444.968         444.968     958.491E-03     958.491E-03        -2.31588        -2.31588
            2617         442.883         442.883     734.402E-03     734.402E-03        -1.23252        -1.23252
            2618         441.783         441.783     550.806E-03     550.806E-03    -401.827E-03    -401.827E-03
            2619         441.435         441.435     427.549E-03     427.549E-03     220.168E-03     220.168E-03
            2620         441.662         441.662     325.570E-03     325.570E-03     699.527E-03     699.527E-03
            2621         442.330         442.330     252.129E-03     252.129E-03         1.06214         1.06214
            2622         443.337         443.337     191.659E-03     191.659E-03         1.33936         1.33936
            2623         444.603         444.603     145.952E-03     145.952E-03         1.54706         1.54706
            2624         446.064         446.064     108.655E-03     108.655E-03         1.70194         1.70194
            2625         447.673         447.673     79.6172E-03     79.6172E-03         1.81402         1.81402
            2626         449.388         449.388     56.1079E-03     56.1079E-03         1.89295         1.89295
            2627         451.180         451.180     37.4268E-03     37.4268E-03         1.94510         1.94510
            2628         453.022         453.022     22.2560E-03     22.2560E-03         1.97621         1.97621
            2629         454.895         454.895     9.81221E-03     9.81221E-03         1.99014         1.99014
            2630         456.782         456.782    -696.945E-06    -696.945E-06         1.99008         1.99008
            2631         458.669         458.669    -10.0236E-03    -10.0236E-03         1.97794         1.97794
            2632         460.545         460.545    -18.7922E-03    -18.7922E-03         1.95492         1.95492
            2633         462.397         462.397    -27.7182E-03    -27.7182E-03         1.92123         1.92123
            2634         464.214         464.214    -37.3871E-03    -37.3871E-03         1.87632         1.87632
            2635         465.985         465.985    -48.4683E-03    -48.4683E-03         1.81874         1.81874
            2636         467.696         467.696    -61.5003E-03    -61.5003E-03         1.74633         1.74633
            2637         469.330         469.330    -77.0209E-03    -77.0209E-03         1.65617         1.65617
            2638         470.869         470.869    -95.3707E-03    -95.3707E-03         1.54480         1.54480
            2639         472.291         472.291    -116.728E-03    -116.728E-03         1.40839         1.40839
            2640         473.571         473.571    -140.905E-03    -140.905E-03         1.24312         1.24312
            2641         474.679         474.679    -167.313E-03    -167.313E-03         1.04564         1.04564
            2642         475.585         475.585    -194.746E-03    -194.746E-03     813.718E-03     813.718E-03
            2643         476.255         476.255    -221.357E-03    -221.357E-03     547.100E-03     547.100E-03
            2644         476.660         476.660    -244.492E-03    -244.492E-03     248.347E-03     248.347E-03
            2645         476.773         476.773    -260.850E-03    -260.850E-03    -76.1291E-03    -76.1291E-03
            2646         476.574         476.574    -266.550E-03    -266.550E-03    -415.343E-03    -415.343E-03
            2647         476.058         476.058    -257.675E-03    -257.675E-03    -753.294E-03    -753.294E-03
            2648         475.235         475.235    -230.794E-03    -230.794E-03        -1.06914        -1.06914
            2649         474.138         474.138    -183.580E-03    -183.580E-03        -1.33758        -1.33758
            2650         496.493         496.493        -15.5567        -15.5567         1.21224         1.21224
            2651         493.281         493.281        -10.7885        -10.7885         4.19534         4.19534
            2652         489.841         489.841        -7.16801        -7.16801         5.62918         5.62918
            2653         486.657         486.657        -4.58825        -4.58825         6.15241         6.15241
            2654         483.855         483.855        -2.82615        -2.82615         6.17527         6.17527
            2655         481.421         481.421        -1.66354        -1.66354         5.93721         5.93721
            2656         479.293         479.293    -924.406E-03    -924.406E-03         5.56020         5.56020
            2657         477.399         477.399    -476.025E-03    -476.025E-03         5.09154         5.09154
            2658         475.673         475.673    -221.148E-03    -221.148E-03         4.52719         4.52719
            2659         474.055         474.055    -88.9255E-03    -88.9255E-03         3.82296         3.82296
            2660         472.499         472.499    -28.4499E-03    -28.4499E-03         2.89555         2.89555
            2661         470.973         470.973    -5.84464E-03    -5.84464E-03         1.62510         1.62510
            2662         499.897         499.897        -9.20340        -9.20340         7.66902         7.66902
            2663         494.567         494.567        -4.45795        -4.45795         8.78276         8.78276
            2664         490.020         490.020        -1.52023        -1.52023         8.67600         8.67600
            2665         486.302         486.302     155.580E-03     155.580E-03         8.06783         8.06783
            2666         483.273         483.273         1.00621         1.00621         7.30599         7.30599
            2667         480.757         480.757         1.33597         1.33597         6.53991         6.53991
            2668         478.598         478.598         1.34630         1.34630         5.81704         5.81704
            2669         476.667         476.667         1.16983         1.16983         5.13105         5.13105
            2670         474.853         474.853     897.173E-03     897.173E-03         4.44268         4.44268
            2671         473.055         473.055     595.049E-03     595.049E-03         3.68535         3.68535
            2672         471.179         471.179     318.285E-03     318.285E-03         2.76174         2.76174
            2673         469.127         469.127     117.786E-03     117.786E-03         1.54200         1.54200
            2674         500.295         500.295         2.35365         2.35365         13.0952         13.0952
            2675         493.641         493.641         5.04261         5.04261         11.6873         11.6873
            2676         488.699         488.699         5.94744         5.94744         9.99545         9.99545
            2677         484.979         484.979         5.89697         5.89697         8.43537         8.43537
            2678         482.082         482.082         5.35770         5.35770         7.12218         7.12218
            2679         479.723         479.723         4.58636         4.58636         6.04821         6.04821
            2680         477.693         477.693         3.72322         3.72322         5.16762         5.16762
            2681         475.837         475.837         2.84942         2.84942         4.42146         4.42146
            2682         474.020         474.020         2.01785         2.01785         3.74355         3.74355
            2683         472.117         472.117         1.27185         1.27185         3.05762         3.05762
            2684         469.993         469.993     658.584E-03     658.584E-03         2.26939         2.26939
            2685         467.494         467.494     238.771E-03     238.771E-03         1.26074         1.26074
            2686         497.487         497.487         17.4375         17.4375         14.3029         14.3029
            2687         490.953         490.953         15.8618         15.8618         11.0799         11.0799
            2688         486.465         486.465         13.6900         13.6900         8.59919         8.59919
            2689         483.214         483.214         11.4611         11.4611         6.75471         6.75471
            2690         480.709         480.709         9.37162         9.37162         5.38919         5.38919
            2691         478.650         478.650         7.47423         7.47423         4.37055         4.37055
            2692         476.835         476.835         5.77517         5.77517         3.59625         3.59625
            2693         475.111         475.111         4.26769         4.26769         2.98548         2.98548
            2694         473.344         473.344         2.94852         2.94852         2.46928         2.46928
            2695         471.398         471.398         1.82738         1.82738         1.98230         1.98230
            2696         469.115         469.115     935.624E-03     935.624E-03         1.45413         1.45413
            2697         466.297         466.297     336.334E-03     336.334E-03     802.416E-03     802.416E-03
            2698         493.520         493.520         30.8777         30.8777         9.04975         9.04975
            2699         488.127         488.127         24.5039         24.5039         6.21648         6.21648
            2700         484.478         484.478         19.4251         19.4251         4.37643         4.37643
            2701         481.804         481.804         15.3686         15.3686         3.14639         3.14639
            2702         479.699         479.699         12.0743         12.0743         2.30262         2.30262
            2703         477.918         477.918         9.35342         9.35342         1.71441         1.71441
            2704         476.293         476.293         7.07242         7.07242         1.29852         1.29852
            2705         474.689         474.689         5.14231         5.14231     998.012E-03     998.012E-03
            2706         472.981         472.981         3.51034         3.51034     771.447E-03     771.447E-03
            2707         471.035         471.035         2.15733         2.15733     585.356E-03     585.356E-03
            2708         468.685         468.685         1.09935         1.09935     410.272E-03     410.272E-03
            2709         465.716         465.716     394.864E-03     394.864E-03     218.629E-03     218.629E-03
            2710         491.946         491.946         35.4831         35.4831        -1.56455        -1.56455
            2711         487.216         487.216         27.0510         27.0510        -1.68575        -1.68575
            2712         483.935         483.935         20.9327         20.9327        -1.68439        -1.68439
            2713         481.483         481.483         16.2894         16.2894        -1.63884        -1.63884
            2714         479.521         479.521         12.6435         12.6435        -1.56898        -1.56898
            2715         477.836         477.836         9.70288         9.70288        -1.48342        -1.48342
            2716         476.276         476.276         7.28086         7.28086        -1.38374        -1.38374
            2717         474.718         474.718         5.25919         5.25919        -1.26747        -1.26747
            2718         473.044         473.044         3.56873         3.56873        -1.12835        -1.12835
            2719         471.122         471.122         2.18057         2.18057    -954.761E-03    -954.761E-03
            2720         468.793         468.793         1.10494         1.10494    -726.899E-03    -726.899E-03
            2721         465.852         465.852     394.877E-03     394.877E-03    -412.452E-03    -412.452E-03
            2722         494.551         494.551         27.3597         27.3597        -11.8872        -11.8872
            2723         489.042         489.042         21.7224         21.7224        -9.32080        -9.32080
            2724         485.268         485.268         17.2783         17.2783        -7.55456        -7.55456
            2725         482.492         482.492         13.7088         13.7088        -6.28165        -6.28165
            2726         480.313         480.313         10.7896         10.7896        -5.33078        -5.33078
            2727         478.484         478.484         8.36170         8.36170        -4.59186        -4.59186
            2728         476.836         476.836         6.31551         6.31551        -3.98850        -3.98850
            2729         475.234         475.234         4.57919         4.57919        -3.46182        -3.46182
            2730         473.557         473.557         3.11156         3.11156        -2.96003        -2.96003
            2731         471.679         471.679         1.89973         1.89973        -2.42953        -2.42953
            2732         469.457         469.457     960.221E-03     960.221E-03        -1.80497        -1.80497
            2733         466.713         466.713     342.037E-03     342.037E-03        -1.00371        -1.00371
            2734         498.662         498.662         10.9310         10.9310        -15.3240        -15.3240
            2735         492.193         492.193         10.7807         10.7807        -12.8955        -12.8955
            2736         487.660         487.660         9.73733         9.73733        -10.8523        -10.8523
            2737         484.330         484.330         8.39971         8.39971        -9.21684        -9.21684
            2738         481.754         481.754         7.00525         7.00525        -7.91259        -7.91259
            2739         479.651         479.651         5.65662         5.65662        -6.85547        -6.85547
            2740         477.825         477.825         4.39931         4.39931        -5.96773        -5.96773
            2741         476.129         476.129         3.25591         3.25591        -5.17919        -5.17919
            2742         474.439         474.439         2.24330         2.24330        -4.42077        -4.42077
            2743         472.639         472.639         1.38211         1.38211        -3.61679        -3.61679
            2744         470.606         470.606     703.218E-03     703.218E-03        -2.67444        -2.67444
            2745         468.204         468.204     252.131E-03     252.131E-03        -1.47962        -1.47962
            2746         499.855         499.855        -4.61045        -4.61045        -11.1504        -11.1504
            2747         494.090         494.090    -806.580E-03    -806.580E-03        -11.2899        -11.2899
            2748         489.548         489.548         1.20317         1.20317        -10.5967        -10.5967
            2749         486.008         486.008         2.11762         2.11762        -9.65926        -9.65926
            2750         483.203         483.203         2.38898         2.38898        -8.70486        -8.70486
            2751         480.908         480.908         2.28809         2.28809        -7.80227        -7.80227
            2752         478.952         478.952         1.98101         1.98101        -6.95587        -6.95587
            2753         477.198         477.198         1.57286         1.57286        -6.13634        -6.13634
            2754         475.536         475.536         1.13474         1.13474        -5.29343        -5.29343
            2755         473.867         473.867     719.676E-03     719.676E-03        -4.35618        -4.35618
            2756         472.103         472.103     372.282E-03     372.282E-03        -3.22808        -3.22808
            2757         470.154         470.154     134.541E-03     134.541E-03        -1.78572        -1.78572
            2758         496.677         496.677        -13.6649        -13.6649        -3.87248        -3.87248
            2759         493.200         493.200        -8.99352        -8.99352        -6.54247        -6.54247
            2760         489.732         489.732        -5.62206        -5.62206        -7.69143        -7.69143
            2761         486.661         486.661        -3.33806        -3.33806        -7.99021        -7.99021
            2762         484.042         484.042        -1.85894        -1.85894        -7.83679        -7.83679
            2763         481.816         481.816    -941.780E-03    -941.780E-03        -7.44414        -7.44414
            2764         479.898         479.898    -406.501E-03    -406.501E-03        -6.91161        -6.91161
            2765         478.202         478.202    -122.792E-03    -122.792E-03        -6.27246        -6.27246
            2766         476.655         476.655     2.80803E-03     2.80803E-03        -5.51506        -5.51506
            2767         475.195         475.195     37.6961E-03     37.6961E-03        -4.59290        -4.59290
            2768         473.770         473.770     30.3130E-03     30.3130E-03        -3.42448        -3.42448
            2769         472.349         472.349     13.1929E-03     13.1929E-03        -1.89795        -1.89795
            2770         442.209         442.209         128.826         128.826         23.9721         23.9721
            2771         446.630         446.630         118.304         118.304         23.8441         23.8441
            2772         450.958         450.958         107.770         107.770         23.1226         23.1226
            2773         455.083         455.083         97.4232         97.4232         22.0444         22.0444
            2774         458.932         458.932         87.4014         87.4014         20.6481         20.6481
            2775         462.439         462.439         77.8295         77.8295         18.9799         18.9799
            2776         465.560         465.560         68.8112         68.8112         17.1084         17.1084
            2777         468.270         468.270         60.4199         60.4199         15.1022         15.1022
            2778         470.559         470.559         52.7040         52.7040         13.0337         13.0337
            2779         472.441         472.441         45.6826         45.6826         10.9673         10.9673
            2780         473.934         473.934         39.3544         39.3544         8.95706         8.95706
            2781         475.073         475.073         33.6996         33.6996         7.04714         7.04714
            2782         475.890         475.890         28.6855         28.6855         5.26656         5.26656
            2783         476.425         476.425         24.2716         24.2716         3.63613         3.63613
            2784         476.714         476.714         20.4115         20.4115         2.16381         2.16381
            2785         476.792         476.792         17.0581         17.0581     852.413E-03     852.413E-03
            2786         476.691         476.691         14.1624         14.1624    -303.732E-03    -303.732E-03
            2787         476.440         476.440         11.6782         11.6782        -1.31275        -1.31275
            2788         476.064         476.064         9.55959         9.55959        -2.18737        -2.18737
            2789         475.585         475.585         7.76441         7.76441        -2.94099        -2.94099
            2790         475.022         475.022         6.25206         6.25206        -3.58909        -3.58909
            2791         474.392         474.392         4.98521         4.98521        -4.14686        -4.14686
            2792         473.707         473.707         3.92847         3.92847        -4.63026        -4.63026
            2793         472.980         472.980         3.04918         3.04918        -5.05474        -5.05474
            2794         472.220         472.220         2.31635         2.31635        -5.43604        -5.43604
            2795         471.436         471.436         1.70102         1.70102        -5.78967        -5.78967
            2796         470.636         470.636         1.17541         1.17541        -6.13162        -6.13162
            2797         469.827         469.827     712.903E-03     712.903E-03        -6.47826        -6.47826
            2798         469.016         469.016     287.231E-03     287.231E-03        -6.84700        -6.84700
            2799         468.213         468.213    -127.900E-03    -127.900E-03        -7.25658        -7.25658
            2800         467.426         467.426    -559.776E-03    -559.776E-03        -7.72762        -7.72762
            2801         466.672         466.672        -1.03769        -1.03769        -8.28304        -8.28304
            2802         465.968         465.968        -1.59442        -1.59442        -8.94846        -8.94846
            2803         465.345         465.345        -2.26844        -2.26844        -9.75216        -9.75216
            2804         464.845         464.845        -3.10653        -3.10653        -10.7245        -10.7245
            2805         464.533         464.533        -4.16804        -4.16804        -11.8958        -11.8958
            2806         464.509         464.509        -5.52911        -5.52911        -13.2913        -13.2913
            2807         464.921         464.921        -7.28927        -7.28927        -14.9199        -14.9199
            2808         465.997         465.997        -9.57193        -9.57193        -16.7512        -16.7512
            2809         468.068         468.068        -12.5204        -12.5204        -18.6687        -18.6687
            2810         471.583         471.583        -16.2293        -16.2293        -20.3814        -20.3814
            2811         477.050         477.050        -20.6162        -20.6162        -21.3235        -21.3235
            2812         441.493         441.493         129.017         129.017         18.4176         18.4176
            2813         445.770         445.770         118.888         118.888         18.3132         18.3132
            2814         449.964         449.964         108.758         108.758         17.7670         17.7670
            2815         453.989         453.989         98.7924         98.7924         16.9657         16.9657
            2816         457.777         457.777         89.1094         89.1094         15.9288         15.9288
            2817         461.273         461.273         79.8149         79.8149         14.6936         14.6936
            2818         464.433         464.433         70.9984         70.9984         13.3008         13.3008
            2819         467.226         467.226         62.7314         62.7314         11.8017         11.8017
            2820         469.642         469.642         55.0624         55.0624         10.2448         10.2448
            2821         471.675         471.675         48.0205         48.0205         8.67771         8.67771
            2822         473.340         473.340         41.6148         41.6148         7.14164         7.14164
            2823         474.654         474.654         35.8388         35.8388         5.66935         5.66935
            2824         475.645         475.645         30.6732         30.6732         4.28698         4.28698
            2825         476.339         476.339         26.0887         26.0887         3.01042         3.01042
            2826         476.769         476.769         22.0503         22.0503         1.85042         1.85042
            2827         476.966         476.966         18.5177         18.5177     809.376E-03     809.376E-03
            2828         476.958         476.958         15.4497         15.4497    -113.469E-03    -113.469E-03
            2829         476.775         476.775         12.8034         12.8034    -924.305E-03    -924.305E-03
            2830         476.440         476.440         10.5374         10.5374        -1.63080        -1.63080
            2831         475.976         475.976         8.61052         8.61052        -2.24359        -2.24359
            2832         475.404         475.404         6.98424         6.98424        -2.77372        -2.77372
            2833         474.739         474.739         5.62135         5.62135        -3.23362        -3.23362
            2834         473.996         473.996         4.48726         4.48726        -3.63569        -3.63569
            2835         473.188         473.188         3.54921         3.54921        -3.99299        -3.99299
            2836         472.323         472.323         2.77681         2.77681        -4.31856        -4.31856
            2837         471.409         471.409         2.14145         2.14145        -4.62611        -4.62611
            2838         470.452         470.452         1.61645         1.61645        -4.92981        -4.92981
            2839         469.454         469.454         1.17654         1.17654        -5.24501        -5.24501
            2840         468.419         468.419     797.712E-03     797.712E-03        -5.58848        -5.58848
            2841         467.347         467.347     456.601E-03     456.601E-03        -5.97932        -5.97932
            2842         466.238         466.238     129.950E-03     129.950E-03        -6.43960        -6.43960
            2843         465.092         465.092    -206.382E-03    -206.382E-03        -6.99562        -6.99562
            2844         463.911         463.911    -578.829E-03    -578.829E-03        -7.67917        -7.67917
            2845         462.698         462.698        -1.01813        -1.01813        -8.52935        -8.52935
            2846         461.463         461.463        -1.56278        -1.56278        -9.59462        -9.59462
            2847         460.232         460.232        -2.26371        -2.26371        -10.9353        -10.9353
            2848         459.049         459.049        -3.19292        -3.19292        -12.6258        -12.6258
            2849         458.004         458.004        -4.45469        -4.45469        -14.7561        -14.7561
            2850         457.261         457.261        -6.20733        -6.20733        -17.4269        -17.4269
            2851         457.125         457.125        -8.68766        -8.68766        -20.7324        -20.7324
            2852         458.152         458.152        -12.2553        -12.2553        -24.6870        -24.6870
            2853         461.296         461.296        -17.3427        -17.3427        -29.0580        -29.0580
            2854         441.001         441.001         129.159         129.159         13.0272         13.0272
            2855         445.171         445.171         119.308         119.308         12.9371         12.9371
            2856         449.272         449.272         109.459         109.459         12.5449         12.5449
            2857         453.221         453.221         99.7638         99.7638         11.9789         11.9789
            2858         456.961         456.961         90.3226         90.3226         11.2566         11.2566
            2859         460.439         460.439         81.2288         81.2288         10.3973         10.3973
            2860         463.615         463.615         72.5643         72.5643         9.43178         9.43178
            2861         466.459         466.459         64.3953         64.3953         8.39011         8.39011
            2862         468.950         468.950         56.7722         56.7722         7.30652         7.30652
            2863         471.084         471.084         49.7272         49.7272         6.21203         6.21203
            2864         472.862         472.862         43.2770         43.2770         5.13479         5.13479
            2865         474.297         474.297         37.4233         37.4233         4.09869         4.09869
            2866         475.407         475.407         32.1554         32.1554         3.12117         3.12117
            2867         476.216         476.216         27.4530         27.4530         2.21575         2.21575
            2868         476.749         476.749         23.2877         23.2877         1.38930         1.38930
            2869         477.034         477.034         19.6267         19.6267     645.867E-03     645.867E-03
            2870         477.097         477.097         16.4327         16.4327    -15.6382E-03    -15.6382E-03
            2871         476.966         476.966         13.6677         13.6677    -597.866E-03    -597.866E-03
            2872         476.665         476.665         11.2923         11.2923        -1.10674        -1.10674
            2873         476.215         476.215         9.26788         9.26788        -1.54880        -1.54880
            2874         475.638         475.638         7.55668         7.55668        -1.93239        -1.93239
            2875         474.949         474.949         6.12276         6.12276        -2.26594        -2.26594
            2876         474.164         474.164         4.93181         4.93181        -2.55881        -2.55881
            2877         473.295         473.295         3.95184         3.95184        -2.82036        -2.82036
            2878         472.349         472.349         3.15286         3.15286        -3.06057        -3.06057
            2879         471.333         471.333         2.50726         2.50726        -3.28971        -3.28971
            2880         470.251         470.251         1.98947         1.98947        -3.51887        -3.51887
            2881         469.100         469.100         1.57614         1.57614        -3.76009        -3.76009
            2882         467.880         467.880         1.24582         1.24582        -4.02703        -4.02703
            2883         466.581         466.581     978.863E-03     978.863E-03        -4.33548        -4.33548
            2884         465.194         465.194     757.073E-03     757.073E-03        -4.70444        -4.70444
            2885         463.703         463.703     563.244E-03     563.244E-03        -5.15725        -5.15725
            2886         462.088         462.088     380.453E-03     380.453E-03        -5.72345        -5.72345
            2887         460.322         460.322     190.723E-03     190.723E-03        -6.44124        -6.44124
            2888         458.375         458.375    -26.7680E-03    -26.7680E-03        -7.36121        -7.36121
            2889         456.208         456.208    -299.535E-03    -299.535E-03        -8.55154        -8.55154
            2890         453.781         453.781    -666.987E-03    -666.987E-03        -10.1063        -10.1063
            2891         451.054         451.054        -1.19227        -1.19227        -12.1573        -12.1573
            2892         448.002         448.002        -1.97958        -1.97958        -14.8930        -14.8930
            2893         444.653         444.653        -3.21519        -3.21519        -18.5846        -18.5846
            2894         441.177         441.177        -5.24388        -5.24388        -23.6290        -23.6290
            2895         438.160         438.160        -8.73206        -8.73206        -30.5418        -30.5418
            2896         440.690         440.690         129.255         129.255         7.74786         7.74786
            2897         444.795         444.795         119.579         119.579         7.66909         7.66909
            2898         448.835         448.835         109.909         109.909         7.41341         7.41341
            2899         452.735         452.735         100.384         100.384         7.06166         7.06166
            2900         456.442         456.442         91.0959         91.0959         6.62053         6.62053
            2901         459.906         459.906         82.1307         82.1307         6.10507         6.10507
            2902         463.090         463.090         73.5643         73.5643         5.52957         5.52957
            2903         465.960         465.960         65.4609         65.4609         4.91389         4.91389
            2904         468.497         468.497         57.8699         57.8699         4.27571         4.27571
            2905         470.689         470.689         50.8267         50.8267         3.63357         3.63357
            2906         472.536         472.536         44.3513         44.3513         3.00340         3.00340
            2907         474.045         474.045         38.4507         38.4507         2.39837         2.39837
            2908         475.231         475.231         33.1197         33.1197         1.82934         1.82934
            2909         476.111         476.111         28.3430         28.3430         1.30300         1.30300
            2910         476.710         476.710         24.0975         24.0975     824.399E-03     824.399E-03
            2911         477.051         477.051         20.3539         20.3539     394.699E-03     394.699E-03
            2912         477.161         477.161         17.0792         17.0792     14.1919E-03     14.1919E-03
            2913         477.064         477.064         14.2372         14.2372    -319.671E-03    -319.671E-03
            2914         476.785         476.785         11.7910         11.7910    -609.719E-03    -609.719E-03
            2915         476.345         476.345         9.70306         9.70306    -860.517E-03    -860.517E-03
            2916         475.765         475.765         7.93690         7.93690        -1.07657        -1.07657
            2917         475.062         475.062         6.45699         6.45699        -1.26330        -1.26330
            2918         474.250         474.250         5.22970         5.22970        -1.42600        -1.42600
            2919         473.341         473.341         4.22333         4.22333        -1.57045        -1.57045
            2920         472.342         472.342         3.40852         3.40852        -1.70237        -1.70237
            2921         471.259         471.259         2.75825         2.75825        -1.82794        -1.82794
            2922         470.092         470.092         2.24804         2.24804        -1.95357        -1.95357
            2923         468.839         468.839         1.85595         1.85595        -2.08642        -2.08642
            2924         467.492         467.492         1.56268         1.56268        -2.23444        -2.23444
            2925         466.037         466.037         1.35158         1.35158        -2.40704        -2.40704
            2926         464.457         464.457         1.20869         1.20869        -2.61546        -2.61546
            2927         462.722         462.722         1.12280         1.12280        -2.87382        -2.87382
            2928         460.796         460.796         1.08538         1.08538        -3.20023        -3.20023
            2929         458.627         458.627         1.09062         1.09062        -3.61868        -3.61868
            2930         456.148         456.148         1.13499         1.13499        -4.16173        -4.16173
            2931         453.266         453.266         1.21700         1.21700        -4.87504        -4.87504
            2932         449.854         449.854         1.33531         1.33531        -5.82407        -5.82407
            2933         445.740         445.740         1.48709         1.48709        -7.10649        -7.10649
            2934         440.680         440.680         1.66009         1.66009        -8.87164        -8.87164
            2935         434.325         434.325         1.82146         1.82146        -11.3611        -11.3611
            2936         426.168         426.168         1.88344         1.88344        -14.9832        -14.9832
            2937         415.460         415.460         1.60240         1.60240        -20.5065        -20.5065
            2938         440.540         440.540         129.301         129.301         2.53931         2.53931
            2939         444.613         444.613         119.709         119.709         2.47325         2.47325
            2940         448.625         448.625         110.123         110.123         2.35340         2.35340
            2941         452.503         452.503         100.678         100.678         2.20498         2.20498
            2942         456.194         456.194         91.4611         91.4611         2.03419         2.03419
            2943         459.653         459.653         82.5550         82.5550         1.84411         1.84411
            2944         462.839         462.839         74.0333         74.0333         1.64248         1.64248
            2945         465.722         465.722         65.9589         65.9589         1.43402         1.43402
            2946         468.279         468.279         58.3816         58.3816         1.22581         1.22581
            2947         470.499         470.499         51.3377         51.3377         1.02271         1.02271
            2948         472.378         472.378         44.8492         44.8492     829.472E-03     829.472E-03
            2949         473.921         473.921         38.9255         38.9255     649.800E-03     649.800E-03
            2950         475.141         475.141         33.5638         33.5638     485.769E-03     485.769E-03
            2951         476.054         476.054         28.7516         28.7516     339.363E-03     339.363E-03
            2952         476.682         476.682         24.4679         24.4679     210.506E-03     210.506E-03
            2953         477.049         477.049         20.6855         20.6855     99.5773E-03     99.5773E-03
            2954         477.180         477.180         17.3727         17.3727     5.20187E-03     5.20187E-03
            2955         477.098         477.098         14.4949         14.4949    -73.3523E-03    -73.3523E-03
            2956         476.829         476.829         12.0157         12.0157    -138.013E-03    -138.013E-03
            2957         476.394         476.394         9.89859         9.89859    -190.085E-03    -190.085E-03
            2958         475.812         475.812         8.10719         8.10719    -231.559E-03    -231.559E-03
            2959         475.102         475.102         6.60634         6.60634    -263.905E-03    -263.905E-03
            2960         474.278         474.278         5.36258         5.36258    -288.929E-03    -288.929E-03
            2961         473.351         473.351         4.34433         4.34433    -308.040E-03    -308.040E-03
            2962         472.329         472.329         3.52243         3.52243    -322.785E-03    -322.785E-03
            2963         471.217         471.217         2.87009         2.87009    -334.429E-03    -334.429E-03
            2964         470.014         470.014         2.36324         2.36324    -344.285E-03    -344.285E-03
            2965         468.717         468.717         1.98051         1.98051    -353.488E-03    -353.488E-03
            2966         467.316         467.316         1.70350         1.70350    -363.208E-03    -363.208E-03
            2967         465.795         465.795         1.51679         1.51679    -374.521E-03    -374.521E-03
            2968         464.133         464.133         1.40830         1.40830    -388.578E-03    -388.578E-03
            2969         462.295         462.295         1.36936         1.36936    -406.524E-03    -406.524E-03
            2970         460.237         460.237         1.39532         1.39532    -429.676E-03    -429.676E-03
            2971         457.898         457.898         1.48566         1.48566    -459.430E-03    -459.430E-03
            2972         455.192         455.192         1.64526         1.64526    -497.577E-03    -497.577E-03
            2973         452.003         452.003         1.88441         1.88441    -546.062E-03    -546.062E-03
            2974         448.166         448.166         2.22162         2.22162    -607.708E-03    -607.708E-03
            2975         443.444         443.444         2.68316         2.68316    -685.398E-03    -685.398E-03
            2976         437.488         437.488         3.30955         3.30955    -783.745E-03    -783.745E-03
            2977         429.757         429.757         4.15390         4.15390    -905.974E-03    -905.974E-03
            2978         419.378         419.378         5.29869         5.29869        -1.05497        -1.05497
            2979         404.785         404.785         6.86123         6.86123        -1.19916        -1.19916
            2980         440.540         440.540         129.301         129.301        -2.63856        -2.63856
            2981         444.616         444.616         119.705         119.705        -2.67946        -2.67946
            2982         448.630         448.630         110.115         110.115        -2.65804        -2.65804
            2983         452.510         452.510         100.664         100.664        -2.59600        -2.59600
            2984         456.204         456.204         91.4414         91.4414        -2.49630        -2.49630
            2985         459.666         459.666         82.5284         82.5284        -2.35925        -2.35925
            2986         462.854         462.854         73.9996         73.9996        -2.19080        -2.19080
            2987         465.738         465.738         65.9183         65.9183        -1.99487        -1.99487
            2988         468.296         468.296         58.3350         58.3350        -1.77885        -1.77885
            2989         470.515         470.515         51.2859         51.2859        -1.54877        -1.54877
            2990         472.393         472.393         44.7937         44.7937        -1.31141        -1.31141
            2991         473.933         473.933         38.8677         38.8677        -1.07299        -1.07299
            2992         475.150         475.150         33.5051         33.5051    -838.381E-03    -838.381E-03
            2993         476.059         476.059         28.6932         28.6932    -612.456E-03    -612.456E-03
            2994         476.683         476.683         24.4109         24.4109    -397.845E-03    -397.845E-03
            2995         477.046         477.046         20.6309         20.6309    -197.418E-03    -197.418E-03
            2996         477.173         477.173         17.3212         17.3212    -11.8609E-03    -11.8609E-03
            2997         477.088         477.088         14.4468         14.4468     157.868E-03     157.868E-03
            2998         476.817         476.817         11.9714         11.9714     312.505E-03     312.505E-03
            2999         476.380         476.380         9.85790         9.85790     452.572E-03     452.572E-03
            3000         475.798         475.798         8.06991         8.06991     579.753E-03     579.753E-03
            3001         475.089         475.089         6.57208         6.57208     695.620E-03     695.620E-03
            3002         474.267         474.267         5.33067         5.33067     802.524E-03     802.524E-03
            3003         473.344         473.344         4.31401         4.31401     902.847E-03     902.847E-03
            3004         472.328         472.328         3.49263         3.49263     999.585E-03     999.585E-03
            3005         471.224         471.224         2.83956         2.83956         1.09598         1.09598
            3006         470.033         470.033         2.33034         2.33034         1.19596         1.19596
            3007         468.750         468.750         1.94326         1.94326         1.30407         1.30407
            3008         467.368         467.368         1.65931         1.65931         1.42589         1.42589
            3009         465.873         465.873         1.46238         1.46238         1.56830         1.56830
            3010         464.242         464.242         1.33929         1.33929         1.74009         1.74009
            3011         462.447         462.447         1.27996         1.27996         1.95261         1.95261
            3012         460.447         460.447         1.27754         1.27754         2.22107         2.22107
            3013         458.185         458.185         1.32853         1.32853         2.56597         2.56597
            3014         455.586         455.586         1.43286         1.43286         3.01619         3.01619
            3015         452.547         452.547         1.59395         1.59395         3.61249         3.61249
            3016         448.926         448.926         1.81808         1.81808         4.41562         4.41562
            3017         444.525         444.525         2.11325         2.11325         5.51637         5.51637
            3018         439.062         439.062         2.48492         2.48492         7.06009         7.06009
            3019         432.125         432.125         2.92637         2.92637         9.28344         9.28344
            3020         423.102         423.102         3.39006         3.39006         12.6086         12.6086
            3021         411.115         411.115         3.68025         3.68025         17.8415         17.8415
            3022         440.690         440.690         129.256         129.256        -7.83254        -7.83254
            3023         444.801         444.801         119.572         119.572        -7.84352        -7.84352
            3024         448.848         448.848         109.890         109.890        -7.67101        -7.67101
            3025         452.756         452.756         100.351         100.351        -7.39198        -7.39198
            3026         456.470         456.470         91.0463         91.0463        -7.01022        -7.01022
            3027         459.941         459.941         82.0628         82.0628        -6.53851        -6.53851
            3028         463.130         463.130         73.4775         73.4775        -5.98963        -5.98963
            3029         466.004         466.004         65.3561         65.3561        -5.38292        -5.38292
            3030         468.542         468.542         57.7492         57.7492        -4.73641        -4.73641
            3031         470.733         470.733         50.6928         50.6928        -4.06990        -4.06990
            3032         472.576         472.576         44.2077         44.2077        -3.40112        -3.40112
            3033         474.078         474.078         38.3011         38.3011        -2.74553        -2.74553
            3034         475.254         475.254         32.9676         32.9676        -2.11646        -2.11646
            3035         476.125         476.125         28.1919         28.1919        -1.52301        -1.52301
            3036         476.713         476.713         23.9503         23.9503    -972.574E-03    -972.574E-03
            3037         477.043         477.043         20.2129         20.2129    -468.323E-03    -468.323E-03
            3038         477.143         477.143         16.9461         16.9461    -12.2871E-03    -12.2871E-03
            3039         477.038         477.038         14.1132         14.1132     396.767E-03     396.767E-03
            3040         476.752         476.752         11.6765         11.6765     760.680E-03     760.680E-03
            3041         476.309         476.309         9.59806         9.59806         1.08343         1.08343
            3042         475.728         475.728         7.84078         7.84078         1.36927         1.36927
            3043         475.026         475.026         6.36865         6.36865         1.62373         1.62373
            3044         474.220         474.220         5.14758         5.14758         1.85249         1.85249
            3045         473.321         473.321         4.14536         4.14536         2.06212         2.06212
            3046         472.338         472.338         3.33209         3.33209         2.25941         2.25941
            3047         471.276         471.276         2.68012         2.68012         2.45205         2.45205
            3048         470.138         470.138         2.16418         2.16418         2.64838         2.64838
            3049         468.922         468.922         1.76132         1.76132         2.85804         2.85804
            3050         467.624         467.624         1.45089         1.45089         3.09217         3.09217
            3051         466.232         466.232         1.21441         1.21441         3.36427         3.36427
            3052         464.734         464.734         1.03543         1.03543         3.69087         3.69087
            3053         463.106         463.106     899.179E-03     899.179E-03         4.09301         4.09301
            3054         461.323         461.323     792.144E-03     792.144E-03         4.59784         4.59784
            3055         459.347         459.347     701.193E-03     701.193E-03         5.24152         5.24152
            3056         457.130         457.130     612.034E-03     612.034E-03         6.07279         6.07279
            3057         454.614         454.614     506.747E-03     506.747E-03         7.15966         7.15966
            3058         451.725         451.725     358.568E-03     358.568E-03         8.59771         8.59771
            3059         448.375         448.375     123.570E-03     123.570E-03         10.5268         10.5268
            3060         444.468         444.468    -278.547E-03    -278.547E-03         13.1527         13.1527
            3061         439.920         439.920    -998.911E-03    -998.911E-03         16.7905         16.7905
            3062         434.737         434.737        -2.34708        -2.34708         21.9235         21.9235
            3063         429.244         429.244        -4.95743        -4.95743         29.2511         29.2511
            3064         441.001         441.001         129.163         129.163        -13.0925        -13.0925
            3065         445.179         445.179         119.301         119.301        -13.0699        -13.0699
            3066         449.290         449.290         109.437         109.437        -12.7401        -12.7401
            3067         453.249         453.249         99.7231         99.7231        -12.2284        -12.2284
            3068         456.998         456.998         90.2598         90.2598        -11.5498        -11.5498
            3069         460.486         460.486         81.1420         81.1420        -10.7219        -10.7219
            3070         463.669         463.669         72.4532         72.4532        -9.77421        -9.77421
            3071         466.517         466.517         64.2610         64.2610        -8.73669        -8.73669
            3072         469.009         469.009         56.6174         56.6174        -7.64416        -7.64416
            3073         471.140         471.140         49.5558         49.5558        -6.52879        -6.52879
            3074         472.912         472.912         43.0936         43.0936        -5.42044        -5.42044
            3075         474.338         474.338         37.2326         37.2326        -4.34486        -4.34486
            3076         475.436         475.436         31.9621         31.9621        -3.32146        -3.32146
            3077         476.231         476.231         27.2614         27.2614        -2.36569        -2.36569
            3078         476.750         476.750         23.1016         23.1016        -1.48609        -1.48609
            3079         477.021         477.021         19.4488         19.4488    -688.212E-03    -688.212E-03
            3080         477.072         477.072         16.2653         16.2653     27.8723E-03     27.8723E-03
            3081         476.930         476.930         13.5121         13.5121     663.875E-03     663.875E-03
            3082         476.620         476.620         11.1489         11.1489         1.22511         1.22511
            3083         476.165         476.165         9.13665         9.13665         1.71771         1.71771
            3084         475.586         475.586         7.43684         7.43684         2.14989         2.14989
            3085         474.900         474.900         6.01296         6.01296         2.53015         2.53015
            3086         474.123         474.123         4.83012         4.83012         2.86811         2.86811
            3087         473.266         473.266         3.85574         3.85574         3.17360         3.17360
            3088         472.340         472.340         3.05920         3.05920         3.45725         3.45725
            3089         471.350         471.350         2.41215         2.41215         3.73017         3.73017
            3090         470.302         470.302         1.88814         1.88814         4.00452         4.00452
            3091         469.198         469.198         1.46266         1.46266         4.29366         4.29366
            3092         468.035         468.035         1.11276         1.11276         4.61285         4.61285
            3093         466.812         466.812     816.804E-03     816.804E-03         4.97985         4.97985
            3094         465.522         465.522     553.866E-03     553.866E-03         5.41601         5.41601
            3095         464.158         464.158     303.020E-03     303.020E-03         5.94746         5.94746
            3096         462.709         462.709     42.1624E-03     42.1624E-03         6.60706         6.60706
            3097         461.164         461.164    -253.961E-03    -253.961E-03         7.43663         7.43663
            3098         459.514         459.514    -616.520E-03    -616.520E-03         8.49059         8.49059
            3099         457.754         457.754        -1.08801        -1.08801         9.84003         9.84003
            3100         455.893         455.893        -1.72952        -1.72952         11.5796         11.5796
            3101         453.968         453.968        -2.63632        -2.63632         13.8337         13.8337
            3102         452.078         452.078        -3.95849        -3.95849         16.7661         16.7661
            3103         450.446         450.446        -5.94752        -5.94752         20.5774         20.5774
            3104         449.549         449.549        -9.01518        -9.01518         25.4746         25.4746
            3105         450.327         450.327        -13.7881        -13.7881         31.5410         31.5410
            3106         441.492         441.492         129.021         129.021        -18.4630        -18.4630
            3107         445.778         445.778         118.882         118.882        -18.4041        -18.4041
            3108         449.981         449.981         108.737         108.737        -17.8991        -17.8991
            3109         454.016         454.016         98.7534         98.7534        -17.1336        -17.1336
            3110         457.814         457.814         89.0493         89.0493        -16.1248        -16.1248
            3111         461.317         461.317         79.7318         79.7318        -14.9089        -14.9089
            3112         464.483         464.483         70.8922         70.8922        -13.5258        -13.5258
            3113         467.280         467.280         62.6037         62.6037        -12.0269        -12.0269
            3114         469.696         469.696         54.9159         54.9159        -10.4615        -10.4615
            3115         471.726         471.726         47.8593         47.8593        -8.87801        -8.87801
            3116         473.384         473.384         41.4432         41.4432        -7.31923        -7.31923
            3117         474.688         474.688         35.6614         35.6614        -5.81930        -5.81930
            3118         475.666         475.666         30.4944         30.4944        -4.40580        -4.40580
            3119         476.347         476.347         25.9125         25.9125        -3.09586        -3.09586
            3120         476.764         476.764         21.8798         21.8798        -1.90140        -1.90140
            3121         476.947         476.947         18.3556         18.3556    -825.650E-03    -825.650E-03
            3122         476.928         476.928         15.2977         15.2977     131.400E-03     131.400E-03
            3123         476.734         476.734         12.6627         12.6627     975.473E-03     975.473E-03
            3124         476.392         476.392         10.4084         10.4084         1.71387         1.71387
            3125         475.923         475.923         8.49302         8.49302         2.35707         2.35707
            3126         475.349         475.349         6.87750         6.87750         2.91604         2.91604
            3127         474.687         474.687         5.52411         5.52411         3.40327         3.40327
            3128         473.951         473.951         4.39781         4.39781         3.83130         3.83130
            3129         473.154         473.154         3.46535         3.46535         4.21339         4.21339
            3130         472.306         472.306         2.69584         2.69584         4.56289         4.56289
            3131         471.416         471.416         2.06009         2.06009         4.89383         4.89383
            3132         470.488         470.488         1.53072         1.53072         5.22077         5.22077
            3133         469.530         469.530         1.08158         1.08158         5.55949         5.55949
            3134         468.545         468.545     687.549E-03     687.549E-03         5.92721         5.92721
            3135         467.536         467.536     323.795E-03     323.795E-03         6.34341         6.34341
            3136         466.508         466.508    -34.8700E-03    -34.8700E-03         6.83047         6.83047
            3137         465.466         465.466    -415.128E-03    -415.128E-03         7.41475         7.41475
            3138         464.418         464.418    -846.797E-03    -846.797E-03         8.12755         8.12755
            3139         463.379         463.379        -1.36503        -1.36503         9.00655         9.00655
            3140         462.374         462.374        -2.01420        -2.01420         10.0968         10.0968
            3141         461.446         461.446        -2.85251        -2.85251         11.4518         11.4518
            3142         460.670         460.670        -3.96119        -3.96119         13.1325         13.1325
            3143         460.173         460.173        -5.45348        -5.45348         15.2033         15.2033
            3144         460.170         460.170        -7.49400        -7.49400         17.7171         17.7171
            3145         461.018         461.018        -10.3058        -10.3058         20.6782         20.6782
            3146         463.288         463.288        -14.1742        -14.1742         23.9496         23.9496
            3147         467.828         467.828        -19.3446        -19.3446         27.1105         27.1105
            3148         442.208         442.208         128.828         128.828        -23.9965        -23.9965
            3149         446.634         446.634         118.299         118.299        -23.8905        -23.8905
            3150         450.967         450.967         107.756         107.756        -23.1889        -23.1889
            3151         455.099         455.099         97.3972         97.3972        -22.1281        -22.1281
            3152         458.953         458.953         87.3619         87.3619        -20.7452        -20.7452
            3153         462.466         462.466         77.7755         77.7755        -19.0856        -19.0856
            3154         465.589         465.589         68.7429         68.7429        -17.2177        -17.2177
            3155         468.301         468.301         60.3384         60.3384        -15.2103        -15.2103
            3156         470.589         470.589         52.6114         52.6114        -13.1361        -13.1361
            3157         472.469         472.469         45.5814         45.5814        -11.0603        -11.0603
            3158         473.957         473.957         39.2475         39.2475        -9.03789        -9.03789
            3159         475.089         475.089         33.5899         33.5899        -7.11366        -7.11366
            3160         475.898         475.898         28.5756         28.5756        -5.31739        -5.31739
            3161         476.425         476.425         24.1640         24.1640        -3.67060        -3.67060
            3162         476.705         476.705         20.3080         20.3080        -2.18170        -2.18170
            3163         476.775         476.775         16.9602         16.9602    -853.951E-03    -853.951E-03
            3164         476.666         476.666         14.0712         14.0712     318.073E-03     318.073E-03
            3165         476.409         476.409         11.5941         11.5941         1.34226         1.34226
            3166         476.028         476.028         9.48292         9.48292         2.23125         2.23125
            3167         475.547         475.547         7.69496         7.69496         2.99837         2.99837
            3168         474.984         474.984         6.18932         6.18932         3.65909         3.65909
            3169         474.355         474.355         4.92843         4.92843         4.22864         4.22864
            3170         473.674         473.674         3.87660         3.87660         4.72302         4.72302
            3171         472.954         472.954         3.00094         3.00094         5.15775         5.15775
            3172         472.204         472.204         2.27016         2.27016         5.54864         5.54864
            3173         471.433         471.433         1.65503         1.65503         5.91129         5.91129
            3174         470.651         470.651         1.12737         1.12737         6.26169         6.26169
            3175         469.864         469.864     660.135E-03     660.135E-03         6.61625         6.61625
            3176         469.082         469.082     226.495E-03     226.495E-03         6.99229         6.99229
            3177         468.314         468.314    -200.554E-03    -200.554E-03         7.40835         7.40835
            3178         467.573         467.573    -649.180E-03    -649.180E-03         7.88465         7.88465
            3179         466.875         466.875        -1.14979        -1.14979         8.44332         8.44332
            3180         466.243         466.243        -1.73650        -1.73650         9.10864         9.10864
            3181         465.711         465.711        -2.44936        -2.44936         9.90654         9.90654
            3182         465.327         465.327        -3.33668        -3.33668         10.8635         10.8635
            3183         465.164         465.164        -4.45927        -4.45927         12.0033         12.0033
            3184         465.328         465.328        -5.89295        -5.89295         13.3404         13.3404
            3185         465.978         465.978        -7.73404        -7.73404         14.8666         14.8666
            3186         467.338         467.338        -10.0929        -10.0929         16.5250         16.5250
            3187         469.726         469.726        -13.0823        -13.0823         18.1645         18.1645
            3188         473.535         473.535        -16.7371        -16.7371         19.4665         19.4665
            3189         479.171         479.171        -20.8952        -20.8952         19.8596         19.8596
            3190         487.086         487.086        -17.2901        -17.2901        -7.58102        -7.58102
            3191         482.880         482.880        -15.8275        -15.8275        -9.75525        -9.75525
            3192         479.182         479.182        -13.8311        -13.8311        -10.9938        -10.9938
            3193         476.154         476.154        -11.6983        -11.6983        -11.5089        -11.5089
            3194         473.806         473.806        -9.67255        -9.67255        -11.5480        -11.5480
            3195         472.069         472.069        -7.86507        -7.86507        -11.3066        -11.3066
            3196         470.844         470.844        -6.31004        -6.31004        -10.9243        -10.9243
            3197         470.030         470.030        -4.99878        -4.99878        -10.4877        -10.4877
            3198         469.541         469.541        -3.90551        -3.90551        -10.0475        -10.0475
            3199         469.305         469.305        -2.99705        -2.99705        -9.62937        -9.62937
            3200         469.264         469.264        -2.23935        -2.23935        -9.24360        -9.24360
            3201         469.374         469.374        -1.59913        -1.59913        -8.89069        -8.89069
            3202         469.601         469.601        -1.04495        -1.04495        -8.56540        -8.56540
            3203         469.917         469.917    -547.101E-03    -547.101E-03        -8.25891        -8.25891
            3204         470.303         470.303    -77.2340E-03    -77.2340E-03        -7.96030        -7.96030
            3205         470.742         470.742     391.890E-03     391.890E-03        -7.65722        -7.65722
            3206         471.221         471.221     887.200E-03     887.200E-03        -7.33624        -7.33624
            3207         471.729         471.729         1.43535         1.43535        -6.98297        -6.98297
            3208         472.257         472.257         2.06381         2.06381        -6.58200        -6.58200
            3209         472.797         472.797         2.80055         2.80055        -6.11690        -6.11690
            3210         473.339         473.339         3.67562         3.67562        -5.56996        -5.56996
            3211         473.875         473.875         4.72021         4.72021        -4.92241        -4.92241
            3212         474.395         474.395         5.96912         5.96912        -4.15402        -4.15402
            3213         474.886         474.886         7.45878         7.45878        -3.24391        -3.24391
            3214         475.333         475.333         9.23115         9.23115        -2.16986        -2.16986
            3215         475.720         475.720         11.3300         11.3300    -910.432E-03    -910.432E-03
            3216         476.022         476.022         13.8070         13.8070     556.472E-03     556.472E-03
            3217         476.213         476.213         16.7150         16.7150         2.24882         2.24882
            3218         476.259         476.259         20.1170         20.1170         4.18371         4.18371
            3219         476.117         476.117         24.0755         24.0755         6.36753         6.36753
            3220         475.743         475.743         28.6626         28.6626         8.80306         8.80306
            3221         475.078         475.078         33.9463         33.9463         11.4720         11.4720
            3222         474.068         474.068         39.9966         39.9966         14.3478         14.3478
            3223         472.642         472.642         46.8717         46.8717         17.3720         17.3720
            3224         470.756         470.756         54.6113         54.6113         20.4722         20.4722
            3225         468.350         468.350         63.2312         63.2312         23.5440         23.5440
            3226         465.416         465.416         72.6981         72.6981         26.4663         26.4663
            3227         461.948         461.948         82.9416         82.9416         29.1130         29.1130
            3228         457.998         457.998         93.8254         93.8254         31.3479         31.3479
            3229         453.643         453.643         105.175         105.175         33.0801         33.0801
            3230         448.986         448.986         116.775         116.775         34.2238         34.2238
            3231         444.192         444.192         128.339         128.339         34.4389         34.4389
            3232         487.162         487.162        -14.5489        -14.5489        -3.71964        -3.71964
            3233         483.889         483.889        -13.9729        -13.9729        -6.14900        -6.14900
            3234         480.818         480.818        -12.7436        -12.7436        -7.84885        -7.84885
            3235         478.102         478.102        -11.1836        -11.1836        -8.92901        -8.92901
            3236         475.831         475.831        -9.54086        -9.54086        -9.52753        -9.52753
            3237         474.015         474.015        -7.96653        -7.96653        -9.78960        -9.78960
            3238         472.618         472.618        -6.53832        -6.53832        -9.83268        -9.83268
            3239         471.585         471.585        -5.28612        -5.28612        -9.74461        -9.74461
            3240         470.859         470.859        -4.21095        -4.21095        -9.58394        -9.58394
            3241         470.384         470.384        -3.29893        -3.29893        -9.38774        -9.38774
            3242         470.111         470.111        -2.52821        -2.52821        -9.17698        -9.17698
            3243         470.001         470.001        -1.87374        -1.87374        -8.96177        -8.96177
            3244         470.021         470.021        -1.30920        -1.30920        -8.74473        -8.74473
            3245         470.146         470.146    -808.229E-03    -808.229E-03        -8.52341        -8.52341
            3246         470.354         470.354    -344.855E-03    -344.855E-03        -8.29185        -8.29185
            3247         470.630         470.630     106.615E-03     106.615E-03        -8.04151        -8.04151
            3248         470.959         470.959     571.473E-03     571.473E-03        -7.76181        -7.76181
            3249         471.333         471.333         1.07533         1.07533        -7.44035        -7.44035
            3250         471.742         471.742         1.64389         1.64389        -7.06303        -7.06303
            3251         472.179         472.179         2.30421         2.30421        -6.61401        -6.61401
            3252         472.638         472.638         3.08412         3.08412        -6.07566        -6.07566
            3253         473.112         473.112         4.01420         4.01420        -5.42843        -5.42843
            3254         473.593         473.593         5.12648         5.12648        -4.65108        -4.65108
            3255         474.072         474.072         6.45777         6.45777        -3.72024        -3.72024
            3256         474.539         474.539         8.04683         8.04683        -2.61155        -2.61155
            3257         474.978         474.978         9.94009         9.94009        -1.29865        -1.29865
            3258         475.371         475.371         12.1861         12.1861     243.762E-03     243.762E-03
            3259         475.693         475.693         14.8448         14.8448         2.04227         2.04227
            3260         475.912         475.912         17.9776         17.9776         4.11742         4.11742
            3261         475.988         475.988         21.6613         21.6613         6.48946         6.48946
            3262         475.869         475.869         25.9715         25.9715         9.16243         9.16243
            3263         475.497         475.497         30.9996         30.9996         12.1368         12.1368
            3264         474.793         474.793         36.8305         36.8305         15.3802         15.3802
            3265         473.690         473.690         43.5520         43.5520         18.8506         18.8506
            3266         472.091         472.091         51.2347         51.2347         22.4567         22.4567
            3267         469.946         469.946         59.9158         59.9158         26.0884         26.0884
            3268         467.180         467.180         69.5978         69.5978         29.5948         29.5948
            3269         463.804         463.804         80.2015         80.2015         32.8017         32.8017
            3270         459.834         459.834         91.5966         91.5966         35.5504         35.5504
            3271         455.363         455.363         103.562         103.562         37.6733         37.6733
            3272         450.531         450.531         115.832         115.832         39.0926         39.0926
            3273         445.494         445.494         128.065         128.065         39.3713         39.3713
            3274         486.212         486.212        -11.8044        -11.8044    -894.388E-03    -894.388E-03
            3275         483.803         483.803        -11.8829        -11.8829        -3.30951        -3.30951
            3276         481.363         481.363        -11.2499        -11.2499        -5.19590        -5.19590
            3277         479.070         479.070        -10.1996        -10.1996        -6.59216        -6.59216
            3278         477.027         477.027        -8.94754        -8.94754        -7.56737        -7.56737
            3279         475.287         475.287        -7.65187        -7.65187        -8.20827        -8.20827
            3280         473.859         473.859        -6.41066        -6.41066        -8.60179        -8.60179
            3281         472.726         472.726        -5.27764        -5.27764        -8.82018        -8.82018
            3282         471.856         471.856        -4.27536        -4.27536        -8.91939        -8.91939
            3283         471.212         471.212        -3.40638        -3.40638        -8.93880        -8.93880
            3284         470.760         470.760        -2.66133        -2.66133        -8.90483        -8.90483
            3285         470.467         470.467        -2.02386        -2.02386        -8.83350        -8.83350
            3286         470.305         470.305        -1.47394        -1.47394        -8.73330        -8.73330
            3287         470.251         470.251    -989.670E-03    -989.670E-03        -8.60699        -8.60699
            3288         470.288         470.288    -548.311E-03    -548.311E-03        -8.45309        -8.45309
            3289         470.399         470.399    -126.909E-03    -126.909E-03        -8.26677        -8.26677
            3290         470.574         470.574     297.818E-03     297.818E-03        -8.04040        -8.04040
            3291         470.804         470.804     749.147E-03     749.147E-03        -7.76388        -7.76388
            3292         471.081         471.081         1.25118         1.25118        -7.42480        -7.42480
            3293         471.401         471.401         1.82838         1.82838        -7.00838        -7.00838
            3294         471.760         471.760         2.50719         2.50719        -6.49745        -6.49745
            3295         472.153         472.153         3.31501         3.31501        -5.87241        -5.87241
            3296         472.577         472.577         4.28301         4.28301        -5.11104        -5.11104
            3297         473.027         473.027         5.44404         5.44404        -4.18873        -4.18873
            3298         473.495         473.495         6.83748         6.83748        -3.07803        -3.07803
            3299         473.974         473.974         8.50498         8.50498        -1.74995        -1.74995
            3300         474.448         474.448         10.4990         10.4990    -172.640E-03    -172.640E-03
            3301         474.898         474.898         12.8743         12.8743         1.68448         1.68448
            3302         475.298         475.298         15.7028         15.7028         3.85441         3.85441
            3303         475.608         475.608         19.0574         19.0574         6.36158         6.36158
            3304         475.781         475.781         23.0354         23.0354         9.23147         9.23147
            3305         475.748         475.748         27.7316         27.7316         12.4650         12.4650
            3306         475.433         475.433         33.2665         33.2665         16.0607         16.0607
            3307         474.728         474.728         39.7500         39.7500         19.9646         19.9646
            3308         473.544         473.544         47.2952         47.2952         24.1112         24.1112
            3309         471.743         471.743         55.9888         55.9888         28.3587         28.3587
            3310         469.274         469.274         65.8536         65.8536         32.5378         32.5378
            3311         466.049         466.049         76.8604         76.8604         36.4328         36.4328
            3312         462.116         462.116         88.8430         88.8430         39.7950         39.7950
            3313         457.544         457.544         101.564         101.564         42.4422         42.4422
            3314         452.485         452.485         114.677         114.677         44.1839         44.1839
            3315         447.200         447.200         127.730         127.730         44.5757         44.5757
            3316         484.701         484.701        -9.29402        -9.29402         1.04179         1.04179
            3317         483.023         483.023        -9.77833        -9.77833        -1.16946        -1.16946
            3318         481.173         481.173        -9.58310        -9.58310        -3.05991        -3.05991
            3319         479.317         479.317        -8.93939        -8.93939        -4.59331        -4.59331
            3320         477.568         477.568        -8.03765        -8.03765        -5.78838        -5.78838
            3321         475.995         475.995        -7.02044        -7.02044        -6.68734        -6.68734
            3322         474.632         474.632        -5.99019        -5.99019        -7.34316        -7.34316
            3323         473.485         473.485        -5.01116        -5.01116        -7.80861        -7.80861
            3324         472.546         472.546        -4.11909        -4.11909        -8.12893        -8.12893
            3325         471.794         471.794        -3.32878        -3.32878        -8.34038        -8.34038
            3326         471.208         471.208        -2.64101        -2.64101        -8.46970        -8.46970
            3327         470.765         470.765        -2.04755        -2.04755        -8.53570        -8.53570
            3328         470.444         470.444        -1.53456        -1.53456        -8.55036        -8.55036
            3329         470.226         470.226        -1.08497        -1.08497        -8.52030        -8.52030
            3330         470.096         470.096    -679.935E-03    -679.935E-03        -8.44765        -8.44765
            3331         470.043         470.043    -299.562E-03    -299.562E-03        -8.33089        -8.33089
            3332         470.057         470.057     76.4410E-03     76.4410E-03        -8.16523        -8.16523
            3333         470.131         470.131     469.029E-03     469.029E-03        -7.94299        -7.94299
            3334         470.263         470.263     899.371E-03     899.371E-03        -7.65362        -7.65362
            3335         470.447         470.447         1.38989         1.38989        -7.28381        -7.28381
            3336         470.685         470.685         1.96361         1.96361        -6.81732        -6.81732
            3337         470.975         470.975         2.64616         2.64616        -6.23492        -6.23492
            3338         471.318         471.318         3.46442         3.46442        -5.51422        -5.51422
            3339         471.713         471.713         4.45024         4.45024        -4.62948        -4.62948
            3340         472.159         472.159         5.63740         5.63740        -3.55172        -3.55172
            3341         472.653         472.653         7.06860         7.06860        -2.24821        -2.24821
            3342         473.189         473.189         8.78901         8.78901    -683.784E-03    -683.784E-03
            3343         473.753         473.753         10.8592         10.8592         1.18084         1.18084
            3344         474.327         474.327         13.3422         13.3422         3.38379         3.38379
            3345         474.879         474.879         16.3266         16.3266         5.96755         5.96755
            3346         475.365         475.365         19.9014         19.9014         8.96289         8.96289
            3347         475.724         475.724         24.1944         24.1944         12.4045         12.4045
            3348         475.862         475.862         29.3279         29.3279         16.2895         16.2895
            3349         475.679         475.679         35.4676         35.4676         20.6158         20.6158
            3350         475.013         475.013         42.7623         42.7623         25.2948         25.2948
            3351         473.749         473.749         51.3591         51.3591         30.2241         30.2241
            3352         471.687         471.687         61.3643         61.3643         35.1800         35.1800
            3353         468.783         468.783         72.7563         72.7563         39.8959         39.8959
            3354         464.949         464.949         85.4321         85.4321         44.0700         44.0700
            3355         460.303         460.303         99.0642         99.0642         47.3534         47.3534
            3356         455.032         455.032         113.229         113.229         49.5742         49.5742
            3357         449.377         449.377         127.349         127.349         50.0895         50.0895
            3358         482.973         482.973        -7.13464        -7.13464         2.29197         2.29197
            3359         481.861         481.861        -7.81016        -7.81016     364.265E-03     364.265E-03
            3360         480.517         480.517        -7.89465        -7.89465        -1.40931        -1.40931
            3361         479.074         479.074        -7.55328        -7.55328        -2.95532        -2.95532
            3362         477.634         477.634        -6.93739        -6.93739        -4.24942        -4.24942
            3363         476.271         476.271        -6.17189        -6.17189        -5.30030        -5.30030
            3364         475.027         475.027        -5.35028        -5.35028        -6.13277        -6.13277
            3365         473.924         473.924        -4.53851        -4.53851        -6.77893        -6.77893
            3366         472.969         472.969        -3.77755        -3.77755        -7.27146        -7.27146
            3367         472.156         472.156        -3.08944        -3.08944        -7.63950        -7.63950
            3368         471.473         471.473        -2.48205        -2.48205        -7.90730        -7.90730
            3369         470.908         470.908        -1.95351        -1.95351        -8.09356        -8.09356
            3370         470.445         470.445        -1.49540        -1.49540        -8.21192        -8.21192
            3371         470.073         470.073        -1.09528        -1.09528        -8.27134        -8.27134
            3372         469.781         469.781    -738.163E-03    -738.163E-03        -8.27671        -8.27671
            3373         469.561         469.561    -407.691E-03    -407.691E-03        -8.22920        -8.22920
            3374         469.406         469.406    -86.5284E-03    -86.5284E-03        -8.12664        -8.12664
            3375         469.312         469.312     243.044E-03     243.044E-03        -7.96362        -7.96362
            3376         469.280         469.280     599.619E-03     599.619E-03        -7.73171        -7.73171
            3377         469.309         469.309         1.00212         1.00212        -7.41920        -7.41920
            3378         469.401         469.401         1.47115         1.47115        -7.01129        -7.01129
            3379         469.560         469.560         2.02808         2.02808        -6.48958        -6.48958
            3380         469.790         469.790         2.69767         2.69767        -5.83222        -5.83222
            3381         470.098         470.098         3.50611         3.50611        -5.01322        -5.01322
            3382         470.487         470.487         4.48608         4.48608        -4.00255        -4.00255
            3383         470.962         470.962         5.67238         5.67238        -2.76564        -2.76564
            3384         471.525         471.525         7.11186         7.11186        -1.26305        -1.26305
            3385         472.173         472.173         8.85392         8.85392     548.699E-03     548.699E-03
            3386         472.897         472.897         10.9700         10.9700         2.71902         2.71902
            3387         473.680         473.680         13.5332         13.5332         5.29724         5.29724
            3388         474.486         474.486         16.6560         16.6560         8.34022         8.34022
            3389         475.263         475.263         20.4490         20.4490         11.8896         11.8896
            3390         475.931         475.931         25.0863         25.0863         15.9967         15.9967
            3391         476.361         476.361         30.7309         30.7309         20.6544         20.6544
            3392         476.411         476.411         37.6215         37.6215         25.8647         25.8647
            3393         475.833         475.833         45.9689         45.9689         31.4792         31.4792
            3394         474.473         474.473         55.9638         55.9638         37.3317         37.3317
            3395         472.031         472.031         67.7314         67.7314         43.0623         43.0623
            3396         468.507         468.507         81.1310         81.1310         48.2358         48.2358
            3397         463.854         463.854         95.8919         95.8919         52.4538         52.4538
            3398         458.313         458.313         111.400         111.400         55.2488         55.2488
            3399         452.329         452.329         126.858         126.858         56.0260         56.0260
            3400         481.224         481.224        -5.34160        -5.34160         3.04079         3.04079
            3401         480.539         480.539        -6.05512        -6.05512         1.40960         1.40960
            3402         479.610         479.610        -6.28633        -6.28633    -188.250E-03    -188.250E-03
            3403         478.533         478.533        -6.14680        -6.14680        -1.66314        -1.66314
            3404         477.389         477.389        -5.74960        -5.74960        -2.96751        -2.96751
            3405         476.246         476.246        -5.19505        -5.19505        -4.08392        -4.08392
            3406         475.148         475.148        -4.56434        -4.56434        -5.01564        -5.01564
            3407         474.124         474.124        -3.91729        -3.91729        -5.77720        -5.77720
            3408         473.187         473.187        -3.29484        -3.29484        -6.38863        -6.38863
            3409         472.343         472.343        -2.72138        -2.72138        -6.87120        -6.87120
            3410         471.589         471.589        -2.20873        -2.20873        -7.24471        -7.24471
            3411         470.921         470.921        -1.75923        -1.75923        -7.52628        -7.52628
            3412         470.330         470.330        -1.36871        -1.36871        -7.72960        -7.72960
            3413         469.810         469.810        -1.02860        -1.02860        -7.86489        -7.86489
            3414         469.355         469.355    -727.624E-03    -727.624E-03        -7.93882        -7.93882
            3415         468.961         468.961    -452.718E-03    -452.718E-03        -7.95473        -7.95473
            3416         468.626         468.626    -189.943E-03    -189.943E-03        -7.91259        -7.91259
            3417         468.349         468.349     75.4975E-03     75.4975E-03        -7.80924        -7.80924
            3418         468.133         468.133     358.702E-03     358.702E-03        -7.63818        -7.63818
            3419         467.980         467.980     675.805E-03     675.805E-03        -7.38976        -7.38976
            3420         467.898         467.898         1.04335         1.04335        -7.05070        -7.05070
            3421         467.893         467.893         1.47997         1.47997        -6.60428        -6.60428
            3422         467.975         467.975         2.00519         2.00519        -6.02953        -6.02953
            3423         468.153         468.153         2.64276         2.64276        -5.30153        -5.30153
            3424         468.441         468.441         3.41799         3.41799        -4.39005        -4.39005
            3425         468.849         468.849         4.36442         4.36442        -3.26005        -3.26005
            3426         469.390         469.390         5.51784         5.51784        -1.86995        -1.86995
            3427         470.071         470.071         6.92998         6.92998    -172.023E-03    -172.023E-03
            3428         470.901         470.901         8.65492         8.65492         1.88853         1.88853
            3429         471.874         471.874         10.7779         10.7779         4.37490         4.37490
            3430         472.978         472.978         13.3845         13.3845         7.35338         7.35338
            3431         474.177         474.177         16.6206         16.6206         10.9030         10.9030
            3432         475.409         475.409         20.6252         20.6252         15.0846         15.0846
            3433         476.565         476.565         25.6451         25.6451         19.9804         19.9804
            3434         477.468         477.468         31.9037         31.9037         25.5800         25.5800
            3435         477.903         477.903         39.7651         39.7651         31.9024         31.9024
            3436         477.464         477.464         49.5464         49.5464         38.6870         38.6870
            3437         475.953         475.953         61.4826         61.4826         45.6447         45.6447
            3438         472.913         472.913         75.6951         75.6951         52.1844         52.1844
            3439         468.464         468.464         91.7478         91.7478         57.5736         57.5736
            3440         462.745         462.745         108.993         108.993         61.3571         61.3571
            3441         456.182         456.182         126.286         126.286         62.4151         62.4151
            3442         479.563         479.563        -3.88425        -3.88425         3.42433         3.42433
            3443         479.204         479.204        -4.53583        -4.53583         2.06913         2.06913
            3444         478.613         478.613        -4.81551        -4.81551     668.850E-03     668.850E-03
            3445         477.851         477.851        -4.79425        -4.79425    -686.008E-03    -686.008E-03
            3446         476.979         476.979        -4.55229        -4.55229        -1.93630        -1.93630
            3447         476.050         476.050        -4.16592        -4.16592        -3.04973        -3.04973
            3448         475.105         475.105        -3.70011        -3.70011        -4.01363        -4.01363
            3449         474.173         474.173        -3.20575        -3.20575        -4.82923        -4.82923
            3450         473.272         473.272        -2.71908        -2.71908        -5.50596        -5.50596
            3451         472.414         472.414        -2.26359        -2.26359        -6.05755        -6.05755
            3452         471.603         471.603        -1.85202        -1.85202        -6.49918        -6.49918
            3453         470.841         470.841        -1.48901        -1.48901        -6.84543        -6.84543
            3454         470.126         470.126        -1.17314        -1.17314        -7.10925        -7.10925
            3455         469.458         469.458    -898.969E-03    -898.969E-03        -7.30114        -7.30114
            3456         468.836         468.836    -658.295E-03    -658.295E-03        -7.42889        -7.42889
            3457         468.259         468.259    -441.309E-03    -441.309E-03        -7.49730        -7.49730
            3458         467.730         467.730    -237.066E-03    -237.066E-03        -7.50821        -7.50821
            3459         467.251         467.251    -34.1269E-03    -34.1269E-03        -7.46028        -7.46028
            3460         466.828         466.828     179.674E-03     179.674E-03        -7.34912        -7.34912
            3461         466.466         466.466     416.736E-03     416.736E-03        -7.16689        -7.16689
            3462         466.177         466.177     690.637E-03     690.637E-03        -6.90255        -6.90255
            3463         465.970         465.970         1.01541         1.01541        -6.54105        -6.54105
            3464         465.858         465.858         1.40756         1.40756        -6.06371        -6.06371
            3465         465.859         465.859         1.88454         1.88454        -5.44680        -5.44680
            3466         465.990         465.990         2.46880         2.46880        -4.66224        -4.66224
            3467         466.271         466.271         3.18446         3.18446        -3.67506        -3.67506
            3468         466.722         466.722         4.06564         4.06564        -2.44479        -2.44479
            3469         467.367         467.367         5.14869         5.14869    -921.327E-03    -921.327E-03
            3470         468.226         468.226         6.49051         6.49051     952.936E-03     952.936E-03
            3471         469.320         469.320         8.14979         8.14979         3.24819         3.24819
            3472         470.655         470.655         10.2285         10.2285         6.04596         6.04596
            3473         472.233         472.233         12.8264         12.8264         9.43883         9.43883
            3474         474.017         474.017         16.1355         16.1355         13.5396         13.5396
            3475         475.945         475.945         20.3311         20.3311         18.4452         18.4452
            3476         477.868         477.868         25.7773         25.7773         24.2947         24.2947
            3477         479.534         479.534         32.7875         32.7875         31.0823         31.0823
            3478         480.600         480.600         41.9613         41.9613         38.8803         38.8803
            3479         480.341         480.341         53.8158         53.8158         47.1950         47.1950
            3480         478.532         478.532         68.5787         68.5787         55.4659         55.4659
            3481         474.507         474.507         86.2589         86.2589         62.7234         62.7234
            3482         468.667         468.667         105.725         105.725         67.7206         67.7206
            3483         461.730         461.730         125.437         125.437         69.5212         69.5212
            3484         478.045         478.045        -2.71444        -2.71444         3.52794         3.52794
            3485         477.953         477.953        -3.24796        -3.24796         2.41698         2.41698
            3486         477.647         477.647        -3.51026        -3.51026         1.21674         1.21674
            3487         477.160         477.160        -3.54491        -3.54491     10.9874E-03     10.9874E-03
            3488         476.533         476.533        -3.40579        -3.40579        -1.13920        -1.13920
            3489         475.804         475.804        -3.14756        -3.14756        -2.19404        -2.19404
            3490         475.006         475.006        -2.81908        -2.81908        -3.13189        -3.13189
            3491         474.166         474.166        -2.45994        -2.45994        -3.94473        -3.94473
            3492         473.305         473.305        -2.09973        -2.09973        -4.63426        -4.63426
            3493         472.436         472.436        -1.75829        -1.75829        -5.20821        -5.20821
            3494         471.571         471.571        -1.44734        -1.44734        -5.67749        -5.67749
            3495         470.715         470.715        -1.17195        -1.17195        -6.05418        -6.05418
            3496         469.874         469.874    -932.347E-03    -932.347E-03        -6.34989        -6.34989
            3497         469.052         469.052    -725.207E-03    -725.207E-03        -6.57490        -6.57490
            3498         468.253         468.253    -544.962E-03    -544.962E-03        -6.73741        -6.73741
            3499         467.480         467.480    -384.487E-03    -384.487E-03        -6.84323        -6.84323
            3500         466.738         466.738    -235.859E-03    -235.859E-03        -6.89546        -6.89546
            3501         466.035         466.035    -90.4648E-03    -90.4648E-03        -6.89444        -6.89444
            3502         465.379         465.379     60.5326E-03     60.5326E-03        -6.83745        -6.83745
            3503         464.777         464.777     226.616E-03     226.616E-03        -6.71887        -6.71887
            3504         464.244         464.244     417.470E-03     417.470E-03        -6.52957        -6.52957
            3505         463.793         463.793     644.031E-03     644.031E-03        -6.25727        -6.25727
            3506         463.440         463.440     917.752E-03     917.752E-03        -5.88532        -5.88532
            3507         463.207         463.207         1.25272         1.25272        -5.39345        -5.39345
            3508         463.116         463.116         1.66409         1.66409        -4.75536        -4.75536
            3509         463.195         463.195         2.17246         2.17246        -3.94031        -3.94031
            3510         463.475         463.475         2.80019         2.80019        -2.90846        -2.90846
            3511         463.989         463.989         3.58106         3.58106        -1.61411        -1.61411
            3512         464.777         464.777         4.55114         4.55114     2.80259E-03     2.80259E-03
            3513         465.877         465.877         5.77152         5.77152         2.01071         2.01071
            3514         467.332         467.332         7.30450         7.30450         4.50042         4.50042
            3515         469.171         469.171         9.27039         9.27039         7.57663         7.57663
            3516         471.426         471.426         11.7828         11.7828         11.3729         11.3729
            3517         474.072         474.072         15.0961         15.0961         16.0522         16.0522
            3518         477.065         477.065         19.4287         19.4287         21.7808         21.7808
            3519         480.207         480.207         25.3376         25.3376         28.8037         28.8037
            3520         483.146         483.146         33.2688         33.2688         37.1518         37.1518
            3521         485.284         485.284         44.3157         44.3157         47.0553         47.0553
            3522         485.172         485.172         59.4111         59.4111         57.4802         57.4802
            3523         482.701         482.701         78.5010         78.5010         67.1826         67.1826
            3524         477.082         477.082         101.049         101.049         74.6702         74.6702
            3525         469.260         469.260         124.331         124.331         77.2488         77.2488
            3526         476.705         476.705        -1.78571        -1.78571         3.39047         3.39047
            3527         476.858         476.858        -2.17711        -2.17711         2.49482         2.49482
            3528         476.810         476.810        -2.38468        -2.38468         1.49232         1.49232
            3529         476.574         476.574        -2.43358        -2.43358     456.133E-03     456.133E-03
            3530         476.170         476.170        -2.35809        -2.35809    -556.503E-03    -556.503E-03
            3531         475.623         475.623        -2.19465        -2.19465        -1.50498        -1.50498
            3532         474.959         474.959        -1.97707        -1.97707        -2.36386        -2.36386
            3533         474.202         474.202        -1.73366        -1.73366        -3.12045        -3.12045
            3534         473.371         473.371        -1.48605        -1.48605        -3.77162        -3.77162
            3535         472.484         472.484        -1.24932        -1.24932        -4.32094        -4.32094
            3536         471.556         471.556        -1.03261        -1.03261        -4.77610        -4.77610
            3537         470.597         470.597    -840.389E-03    -840.389E-03        -5.14683        -5.14683
            3538         469.619         469.619    -673.392E-03    -673.392E-03        -5.44332        -5.44332
            3539         468.630         468.630    -529.806E-03    -529.806E-03        -5.67511        -5.67511
            3540         467.637         467.637    -405.990E-03    -405.990E-03        -5.85031        -5.85031
            3541         466.650         466.650    -297.236E-03    -297.236E-03        -5.97509        -5.97509
            3542         465.676         465.676    -198.073E-03    -198.073E-03        -6.05342        -6.05342
            3543         464.725         464.725    -102.718E-03    -102.718E-03        -6.08673        -6.08673
            3544         463.807         463.807    -4.98135E-03    -4.98135E-03        -6.07398        -6.07398
            3545         462.933         462.933     101.415E-03     101.415E-03        -6.01122        -6.01122
            3546         462.117         462.117     223.322E-03     223.322E-03        -5.89190        -5.89190
            3547         461.377         461.377     367.794E-03     367.794E-03        -5.70597        -5.70597
            3548         460.730         460.730     543.083E-03     543.083E-03        -5.44050        -5.44050
            3549         460.202         460.202     758.024E-03     758.024E-03        -5.07791        -5.07791
            3550         459.818         459.818         1.02393         1.02393        -4.59727        -4.59727
            3551         459.611         459.611         1.35338         1.35338        -3.97057        -3.97057
            3552         459.620         459.620         1.76409         1.76409        -3.16563        -3.16563
            3553         459.890         459.890         2.27604         2.27604        -2.13845        -2.13845
            3554         460.473         460.473         2.92053         2.92053    -839.553E-03    -839.553E-03
            3555         461.432         461.432         3.73216         3.73216     801.710E-03     801.710E-03
            3556         462.830         462.830         4.77259         4.77259         2.86373         2.86373
            3557         464.753         464.753         6.10582         6.10582         5.46358         5.46358
            3558         467.267         467.267         7.86708         7.86708         8.73185         8.73185
            3559         470.468         470.468         10.1818         10.1818         12.8649         12.8649
            3560         474.370         474.370         13.3793         13.3793         18.0951         18.0951
            3561         479.015         479.015         17.7230         17.7230         24.7243         24.7243
            3562         484.148         484.148         24.0876         24.0876         33.1893         33.1893
            3563         489.355         489.355         33.0988         33.0988         43.6787         43.6787
            3564         493.461         493.461         47.0220         47.0220         56.8913         56.8913
            3565         493.206         493.206         67.7204         67.7204         70.4040         70.4040
            3566         489.143         489.143         93.6981         93.6981         81.0800         81.0800
            3567         481.331         481.331         122.235         122.235         86.4356         86.4356
            3568         475.573         475.573        -1.06236        -1.06236         3.01031         3.01031
            3569         475.984         475.984        -1.31241        -1.31241         2.31252         2.31252
            3570         476.195         476.195        -1.45073        -1.45073         1.51160         1.51160
            3571         476.200         476.200        -1.49083        -1.49083     667.606E-03     667.606E-03
            3572         476.004         476.004        -1.45248        -1.45248    -170.424E-03    -170.424E-03
            3573         475.623         475.623        -1.35766        -1.35766    -965.852E-03    -965.852E-03
            3574         475.075         475.075        -1.22725        -1.22725        -1.69430        -1.69430
            3575         474.380         474.380        -1.07908        -1.07908        -2.34213        -2.34213
            3576         473.560         473.560    -927.054E-03    -927.054E-03        -2.90432        -2.90432
            3577         472.636         472.636    -780.963E-03    -780.963E-03        -3.38216        -3.38216
            3578         471.625         471.625    -646.980E-03    -646.980E-03        -3.78107        -3.78107
            3579         470.545         470.545    -528.173E-03    -528.173E-03        -4.10880        -4.10880
            3580         469.410         469.410    -425.306E-03    -425.306E-03        -4.37392        -4.37392
            3581         468.233         468.233    -337.394E-03    -337.394E-03        -4.58484        -4.58484
            3582         467.028         467.028    -262.346E-03    -262.346E-03        -4.74894        -4.74894
            3583         465.805         465.805    -197.277E-03    -197.277E-03        -4.87219        -4.87219
            3584         464.575         464.575    -138.930E-03    -138.930E-03        -4.95867        -4.95867
            3585         463.349         463.349    -83.7134E-03    -83.7134E-03        -5.01060        -5.01060
            3586         462.140         462.140    -27.9727E-03    -27.9727E-03        -5.02792        -5.02792
            3587         460.960         460.960     32.2034E-03     32.2034E-03        -5.00854        -5.00854
            3588         459.823         459.823     100.768E-03     100.768E-03        -4.94778        -4.94778
            3589         458.748         458.748     182.127E-03     182.127E-03        -4.83879        -4.83879
            3590         457.754         457.754     280.941E-03     280.941E-03        -4.67145        -4.67145
            3591         456.866         456.866     402.762E-03     402.762E-03        -4.43330        -4.43330
            3592         456.112         456.112     553.907E-03     553.907E-03        -4.10709        -4.10709
            3593         455.529         455.529     742.410E-03     742.410E-03        -3.67288        -3.67288
            3594         455.160         455.160     978.113E-03     978.113E-03        -3.10272        -3.10272
            3595         455.055         455.055         1.27430         1.27430        -2.36549        -2.36549
            3596         455.279         455.279         1.64808         1.64808        -1.41518        -1.41518
            3597         455.906         455.906         2.12445         2.12445    -202.199E-03    -202.199E-03
            3598         457.031         457.031         2.73561         2.73561         1.35305         1.35305
            3599         458.761         458.761         3.53540         3.53540         3.33370         3.33370
            3600         461.241         461.241         4.58795         4.58795         5.88657         5.88657
            3601         464.610         464.610         6.02797         6.02797         9.16261         9.16261
            3602         469.086         469.086         7.98958         7.98958         13.4491         13.4491
            3603         474.794         474.794         10.8677         10.8677         19.0546         19.0546
            3604         482.016         482.016         14.9634         14.9634         26.5455         26.5455
            3605         490.525         490.525         21.6390         21.6390         36.6678         36.6678
            3606         500.148         500.148         31.7045         31.7045         50.1978         50.1978
            3607         508.372         508.372         50.5482         50.5482         69.2066         69.2066
            3608         507.013         507.013         82.0097         82.0097         87.4732         87.4732
            3609         498.969         498.969         118.606         118.606         95.7074         95.7074
            3610         474.694         474.694    -526.555E-03    -526.555E-03         2.34843         2.34843
            3611         475.409         475.409    -655.842E-03    -655.842E-03         1.85045         1.85045
            3612         475.903         475.903    -729.038E-03    -729.038E-03         1.27046         1.27046
            3613         476.155         476.155    -752.148E-03    -752.148E-03     652.827E-03     652.827E-03
            3614         476.160         476.160    -734.925E-03    -734.925E-03     34.5595E-03     34.5595E-03
            3615         475.925         475.925    -688.377E-03    -688.377E-03    -555.994E-03    -555.994E-03
            3616         475.466         475.466    -623.143E-03    -623.143E-03        -1.09946        -1.09946
            3617         474.804         474.804    -548.426E-03    -548.426E-03        -1.58462        -1.58462
            3618         473.964         473.964    -471.433E-03    -471.433E-03        -2.00689        -2.00689
            3619         472.971         472.971    -397.335E-03    -397.335E-03        -2.36674        -2.36674
            3620         471.847         471.847    -329.372E-03    -329.372E-03        -2.66800        -2.66800
            3621         470.616         470.616    -269.238E-03    -269.238E-03        -2.91649        -2.91649
            3622         469.296         469.296    -217.358E-03    -217.358E-03        -3.11881        -3.11881
            3623         467.907         467.907    -173.314E-03    -173.314E-03        -3.28157        -3.28157
            3624         466.464         466.464    -136.036E-03    -136.036E-03        -3.41071        -3.41071
            3625         464.980         464.980    -104.128E-03    -104.128E-03        -3.51113        -3.51113
            3626         463.469         463.469    -75.9095E-03    -75.9095E-03        -3.58645        -3.58645
            3627         461.943         461.943    -49.6461E-03    -49.6461E-03        -3.63880        -3.63880
            3628         460.414         460.414    -23.4556E-03    -23.4556E-03        -3.66888        -3.66888
            3629         458.895         458.895     4.51666E-03     4.51666E-03        -3.67563        -3.67563
            3630         457.400         457.400     36.2875E-03     36.2875E-03        -3.65655        -3.65655
            3631         455.946         455.946     73.9284E-03     73.9284E-03        -3.60709        -3.60709
            3632         454.551         454.551     119.746E-03     119.746E-03        -3.52120        -3.52120
            3633         453.241         453.241     176.420E-03     176.420E-03        -3.39005        -3.39005
            3634         452.042         452.042     246.892E-03     246.892E-03        -3.20323        -3.20323
            3635         450.990         450.990     335.305E-03     335.305E-03        -2.94590        -2.94590
            3636         450.129         450.129     445.863E-03     445.863E-03        -2.60151        -2.60151
            3637         449.512         449.512     586.006E-03     586.006E-03        -2.14535        -2.14535
            3638         449.205         449.205     762.498E-03     762.498E-03        -1.55129        -1.55129
            3639         449.293         449.293     990.114E-03     990.114E-03    -776.189E-03    -776.189E-03
            3640         449.879         449.879         1.28159         1.28159     222.788E-03     222.788E-03
            3641         451.098         451.098         1.66817         1.66817         1.52715         1.52715
            3642         453.116         453.116         2.17989         2.17989         3.21180         3.21180
            3643         456.164         456.164         2.88532         2.88532         5.44690         5.44690
            3644         460.507         460.507         3.87733         3.87733         8.37783         8.37783
            3645         466.570         466.570         5.31002         5.31002         12.4014         12.4014
            3646         474.754         474.754         7.55358         7.55358         17.8552         17.8552
            3647         485.910         485.910         10.9638         10.9638         25.7739         25.7739
            3648         500.268         500.268         17.4373         17.4373         37.2338         37.2338
            3649         519.305         519.305         27.9038         27.9038         55.0026         55.0026
            3650         537.846         537.846         56.6476         56.6476         84.7371         84.7371
            3651         534.434         534.434         109.390         109.390         109.311         109.311
            3652         474.141         474.141    -184.579E-03    -184.579E-03         1.33744         1.33744
            3653         475.237         475.237    -231.047E-03    -231.047E-03         1.06776         1.06776
            3654         476.059         476.059    -257.632E-03    -257.632E-03     751.716E-03     751.716E-03
            3655         476.574         476.574    -266.323E-03    -266.323E-03     413.918E-03     413.918E-03
            3656         476.771         476.771    -260.555E-03    -260.555E-03     75.0267E-03     75.0267E-03
            3657         476.658         476.658    -244.212E-03    -244.212E-03    -249.096E-03    -249.096E-03
            3658         476.253         476.253    -221.126E-03    -221.126E-03    -547.528E-03    -547.528E-03
            3659         475.581         475.581    -194.581E-03    -194.581E-03    -813.905E-03    -813.905E-03
            3660         474.676         474.676    -167.204E-03    -167.204E-03        -1.04565        -1.04565
            3661         473.568         473.568    -140.841E-03    -140.841E-03        -1.24303        -1.24303
            3662         472.288         472.288    -116.694E-03    -116.694E-03        -1.40824        -1.40824
            3663         470.866         470.866    -95.3550E-03    -95.3550E-03        -1.54462        -1.54462
            3664         469.327         469.327    -77.0155E-03    -77.0155E-03        -1.65598        -1.65598
            3665         467.693         467.693    -61.4993E-03    -61.4993E-03        -1.74614        -1.74614
            3666         465.983         465.983    -48.4693E-03    -48.4693E-03        -1.81855        -1.81855
            3667         464.212         464.212    -37.3881E-03    -37.3881E-03        -1.87613        -1.87613
            3668         462.395         462.395    -27.7189E-03    -27.7189E-03        -1.92105        -1.92105
            3669         460.543         460.543    -18.7922E-03    -18.7922E-03        -1.95474        -1.95474
            3670         458.667         458.667    -10.0231E-03    -10.0231E-03        -1.97775        -1.97775
            3671         456.780         456.780    -695.880E-06    -695.880E-06        -1.98989        -1.98989
            3672         454.893         454.893     9.81359E-03     9.81359E-03        -1.98996        -1.98996
            3673         453.021         453.021     22.2577E-03     22.2577E-03        -1.97602        -1.97602
            3674         451.179         451.179     37.4286E-03     37.4286E-03        -1.94491        -1.94491
            3675         449.387         449.387     56.1096E-03     56.1096E-03        -1.89276        -1.89276
            3676         447.672         447.672     79.6186E-03     79.6186E-03        -1.81383        -1.81383
            3677         446.064         446.064     108.656E-03     108.656E-03        -1.70174        -1.70174
            3678         444.602         444.602     145.951E-03     145.951E-03        -1.54686        -1.54686
            3679         443.337         443.337     191.656E-03     191.656E-03        -1.33916        -1.33916
            3680         442.330         442.330     252.124E-03     252.124E-03        -1.06195        -1.06195
            3681         441.662         441.662     325.562E-03     325.562E-03    -699.348E-03    -699.348E-03
            3682         441.436         441.436     427.537E-03     427.537E-03    -220.002E-03    -220.002E-03
            3683         441.784         441.784     550.788E-03     550.788E-03     401.974E-03     401.974E-03
            3684         442.883         442.883     734.378E-03     734.378E-03         1.23264         1.23264
            3685         444.969         444.969     958.461E-03     958.461E-03         2.31597         2.31597
            3686         448.372         448.372         1.32267         1.32267         3.81202         3.81202
            3687         453.541         453.541         1.79015         1.79015         5.80101         5.80101
            3688         461.195         461.195         2.62055         2.62055         8.74034         8.74034
            3689         472.271         472.271         3.85233         3.85233         12.8099         12.8099
            3690         488.756         488.756         6.19428         6.19428         19.6359         19.6359
            3691         512.721         512.721         11.1080         11.1080         29.9765         29.9765
            3692         552.401         552.401         20.9483         20.9483         52.2371         52.2371
            3693         602.771         602.771         74.2746         74.2746         96.0938         96.0938
            3694         27.4360         27.4360        -211.462        -211.462        -25.7417        -25.7417
            3695         99.5746         99.5746        -86.5740        -86.5740        -68.0521        -68.0521
            3696         193.714         193.714        -27.1563        -27.1563        -74.1901        -74.1901
            3697         282.191         282.191        -4.61542        -4.61542        -61.3829        -61.3829
            3698         351.321         351.321         1.53247         1.53247        -43.4915        -43.4915
            3699         87.4899         87.4899        -156.779        -156.779        -59.2568        -59.2568
            3700         193.202         193.202        -86.7727        -86.7727        -119.066        -119.066
            3701         287.384         287.384        -51.1147        -51.1147        -118.505        -118.505
            3702         357.512         357.512        -31.7681        -31.7681        -92.2103        -92.2103
            3703         404.250         404.250        -20.0963        -20.0963        -62.6786        -62.6786
            3704         187.657         187.657        -90.5770        -90.5770        -98.4932        -98.4932
            3705         319.066         319.066        -87.5870        -87.5870        -139.764        -139.764
            3706         396.329         396.329        -73.2428        -73.2428        -121.481        -121.481
            3707         436.324         436.324        -53.7675        -53.7675        -87.0238        -87.0238
            3708         455.657         455.657        -36.1534        -36.1534        -55.8754        -55.8754
            3709         319.695         319.695        -31.8528        -31.8528        -131.728        -131.728
            3710         443.052         443.052        -84.4889        -84.4889        -126.753        -126.753
            3711         484.766         484.766        -80.8056        -80.8056        -93.7285        -93.7285
            3712         492.221         492.221        -60.2673        -60.2673        -61.2411        -61.2411
            3713         488.571         488.571        -39.9651        -39.9651        -36.8499        -36.8499
            3714         527.088         527.088         59.5064         59.5064         21.4394         21.4394
            3715         570.319         570.319         91.7063         91.7063         25.2626         25.2626
            3716         647.943         647.943         125.006         125.006         18.4295         18.4295
            3717         783.266         783.266         142.637         142.637        -12.7891        -12.7891
            3718     1.00450E+03     1.00450E+03         117.425         117.425        -84.0922        -84.0922
            3719         533.196         533.196         22.1037         22.1037         25.7591         25.7591
            3720         573.507         573.507         40.3828         40.3828         30.7934         30.7934
            3721         637.099         637.099         66.5293         66.5293         21.3744         21.3744
            3722         737.129         737.129         96.2459         96.2459        -26.0040        -26.0040
            3723         893.629         893.629         114.744         114.744        -144.003        -144.003
            3724         531.550         531.550        -11.6089        -11.6089         13.9313         13.9313
            3725         567.249         567.249        -10.1894        -10.1894         15.3075         15.3075
            3726         616.019         616.019         1.02739         1.02739         4.49152         4.49152
            3727         676.127         676.127         33.4548         33.4548        -42.6305        -42.6305
            3728         746.622         746.622         97.3636         97.3636        -170.147        -170.147
            3729         520.590         520.590        -29.7537        -29.7537        -2.86023        -2.86023
            3730         549.049         549.049        -41.4474        -41.4474        -8.94003        -8.94003
            3731         583.585         583.585        -47.4440        -47.4440        -24.7312        -24.7312
            3732         610.236         610.236        -27.1195        -27.1195        -65.7621        -65.7621
            3733         596.229         596.229         60.6041         60.6041        -168.908        -168.908
            3734         341.781         341.781        -22.9036        -22.9036         136.695         136.695
            3735         461.983         461.983        -83.7155        -83.7155         123.351         123.351
            3736         497.416         497.416        -81.2710        -81.2710         88.3384         88.3384
            3737         499.771         499.771        -60.5666        -60.5666         56.5566         56.5566
            3738         492.800         492.800        -40.0058        -40.0058         33.5032         33.5032
            3739         226.989         226.989        -69.4272        -69.4272         111.025         111.025
            3740         361.742         361.742        -87.7012        -87.7012         140.460         140.460
            3741         429.820         429.820        -78.4886        -78.4886         116.187         116.187
            3742         458.940         458.940        -58.5177        -58.5177         80.6685         80.6685
            3743         469.662         469.662        -39.3475        -39.3475         50.6138         50.6138
            3744         131.057         131.057        -124.693        -124.693         78.3481         78.3481
            3745         252.863         252.863        -87.6740        -87.6740         134.912         134.912
            3746         342.072         342.072        -63.7492        -63.7492         126.695         126.695
            3747         398.796         398.796        -44.9127        -44.9127         94.9771         94.9771
            3748         432.008         432.008        -30.0341        -30.0341         62.8667         62.8667
            3749         61.4938         61.4938        -179.712        -179.712         46.5683         46.5683
            3750         155.036         155.036        -87.2165        -87.2165         105.776         105.776
            3751         250.590         250.590        -42.4911        -42.4911         109.842         109.842
            3752         328.858         328.858        -22.2397        -22.2397         88.0237         88.0237
            3753         384.591         384.591        -12.7213        -12.7213         61.0249         61.0249
            3754         20.5941         20.5941        -221.282        -221.282         20.6620         20.6620
            3755         87.3943         87.3943        -87.6220        -87.6220         57.9893         57.9893
            3756         180.172         180.172        -23.9170        -23.9170         64.2631         64.2631
            3757         270.347         270.347    -187.016E-03    -187.016E-03         53.8487         53.8487
            3758         342.504         342.504         5.36732         5.36732         38.5538         38.5538
            3759         521.165         521.165        -30.5653        -30.5653         3.95831         3.95831
            3760         549.575         549.575        -42.1436        -42.1436         9.77045         9.77045
            3761         584.064         584.064        -48.0126        -48.0126         25.3499         25.3499
            3762         610.780         610.780        -27.5636        -27.5636         66.2389         66.2389
            3763         596.924         596.924         60.3103         60.3103         169.315         169.315
            3764         531.979         531.979        -12.2250        -12.2250        -12.8909        -12.8909
            3765         567.646         567.646        -10.6851        -10.6851        -14.5121        -14.5121
            3766         616.393         616.393     681.995E-03     681.995E-03        -3.89592        -3.89592
            3767         676.559         676.559         33.2762         33.2762         43.0597         43.0597
            3768         747.288         747.288         97.4173         97.4173         170.532         170.532
            3769         533.470         533.470         21.7092         21.7092        -24.7554        -24.7554
            3770         573.755         573.755         40.1034         40.1034        -29.9934        -29.9934
            3771         637.325         637.325         66.3965         66.3965        -20.7486        -20.7486
            3772         737.407         737.407         96.2932         96.2932         26.4970         26.4970
            3773         894.174         894.174         114.909         114.909         144.418         144.418
            3774         527.217         527.217         59.3228         59.3228        -20.4405        -20.4405
            3775         570.429         570.429         91.5964         91.5964        -24.4276        -24.4276
            3776         648.035         648.035         124.998         124.998        -17.7238        -17.7238
            3777         783.400         783.400         142.727         142.727         13.3838         13.3838
            3778     1.00481E+03     1.00481E+03         117.541         117.541         84.5172         84.5172
            3779         572.363         572.363         54.2788         54.2788        -167.869        -167.869
            3780         599.755         599.755        -36.4037        -36.4037        -70.0717        -70.0717
            3781         578.258         578.258        -54.5300        -54.5300        -30.2801        -30.2801
            3782         546.116         546.116        -46.0127        -46.0127        -13.7761        -13.7761
            3783         519.033         519.033        -32.6613        -32.6613        -6.68333        -6.68333
            3784         696.285         696.285         88.5972         88.5972        -173.801        -173.801
            3785         655.086         655.086         12.2750         12.2750        -49.7147        -49.7147
            3786         607.340         607.340        -18.6714        -18.6714        -4.44653        -4.44653
            3787         563.395         563.395        -24.4223        -24.4223         7.05610         7.05610
            3788         529.698         529.698        -20.8286        -20.8286         7.42310         7.42310
            3789         824.339         824.339         109.503         109.503        -163.218        -163.218
            3790         708.659         708.659         66.5438         66.5438        -34.1316        -34.1316
            3791         628.754         628.754         32.8945         32.8945         15.2990         15.2990
            3792         572.831         572.831         12.7493         12.7493         25.0915         25.0915
            3793         534.544         534.544         2.70579         2.70579         20.7999         20.7999
            3794         939.603         939.603         117.127         117.127        -129.728        -129.728
            3795         756.331         756.331         115.277         115.277        -22.2499        -22.2499
            3796         642.458         642.458         89.0976         89.0976         22.5525         22.5525
            3797         573.610         573.610         59.2711         59.2711         31.7753         31.7753
            3798         532.140         532.140         35.2595         35.2595         26.4333         26.4333
            3799     1.02122E+03     1.02122E+03         116.772         116.772        -72.6042        -72.6042
            3800         790.603         790.603         148.354         148.354        -11.4480        -11.4480
            3801         649.795         649.795         133.286         133.286         15.7952         15.7952
            3802         569.702         569.702         99.5856         99.5856         21.9463         21.9463
            3803         525.889         525.889         65.5529         65.5529         18.5587         18.5587
            3804         520.502         520.502        -29.8482        -29.8482         2.95472         2.95472
            3805         548.921         548.921        -41.5838        -41.5838         9.08241         9.08241
            3806         583.402         583.402        -47.6073        -47.6073         24.9182         24.9182
            3807         610.033         610.033        -27.3347        -27.3347         65.9564         65.9564
            3808         596.031         596.031         60.2502         60.2502         168.959         168.959
            3809         531.503         531.503        -11.7511        -11.7511        -13.8388        -13.8388
            3810         567.168         567.168        -10.3642        -10.3642        -15.1652        -15.1652
            3811         615.879         615.879     842.964E-03     842.964E-03        -4.30294        -4.30294
            3812         675.886         675.886         33.2598         33.2598         42.7866         42.7866
            3813         746.280         746.280         97.2354         97.2354         170.160         170.160
            3814         533.198         533.198         21.9210         21.9210        -25.6740        -25.6740
            3815         573.469         573.469         40.1938         40.1938        -30.6432        -30.6432
            3816         636.983         636.983         66.3516         66.3516        -21.1916        -21.1916
            3817         736.858         736.858         96.1136         96.1136         26.1847         26.1847
            3818         893.104         893.104         114.654         114.654         144.089         144.089
            3819         527.147         527.147         59.3023         59.3023        -21.3915        -21.3915
            3820         570.348         570.348         91.4862         91.4862        -25.1428        -25.1428
            3821         647.851         647.851         124.855         124.855        -18.2363        -18.2363
            3822         782.989         782.989         142.629         142.629         12.9830         12.9830
            3823     1.00381E+03     1.00381E+03         117.505         117.505         84.1662         84.1662
            3824         342.402         342.402        -23.2025        -23.2025         136.973         136.973
            3825         462.755         462.755        -84.3073        -84.3073         123.703         123.703
            3826         498.223         498.223        -81.9874        -81.9874         88.8076         88.8076
            3827         500.635         500.635        -61.4069        -61.4069         57.2166         57.2166
            3828         493.750         493.750        -41.0137        -41.0137         34.4442         34.4442
            3829         227.434         227.434        -69.9330        -69.9330         111.252         111.252
            3830         362.425         362.425        -88.3945        -88.3945         140.833         140.833
            3831         430.613         430.613        -79.2812        -79.2812         116.646         116.646
            3832         459.839         459.839        -59.4225        -59.4225         81.2547         81.2547
            3833         470.708         470.708        -40.4237        -40.4237         51.4151         51.4151
            3834         131.326         131.326        -125.427        -125.427         78.5085         78.5085
            3835         253.384         253.384        -88.4472        -88.4472         135.275         135.275
            3836         342.777         342.777        -64.5822        -64.5822         127.132         127.132
            3837         399.676         399.676        -45.8545        -45.8545         95.4859         95.4859
            3838         433.106         433.106        -31.1576        -31.1576         63.5182         63.5182
            3839         61.6119         61.6119        -180.673        -180.673         46.6695         46.6695
            3840         155.368         155.368        -88.0471        -88.0471         106.079         106.079
            3841         251.154         251.154        -43.3284        -43.3284         110.209         110.209
            3842         329.667         329.667        -23.1840        -23.1840         88.4255         88.4255
            3843         385.691         385.691        -13.8634        -13.8634         61.5040         61.5040
            3844         20.6097         20.6097        -222.419        -222.419         20.7202         20.7202
            3845         87.5678         87.5678        -88.4897        -88.4897         58.1810         58.1810
            3846         180.596         180.596        -24.7391        -24.7391         64.4948         64.4948
            3847         271.067         271.067        -1.11139        -1.11139         54.0905         54.0905
            3848         343.576         343.576         4.22965         4.22965         38.8229         38.8229
            3849         489.502         489.502        -40.9681        -40.9681        -37.7623        -37.7623
            3850         493.023         493.023        -61.0856        -61.0856        -61.8879        -61.8879
            3851         485.442         485.442        -81.4809        -81.4809        -94.1835        -94.1835
            3852         443.632         443.632        -85.0677        -85.0677        -127.026        -127.026
            3853         320.144         320.144        -32.2799        -32.2799        -131.839        -131.839
            3854         456.684         456.684        -37.2303        -37.2303        -56.6070        -56.6070
            3855         437.144         437.144        -54.6560        -54.6560        -87.5633        -87.5633
            3856         396.977         396.977        -74.0206        -74.0206        -121.889        -121.889
            3857         319.562         319.562        -88.3226        -88.3226        -140.055        -140.055
            3858         187.917         187.917        -91.2799        -91.2799        -98.5853        -98.5853
            3859         405.307         405.307        -21.2092        -21.2092        -63.2022        -63.2022
            3860         358.282         358.282        -32.6829        -32.6829        -92.6138        -92.6138
            3861         287.916         287.916        -51.9298        -51.9298        -118.837        -118.837
            3862         193.511         193.511        -87.5934        -87.5934        -119.312        -119.312
            3863         87.5856         87.5856        -157.735        -157.735        -59.2925        -59.2925
            3864         352.368         352.368     410.609E-03     410.609E-03        -43.7603        -43.7603
            3865         282.886         282.886        -5.52483        -5.52483        -61.5946        -61.5946
            3866         194.111         194.111        -27.9683        -27.9683        -74.3668        -74.3668
            3867         99.7239         99.7239        -87.4412        -87.4412        -68.1750        -68.1750
            3868         27.4322         27.4322        -212.608        -212.608        -25.7353        -25.7353


  Minimum               -7.73151        -7.73151        -333.424        -333.424        -262.765        -262.765
         At Node              28              28              28              28             590             590

  Maximum            1.19894E+03     1.19894E+03         159.781         159.781         261.238         261.238
         At Node              27              27             585             585             574             574

           Total     1.82038E+06     1.82038E+06     29.2392E+03     29.2392E+03         878.250         878.250


