********************************************************************************
Field Output Report, written Sat Feb 24 11:10:48 2024

Source 1
---------

   ODB: C:/Users/Isabel Haycock/OneDrive - Imperial College London/Fourth Year/FYP/Isabel Haycock/06 - FE models/Specimen_2/Plate_hole_1.odb
   Step: load
   Frame: Increment      6: Step Time =   0.4286

Loc 1 : Nodal values at shell < composite > < elset = ASSEMBLY_PLATE_1-1_COMPOSITELAYUP-1-1 > from source 1 : SNEG, (fraction = -1.0), Layer = 1
Loc 2 : Nodal values at shell < composite > < elset = ASSEMBLY_PLATE_1-1_COMPOSITELAYUP-1-1 > from source 1 : SPOS, (fraction = 1.0), Layer = 8

Output sorted by column "Node Label".

Field Output reported at nodes for part: PLATE_1-1
   Computation algorithm: EXTRAPOLATE_COMPUTE_AVERAGE
   Averaged at nodes
   Averaging regions: ODB_REGIONS

      Node Label           S.S11           S.S11           S.S22           S.S22           S.S12           S.S12
                          @Loc 1          @Loc 2          @Loc 1          @Loc 2          @Loc 1          @Loc 2
-----------------------------------------------------------------------------------------------------------------
               1         738.764         738.764        -34.4172        -34.4172        -15.0594        -15.0594
               2         702.690         702.690     962.038E-03     962.038E-03    -44.0987E-03    -44.0987E-03
               3         702.820         702.820     4.64858E-03     4.64858E-03    -4.96692E-03    -4.96692E-03
               4         710.511         710.511    -44.6742E-03    -44.6742E-03         1.49218         1.49218
               5         739.063         739.063        -34.2945        -34.2945         14.5090         14.5090
               6         702.690         702.690     962.177E-03     962.177E-03     44.0947E-03     44.0947E-03
               7         565.907         565.907         15.7628         15.7628        -2.18253        -2.18253
               8         707.916         707.916    -54.6229E-03    -54.6229E-03        -1.25553        -1.25553
               9         740.274         740.274        -35.8548        -35.8548         16.5420         16.5420
              10         751.646         751.646         73.9653         73.9653     848.987E-03     848.987E-03
              11         710.651         710.651    -46.4844E-03    -46.4844E-03        -1.49208        -1.49208
              12         702.820         702.820     4.64957E-03     4.64957E-03     4.96797E-03     4.96797E-03
              13         660.745         660.745         200.943         200.943        -43.7962        -43.7962
              14     1.07449E+03     1.07449E+03         148.870         148.870        -173.747        -173.747
              15         739.476         739.476        -36.0840        -36.0840        -17.5281        -17.5281
              16         708.005         708.005    -56.8971E-03    -56.8971E-03         1.25678         1.25678
              17         751.366         751.366         74.8972         74.8972        -2.15186        -2.15186
              18         660.749         660.749         200.937         200.937         43.7861         43.7861
              19         568.022         568.022         13.7102         13.7102        -2.17981        -2.17981
              20     1.07449E+03     1.07449E+03         148.870         148.870         173.746         173.746
              21        -11.5395        -11.5395        -496.465        -496.465     436.986E-03     436.986E-03
              22         582.510         582.510         132.063         132.063        -284.706        -284.706
              23     1.79273E+03     1.79273E+03         115.064         115.064     204.285E-03     204.285E-03
              24         591.509         591.509         135.962         135.962         288.677         288.677
              25         592.583         592.583         136.120         136.120         289.250         289.250
              26         571.944         571.944         130.199         130.199        -281.685        -281.685
              27     1.79625E+03     1.79625E+03         113.834         113.834         8.33293         8.33293
              28        -11.6203        -11.6203        -498.628        -498.628     473.528E-03     473.528E-03
              29         725.010         725.010        -27.6410        -27.6410        -17.6952        -17.6952
              30         717.018         717.018        -23.2681        -23.2681        -19.4341        -19.4341
              31         710.675         710.675        -18.6702        -18.6702        -19.5247        -19.5247
              32         705.954         705.954        -14.4492        -14.4492        -18.6312        -18.6312
              33         702.592         702.592        -10.8117        -10.8117        -17.2499        -17.2499
              34         700.287         700.287        -7.78312        -7.78312        -15.6994        -15.6994
              35         698.770         698.770        -5.30305        -5.30305        -14.1583        -14.1583
              36         697.826         697.826        -3.29387        -3.29387        -12.7154        -12.7154
              37         697.296         697.296        -1.67831        -1.67831        -11.4082        -11.4082
              38         697.059         697.059    -389.393E-03    -389.393E-03        -10.2450        -10.2450
              39         697.031         697.031     629.460E-03     629.460E-03        -9.21974        -9.21974
              40         697.146         697.146         1.42478         1.42478        -8.31918        -8.31918
              41         697.359         697.359         2.03495         2.03495        -7.52787        -7.52787
              42         697.636         697.636         2.49166         2.49166        -6.83033        -6.83033
              43         697.953         697.953         2.82128         2.82128        -6.21241        -6.21241
              44         698.292         698.292         3.04589         3.04589        -5.66166        -5.66166
              45         698.640         698.640         3.18411         3.18411        -5.16754        -5.16754
              46         698.987         698.987         3.25173         3.25173        -4.72129        -4.72129
              47         699.326         699.326         3.26218         3.26218        -4.31579        -4.31579
              48         699.652         699.652         3.22690         3.22690        -3.94524        -3.94524
              49         699.963         699.963         3.15565         3.15565        -3.60504        -3.60504
              50         700.256         700.256         3.05673         3.05673        -3.29148        -3.29148
              51         700.530         700.530         2.93718         2.93718        -3.00162        -3.00162
              52         700.784         700.784         2.80297         2.80297        -2.73308        -2.73308
              53         701.019         701.019         2.65913         2.65913        -2.48390        -2.48390
              54         701.234         701.234         2.50985         2.50985        -2.25248        -2.25248
              55         701.430         701.430         2.35865         2.35865        -2.03745        -2.03745
              56         701.607         701.607         2.20842         2.20842        -1.83759        -1.83759
              57         701.768         701.768         2.06154         2.06154        -1.65182        -1.65182
              58         701.912         701.912         1.91993         1.91993        -1.47913        -1.47913
              59         702.041         702.041         1.78515         1.78515        -1.31855        -1.31855
              60         702.156         702.156         1.65843         1.65843        -1.16915        -1.16915
              61         702.257         702.257         1.54076         1.54076        -1.03000        -1.03000
              62         702.345         702.345         1.43289         1.43289    -900.207E-03    -900.207E-03
              63         702.422         702.422         1.33539         1.33539    -778.841E-03    -778.841E-03
              64         702.488         702.488         1.24869         1.24869    -664.984E-03    -664.984E-03
              65         702.543         702.543         1.17312         1.17312    -557.715E-03    -557.715E-03
              66         702.589         702.589         1.10889         1.10889    -456.101E-03    -456.101E-03
              67         702.626         702.626         1.05618         1.05618    -359.209E-03    -359.209E-03
              68         702.655         702.655         1.01508         1.01508    -266.098E-03    -266.098E-03
              69         702.674         702.674     985.670E-03     985.670E-03    -175.828E-03    -175.828E-03
              70         702.686         702.686     967.965E-03     967.965E-03    -87.6918E-03    -87.6918E-03
              71         702.774         702.774     866.004E-03     866.004E-03    -47.7996E-03    -47.7996E-03
              72         702.853         702.853     769.725E-03     769.725E-03    -50.0579E-03    -50.0579E-03
              73         702.929         702.929     670.161E-03     670.161E-03    -51.1569E-03    -51.1569E-03
              74         702.999         702.999     569.659E-03     569.659E-03    -51.0375E-03    -51.0375E-03
              75         703.058         703.058     470.642E-03     470.642E-03    -49.6768E-03    -49.6768E-03
              76         703.103         703.103     375.563E-03     375.563E-03    -47.0722E-03    -47.0722E-03
              77         703.130         703.130     286.842E-03     286.842E-03    -43.2569E-03    -43.2569E-03
              78         703.136         703.136     206.814E-03     206.814E-03    -38.2845E-03    -38.2845E-03
              79         703.117         703.117     137.659E-03     137.659E-03    -32.2590E-03    -32.2590E-03
              80         703.070         703.070     81.3480E-03     81.3480E-03    -25.2876E-03    -25.2876E-03
              81         702.993         702.993     39.5395E-03     39.5395E-03    -17.5804E-03    -17.5804E-03
              82         702.884         702.884     13.5457E-03     13.5457E-03    -9.27788E-03    -9.27788E-03
              83         702.829         702.829     4.74885E-03     4.74885E-03    -9.11301E-03    -9.11301E-03
              84         702.856         702.856     4.89162E-03     4.89162E-03    -17.8542E-03    -17.8542E-03
              85         702.900         702.900     5.03453E-03     5.03453E-03    -27.1897E-03    -27.1897E-03
              86         702.964         702.964     5.27711E-03     5.27711E-03    -36.9193E-03    -36.9193E-03
              87         703.047         703.047     5.58969E-03     5.58969E-03    -47.2146E-03    -47.2146E-03
              88         703.151         703.151     5.97095E-03     5.97095E-03    -58.2165E-03    -58.2165E-03
              89         703.277         703.277     6.42276E-03     6.42276E-03    -70.0697E-03    -70.0697E-03
              90         703.428         703.428     6.94115E-03     6.94115E-03    -82.9162E-03    -82.9162E-03
              91         703.606         703.606     7.52657E-03     7.52657E-03    -96.8970E-03    -96.8970E-03
              92         703.812         703.812     8.17456E-03     8.17456E-03    -112.150E-03    -112.150E-03
              93         704.050         704.050     8.88205E-03     8.88205E-03    -128.807E-03    -128.807E-03
              94         704.323         704.323     9.64216E-03     9.64216E-03    -146.993E-03    -146.993E-03
              95         704.632         704.632     10.4467E-03     10.4467E-03    -166.819E-03    -166.819E-03
              96         704.983         704.983     11.2837E-03     11.2837E-03    -188.380E-03    -188.380E-03
              97         705.378         705.378     12.1370E-03     12.1370E-03    -211.744E-03    -211.744E-03
              98         705.821         705.821     12.9855E-03     12.9855E-03    -236.946E-03    -236.946E-03
              99         706.316         706.316     13.8007E-03     13.8007E-03    -263.976E-03    -263.976E-03
             100         706.866         706.866     14.5471E-03     14.5471E-03    -292.762E-03    -292.762E-03
             101         707.474         707.474     15.1765E-03     15.1765E-03    -323.155E-03    -323.155E-03
             102         708.144         708.144     15.6326E-03     15.6326E-03    -354.905E-03    -354.905E-03
             103         708.877         708.877     15.8375E-03     15.8375E-03    -387.632E-03    -387.632E-03
             104         709.676         709.676     15.7057E-03     15.7057E-03    -420.798E-03    -420.798E-03
             105         710.540         710.540     15.1181E-03     15.1181E-03    -453.666E-03    -453.666E-03
             106         711.467         711.467     13.9526E-03     13.9526E-03    -485.260E-03    -485.260E-03
             107         712.455         712.455     12.0383E-03     12.0383E-03    -514.318E-03    -514.318E-03
             108         713.495         713.495     9.21645E-03     9.21645E-03    -539.245E-03    -539.245E-03
             109         714.580         714.580     5.26445E-03     5.26445E-03    -558.069E-03    -558.069E-03
             110         715.693         715.693     5.34323E-06     5.34323E-06    -568.411E-03    -568.411E-03
             111         716.815         716.815    -6.80319E-03    -6.80319E-03    -567.469E-03    -567.469E-03
             112         717.921         717.921    -15.2980E-03    -15.2980E-03    -552.039E-03    -552.039E-03
             113         718.979         718.979    -25.6433E-03    -25.6433E-03    -518.608E-03    -518.608E-03
             114         719.949         719.949    -37.8131E-03    -37.8131E-03    -463.474E-03    -463.474E-03
             115         720.786         720.786    -51.6910E-03    -51.6910E-03    -383.056E-03    -383.056E-03
             116         721.435         721.435    -66.8885E-03    -66.8885E-03    -274.201E-03    -274.201E-03
             117         721.839         721.839    -82.7073E-03    -82.7073E-03    -134.794E-03    -134.794E-03
             118         721.937         721.937    -98.1628E-03    -98.1628E-03     35.6945E-03     35.6945E-03
             119         721.668         721.668    -111.717E-03    -111.717E-03     235.348E-03     235.348E-03
             120         720.981         720.981    -121.695E-03    -121.695E-03     459.135E-03     459.135E-03
             121         719.836         719.836    -125.864E-03    -125.864E-03     698.208E-03     698.208E-03
             122         718.216         718.216    -122.247E-03    -122.247E-03     939.559E-03     939.559E-03
             123         716.132         716.132    -109.012E-03    -109.012E-03         1.16642         1.16642
             124         713.635         713.635    -84.9042E-03    -84.9042E-03         1.35775         1.35775
             125         711.129         711.129    -129.264E-03    -129.264E-03         2.75219         2.75219
             126         712.494         712.494    -375.369E-03    -375.369E-03         4.95056         4.95056
             127         714.092         714.092    -779.493E-03    -779.493E-03         6.58105         6.58105
             128         715.899         715.899        -1.36810        -1.36810         7.77695         7.77695
             129         717.924         717.924        -2.20176        -2.20176         8.62450         8.62450
             130         720.197         720.197        -3.37240        -3.37240         9.15156         9.15156
             131         722.753         722.753        -5.00345        -5.00345         9.32117         9.32117
             132         725.614         725.614        -7.24759        -7.24759         9.01737         9.01737
             133         728.744         728.744        -10.2765        -10.2765         8.01478         8.01478
             134         731.977         731.977        -14.2363        -14.2363         5.95202         5.95202
             135         734.881         734.881        -19.1593        -19.1593         2.31359         2.31359
             136         736.579         736.579        -24.7576        -24.7576        -3.44805        -3.44805
             137         725.381         725.381        -27.5657        -27.5657         17.1429         17.1429
             138         717.448         717.448        -23.2913        -23.2913         18.9812         18.9812
             139         711.121         711.121        -18.7658        -18.7658         19.1861         19.1861
             140         706.375         706.375        -14.5814        -14.5814         18.4014         18.4014
             141         702.963         702.963        -10.9515        -10.9515         17.1073         17.1073
             142         700.600         700.600        -7.91298        -7.91298         15.6200         15.6200
             143         699.028         699.028        -5.41582        -5.41582         14.1209         14.1209
             144         698.036         698.036        -3.38834        -3.38834         12.7051         12.7051
             145         697.466         697.466        -1.75569        -1.75569         11.4146         11.4146
             146         697.197         697.197    -452.066E-03    -452.066E-03         10.2612         10.2612
             147         697.142         697.142     579.004E-03     579.004E-03         9.24134         9.24134
             148         697.237         697.237         1.38419         1.38419         8.34327         8.34327
             149         697.433         697.433         2.00225         2.00225         7.55264         7.55264
             150         697.698         697.698         2.46519         2.46519         6.85466         6.85466
             151         698.004         698.004         2.79971         2.79971         6.23563         6.23563
             152         698.335         698.335         3.02817         3.02817         5.68337         5.68337
             153         698.675         698.675         3.16943         3.16943         5.18756         5.18756
             154         699.016         699.016         3.23947         3.23947         4.73955         4.73955
             155         699.351         699.351         3.25184         3.25184         4.33228         4.33228
             156         699.673         699.673         3.21812         3.21812         3.96003         3.96003
             157         699.981         699.981         3.14814         3.14814         3.61820         3.61820
             158         700.271         700.271         3.05027         3.05027         3.30312         3.30312
             159         700.543         700.543         2.93161         2.93161         3.01185         3.01185
             160         700.795         700.795         2.79815         2.79815         2.74201         2.74201
             161         701.027         701.027         2.65495         2.65495         2.49166         2.49166
             162         701.241         701.241         2.50624         2.50624         2.25918         2.25918
             163         701.436         701.436         2.35553         2.35553         2.04318         2.04318
             164         701.613         701.613         2.20574         2.20574         1.84247         1.84247
             165         701.772         701.772         2.05923         2.05923         1.65595         1.65595
             166         701.916         701.916         1.91796         1.91796         1.48258         1.48258
             167         702.044         702.044         1.78348         1.78348         1.32142         1.32142
             168         702.158         702.158         1.65704         1.65704         1.17150         1.17150
             169         702.258         702.258         1.53960         1.53960         1.03192         1.03192
             170         702.346         702.346         1.43194         1.43194     901.741E-03     901.741E-03
             171         702.423         702.423         1.33462         1.33462     780.050E-03     780.050E-03
             172         702.488         702.488         1.24809         1.24809     665.919E-03     665.919E-03
             173         702.544         702.544         1.17267         1.17267     558.420E-03     558.420E-03
             174         702.590         702.590         1.10858         1.10858     456.616E-03     456.616E-03
             175         702.626         702.626         1.05599         1.05599     359.568E-03     359.568E-03
             176         702.654         702.654         1.01500         1.01500     266.330E-03     266.330E-03
             177         702.674         702.674     985.696E-03     985.696E-03     175.955E-03     175.955E-03
             178         702.686         702.686     968.073E-03     968.073E-03     87.7299E-03     87.7299E-03
             179         702.602         702.602         1.05952         1.05952     38.5982E-03     38.5982E-03
             180         702.519         702.519         1.14736         1.14736     31.5364E-03     31.5364E-03
             181         702.453         702.453         1.21609         1.21609     23.3678E-03     23.3678E-03
             182         702.407         702.407         1.26330         1.26330     14.3785E-03     14.3785E-03
             183         702.383         702.383         1.28733         1.28733     4.88179E-03     4.88179E-03
             184         702.383         702.383         1.28730         1.28730    -4.79105E-03    -4.79105E-03
             185         702.407         702.407         1.26325         1.26325    -14.3009E-03    -14.3009E-03
             186         702.453         702.453         1.21602         1.21602    -23.3187E-03    -23.3187E-03
             187         702.519         702.519         1.14725         1.14725    -31.5186E-03    -31.5186E-03
             188         702.602         702.602         1.05939         1.05939    -38.5906E-03    -38.5906E-03
             189         581.535         581.535         8.17328         8.17328         38.5842         38.5842
             190         623.500         623.500        -10.9827        -10.9827         60.6231         60.6231
             191         669.837         669.837        -29.0245        -29.0245         61.6727         61.6727
             192         705.660         705.660        -38.5670        -38.5670         49.0009         49.0009
             193         726.901         726.901        -39.3370        -39.3370         32.1187         32.1187
             194         723.024         723.024        -39.2791        -39.2791        -35.4705        -35.4705
             195         692.389         692.389        -35.2873        -35.2873        -54.4195        -54.4195
             196         642.871         642.871        -18.7043        -18.7043        -61.9249        -61.9249
             197         590.773         590.773         3.90496         3.90496        -43.4837        -43.4837
             198         708.590         708.590    -158.238E-03    -158.238E-03        -2.29235        -2.29235
             199         710.103         710.103    -459.149E-03    -459.149E-03        -4.05925        -4.05925
             200         711.911         711.911    -948.980E-03    -948.980E-03        -5.29454        -5.29454
             201         713.979         713.979        -1.64876        -1.64876        -6.14140        -6.14140
             202         716.305         716.305        -2.61372        -2.61372        -6.69219        -6.69219
             203         718.908         718.908        -3.93066        -3.93066        -6.97922        -6.97922
             204         721.814         721.814        -5.71818        -5.71818        -6.96830        -6.96830
             205         725.034         725.034        -8.12434        -8.12434        -6.54469        -6.54469
             206         728.522         728.522        -11.3166        -11.3166        -5.48277        -5.48277
             207         732.105         732.105        -15.4372        -15.4372        -3.41872        -3.41872
             208         735.341         735.341        -20.5147        -20.5147     166.811E-03     166.811E-03
             209         737.340         737.340        -26.2613        -26.2613         5.83393         5.83393
             210         755.499         755.499        -31.3360        -31.3360         1.40892         1.40892
             211         765.129         765.129        -14.4189        -14.4189        -15.0908        -15.0908
             212         764.998         764.998         18.7004         18.7004        -26.8526        -26.8526
             213         756.841         756.841         56.4952         56.4952        -21.8393        -21.8393
             214         756.654         756.654         56.8238         56.8238         23.5524         23.5524
             215         764.611         764.611         19.3660         19.3660         28.6180         28.6180
             216         764.535         764.535        -13.4214        -13.4214         16.9549         16.9549
             217         754.687         754.687        -30.0287        -30.0287     593.474E-03     593.474E-03
             218         706.615         706.615     15.7820E-03     15.7820E-03         1.52773         1.52773
             219         702.559         702.559     86.9521E-03     86.9521E-03         1.40198         1.40198
             220         699.106         699.106     152.892E-03     152.892E-03         1.09176         1.09176
             221         696.723         696.723     199.470E-03     199.470E-03     630.004E-03     630.004E-03
             222         695.735         695.735     215.713E-03     215.713E-03     83.5568E-03     83.5568E-03
             223         696.257         696.257     197.420E-03     197.420E-03    -460.010E-03    -460.010E-03
             224         698.158         698.158     148.795E-03     148.795E-03    -913.127E-03    -913.127E-03
             225         701.097         701.097     80.8469E-03     80.8469E-03        -1.20896        -1.20896
             226         704.592         704.592     7.66660E-03     7.66660E-03        -1.31458        -1.31458
             227         736.460         736.460        -24.8095        -24.8095         3.52827         3.52827
             228         734.796         734.796        -19.2132        -19.2132        -2.25572        -2.25572
             229         731.912         731.912        -14.2939        -14.2939        -5.90255        -5.90255
             230         728.698         728.698        -10.3380        -10.3380        -7.97106        -7.97106
             231         725.587         725.587        -7.31067        -7.31067        -8.98037        -8.98037
             232         722.742         722.742        -5.06389        -5.06389        -9.29208        -9.29208
             233         720.201         720.201        -3.42587        -3.42587        -9.13026        -9.13026
             234         717.942         717.942        -2.24500        -2.24500        -8.60948        -8.60948
             235         715.934         715.934        -1.39965        -1.39965        -7.76625        -7.76625
             236         714.148         714.148    -799.466E-03    -799.466E-03        -6.57297        -6.57297
             237         712.578         712.578    -385.824E-03    -385.824E-03        -4.94450        -4.94450
             238         711.249         711.249    -133.394E-03    -133.394E-03        -2.74965        -2.74965
             239         713.676         713.676    -84.7905E-03    -84.7905E-03        -1.35627        -1.35627
             240         716.170         716.170    -109.104E-03    -109.104E-03        -1.16456        -1.16456
             241         718.249         718.249    -122.255E-03    -122.255E-03    -937.635E-03    -937.635E-03
             242         719.866         719.866    -125.895E-03    -125.895E-03    -696.272E-03    -696.272E-03
             243         721.007         721.007    -121.652E-03    -121.652E-03    -457.241E-03    -457.241E-03
             244         721.691         721.691    -111.669E-03    -111.669E-03    -233.569E-03    -233.569E-03
             245         721.956         721.956    -98.0804E-03    -98.0804E-03    -34.0650E-03    -34.0650E-03
             246         721.855         721.855    -82.6190E-03    -82.6190E-03     136.237E-03     136.237E-03
             247         721.449         721.449    -66.7960E-03    -66.7960E-03     275.451E-03     275.451E-03
             248         720.797         720.797    -51.6006E-03    -51.6006E-03     384.114E-03     384.114E-03
             249         719.959         719.959    -37.7341E-03    -37.7341E-03     464.356E-03     464.356E-03
             250         718.987         718.987    -25.5715E-03    -25.5715E-03     519.333E-03     519.333E-03
             251         717.927         717.927    -15.2412E-03    -15.2412E-03     552.633E-03     552.633E-03
             252         716.820         716.820    -6.75371E-03    -6.75371E-03     567.952E-03     567.952E-03
             253         715.697         715.697     42.2747E-06     42.2747E-06     568.806E-03     568.806E-03
             254         714.583         714.583     5.29618E-03     5.29618E-03     558.394E-03     558.394E-03
             255         713.498         713.498     9.23947E-03     9.23947E-03     539.513E-03     539.513E-03
             256         712.457         712.457     12.0584E-03     12.0584E-03     514.542E-03     514.542E-03
             257         711.469         711.469     13.9671E-03     13.9671E-03     485.449E-03     485.449E-03
             258         710.541         710.541     15.1312E-03     15.1312E-03     453.826E-03     453.826E-03
             259         709.677         709.677     15.7153E-03     15.7153E-03     420.935E-03     420.935E-03
             260         708.878         708.878     15.8465E-03     15.8465E-03     387.750E-03     387.750E-03
             261         708.145         708.145     15.6394E-03     15.6394E-03     355.007E-03     355.007E-03
             262         707.475         707.475     15.1830E-03     15.1830E-03     323.244E-03     323.244E-03
             263         706.866         706.866     14.5521E-03     14.5521E-03     292.839E-03     292.839E-03
             264         706.317         706.317     13.8055E-03     13.8055E-03     264.043E-03     264.043E-03
             265         705.822         705.822     12.9894E-03     12.9894E-03     237.004E-03     237.004E-03
             266         705.379         705.379     12.1407E-03     12.1407E-03     211.795E-03     211.795E-03
             267         704.983         704.983     11.2867E-03     11.2867E-03     188.424E-03     188.424E-03
             268         704.633         704.633     10.4496E-03     10.4496E-03     166.858E-03     166.858E-03
             269         704.323         704.323     9.64451E-03     9.64451E-03     147.026E-03     147.026E-03
             270         704.050         704.050     8.88427E-03     8.88427E-03     128.836E-03     128.836E-03
             271         703.812         703.812     8.17643E-03     8.17643E-03     112.174E-03     112.174E-03
             272         703.606         703.606     7.52833E-03     7.52833E-03     96.9181E-03     96.9181E-03
             273         703.428         703.428     6.94267E-03     6.94267E-03     82.9342E-03     82.9342E-03
             274         703.277         703.277     6.42419E-03     6.42419E-03     70.0848E-03     70.0848E-03
             275         703.151         703.151     5.97223E-03     5.97223E-03     58.2291E-03     58.2291E-03
             276         703.047         703.047     5.59091E-03     5.59091E-03     47.2247E-03     47.2247E-03
             277         702.963         702.963     5.27823E-03     5.27823E-03     36.9272E-03     36.9272E-03
             278         702.900         702.900     5.03561E-03     5.03561E-03     27.1955E-03     27.1955E-03
             279         702.856         702.856     4.89265E-03     4.89265E-03     17.8580E-03     17.8580E-03
             280         702.829         702.829     4.74986E-03     4.74986E-03     9.11495E-03     9.11495E-03
             281         702.883         702.883     13.5486E-03     13.5486E-03     9.27985E-03     9.27985E-03
             282         702.993         702.993     39.5479E-03     39.5479E-03     17.5841E-03     17.5841E-03
             283         703.070         703.070     81.3652E-03     81.3652E-03     25.2929E-03     25.2929E-03
             284         703.117         703.117     137.688E-03     137.688E-03     32.2658E-03     32.2658E-03
             285         703.136         703.136     206.858E-03     206.858E-03     38.2924E-03     38.2924E-03
             286         703.130         703.130     286.902E-03     286.902E-03     43.2656E-03     43.2656E-03
             287         703.103         703.103     375.641E-03     375.641E-03     47.0816E-03     47.0816E-03
             288         703.058         703.058     470.739E-03     470.739E-03     49.6863E-03     49.6863E-03
             289         702.998         702.998     569.774E-03     569.774E-03     51.0470E-03     51.0470E-03
             290         702.929         702.929     670.294E-03     670.294E-03     51.1650E-03     51.1650E-03
             291         702.853         702.853     769.872E-03     769.872E-03     50.0651E-03     50.0651E-03
             292         702.774         702.774     866.151E-03     866.151E-03     47.7924E-03     47.7924E-03
             293         664.199         664.199         192.735         192.735        -44.0817        -44.0817
             294         671.115         671.115         176.208         176.208        -43.8435        -43.8435
             295         677.837         677.837         159.657         159.657        -42.4518        -42.4518
             296         684.205         684.205         143.423         143.423        -40.3758        -40.3758
             297         690.066         690.066         127.768         127.768        -37.6668        -37.6668
             298         695.316         695.316         112.922         112.922        -34.4556        -34.4556
             299         699.892         699.892         99.0519         99.0519        -30.8656        -30.8656
             300         703.752         703.752         86.2831         86.2831        -27.0553        -27.0553
             301         706.924         706.924         74.6684         74.6684        -23.1631        -23.1631
             302         709.424         709.424         64.2241         64.2241        -19.3145        -19.3145
             303         711.329         711.329         54.9182         54.9182        -15.6146        -15.6146
             304         712.691         712.691         46.6952         46.6952        -12.1326        -12.1326
             305         713.596         713.596         39.4820         39.4820        -8.92467        -8.92467
             306         714.102         714.102         33.1928         33.1928        -6.01204        -6.01204
             307         714.283         714.283         27.7442         27.7442        -3.41001        -3.41001
             308         714.191         714.191         23.0469         23.0469        -1.10962        -1.10962
             309         713.881         713.881         19.0221         19.0221     899.265E-03     899.265E-03
             310         713.393         713.393         15.5891         15.5891         2.64044         2.64044
             311         712.767         712.767         12.6786         12.6786         4.13643         4.13643
             312         712.031         712.031         10.2215         10.2215         5.41615         5.41615
             313         711.214         711.214         8.15831         8.15831         6.50627         6.50627
             314         710.335         710.335         6.43060         6.43060         7.43573         7.43573
             315         709.414         709.414         4.98724         4.98724         8.23115         8.23115
             316         708.466         708.466         3.77824         3.77824         8.91955         8.91955
             317         707.507         707.507         2.75857         2.75857         9.52606         9.52606
             318         706.549         706.549         1.88399         1.88399         10.0757         10.0757
             319         705.608         705.608         1.11311         1.11311         10.5923         10.5923
             320         704.696         704.696     404.543E-03     404.543E-03         11.0997         11.0997
             321         703.833         703.833    -282.299E-03    -282.299E-03         11.6215         11.6215
             322         703.039         703.039    -989.361E-03    -989.361E-03         12.1815         12.1815
             323         702.340         702.340        -1.76010        -1.76010         12.8034         12.8034
             324         701.774         701.774        -2.64143        -2.64143         13.5107         13.5107
             325         701.386         701.386        -3.68484        -3.68484         14.3250         14.3250
             326         701.242         701.242        -4.94817        -4.94817         15.2644         15.2644
             327         701.428         701.428        -6.49741        -6.49741         16.3377         16.3377
             328         702.063         702.063        -8.40651        -8.40651         17.5375         17.5375
             329         703.307         703.307        -10.7573        -10.7573         18.8252         18.8252
             330         705.366         705.366        -13.6270        -13.6270         20.1088         20.1088
             331         708.499         708.499        -17.0706        -17.0706         21.2089         21.2089
             332         712.989         712.989        -21.0544        -21.0544         21.8110         21.8110
             333         719.079         719.079        -25.3675        -25.3675         21.4356         21.4356
             334         726.793         726.793        -29.4159        -29.4159         19.4393         19.4393
             335         710.505         710.505    -96.4020E-03    -96.4020E-03        -1.09743        -1.09743
             336         712.463         712.463    -121.861E-03    -121.861E-03    -881.223E-03    -881.223E-03
             337         713.955         713.955    -136.528E-03    -136.528E-03    -626.493E-03    -626.493E-03
             338         714.927         714.927    -141.446E-03    -141.446E-03    -354.312E-03    -354.312E-03
             339         715.359         715.359    -138.719E-03    -138.719E-03    -81.4168E-03    -81.4168E-03
             340         715.264         715.264    -129.981E-03    -129.981E-03     179.202E-03     179.202E-03
             341         714.674         714.674    -117.847E-03    -117.847E-03     418.676E-03     418.676E-03
             342         713.637         713.637    -103.485E-03    -103.485E-03     631.947E-03     631.947E-03
             343         712.206         712.206    -89.0128E-03    -89.0128E-03     817.000E-03     817.000E-03
             344         710.436         710.436    -74.6083E-03    -74.6083E-03     974.239E-03     974.239E-03
             345         708.381         708.381    -61.9229E-03    -61.9229E-03         1.10556         1.10556
             346         706.090         706.090    -50.0091E-03    -50.0091E-03         1.21384         1.21384
             347         703.604         703.604    -40.6050E-03    -40.6050E-03         1.30227         1.30227
             348         700.960         700.960    -31.4876E-03    -31.4876E-03         1.37406         1.37406
             349         698.187         698.187    -25.2677E-03    -25.2677E-03         1.43212         1.43212
             350         695.311         695.311    -18.0091E-03    -18.0091E-03         1.47887         1.47887
             351         692.352         692.352    -14.2094E-03    -14.2094E-03         1.51620         1.51620
             352         689.327         689.327    -7.26716E-03    -7.26716E-03         1.54531         1.54531
             353         686.251         686.251    -5.04116E-03    -5.04116E-03         1.56683         1.56683
             354         683.141         683.141     3.50295E-03     3.50295E-03         1.58064         1.58064
             355         680.012         680.012     4.76846E-03     4.76846E-03         1.58603         1.58603
             356         676.881         676.881     17.3237E-03     17.3237E-03         1.58150         1.58150
             357         673.771         673.771     17.8189E-03     17.8189E-03         1.56494         1.56494
             358         670.708         670.708     37.7269E-03     37.7269E-03         1.53316         1.53316
             359         667.725         667.725     37.0250E-03     37.0250E-03         1.48247         1.48247
             360         664.867         664.867     69.4626E-03     69.4626E-03         1.40726         1.40726
             361         662.186         662.186     66.1918E-03     66.1918E-03         1.30180         1.30180
             362         659.752         659.752     119.990E-03     119.990E-03         1.15628         1.15628
             363         657.652         657.652     111.151E-03     111.151E-03     962.159E-03     962.159E-03
             364         656.000         656.000     202.811E-03     202.811E-03     700.973E-03     700.973E-03
             365         654.942         654.942     182.114E-03     182.114E-03     360.581E-03     360.581E-03
             366         654.667         654.667     345.877E-03     345.877E-03    -98.3521E-03    -98.3521E-03
             367         655.434         655.434     298.971E-03     298.971E-03    -690.737E-03    -690.737E-03
             368         657.586         657.586     615.953E-03     615.953E-03        -1.51344        -1.51344
             369         661.611         661.611     504.623E-03     504.623E-03        -2.57442        -2.57442
             370         668.211         668.211         1.20239         1.20239        -4.15320        -4.15320
             371         678.435         678.435     905.595E-03     905.595E-03        -6.20103        -6.20103
             372         694.050         694.050         2.78269         2.78269        -9.69582        -9.69582
             373         717.808         717.808         1.84378         1.84378        -14.3013        -14.3013
             374         756.171         756.171         8.91322         8.91322        -24.7123        -24.7123
             375         819.732         819.732         5.21269         5.21269        -39.2547        -39.2547
             376         966.871         966.871         69.3019         69.3019        -109.636        -109.636
             377         940.375         940.375         181.066         181.066        -184.848        -184.848
             378         784.987         784.987         208.811         208.811        -172.761        -172.761
             379         742.460         742.460         205.028         205.028        -145.251        -145.251
             380         713.258         713.258         204.756         204.756        -130.605        -130.605
             381         697.680         697.680         203.290         203.290        -115.455        -115.455
             382         686.263         686.263         202.547         202.547        -104.039        -104.039
             383         678.913         678.913         201.944         201.944        -93.0250        -93.0250
             384         673.301         673.301         201.531         201.531        -83.5988        -83.5988
             385         669.357         669.357         201.290         201.290        -74.6030        -74.6030
             386         666.267         666.267         201.101         201.101        -66.4418        -66.4418
             387         663.987         663.987         201.019         201.019        -58.6284        -58.6284
             388         662.174         662.174         200.947         200.947        -51.3095        -51.3095
             389         737.047         737.047        -26.3811        -26.3811        -6.21119        -6.21119
             390         735.166         735.166        -20.7193        -20.7193    -522.260E-03    -522.260E-03
             391         732.035         732.035        -15.6877        -15.6877         3.12808         3.12808
             392         728.523         728.523        -11.5705        -11.5705         5.27097         5.27097
             393         725.073         725.073        -8.35220        -8.35220         6.40445         6.40445
             394         721.868         721.868        -5.90596        -5.90596         6.88347         6.88347
             395         718.964         718.964        -4.07588        -4.07588         6.93328         6.93328
             396         716.358         716.358        -2.71947        -2.71947         6.67194         6.67194
             397         714.030         714.030        -1.72047        -1.72047         6.13688         6.13688
             398         711.962         711.962    -992.613E-03    -992.613E-03         5.29839         5.29839
             399         710.160         710.160    -480.886E-03    -480.886E-03         4.06553         4.06553
             400         708.666         708.666    -165.543E-03    -165.543E-03         2.29604         2.29604
             401         704.913         704.913    -25.2686E-06    -25.2686E-06         1.32628         1.32628
             402         701.661         701.661     66.2798E-03     66.2798E-03         1.25662         1.25662
             403         698.792         698.792     131.432E-03     131.432E-03         1.02541         1.02541
             404         696.690         696.690     183.106E-03     183.106E-03     650.649E-03     650.649E-03
             405         695.667         695.667     215.267E-03     215.267E-03     173.136E-03     173.136E-03
             406         695.897         695.897     214.442E-03     214.442E-03    -341.648E-03    -341.648E-03
             407         697.375         697.375     185.323E-03     185.323E-03    -818.791E-03    -818.791E-03
             408         699.928         699.928     137.955E-03     137.955E-03        -1.20177        -1.20177
             409         703.269         703.269     74.2840E-03     74.2840E-03        -1.44866        -1.44866
             410         707.030         707.030     9.06862E-03     9.06862E-03        -1.53851        -1.53851
             411         755.055         755.055         63.1813         63.1813         19.7735         19.7735
             412         763.025         763.025         32.3191         32.3191         28.5397         28.5397
             413         767.022         767.022    -57.5700E-03    -57.5700E-03         23.0101         23.0101
             414         763.323         763.323        -22.6191        -22.6191         9.65902         9.65902
             415         753.551         753.551        -33.2033        -33.2033        -4.08266        -4.08266
             416         754.588         754.588        -30.1513        -30.1513    -479.165E-03    -479.165E-03
             417         764.490         764.490        -13.6542        -13.6542        -16.8364        -16.8364
             418         764.656         764.656         19.0065         19.0065        -28.5607        -28.5607
             419         756.792         756.792         56.3915         56.3915        -23.6531        -23.6531
             420         664.201         664.201         192.731         192.731         44.0693         44.0693
             421         671.116         671.116         176.207         176.207         43.8255         43.8255
             422         677.835         677.835         159.661         159.661         42.4275         42.4275
             423         684.200         684.200         143.432         143.432         40.3459         40.3459
             424         690.059         690.059         127.785         127.785         37.6325         37.6325
             425         695.306         695.306         112.945         112.945         34.4187         34.4187
             426         699.881         699.881         99.0811         99.0811         30.8277         30.8277
             427         703.741         703.741         86.3181         86.3181         27.0184         27.0184
             428         706.912         706.912         74.7081         74.7081         23.1287         23.1287
             429         709.414         709.414         64.2674         64.2674         19.2839         19.2839
             430         711.322         711.322         54.9637         54.9637         15.5887         15.5887
             431         712.687         712.687         46.7417         46.7417         12.1121         12.1121
             432         713.595         713.595         39.5284         39.5284         8.91005         8.91005
             433         714.104         714.104         33.2380         33.2380         6.00329         6.00329
             434         714.289         714.289         27.7875         27.7875         3.40722         3.40722
             435         714.201         714.201         23.0877         23.0877         1.11249         1.11249
             436         713.894         713.894         19.0600         19.0600    -890.834E-03    -890.834E-03
             437         713.409         713.409         15.6239         15.6239        -2.62688        -2.62688
             438         712.784         712.784         12.7102         12.7102        -4.11795        -4.11795
             439         712.050         712.050         10.2500         10.2500        -5.39319        -5.39319
             440         711.233         711.233         8.18397         8.18397        -6.47908        -6.47908
             441         710.353         710.353         6.45373         6.45373        -7.40470        -7.40470
             442         709.431         709.431         5.00837         5.00837        -8.19652        -8.19652
             443         708.480         708.480         3.79789         3.79789        -8.88167        -8.88167
             444         707.517         707.517         2.77751         2.77751        -9.48518        -9.48518
             445         706.554         706.554         1.90299         1.90299        -10.0321        -10.0321
             446         705.604         705.604         1.13323         1.13323        -10.5464        -10.5464
             447         704.684         704.684     426.919E-03     426.919E-03        -11.0519        -11.0519
             448         703.809         703.809    -256.200E-03    -256.200E-03        -11.5724        -11.5724
             449         703.000         703.000    -957.876E-03    -957.876E-03        -12.1319        -12.1319
             450         702.283         702.283        -1.72116        -1.72116        -12.7545        -12.7545
             451         701.693         701.693        -2.59272        -2.59272        -13.4644        -13.4644
             452         701.277         701.277        -3.62362        -3.62362        -14.2843        -14.2843
             453         701.098         701.098        -4.87162        -4.87162        -15.2337        -15.2337
             454         701.241         701.241        -6.40272        -6.40272        -16.3240        -16.3240
             455         701.825         701.825        -8.29216        -8.29216        -17.5511        -17.5511
             456         703.010         703.010        -10.6240        -10.6240        -18.8810        -18.8810
             457         705.008         705.008        -13.4817        -13.4817        -20.2278        -20.2278
             458         708.087         708.087        -16.9299        -16.9299        -21.4149        -21.4149
             459         712.548         712.548        -20.9471        -20.9471        -22.1248        -22.1248
             460         718.652         718.652        -25.3285        -25.3285        -21.8605        -21.8605
             461         726.429         726.429        -29.4715        -29.4715        -19.9558        -19.9558
             462         724.610         724.610        -41.0534        -41.0534        -37.2148        -37.2148
             463         694.235         694.235        -37.1940        -37.1940        -55.8057        -55.8057
             464         644.881         644.881        -20.6983        -20.6983        -62.8964        -62.8964
             465         592.859         592.859         1.86938         1.86938        -43.9799        -43.9799
             466         583.657         583.657         6.11656         6.11656         39.0423         39.0423
             467         625.587         625.587        -13.0199        -13.0199         61.4784         61.4784
             468         671.823         671.823        -31.0066        -31.0066         62.8815         62.8815
             469         707.470         707.470        -40.4551        -40.4551         50.5265         50.5265
             470         728.465         728.465        -41.1006        -41.1006         33.9273         33.9273
             471         659.500         659.500         200.930         200.930        -35.7314        -35.7314
             472         658.547         658.547         200.939         200.939        -27.4743        -27.4743
             473         657.885         657.885         200.949         200.949        -19.4763        -19.4763
             474         657.473         657.473         200.962         200.962        -11.6301        -11.6301
             475         657.273         657.273         200.966         200.966        -3.89307        -3.89307
             476         657.276         657.276         200.963         200.963         3.82698         3.82698
             477         657.478         657.478         200.954         200.954         11.5720         11.5720
             478         657.890         657.890         200.938         200.938         19.4302         19.4302
             479         658.553         658.553         200.928         200.928         27.4420         27.4420
             480         659.507         659.507         200.921         200.921         35.7120         35.7120
             481         662.176         662.176         200.943         200.943         51.3035         51.3035
             482         663.988         663.988         201.018         201.018         58.6243         58.6243
             483         666.268         666.268         201.100         201.100         66.4387         66.4387
             484         669.358         669.358         201.289         201.289         74.6005         74.6005
             485         673.302         673.302         201.531         201.531         83.5967         83.5967
             486         678.913         678.913         201.944         201.944         93.0233         93.0233
             487         686.263         686.263         202.547         202.547         104.037         104.037
             488         697.680         697.680         203.290         203.290         115.454         115.454
             489         713.259         713.259         204.756         204.756         130.604         130.604
             490         742.460         742.460         205.028         205.028         145.250         145.250
             491         784.987         784.987         208.811         208.811         172.760         172.760
             492         940.374         940.374         181.065         181.065         184.848         184.848
             493         966.870         966.870         69.3018         69.3018         109.636         109.636
             494         819.732         819.732         5.21266         5.21266         39.2544         39.2544
             495         756.171         756.171         8.91319         8.91319         24.7121         24.7121
             496         717.809         717.809         1.84375         1.84375         14.3012         14.3012
             497         694.052         694.052         2.78266         2.78266         9.69572         9.69572
             498         678.437         678.437     905.570E-03     905.570E-03         6.20098         6.20098
             499         668.213         668.213         1.20237         1.20237         4.15319         4.15319
             500         661.612         661.612     504.603E-03     504.603E-03         2.57446         2.57446
             501         657.588         657.588     615.937E-03     615.937E-03         1.51351         1.51351
             502         655.435         655.435     298.959E-03     298.959E-03     690.832E-03     690.832E-03
             503         654.668         654.668     345.867E-03     345.867E-03     98.4688E-03     98.4688E-03
             504         654.942         654.942     182.108E-03     182.108E-03    -360.449E-03    -360.449E-03
             505         656.000         656.000     202.806E-03     202.806E-03    -700.831E-03    -700.831E-03
             506         657.652         657.652     111.148E-03     111.148E-03    -962.010E-03    -962.010E-03
             507         659.752         659.752     119.988E-03     119.988E-03        -1.15613        -1.15613
             508         662.186         662.186     66.1917E-03     66.1917E-03        -1.30164        -1.30164
             509         664.866         664.866     69.4630E-03     69.4630E-03        -1.40711        -1.40711
             510         667.724         667.724     37.0256E-03     37.0256E-03        -1.48231        -1.48231
             511         670.706         670.706     37.7284E-03     37.7284E-03        -1.53301        -1.53301
             512         673.769         673.769     17.8194E-03     17.8194E-03        -1.56479        -1.56479
             513         676.879         676.879     17.3257E-03     17.3257E-03        -1.58135        -1.58135
             514         680.009         680.009     4.76820E-03     4.76820E-03        -1.58588        -1.58588
             515         683.139         683.139     3.50526E-03     3.50526E-03        -1.58049        -1.58049
             516         686.249         686.249    -5.04261E-03    -5.04261E-03        -1.56668        -1.56668
             517         689.324         689.324    -7.26451E-03    -7.26451E-03        -1.54516        -1.54516
             518         692.348         692.348    -14.2124E-03    -14.2124E-03        -1.51604        -1.51604
             519         695.307         695.307    -18.0059E-03    -18.0059E-03        -1.47872        -1.47872
             520         698.183         698.183    -25.2718E-03    -25.2718E-03        -1.43196        -1.43196
             521         700.955         700.955    -31.4824E-03    -31.4824E-03        -1.37390        -1.37390
             522         703.599         703.599    -40.6060E-03    -40.6060E-03        -1.30210        -1.30210
             523         706.085         706.085    -49.9955E-03    -49.9955E-03        -1.21368        -1.21368
             524         708.376         708.376    -61.9071E-03    -61.9071E-03        -1.10542        -1.10542
             525         710.431         710.431    -74.5697E-03    -74.5697E-03    -974.146E-03    -974.146E-03
             526         712.200         712.200    -88.9515E-03    -88.9515E-03    -817.001E-03    -817.001E-03
             527         713.631         713.631    -103.396E-03    -103.396E-03    -632.085E-03    -632.085E-03
             528         714.669         714.669    -117.710E-03    -117.710E-03    -419.032E-03    -419.032E-03
             529         715.260         715.260    -129.836E-03    -129.836E-03    -179.826E-03    -179.826E-03
             530         715.357         715.357    -138.535E-03    -138.535E-03     80.4729E-03     80.4729E-03
             531         714.926         714.926    -141.334E-03    -141.334E-03     353.078E-03     353.078E-03
             532         713.958         713.958    -136.465E-03    -136.465E-03     625.088E-03     625.088E-03
             533         712.468         712.468    -121.955E-03    -121.955E-03     879.850E-03     879.850E-03
             534         710.512         710.512    -96.7574E-03    -96.7574E-03         1.09690         1.09690
             535         11.2931         11.2931        -351.089        -351.089        -1.62372        -1.62372
             536         96.3762         96.3762        -130.359        -130.359        -4.39303        -4.39303
             537         232.749         232.749        -24.7669        -24.7669        -5.01278        -5.01278
             538         373.319         373.319         12.7868         12.7868        -4.37261        -4.37261
             539         489.964         489.964         18.8996         18.8996        -3.15233        -3.15233
             540         759.017         759.017        -54.9231        -54.9231        -28.1520        -28.1520
             541         786.788         786.788        -82.6483        -82.6483        -50.5828        -50.5828
             542         813.015         813.015        -108.316        -108.316        -86.9151        -86.9151
             543         806.870         806.870        -100.735        -100.735        -143.805        -143.805
             544         686.169         686.169         24.6748         24.6748        -231.514        -231.514
             545         345.052         345.052         24.1619         24.1619        -183.218        -183.218
             546         160.470         160.470        -131.841        -131.841        -84.4189        -84.4189
             547         51.9116         51.9116        -303.442        -303.442        -14.7290        -14.7290
             548         1.77114         1.77114        -439.761        -439.761         9.63406         9.63406
             549         784.159         784.159         114.369         114.369     746.102E-03     746.102E-03
             550         850.943         850.943         170.251         170.251     639.149E-03     639.149E-03
             551         976.825         976.825         221.937         221.937     558.790E-03     558.790E-03
             552     1.20139E+03     1.20139E+03         237.728         237.728     474.666E-03     474.666E-03
             553     1.56836E+03     1.56836E+03         173.312         173.312     314.622E-03     314.622E-03
             554     1.70834E+03     1.70834E+03         134.346         134.346        -197.781        -197.781
             555     1.48185E+03     1.48185E+03         177.441         177.441        -338.093        -338.093
             556     1.17599E+03     1.17599E+03         207.289         207.289        -391.865        -391.865
             557         860.037         860.037         192.490         192.490        -364.418        -364.418
             558         694.093         694.093         26.9793         26.9793         232.902         232.902
             559         812.292         812.292        -100.213        -100.213         142.077         142.077
             560         816.061         816.061        -108.012        -108.012         84.8429         84.8429
             561         788.335         788.335        -82.3657        -82.3657         48.9833         48.9833
             562         759.751         759.751        -54.6706        -54.6706         27.0785         27.0785
             563        -2.93648        -2.93648        -463.091        -463.091        -11.0634        -11.0634
             564         28.1549         28.1549        -360.563        -360.563    -673.018E-03    -673.018E-03
             565         94.7778         94.7778        -220.663        -220.663         42.1903         42.1903
             566         209.422         209.422        -75.5190        -75.5190         114.043         114.043
             567         378.004         378.004         47.9745         47.9745         200.176         200.176
             568         760.978         760.978        -56.0123        -56.0123         28.6034         28.6034
             569         789.504         789.504        -83.4627        -83.4627         50.0332         50.0332
             570         817.195         817.195        -108.903        -108.903         85.5396         85.5396
             571         813.463         813.463        -100.872        -100.872         142.547         142.547
             572         695.233         695.233         26.8004         26.8004         233.383         233.383
             573         861.181         861.181         192.201         192.201         364.998         364.998
             574     1.17725E+03     1.17725E+03         207.583         207.583         392.495         392.495
             575     1.48297E+03     1.48297E+03         177.711         177.711         338.672         338.672
             576     1.70901E+03     1.70901E+03         134.497         134.497         198.245         198.245
             577         678.678         678.678         21.9598         21.9598        -230.645        -230.645
             578         803.618         803.618        -103.831        -103.831        -145.707        -145.707
             579         811.516         811.516        -110.571        -110.571        -89.4030        -89.4030
             580         786.310         786.310        -84.3897        -84.3897        -52.9749        -52.9749
             581         759.230         759.230        -56.5277        -56.5277        -30.5325        -30.5325
             582         783.922         783.922         115.521         115.521        -2.32876        -2.32876
             583         850.969         850.969         171.467         171.467        -2.47520        -2.47520
             584         977.437         977.437         222.864         222.864        -1.75293        -1.75293
             585     1.20289E+03     1.20289E+03         238.070         238.070     539.448E-03     539.448E-03
             586     1.57112E+03     1.57112E+03         172.706         172.706         5.24751         5.24751
             587     1.74201E+03     1.74201E+03         127.059         127.059        -170.009        -170.009
             588     1.57621E+03     1.57621E+03         162.347         162.347        -304.441        -304.441
             589     1.33831E+03     1.33831E+03         198.010         198.010        -380.722        -380.722
             590     1.07012E+03     1.07012E+03         211.287         211.287        -394.816        -394.816
             591         809.680         809.680         188.596         188.596        -356.941        -356.941
             592         859.726         859.726         191.827         191.827         364.302         364.302
             593     1.17543E+03     1.17543E+03         207.211         207.211         391.747         391.747
             594     1.48086E+03     1.48086E+03         177.301         177.301         338.087         338.087
             595     1.70686E+03     1.70686E+03         134.505         134.505         197.754         197.754
             596         491.524         491.524         17.2217         17.2217        -3.13376        -3.13376
             597         374.316         374.316         11.4360         11.4360        -4.33526        -4.33526
             598         233.274         233.274        -25.9720        -25.9720        -4.95887        -4.95887
             599         96.5240         96.5240        -131.671        -131.671        -4.33361        -4.33361
             600         11.2470         11.2470        -352.891        -352.891        -1.57627        -1.57627
             601        -2.98310        -2.98310        -465.085        -465.085        -11.1229        -11.1229
             602         28.1822         28.1822        -362.152        -362.152    -745.605E-03    -745.605E-03
             603         94.9596         94.9596        -221.730        -221.730         42.2006         42.2006
             604         209.827         209.827        -76.0731        -76.0731         114.228         114.228
             605         378.735         378.735         47.8590         47.8590         200.543         200.543
             606         345.568         345.568         23.7005         23.7005        -183.287        -183.287
             607         160.621         160.621        -132.853        -132.853        -84.3453        -84.3453
             608         51.9041         51.9041        -305.021        -305.021        -14.5585        -14.5585
             609         1.69832         1.69832        -441.774        -441.774         9.77966         9.77966
             610         729.053         729.053        -24.2120        -24.2120        -8.97087        -8.97087
             611         722.567         722.567        -21.7787        -21.7787        -12.0264        -12.0264
             612         716.842         716.842        -18.5779        -18.5779        -13.6693        -13.6693
             613         712.108         712.108        -15.1915        -15.1915        -14.2190        -14.2190
             614         708.377         708.377        -11.9824        -11.9824        -14.0465        -14.0465
             615         705.542         705.542        -9.11809        -9.11809        -13.4455        -13.4455
             616         703.452         703.452        -6.65262        -6.65262        -12.6270        -12.6270
             617         701.955         701.955        -4.57732        -4.57732        -11.7231        -11.7231
             618         700.918         700.918        -2.85937        -2.85937        -10.8131        -10.8131
             619         700.232         700.232        -1.45607        -1.45607        -9.93964        -9.93964
             620         699.811         699.811    -324.898E-03    -324.898E-03        -9.12334        -9.12334
             621         699.587         699.587     574.152E-03     574.152E-03        -8.37146        -8.37146
             622         699.508         699.508         1.27657         1.27657        -7.68382        -7.68382
             623         699.533         699.533         1.81363         1.81363        -7.05641        -7.05641
             624         699.633         699.633         2.21234         2.21234        -6.48358        -6.48358
             625         699.784         699.784         2.49607         2.49607        -5.95930        -5.95930
             626         699.968         699.968         2.68486         2.68486        -5.47785        -5.47785
             627         700.171         700.171         2.79594         2.79594        -5.03413        -5.03413
             628         700.383         700.383         2.84400         2.84400        -4.62377        -4.62377
             629         700.597         700.597         2.84162         2.84162        -4.24313        -4.24313
             630         700.808         700.808         2.79947         2.79947        -3.88919        -3.88919
             631         701.012         701.012         2.72659         2.72659        -3.55953        -3.55953
             632         701.206         701.206         2.63063         2.63063        -3.25213        -3.25213
             633         701.388         701.388         2.51799         2.51799        -2.96532        -2.96532
             634         701.557         701.557         2.39404         2.39404        -2.69771        -2.69771
             635         701.713         701.713         2.26322         2.26322        -2.44808        -2.44808
             636         701.856         701.856         2.12920         2.12920        -2.21534        -2.21534
             637         701.986         701.986         1.99501         1.99501        -1.99849        -1.99849
             638         702.104         702.104         1.86308         1.86308        -1.79655        -1.79655
             639         702.209         702.209         1.73540         1.73540        -1.60860        -1.60860
             640         702.304         702.304         1.61354         1.61354        -1.43370        -1.43370
             641         702.387         702.387         1.49874         1.49874        -1.27093        -1.27093
             642         702.461         702.461         1.39199         1.39199        -1.11932        -1.11932
             643         702.525         702.525         1.29403         1.29403    -977.935E-03    -977.935E-03
             644         702.581         702.581         1.20543         1.20543    -845.784E-03    -845.784E-03
             645         702.628         702.628         1.12662         1.12662    -721.881E-03    -721.881E-03
             646         702.668         702.668         1.05790         1.05790    -605.223E-03    -605.223E-03
             647         702.702         702.702     999.486E-03     999.486E-03    -494.795E-03    -494.795E-03
             648         702.728         702.728     951.545E-03     951.545E-03    -389.572E-03    -389.572E-03
             649         702.748         702.748     914.176E-03     914.176E-03    -288.523E-03    -288.523E-03
             650         702.763         702.763     887.446E-03     887.446E-03    -190.612E-03    -190.612E-03
             651         702.771         702.771     871.376E-03     871.376E-03    -95.0560E-03    -95.0560E-03
             652         729.610         729.610        -20.2964        -20.2964        -3.02507        -3.02507
             653         724.563         724.563        -19.2064        -19.2064        -6.47562        -6.47562
             654         719.825         719.825        -17.1655        -17.1655        -8.80367        -8.80367
             655         715.617         715.617        -14.6480        -14.6480        -10.1877        -10.1877
             656         712.066         712.066        -12.0226        -12.0226        -10.8367        -10.8367
             657         709.180         709.180        -9.51602        -9.51602        -10.9705        -10.9705
             658         706.906         706.906        -7.24696        -7.24696        -10.7674        -10.7674
             659         705.159         705.159        -5.26374        -5.26374        -10.3619        -10.3619
             660         703.848         703.848        -3.57269        -3.57269        -9.84535        -9.84535
             661         702.890         702.890        -2.15908        -2.15908        -9.27760        -9.27760
             662         702.210         702.210    -997.472E-03    -997.472E-03        -8.69551        -8.69551
             663         701.747         701.747    -59.0246E-03    -59.0246E-03        -8.12088        -8.12088
             664         701.451         701.451     685.576E-03     685.576E-03        -7.56552        -7.56552
             665         701.281         701.281         1.26397         1.26397        -7.03522        -7.03522
             666         701.206         701.206         1.70152         1.70152        -6.53217        -6.53217
             667         701.199         701.199         2.02091         2.02091        -6.05654        -6.05654
             668         701.241         701.241         2.24214         2.24214        -5.60753        -5.60753
             669         701.317         701.317         2.38267         2.38267        -5.18388        -5.18388
             670         701.414         701.414         2.45759         2.45759        -4.78428        -4.78428
             671         701.525         701.525         2.47985         2.47985        -4.40745        -4.40745
             672         701.642         701.642         2.46051         2.46051        -4.05227        -4.05227
             673         701.760         701.760         2.40892         2.40892        -3.71773        -3.71773
             674         701.877         701.877         2.33296         2.33296        -3.40296        -3.40296
             675         701.988         701.988         2.23921         2.23921        -3.10716        -3.10716
             676         702.094         702.094         2.13317         2.13317        -2.82959        -2.82959
             677         702.192         702.192         2.01936         2.01936        -2.56952        -2.56952
             678         702.282         702.282         1.90149         1.90149        -2.32624        -2.32624
             679         702.364         702.364         1.78260         1.78260        -2.09899        -2.09899
             680         702.438         702.438         1.66513         1.66513        -1.88700        -1.88700
             681         702.505         702.505         1.55104         1.55104        -1.68946        -1.68946
             682         702.564         702.564         1.44188         1.44188        -1.50551        -1.50551
             683         702.616         702.616         1.33888         1.33888        -1.33425        -1.33425
             684         702.662         702.662         1.24298         1.24298        -1.17474        -1.17474
             685         702.702         702.702         1.15492         1.15492        -1.02602        -1.02602
             686         702.736         702.736         1.07522         1.07522    -887.071E-03    -887.071E-03
             687         702.765         702.765         1.00430         1.00430    -756.867E-03    -756.867E-03
             688         702.790         702.790     942.455E-03     942.455E-03    -634.354E-03    -634.354E-03
             689         702.810         702.810     889.883E-03     889.883E-03    -518.462E-03    -518.462E-03
             690         702.826         702.826     846.732E-03     846.732E-03    -408.104E-03    -408.104E-03
             691         702.838         702.838     813.095E-03     813.095E-03    -302.185E-03    -302.185E-03
             692         702.846         702.846     789.037E-03     789.037E-03    -199.604E-03    -199.604E-03
             693         702.851         702.851     774.566E-03     774.566E-03    -99.5341E-03    -99.5341E-03
             694         728.626         728.626        -16.3519        -16.3519         1.31799         1.31799
             695         724.938         724.938        -16.2813        -16.2813        -2.12317        -2.12317
             696         721.209         721.209        -15.1535        -15.1535        -4.73248        -4.73248
             697         717.699         717.699        -13.4154        -13.4154        -6.58375        -6.58375
             698         714.558         714.558        -11.3883        -11.3883        -7.78648        -7.78648
             699         711.863         711.863        -9.31001        -9.31001        -8.47388        -8.47388
             700         709.624         709.624        -7.32937        -7.32937        -8.77929        -8.77929
             701         707.812         707.812        -5.52985        -5.52985        -8.81416        -8.81416
             702         706.378         706.378        -3.94928        -3.94928        -8.66608        -8.66608
             703         705.264         705.264        -2.59654        -2.59654        -8.39857        -8.39857
             704         704.415         704.415        -1.46384        -1.46384        -8.05667        -8.05667
             705         703.781         703.781    -534.046E-03    -534.046E-03        -7.67103        -7.67103
             706         703.318         703.318     214.080E-03     214.080E-03        -7.26230        -7.26230
             707         702.989         702.989     803.203E-03     803.203E-03        -6.84410        -6.84410
             708         702.764         702.764         1.25548         1.25548        -6.42540        -6.42540
             709         702.618         702.618         1.59171         1.59171        -6.01208        -6.01208
             710         702.531         702.531         1.83081         1.83081        -5.60802        -5.60802
             711         702.487         702.487         1.98962         1.98962        -5.21583        -5.21583
             712         702.474         702.474         2.08293         2.08293        -4.83729        -4.83729
             713         702.483         702.483         2.12351         2.12351        -4.47361        -4.47361
             714         702.506         702.506         2.12234         2.12234        -4.12565        -4.12565
             715         702.538         702.538         2.08870         2.08870        -3.79397        -3.79397
             716         702.575         702.575         2.03042         2.03042        -3.47892        -3.47892
             717         702.614         702.614         1.95405         1.95405        -3.18064        -3.18064
             718         702.652         702.652         1.86499         1.86499        -2.89913        -2.89913
             719         702.689         702.689         1.76771         1.76771        -2.63421        -2.63421
             720         702.724         702.724         1.66584         1.66584        -2.38558        -2.38558
             721         702.756         702.756         1.56234         1.56234        -2.15278        -2.15278
             722         702.784         702.784         1.45958         1.45958        -1.93526        -1.93526
             723         702.810         702.810         1.35943         1.35943        -1.73236        -1.73236
             724         702.832         702.832         1.26341         1.26341        -1.54332        -1.54332
             725         702.851         702.851         1.17266         1.17266        -1.36729        -1.36729
             726         702.867         702.867         1.08808         1.08808        -1.20337        -1.20337
             727         702.881         702.881         1.01035         1.01035        -1.05059        -1.05059
             728         702.893         702.893     939.985E-03     939.985E-03    -907.931E-03    -907.931E-03
             729         702.902         702.902     877.354E-03     877.354E-03    -774.350E-03    -774.350E-03
             730         702.910         702.910     822.727E-03     822.727E-03    -648.759E-03    -648.759E-03
             731         702.916         702.916     776.291E-03     776.291E-03    -530.052E-03    -530.052E-03
             732         702.921         702.921     738.177E-03     738.177E-03    -417.102E-03    -417.102E-03
             733         702.925         702.925     708.467E-03     708.467E-03    -308.773E-03    -308.773E-03
             734         702.927         702.927     687.217E-03     687.217E-03    -203.918E-03    -203.918E-03
             735         702.929         702.929     674.436E-03     674.436E-03    -101.686E-03    -101.686E-03
             736         726.794         726.794        -12.7517        -12.7517         4.25217         4.25217
             737         724.282         724.282        -13.3293        -13.3293         1.11708         1.11708
             738         721.508         721.508        -12.8858        -12.8858        -1.50111        -1.50111
             739         718.727         718.727        -11.7767        -11.7767        -3.55636        -3.55636
             740         716.105         716.105        -10.2908        -10.2908        -5.08324        -5.08324
             741         713.743         713.743        -8.64299        -8.64299        -6.14913        -6.14913
             742         711.689         711.689        -6.98884        -6.98884        -6.83681        -6.83681
             743         709.951         709.951        -5.42714        -5.42714        -7.22877        -7.22877
             744         708.513         708.513        -4.01483        -4.01483        -7.39661        -7.39661
             745         707.344         707.344        -2.77830        -2.77830        -7.39914        -7.39914
             746         706.407         706.407        -1.72385        -1.72385        -7.28181        -7.28181
             747         705.665         705.665    -845.329E-03    -845.329E-03        -7.07926        -7.07926
             748         705.084         705.084    -129.303E-03    -129.303E-03        -6.81720        -6.81720
             749         704.633         704.633     441.191E-03     441.191E-03        -6.51477        -6.51477
             750         704.285         704.285     884.441E-03     884.441E-03        -6.18616        -6.18616
             751         704.019         704.019         1.21852         1.21852        -5.84197        -5.84197
             752         703.816         703.816         1.46047         1.46047        -5.49019        -5.49019
             753         703.662         703.662         1.62585         1.62585        -5.13692        -5.13692
             754         703.545         703.545         1.72849         1.72849        -4.78682        -4.78682
             755         703.455         703.455         1.78050         1.78050        -4.44351        -4.44351
             756         703.385         703.385         1.79232         1.79232        -4.10973        -4.10973
             757         703.331         703.331         1.77282         1.77282        -3.78760        -3.78760
             758         703.287         703.287         1.72948         1.72948        -3.47865        -3.47865
             759         703.252         703.252         1.66854         1.66854        -3.18399        -3.18399
             760         703.222         703.222         1.59517         1.59517        -2.90433        -2.90433
             761         703.196         703.196         1.51359         1.51359        -2.64006        -2.64006
             762         703.174         703.174         1.42725         1.42725        -2.39128        -2.39128
             763         703.153         703.153         1.33892         1.33892        -2.15786        -2.15786
             764         703.134         703.134         1.25082         1.25082        -1.93946        -1.93946
             765         703.116         703.116         1.16472         1.16472        -1.73558        -1.73558
             766         703.100         703.100         1.08200         1.08200        -1.54557        -1.54557
             767         703.085         703.085         1.00372         1.00372        -1.36865        -1.36865
             768         703.071         703.071     930.700E-03     930.700E-03        -1.20397        -1.20397
             769         703.057         703.057     863.566E-03     863.566E-03        -1.05057        -1.05057
             770         703.046         703.046     802.775E-03     802.775E-03    -907.449E-03    -907.449E-03
             771         703.035         703.035     748.660E-03     748.660E-03    -773.557E-03    -773.557E-03
             772         703.026         703.026     701.460E-03     701.460E-03    -647.797E-03    -647.797E-03
             773         703.017         703.017     661.339E-03     661.339E-03    -529.048E-03    -529.048E-03
             774         703.011         703.011     628.411E-03     628.411E-03    -416.165E-03    -416.165E-03
             775         703.005         703.005     602.745E-03     602.745E-03    -307.991E-03    -307.991E-03
             776         703.002         703.002     584.388E-03     584.388E-03    -203.358E-03    -203.358E-03
             777         702.999         702.999     573.350E-03     573.350E-03    -101.410E-03    -101.410E-03
             778         724.638         724.638        -9.68323        -9.68323         6.07905         6.07905
             779         723.053         723.053        -10.5803        -10.5803         3.37358         3.37358
             780         721.118         721.118        -10.5846        -10.5846     929.449E-03     929.449E-03
             781         719.035         719.035        -9.95181        -9.95181        -1.14648        -1.14648
             782         716.960         716.960        -8.91298        -8.91298        -2.82163        -2.82163
             783         715.001         715.001        -7.65799        -7.65799        -4.11299        -4.11299
             784         713.221         713.221        -6.32894        -6.32894        -5.06104        -5.06104
             785         711.652         711.652        -5.02703        -5.02703        -5.71728        -5.71728
             786         710.299         710.299        -3.81645        -3.81645        -6.13439        -6.13439
             787         709.154         709.154        -2.73367        -2.73367        -6.36032        -6.36032
             788         708.195         708.195        -1.79464        -1.79464        -6.43650        -6.43650
             789         707.400         707.400        -1.00152        -1.00152        -6.39709        -6.39709
             790         706.743         706.743    -347.712E-03    -347.712E-03        -6.26987        -6.26987
             791         706.203         706.203     178.496E-03     178.496E-03        -6.07702        -6.07702
             792         705.758         705.758     591.298E-03     591.298E-03        -5.83628        -5.83628
             793         705.391         705.391     905.707E-03     905.707E-03        -5.56177        -5.56177
             794         705.085         705.085         1.13641         1.13641        -5.26473        -5.26473
             795         704.829         704.829         1.29715         1.29715        -4.95412        -4.95412
             796         704.612         704.612         1.40035         1.40035        -4.63710        -4.63710
             797         704.427         704.427         1.45700         1.45700        -4.31932        -4.31932
             798         704.266         704.266         1.47663         1.47663        -4.00524        -4.00524
             799         704.126         704.126         1.46736         1.46736        -3.69833        -3.69833
             800         704.002         704.002         1.43606         1.43606        -3.40123        -3.40123
             801         703.891         703.891         1.38844         1.38844        -3.11588        -3.11588
             802         703.792         703.792         1.32923         1.32923        -2.84366        -2.84366
             803         703.702         703.702         1.26229         1.26229        -2.58546        -2.58546
             804         703.621         703.621         1.19074         1.19074        -2.34177        -2.34177
             805         703.547         703.547         1.11712         1.11712        -2.11273        -2.11273
             806         703.479         703.479         1.04340         1.04340        -1.89821        -1.89821
             807         703.417         703.417     971.182E-03     971.182E-03        -1.69787        -1.69787
             808         703.362         703.362     901.685E-03     901.685E-03        -1.51115        -1.51115
             809         703.311         703.311     835.859E-03     835.859E-03        -1.33737        -1.33737
             810         703.266         703.266     774.428E-03     774.428E-03        -1.17571        -1.17571
             811         703.225         703.225     717.932E-03     717.932E-03        -1.02526        -1.02526
             812         703.189         703.189     666.769E-03     666.769E-03    -885.042E-03    -885.042E-03
             813         703.158         703.158     621.227E-03     621.227E-03    -754.010E-03    -754.010E-03
             814         703.131         703.131     581.510E-03     581.510E-03    -631.084E-03    -631.084E-03
             815         703.109         703.109     547.754E-03     547.754E-03    -515.148E-03    -515.148E-03
             816         703.090         703.090     520.053E-03     520.053E-03    -405.063E-03    -405.063E-03
             817         703.076         703.076     498.465E-03     498.465E-03    -299.674E-03    -299.674E-03
             818         703.066         703.066     483.026E-03     483.026E-03    -197.819E-03    -197.819E-03
             819         703.060         703.060     473.745E-03     473.745E-03    -98.6528E-03    -98.6528E-03
             820         722.452         722.452        -7.17020        -7.17020         7.07988         7.07988
             821         721.582         721.582        -8.15022        -8.15022         4.82113         4.82113
             822         720.348         720.348        -8.40065        -8.40065         2.63741         2.63741
             823         718.897         718.897        -8.09377        -8.09377     663.143E-03     663.143E-03
             824         717.354         717.354        -7.40295        -7.40295        -1.03261        -1.03261
             825         715.819         715.819        -6.48122        -6.48122        -2.42634        -2.42634
             826         714.359         714.359        -5.45251        -5.45251        -3.52593        -3.52593
             827         713.016         713.016        -4.40851        -4.40851        -4.35618        -4.35618
             828         711.808         711.808        -3.41292        -3.41292        -4.95050        -4.95050
             829         710.741         710.741        -2.50500        -2.50500        -5.34471        -5.34471
             830         709.810         709.810        -1.70573        -1.70573        -5.57314        -5.57314
             831         709.003         709.003        -1.02255        -1.02255        -5.66706        -5.66706
             832         708.305         708.305    -453.846E-03    -453.846E-03        -5.65370        -5.65370
             833         707.702         707.702     7.68363E-03     7.68363E-03        -5.55640        -5.55640
             834         707.179         707.179     372.527E-03     372.527E-03        -5.39478        -5.39478
             835         706.724         706.724     652.583E-03     652.583E-03        -5.18520        -5.18520
             836         706.326         706.326     859.989E-03     859.989E-03        -4.94117        -4.94117
             837         705.975         705.975         1.00636         1.00636        -4.67378        -4.67378
             838         705.664         705.664         1.10240         1.10240        -4.39203        -4.39203
             839         705.386         705.386         1.15761         1.15761        -4.10321        -4.10321
             840         705.136         705.136         1.18033         1.18033        -3.81310        -3.81310
             841         704.911         704.911         1.17766         1.17766        -3.52626        -3.52626
             842         704.706         704.706         1.15562         1.15562        -3.24620        -3.24620
             843         704.520         704.520         1.11922         1.11922        -2.97554        -2.97554
             844         704.351         704.351         1.07258         1.07258        -2.71619        -2.71619
             845         704.196         704.196         1.01908         1.01908        -2.46944        -2.46944
             846         704.055         704.055     961.439E-03     961.439E-03        -2.23608        -2.23608
             847         703.927         703.927     901.827E-03     901.827E-03        -2.01650        -2.01650
             848         703.810         703.810     841.971E-03     841.971E-03        -1.81074        -1.81074
             849         703.704         703.704     783.224E-03     783.224E-03        -1.61857        -1.61857
             850         703.609         703.609     726.635E-03     726.635E-03        -1.43954        -1.43954
             851         703.523         703.523     673.008E-03     673.008E-03        -1.27302        -1.27302
             852         703.446         703.446     622.951E-03     622.951E-03        -1.11828        -1.11828
             853         703.378         703.378     576.916E-03     576.916E-03    -974.431E-03    -974.431E-03
             854         703.318         703.318     535.233E-03     535.233E-03    -840.539E-03    -840.539E-03
             855         703.267         703.267     498.137E-03     498.137E-03    -715.596E-03    -715.596E-03
             856         703.222         703.222     465.794E-03     465.794E-03    -598.548E-03    -598.548E-03
             857         703.185         703.185     438.313E-03     438.313E-03    -488.312E-03    -488.312E-03
             858         703.155         703.155     415.766E-03     415.766E-03    -383.776E-03    -383.776E-03
             859         703.132         703.132     398.197E-03     398.197E-03    -283.816E-03    -283.816E-03
             860         703.116         703.116     385.634E-03     385.634E-03    -187.298E-03    -187.298E-03
             861         703.106         703.106     378.085E-03     378.085E-03    -93.4153E-03    -93.4153E-03
             862         720.389         720.389        -5.16110        -5.16110         7.46387         7.46387
             863         720.079         720.079        -6.06996        -6.06996         5.61477         5.61477
             864         719.430         719.430        -6.41614        -6.41614         3.71978         3.71978
             865         718.536         718.536        -6.30879        -6.30879         1.91543         1.91543
             866         717.491         717.491        -5.87088        -5.87088     289.614E-03     289.614E-03
             867         716.374         716.374        -5.21918        -5.21918        -1.11101        -1.11101
             868         715.248         715.248        -4.45299        -4.45299        -2.26959        -2.26959
             869         714.157         714.157        -3.65043        -3.65043        -3.19054        -3.19054
             870         713.127         713.127        -2.86762        -2.86762        -3.89088        -3.89088
             871         712.172         712.172        -2.14191        -2.14191        -4.39466        -4.39466
             872         711.299         711.299        -1.49484        -1.49484        -4.72867        -4.72867
             873         710.506         710.506    -936.278E-03    -936.278E-03        -4.91973        -4.91973
             874         709.788         709.788    -467.630E-03    -467.630E-03        -4.99312        -4.99312
             875         709.139         709.139    -84.8320E-03    -84.8320E-03        -4.97170        -4.97170
             876         708.552         708.552     219.490E-03     219.490E-03        -4.87563        -4.87563
             877         708.020         708.020     454.375E-03     454.375E-03        -4.72229        -4.72229
             878         707.536         707.536     629.400E-03     629.400E-03        -4.52643        -4.52643
             879         707.095         707.095     753.948E-03     753.948E-03        -4.30040        -4.30040
             880         706.692         706.692     836.757E-03     836.757E-03        -4.05438        -4.05438
             881         706.323         706.323     885.691E-03     885.691E-03        -3.79667        -3.79667
             882         705.984         705.984     907.638E-03     907.638E-03        -3.53395        -3.53395
             883         705.673         705.673     908.516E-03     908.516E-03        -3.27148        -3.27148
             884         705.388         705.388     893.319E-03     893.319E-03        -3.01333        -3.01333
             885         705.127         705.127     866.208E-03     866.208E-03        -2.76258        -2.76258
             886         704.887         704.887     830.603E-03     830.603E-03        -2.52149        -2.52149
             887         704.667         704.667     789.289E-03     789.289E-03        -2.29161        -2.29161
             888         704.467         704.467     744.505E-03     744.505E-03        -2.07393        -2.07393
             889         704.284         704.284     698.036E-03     698.036E-03        -1.86899        -1.86899
             890         704.119         704.119     651.290E-03     651.290E-03        -1.67695        -1.67695
             891         703.969         703.969     605.365E-03     605.365E-03        -1.49768        -1.49768
             892         703.834         703.834     561.110E-03     561.110E-03        -1.33080        -1.33080
             893         703.713         703.713     519.169E-03     519.169E-03        -1.17577        -1.17577
             894         703.606         703.606     480.026E-03     480.026E-03        -1.03188        -1.03188
             895         703.510         703.510     444.040E-03     444.040E-03    -898.328E-03    -898.328E-03
             896         703.427         703.427     411.467E-03     411.467E-03    -774.216E-03    -774.216E-03
             897         703.355         703.355     382.492E-03     382.492E-03    -658.592E-03    -658.592E-03
             898         703.294         703.294     357.239E-03     357.239E-03    -550.457E-03    -550.457E-03
             899         703.243         703.243     335.790E-03     335.790E-03    -448.782E-03    -448.782E-03
             900         703.202         703.202     318.197E-03     318.197E-03    -352.512E-03    -352.512E-03
             901         703.170         703.170     304.492E-03     304.492E-03    -260.580E-03    -260.580E-03
             902         703.148         703.148     294.692E-03     294.692E-03    -171.908E-03    -171.908E-03
             903         703.135         703.135     288.807E-03     288.807E-03    -85.7551E-03    -85.7551E-03
             904         718.521         718.521        -3.57615        -3.57615         7.36297         7.36297
             905         718.679         718.679        -4.32711        -4.32711         5.86865         5.86865
             906         718.532         718.532        -4.66760        -4.66760         4.25951         4.25951
             907         718.134         718.134        -4.66433        -4.66433         2.66219         2.66219
             908         717.546         717.546        -4.39991        -4.39991         1.16802         1.16802
             909         716.828         716.828        -3.95802        -3.95802    -164.195E-03    -164.195E-03
             910         716.030         716.030        -3.41348        -3.41348        -1.30355        -1.30355
             911         715.195         715.195        -2.82705        -2.82705        -2.23989        -2.23989
             912         714.352         714.352        -2.24451        -2.24451        -2.97813        -2.97813
             913         713.522         713.522        -1.69712        -1.69712        -3.53264        -3.53264
             914         712.719         712.719        -1.20422        -1.20422        -3.92323        -3.92323
             915         711.951         711.951    -775.477E-03    -775.477E-03        -4.17207        -4.17207
             916         711.222         711.222    -413.677E-03    -413.677E-03        -4.30155        -4.30155
             917         710.534         710.534    -116.803E-03    -116.803E-03        -4.33306        -4.33306
             918         709.887         709.887     120.086E-03     120.086E-03        -4.28609        -4.28609
             919         709.280         709.280     303.536E-03     303.536E-03        -4.17795        -4.17795
             920         708.711         708.711     440.717E-03     440.717E-03        -4.02360        -4.02360
             921         708.181         708.181     538.782E-03     538.782E-03        -3.83576        -3.83576
             922         707.686         707.686     604.468E-03     604.468E-03        -3.62500        -3.62500
             923         707.225         707.225     643.870E-03     643.870E-03        -3.40000        -3.40000
             924         706.797         706.797     662.346E-03     662.346E-03        -3.16777        -3.16777
             925         706.401         706.401     664.503E-03     664.503E-03        -2.93382        -2.93382
             926         706.035         706.035     654.229E-03     654.229E-03        -2.70246        -2.70246
             927         705.698         705.698     634.757E-03     634.757E-03        -2.47693        -2.47693
             928         705.388         705.388     608.737E-03     608.737E-03        -2.25961        -2.25961
             929         705.104         705.104     578.322E-03     578.322E-03        -2.05215        -2.05215
             930         704.845         704.845     545.235E-03     545.235E-03        -1.85563        -1.85563
             931         704.609         704.609     510.844E-03     510.844E-03        -1.67064        -1.67064
             932         704.395         704.395     476.224E-03     476.224E-03        -1.49742        -1.49742
             933         704.202         704.202     442.209E-03     442.209E-03        -1.33588        -1.33588
             934         704.029         704.029     409.437E-03     409.437E-03        -1.18570        -1.18570
             935         703.874         703.874     378.392E-03     378.392E-03        -1.04640        -1.04640
             936         703.737         703.737     349.434E-03     349.434E-03    -917.326E-03    -917.326E-03
             937         703.616         703.616     322.827E-03     322.827E-03    -797.742E-03    -797.742E-03
             938         703.510         703.510     298.759E-03     298.759E-03    -686.827E-03    -686.827E-03
             939         703.419         703.419     277.361E-03     277.361E-03    -583.700E-03    -583.700E-03
             940         703.342         703.342     258.723E-03     258.723E-03    -487.442E-03    -487.442E-03
             941         703.278         703.278     242.900E-03     242.900E-03    -397.106E-03    -397.106E-03
             942         703.226         703.226     229.926E-03     229.926E-03    -311.723E-03    -311.723E-03
             943         703.187         703.187     219.822E-03     219.822E-03    -230.311E-03    -230.311E-03
             944         703.158         703.158     212.596E-03     212.596E-03    -151.885E-03    -151.885E-03
             945         703.142         703.142     208.259E-03     208.259E-03    -75.7901E-03    -75.7901E-03
             946         716.886         716.886        -2.33822        -2.33822         6.83935         6.83935
             947         717.476         717.476        -2.89295        -2.89295         5.64898         5.64898
             948         717.789         717.789        -3.16902        -3.16902         4.31472         4.31472
             949         717.845         717.845        -3.20503        -3.20503         2.94721         2.94721
             950         717.680         717.680        -3.05353        -3.05353         1.63247         1.63247
             951         717.333         717.333        -2.77041        -2.77041     431.002E-03     431.002E-03
             952         716.845         716.845        -2.40742        -2.40742    -619.887E-03    -619.887E-03
             953         716.252         716.252        -2.00806        -2.00806        -1.50252        -1.50252
             954         715.586         715.586        -1.60570        -1.60570        -2.21390        -2.21390
             955         714.873         714.873        -1.22398        -1.22398        -2.76160        -2.76160
             956         714.134         714.134    -877.794E-03    -877.794E-03        -3.15976        -3.15976
             957         713.385         713.385    -575.173E-03    -575.173E-03        -3.42620        -3.42620
             958         712.639         712.639    -318.854E-03    -318.854E-03        -3.58012        -3.58012
             959         711.907         711.907    -107.997E-03    -107.997E-03        -3.64057        -3.64057
             960         711.195         711.195     60.5669E-03     60.5669E-03        -3.62544        -3.62544
             961         710.508         710.508     191.283E-03     191.283E-03        -3.55090        -3.55090
             962         709.851         709.851     289.154E-03     289.154E-03        -3.43113        -3.43113
             963         709.227         709.227     359.231E-03     359.231E-03        -3.27824        -3.27824
             964         708.637         708.637     406.302E-03     406.302E-03        -3.10240        -3.10240
             965         708.083         708.083     434.717E-03     434.717E-03        -2.91195        -2.91195
             966         707.564         707.564     448.302E-03     448.302E-03        -2.71362        -2.71362
             967         707.081         707.081     450.347E-03     450.347E-03        -2.51274        -2.51274
             968         706.634         706.634     443.624E-03     443.624E-03        -2.31342        -2.31342
             969         706.221         706.221     430.431E-03     430.431E-03        -2.11877        -2.11877
             970         705.841         705.841     412.650E-03     412.650E-03        -1.93107        -1.93107
             971         705.494         705.494     391.801E-03     391.801E-03        -1.75188        -1.75188
             972         705.177         705.177     369.096E-03     369.096E-03        -1.58223        -1.58223
             973         704.889         704.889     345.494E-03     345.494E-03        -1.42271        -1.42271
             974         704.629         704.629     321.745E-03     321.745E-03        -1.27352        -1.27352
             975         704.395         704.395     298.426E-03     298.426E-03        -1.13462        -1.13462
             976         704.185         704.185     275.977E-03     275.977E-03        -1.00572        -1.00572
             977         703.999         703.999     254.729E-03     254.729E-03    -886.385E-03    -886.385E-03
             978         703.833         703.833     234.927E-03     234.927E-03    -776.046E-03    -776.046E-03
             979         703.688         703.688     216.748E-03     216.748E-03    -674.044E-03    -674.044E-03
             980         703.562         703.562     200.317E-03     200.317E-03    -579.647E-03    -579.647E-03
             981         703.453         703.453     185.720E-03     185.720E-03    -492.079E-03    -492.079E-03
             982         703.361         703.361     173.014E-03     173.014E-03    -410.527E-03    -410.527E-03
             983         703.285         703.285     162.235E-03     162.235E-03    -334.156E-03    -334.156E-03
             984         703.224         703.224     153.401E-03     153.401E-03    -262.118E-03    -262.118E-03
             985         703.177         703.177     146.518E-03     146.518E-03    -193.552E-03    -193.552E-03
             986         703.144         703.144     141.596E-03     141.596E-03    -127.591E-03    -127.591E-03
             987         703.124         703.124     138.643E-03     138.643E-03    -63.7069E-03    -63.7069E-03
             988         715.519         715.519        -1.38660        -1.38660         5.89563         5.89563
             989         716.554         716.554        -1.74338        -1.74338         4.97548         4.97548
             990         717.321         717.321        -1.93014        -1.93014         3.91360         3.91360
             991         717.814         717.814        -1.96793        -1.96793         2.80109         2.80109
             992         718.046         718.046        -1.88722        -1.88722         1.71190         1.71190
             993         718.041         718.041        -1.72167        -1.72167     701.025E-03     701.025E-03
             994         717.832         717.832        -1.50326        -1.50326    -195.476E-03    -195.476E-03
             995         717.451         717.451        -1.25934        -1.25934    -957.932E-03    -957.932E-03
             996         716.933         716.933        -1.01136        -1.01136        -1.58003        -1.58003
             997         716.310         716.310    -774.641E-03    -774.641E-03        -2.06518        -2.06518
             998         715.610         715.610    -559.116E-03    -559.116E-03        -2.42343        -2.42343
             999         714.858         714.858    -370.190E-03    -370.190E-03        -2.66867        -2.66867
            1000         714.075         714.075    -209.927E-03    -209.927E-03        -2.81665        -2.81665
            1001         713.280         713.280    -77.9751E-03    -77.9751E-03        -2.88340        -2.88340
            1002         712.488         712.488     27.5268E-03     27.5268E-03        -2.88421        -2.88421
            1003         711.709         711.709     109.323E-03     109.323E-03        -2.83308        -2.83308
            1004         710.953         710.953     170.533E-03     170.533E-03        -2.74231        -2.74231
            1005         710.227         710.227     214.334E-03     214.334E-03        -2.62250        -2.62250
            1006         709.536         709.536     243.745E-03     243.745E-03        -2.48252        -2.48252
            1007         708.883         708.883     261.507E-03     261.507E-03        -2.32964        -2.32964
            1008         708.270         708.270     270.034E-03     270.034E-03        -2.16972        -2.16972
            1009         707.699         707.699     271.394E-03     271.394E-03        -2.00737        -2.00737
            1010         707.170         707.170     267.327E-03     267.327E-03        -1.84615        -1.84615
            1011         706.682         706.682     259.271E-03     259.271E-03        -1.68871        -1.68871
            1012         706.234         706.234     248.399E-03     248.399E-03        -1.53700        -1.53700
            1013         705.824         705.824     235.655E-03     235.655E-03        -1.39235        -1.39235
            1014         705.452         705.452     221.789E-03     221.789E-03        -1.25562        -1.25562
            1015         705.115         705.115     207.391E-03     207.391E-03        -1.12727        -1.12727
            1016         704.811         704.811     192.921E-03     192.921E-03        -1.00747        -1.00747
            1017         704.539         704.539     178.730E-03     178.730E-03    -896.174E-03    -896.174E-03
            1018         704.295         704.295     165.085E-03     165.085E-03    -793.127E-03    -793.127E-03
            1019         704.079         704.079     152.184E-03     152.184E-03    -697.953E-03    -697.953E-03
            1020         703.889         703.889     140.174E-03     140.174E-03    -610.172E-03    -610.172E-03
            1021         703.722         703.722     129.160E-03     129.160E-03    -529.227E-03    -529.227E-03
            1022         703.577         703.577     119.213E-03     119.213E-03    -454.510E-03    -454.510E-03
            1023         703.453         703.453     110.384E-03     110.384E-03    -385.376E-03    -385.376E-03
            1024         703.348         703.348     102.704E-03     102.704E-03    -321.153E-03    -321.153E-03
            1025         703.261         703.261     96.1929E-03     96.1929E-03    -261.154E-03    -261.154E-03
            1026         703.191         703.191     90.8639E-03     90.8639E-03    -204.683E-03    -204.683E-03
            1027         703.138         703.138     86.7123E-03     86.7123E-03    -151.048E-03    -151.048E-03
            1028         703.100         703.100     83.7292E-03     83.7292E-03    -99.5347E-03    -99.5347E-03
            1029         703.078         703.078     81.9392E-03     81.9392E-03    -49.7524E-03    -49.7524E-03
            1030         714.471         714.471    -687.220E-03    -687.220E-03         4.48001         4.48001
            1031         716.013         716.013    -873.066E-03    -873.066E-03         3.82494         3.82494
            1032         717.264         717.264    -972.952E-03    -972.952E-03         3.05569         3.05569
            1033         718.196         718.196    -996.802E-03    -996.802E-03         2.24009         2.24009
            1034         718.806         718.806    -959.593E-03    -959.593E-03         1.43418         1.43418
            1035         719.110         719.110    -878.158E-03    -878.158E-03     680.553E-03     680.553E-03
            1036         719.136         719.136    -768.786E-03    -768.786E-03     8.10080E-03     8.10080E-03
            1037         718.920         718.920    -645.603E-03    -645.603E-03    -566.793E-03    -566.793E-03
            1038         718.501         718.501    -519.725E-03    -519.725E-03        -1.03795        -1.03795
            1039         717.919         717.919    -399.226E-03    -399.226E-03        -1.40699        -1.40699
            1040         717.212         717.212    -289.308E-03    -289.308E-03        -1.68081        -1.68081
            1041         716.416         716.416    -192.889E-03    -192.889E-03        -1.86960        -1.86960
            1042         715.561         715.561    -111.076E-03    -111.076E-03        -1.98506        -1.98506
            1043         714.673         714.673    -43.7434E-03    -43.7434E-03        -2.03928        -2.03928
            1044         713.774         713.774     10.0565E-03     10.0565E-03        -2.04387        -2.04387
            1045         712.882         712.882     51.7250E-03     51.7250E-03        -2.00943        -2.00943
            1046         712.010         712.010     82.8703E-03     82.8703E-03        -1.94534        -1.94534
            1047         711.170         711.170     105.129E-03     105.129E-03        -1.85960        -1.85960
            1048         710.368         710.368     120.057E-03     120.057E-03        -1.75894        -1.75894
            1049         709.610         709.610     129.064E-03     129.064E-03        -1.64881        -1.64881
            1050         708.900         708.900     133.389E-03     133.389E-03        -1.53362        -1.53362
            1051         708.239         708.239     134.092E-03     134.092E-03        -1.41677        -1.41677
            1052         707.628         707.628     132.060E-03     132.060E-03        -1.30091        -1.30091
            1053         707.065         707.065     128.027E-03     128.027E-03        -1.18798        -1.18798
            1054         706.551         706.551     122.586E-03     122.586E-03        -1.07939        -1.07939
            1055         706.082         706.082     116.214E-03     116.214E-03    -976.075E-03    -976.075E-03
            1056         705.658         705.658     109.290E-03     109.290E-03    -878.646E-03    -878.646E-03
            1057         705.275         705.275     102.109E-03     102.109E-03    -787.418E-03    -787.418E-03
            1058         704.931         704.931     94.8997E-03     94.8997E-03    -702.487E-03    -702.487E-03
            1059         704.624         704.624     87.8380E-03     87.8380E-03    -623.783E-03    -623.783E-03
            1060         704.350         704.350     81.0552E-03     81.0552E-03    -551.108E-03    -551.108E-03
            1061         704.109         704.109     74.6488E-03     74.6488E-03    -484.166E-03    -484.166E-03
            1062         703.896         703.896     68.6903E-03     68.6903E-03    -422.592E-03    -422.592E-03
            1063         703.711         703.711     63.2299E-03     63.2299E-03    -365.971E-03    -365.971E-03
            1064         703.550         703.550     58.3029E-03     58.3029E-03    -313.853E-03    -313.853E-03
            1065         703.413         703.413     53.9321E-03     53.9321E-03    -265.762E-03    -265.762E-03
            1066         703.297         703.297     50.1332E-03     50.1332E-03    -221.208E-03    -221.208E-03
            1067         703.202         703.202     46.9143E-03     46.9143E-03    -179.692E-03    -179.692E-03
            1068         703.125         703.125     44.2812E-03     44.2812E-03    -140.708E-03    -140.708E-03
            1069         703.067         703.067     42.2427E-03     42.2427E-03    -103.753E-03    -103.753E-03
            1070         703.026         703.026     40.7689E-03     40.7689E-03    -68.3440E-03    -68.3440E-03
            1071         703.001         703.001     39.8522E-03     39.8522E-03    -34.2740E-03    -34.2740E-03
            1072         713.836         713.836    -241.571E-03    -241.571E-03         2.50113         2.50113
            1073         715.993         715.993    -308.854E-03    -308.854E-03         2.14565         2.14565
            1074         717.786         717.786    -345.480E-03    -345.480E-03         1.72517         1.72517
            1075         719.173         719.173    -354.976E-03    -354.976E-03         1.27765         1.27765
            1076         720.143         720.143    -342.504E-03    -342.504E-03     834.297E-03     834.297E-03
            1077         720.712         720.712    -314.014E-03    -314.014E-03     418.995E-03     418.995E-03
            1078         720.912         720.912    -275.373E-03    -275.373E-03     48.0699E-03     48.0699E-03
            1079         720.789         720.789    -231.628E-03    -231.628E-03    -269.099E-03    -269.099E-03
            1080         720.394         720.394    -186.834E-03    -186.834E-03    -528.965E-03    -528.965E-03
            1081         719.781         719.781    -143.883E-03    -143.883E-03    -732.318E-03    -732.318E-03
            1082         719.002         719.002    -104.691E-03    -104.691E-03    -883.025E-03    -883.025E-03
            1083         718.101         718.101    -70.3018E-03    -70.3018E-03    -986.746E-03    -986.746E-03
            1084         717.120         717.120    -41.1304E-03    -41.1304E-03        -1.05006        -1.05006
            1085         716.095         716.095    -17.1301E-03    -17.1301E-03        -1.07973        -1.07973
            1086         715.054         715.054     2.03793E-03     2.03793E-03        -1.08222        -1.08222
            1087         714.020         714.020     16.8769E-03     16.8769E-03        -1.06346        -1.06346
            1088         713.011         713.011     27.9668E-03     27.9668E-03        -1.02863        -1.02863
            1089         712.040         712.040     35.8937E-03     35.8937E-03    -982.177E-03    -982.177E-03
            1090         711.116         711.116     41.2167E-03     41.2167E-03    -927.773E-03    -927.773E-03
            1091         710.247         710.247     44.4396E-03     44.4396E-03    -868.418E-03    -868.418E-03
            1092         709.435         709.435     46.0053E-03     46.0053E-03    -806.492E-03    -806.492E-03
            1093         708.682         708.682     46.2908E-03     46.2908E-03    -743.848E-03    -743.848E-03
            1094         707.989         707.989     45.6120E-03     45.6120E-03    -681.891E-03    -681.891E-03
            1095         707.355         707.355     44.2281E-03     44.2281E-03    -621.657E-03    -621.657E-03
            1096         706.777         706.777     42.3497E-03     42.3497E-03    -563.880E-03    -563.880E-03
            1097         706.254         706.254     40.1447E-03     40.1447E-03    -509.052E-03    -509.052E-03
            1098         705.782         705.782     37.7463E-03     37.7463E-03    -457.474E-03    -457.474E-03
            1099         705.358         705.358     35.2581E-03     35.2581E-03    -409.297E-03    -409.297E-03
            1100         704.979         704.979     32.7603E-03     32.7603E-03    -364.556E-03    -364.556E-03
            1101         704.641         704.641     30.3138E-03     30.3138E-03    -323.195E-03    -323.195E-03
            1102         704.343         704.343     27.9645E-03     27.9645E-03    -285.096E-03    -285.096E-03
            1103         704.080         704.080     25.7462E-03     25.7462E-03    -250.089E-03    -250.089E-03
            1104         703.850         703.850     23.6836E-03     23.6836E-03    -217.968E-03    -217.968E-03
            1105         703.650         703.650     21.7941E-03     21.7941E-03    -188.505E-03    -188.505E-03
            1106         703.477         703.477     20.0893E-03     20.0893E-03    -161.452E-03    -161.452E-03
            1107         703.330         703.330     18.5780E-03     18.5780E-03    -136.551E-03    -136.551E-03
            1108         703.207         703.207     17.2638E-03     17.2638E-03    -113.537E-03    -113.537E-03
            1109         703.105         703.105     16.1523E-03     16.1523E-03    -92.1413E-03    -92.1413E-03
            1110         703.024         703.024     15.2411E-03     15.2411E-03    -72.0933E-03    -72.0933E-03
            1111         702.962         702.962     14.5416E-03     14.5416E-03    -53.1157E-03    -53.1157E-03
            1112         702.918         702.918     14.0557E-03     14.0557E-03    -34.9505E-03    -34.9505E-03
            1113         702.892         702.892     13.7036E-03     13.7036E-03    -17.6602E-03    -17.6602E-03
            1114         716.373         716.373        -29.1919        -29.1919         27.7791         27.7791
            1115         707.672         707.672        -22.7313        -22.7313         27.0233         27.0233
            1116         701.691         701.691        -17.0400        -17.0400         24.9063         24.9063
            1117         697.812         697.812        -12.3592        -12.3592         22.2809         22.2809
            1118         695.446         695.446        -8.63775        -8.63775         19.6230         19.6230
            1119         694.115         694.115        -5.71054        -5.71054         17.1586         17.1586
            1120         693.481         693.481        -3.41744        -3.41744         14.9737         14.9737
            1121         693.306         693.306        -1.62083        -1.62083         13.0823         13.0823
            1122         693.429         693.429    -215.003E-03    -215.003E-03         11.4656         11.4656
            1123         693.743         693.743     881.887E-03     881.887E-03         10.0916         10.0916
            1124         694.174         694.174         1.73149         1.73149         8.92531         8.92531
            1125         694.674         694.674         2.38143         2.38143         7.93325         7.93325
            1126         695.210         695.210         2.86856         2.86856         7.08570         7.08570
            1127         695.758         695.758         3.22214         3.22214         6.35714         6.35714
            1128         696.305         696.305         3.46571         3.46571         5.72623         5.72623
            1129         696.839         696.839         3.61861         3.61861         5.17541         5.17541
            1130         697.353         697.353         3.69694         3.69694         4.69040         4.69040
            1131         697.844         697.844         3.71429         3.71429         4.25973         4.25973
            1132         698.308         698.308         3.68220         3.68220         3.87424         3.87424
            1133         698.745         698.745         3.61057         3.61057         3.52666         3.52666
            1134         699.152         699.152         3.50788         3.50788         3.21122         3.21122
            1135         699.531         699.531         3.38142         3.38142         2.92339         2.92339
            1136         699.881         699.881         3.23745         3.23745         2.65956         2.65956
            1137         700.204         700.204         3.08133         3.08133         2.41688         2.41688
            1138           700.5           700.5         2.91761         2.91761         2.19303         2.19303
            1139         700.770         700.770         2.75015         2.75015         1.98616         1.98616
            1140         701.016         701.016         2.58220         2.58220         1.79470         1.79470
            1141         701.239         701.239         2.41649         2.41649         1.61732         1.61732
            1142         701.440         701.440         2.25526         2.25526         1.45286         1.45286
            1143         701.621         701.621         2.10037         2.10037         1.30029         1.30029
            1144         701.783         701.783         1.95331         1.95331         1.15865         1.15865
            1145         701.926         701.926         1.81530         1.81530         1.02702         1.02702
            1146         702.053         702.053         1.68730         1.68730     904.547E-03     904.547E-03
            1147         702.165         702.165         1.57006         1.57006     790.378E-03     790.378E-03
            1148         702.262         702.262         1.46416         1.46416     683.678E-03     683.678E-03
            1149         702.345         702.345         1.37004         1.37004     583.622E-03     583.622E-03
            1150         702.415         702.415         1.28803         1.28803     489.385E-03     489.385E-03
            1151         702.474         702.474         1.21837         1.21837     400.142E-03     400.142E-03
            1152         702.520         702.520         1.16123         1.16123     315.072E-03     315.072E-03
            1153         702.556         702.556         1.11672         1.11672     233.347E-03     233.347E-03
            1154         702.582         702.582         1.08493         1.08493     154.146E-03     154.146E-03
            1155         702.597         702.597         1.06587         1.06587     76.8353E-03     76.8353E-03
            1156         699.061         699.061        -26.7155        -26.7155         38.9240         38.9240
            1157         691.971         691.971        -18.7417        -18.7417         34.0546         34.0546
            1158         688.252         688.252        -12.7267        -12.7267         29.0244         29.0244
            1159         686.632         686.632        -8.30435        -8.30435         24.4579         24.4579
            1160         686.254         686.254        -5.05117        -5.05117         20.5577         20.5577
            1161         686.584         686.584        -2.63842        -2.63842         17.3168         17.3168
            1162         687.298         687.298    -826.228E-03    -826.228E-03         14.6567         14.6567
            1163         688.207         688.207     547.487E-03     547.487E-03         12.4829         12.4829
            1164         689.199         689.199         1.59552         1.59552         10.7064         10.7064
            1165         690.208         690.208         2.39495         2.39495         9.25048         9.25048
            1166         691.199         691.199         3.00055         3.00055         8.05156         8.05156
            1167         692.150         692.150         3.45155         3.45155         7.05796         7.05796
            1168         693.053         693.053         3.77721         3.77721         6.22837         6.22837
            1169         693.902         693.902         3.99991         3.99991         5.52976         5.52976
            1170         694.697         694.697         4.13737         4.13737         4.93601         4.93601
            1171         695.437         695.437         4.20404         4.20404         4.42644         4.42644
            1172         696.125         696.125         4.21199         4.21199         3.98476         3.98476
            1173         696.763         696.763         4.17153         4.17153         3.59816         3.59816
            1174         697.353         697.353         4.09157         4.09157         3.25659         3.25659
            1175         697.898         697.898         3.97989         3.97989         2.95218         2.95218
            1176         698.399         698.399         3.84330         3.84330         2.67876         2.67876
            1177         698.861         698.861         3.68777         3.68777         2.43151         2.43151
            1178         699.284         699.284         3.51855         3.51855         2.20665         2.20665
            1179         699.671         699.671         3.34019         3.34019         2.00118         2.00118
            1180         700.025         700.025         3.15666         3.15666         1.81274         1.81274
            1181         700.346         700.346         2.97137         2.97137         1.63939         1.63939
            1182         700.638         700.638         2.78724         2.78724         1.47959         1.47959
            1183         700.903         700.903         2.60674         2.60674         1.33202         1.33202
            1184         701.141         701.141         2.43195         2.43195         1.19556         1.19556
            1185         701.355         701.355         2.26461         2.26461         1.06924         1.06924
            1186         701.546         701.546         2.10613         2.10613     952.172E-03     952.172E-03
            1187         701.717         701.717         1.95766         1.95766     843.541E-03     843.541E-03
            1188         701.867         701.867         1.82014         1.82014     742.581E-03     742.581E-03
            1189         701.999         701.999         1.69430         1.69430     648.560E-03     648.560E-03
            1190         702.114         702.114         1.58071         1.58071     560.762E-03     560.762E-03
            1191         702.213         702.213         1.47980         1.47980     478.492E-03     478.492E-03
            1192         702.297         702.297         1.39191         1.39191     401.058E-03     401.058E-03
            1193         702.367         702.367         1.31728         1.31728     327.779E-03     327.779E-03
            1194         702.422         702.422         1.25608         1.25608     257.974E-03     257.974E-03
            1195         702.465         702.465         1.20844         1.20844     190.968E-03     190.968E-03
            1196         702.495         702.495         1.17444         1.17444     126.085E-03     126.085E-03
            1197         702.513         702.513         1.15411         1.15411     62.8137E-03     62.8137E-03
            1198         672.633         672.633        -18.2970        -18.2970         45.8795         45.8795
            1199         671.145         671.145        -10.9183        -10.9183         36.7052         36.7052
            1200         672.128         672.128        -6.09474        -6.09474         29.2844         29.2844
            1201         674.178         674.178        -2.89440        -2.89440         23.4868         23.4868
            1202         676.580         676.580    -706.914E-03    -706.914E-03         19.0006         19.0006
            1203            679.            679.     837.390E-03     837.390E-03         15.5258         15.5258
            1204         681.292         681.292         1.95599         1.95599         12.8183         12.8183
            1205         683.398         683.398         2.78328         2.78328         10.6933         10.6933
            1206         685.306         685.306         3.40143         3.40143         9.01160         9.01160
            1207         687.023         687.023         3.86332         3.86332         7.66929         7.66929
            1208         688.566         688.566         4.20327         4.20327         6.58810         6.58810
            1209         689.953         689.953         4.44491         4.44491         5.70915         5.70915
            1210         691.202         691.202         4.60509         4.60509         4.98754         4.98754
            1211         692.329         692.329         4.69660         4.69660         4.38908         4.38908
            1212         693.348         693.348         4.72966         4.72966         3.88746         3.88746
            1213         694.273         694.273         4.71285         4.71285         3.46246         3.46246
            1214         695.114         695.114         4.65369         4.65369         3.09844         3.09844
            1215         695.879         695.879         4.55888         4.55888         2.78331         2.78331
            1216         696.577         696.577         4.43454         4.43454         2.50768         2.50768
            1217         697.213         697.213         4.28623         4.28623         2.26431         2.26431
            1218         697.794         697.794         4.11907         4.11907         2.04753         2.04753
            1219         698.324         698.324         3.93771         3.93771         1.85297         1.85297
            1220         698.807         698.807         3.74636         3.74636         1.67719         1.67719
            1221         699.247         699.247         3.54879         3.54879         1.51750         1.51750
            1222         699.647         699.647         3.34837         3.34837         1.37179         1.37179
            1223         700.010         700.010         3.14807         3.14807         1.23835         1.23835
            1224         700.339         700.339         2.95046         2.95046         1.11581         1.11581
            1225         700.636         700.636         2.75777         2.75777         1.00303         1.00303
            1226         700.904         700.904         2.57190         2.57190     899.053E-03     899.053E-03
            1227         701.144         701.144         2.39444         2.39444     803.043E-03     803.043E-03
            1228         701.359         701.359         2.22674         2.22674     714.269E-03     714.269E-03
            1229         701.550         701.550         2.06989         2.06989     632.063E-03     632.063E-03
            1230         701.720         701.720         1.92476         1.92476     555.807E-03     555.807E-03
            1231         701.868         701.868         1.79206         1.79206     484.916E-03     484.916E-03
            1232         701.997         701.997         1.67235         1.67235     418.832E-03     418.832E-03
            1233         702.109         702.109         1.56606         1.56606     357.010E-03     357.010E-03
            1234         702.203         702.203         1.47350         1.47350     298.922E-03     298.922E-03
            1235         702.281         702.281         1.39492         1.39492     244.046E-03     244.046E-03
            1236         702.344         702.344         1.33050         1.33050     191.867E-03     191.867E-03
            1237         702.392         702.392         1.28035         1.28035     141.877E-03     141.877E-03
            1238         702.426         702.426         1.24458         1.24458     93.5739E-03     93.5739E-03
            1239         702.446         702.446         1.22319         1.22319     46.5745E-03     46.5745E-03
            1240         640.959         640.959        -5.04261        -5.04261         42.8254         42.8254
            1241         648.820         648.820    -889.177E-03    -889.177E-03         31.8129         31.8129
            1242         656.179         656.179         1.37384         1.37384         24.0821         24.0821
            1243         662.555         662.555         2.68759         2.68759         18.5842         18.5842
            1244         667.940         667.940         3.50800         3.50800         14.5964         14.5964
            1245         672.458         672.458         4.05455         4.05455         11.6477         11.6477
            1246         676.252         676.252         4.43994         4.43994         9.43154         9.43154
            1247         679.455         679.455         4.72164         4.72164         7.73997         7.73997
            1248         682.177         682.177         4.93013         4.93013         6.43162         6.43162
            1249         684.506         684.506         5.08120         5.08120         5.40665         5.40665
            1250         686.516         686.516         5.18349         5.18349         4.59428         4.59428
            1251         688.264         688.264         5.24198         5.24198         3.94291         3.94291
            1252         689.794         689.794         5.26010         5.26010         3.41473         3.41473
            1253         691.145         691.145         5.24073         5.24073         2.98151         2.98151
            1254         692.343         692.343         5.18672         5.18672         2.62212         2.62212
            1255         693.412         693.412         5.10112         5.10112         2.32051         2.32051
            1256         694.371         694.371         4.98723         4.98723         2.06447         2.06447
            1257         695.234         695.234         4.84854         4.84854         1.84468         1.84468
            1258         696.014         696.014         4.68870         4.68870         1.65397         1.65397
            1259         696.719         696.719         4.51140         4.51140         1.48681         1.48681
            1260         697.359         697.359         4.32026         4.32026         1.33897         1.33897
            1261         697.940         697.940         4.11884         4.11884         1.20713         1.20713
            1262         698.467         698.467         3.91047         3.91047         1.08874         1.08874
            1263         698.945         698.945         3.69827         3.69827     981.796E-03     981.796E-03
            1264         699.379         699.379         3.48512         3.48512     884.717E-03     884.717E-03
            1265         699.772         699.772         3.27359         3.27359     796.248E-03     796.248E-03
            1266         700.128         700.128         3.06599         3.06599     715.373E-03     715.373E-03
            1267         700.448         700.448         2.86433         2.86433     641.259E-03     641.259E-03
            1268         700.737         700.737         2.67037         2.67037     573.207E-03     573.207E-03
            1269         700.996         700.996         2.48558         2.48558     510.618E-03     510.618E-03
            1270         701.228         701.228         2.31122         2.31122     452.967E-03     452.967E-03
            1271         701.434         701.434         2.14832         2.14832     399.782E-03     399.782E-03
            1272         701.616         701.616         1.99774         1.99774     350.630E-03     350.630E-03
            1273         701.776         701.776         1.86014         1.86014     305.110E-03     305.110E-03
            1274         701.915         701.915         1.73607         1.73607     262.838E-03     262.838E-03
            1275         702.035         702.035         1.62593         1.62593     223.452E-03     223.452E-03
            1276         702.137         702.137         1.53005         1.53005     186.597E-03     186.597E-03
            1277         702.221         702.221         1.44866         1.44866     151.933E-03     151.933E-03
            1278         702.289         702.289         1.38192         1.38192     119.126E-03     119.126E-03
            1279         702.341         702.341         1.32997         1.32997     87.8502E-03     87.8502E-03
            1280         702.378         702.378         1.29288         1.29288     57.7892E-03     57.7892E-03
            1281         702.400         702.400         1.27069         1.27069     28.7009E-03     28.7009E-03
            1282         613.795         613.795         7.87584         7.87584         26.1910         26.1910
            1283         631.333         631.333         7.70883         7.70883         18.3514         18.3514
            1284         644.408         644.408         7.27539         7.27539         13.3605         13.3605
            1285         654.332         654.332         6.86120         6.86120         10.0142         10.0142
            1286         662.022         662.022         6.53164         6.53164         7.68192         7.68192
            1287         668.090         668.090         6.29037         6.29037         6.01049         6.01049
            1288         672.959         672.959         6.12224         6.12224         4.78332         4.78332
            1289         676.925         676.925         6.00697         6.00697         3.86540         3.86540
            1290         680.199         680.199         5.92565         5.92565         3.16674         3.16674
            1291         682.937         682.937         5.86198         5.86198         2.62730         2.62730
            1292         685.254         685.254         5.80318         5.80318         2.20493         2.20493
            1293         687.235         687.235         5.73952         5.73952         1.87008         1.87008
            1294         688.947         688.947         5.66419         5.66419         1.60127         1.60127
            1295         690.438         690.438         5.57272         5.57272         1.38288         1.38288
            1296         691.748         691.748         5.46268         5.46268         1.20330         1.20330
            1297         692.907         692.907         5.33321         5.33321         1.05388         1.05388
            1298         693.939         693.939         5.18471         5.18471     928.100E-03     928.100E-03
            1299         694.862         694.862         5.01848         5.01848     821.025E-03     821.025E-03
            1300         695.691         695.691         4.83653         4.83653     728.891E-03     728.891E-03
            1301         696.438         696.438         4.64127         4.64127     648.828E-03     648.828E-03
            1302         697.113         697.113         4.43541         4.43541     578.627E-03     578.627E-03
            1303         697.723         697.723         4.22174         4.22174     516.586E-03     516.586E-03
            1304         698.276         698.276         4.00305         4.00305     461.386E-03     461.386E-03
            1305         698.777         698.777         3.78205         3.78205     411.993E-03     411.993E-03
            1306         699.230         699.230         3.56128         3.56128     367.595E-03     367.595E-03
            1307         699.641         699.641         3.34309         3.34309     327.542E-03     327.542E-03
            1308         700.011         700.011         3.12960         3.12960     291.307E-03     291.307E-03
            1309         700.346         700.346         2.92269         2.92269     258.459E-03     258.459E-03
            1310         700.646         700.646         2.72401         2.72401     228.634E-03     228.634E-03
            1311         700.916         700.916         2.53497         2.53497     201.520E-03     201.520E-03
            1312         701.157         701.157         2.35678         2.35678     176.848E-03     176.848E-03
            1313         701.371         701.371         2.19042         2.19042     154.374E-03     154.374E-03
            1314         701.561         701.561         2.03672         2.03672     133.883E-03     133.883E-03
            1315         701.727         701.727         1.89633         1.89633     115.173E-03     115.173E-03
            1316         701.872         701.872         1.76978         1.76978     98.0596E-03     98.0596E-03
            1317         701.997         701.997         1.65746         1.65746     82.3713E-03     82.3713E-03
            1318         702.102         702.102         1.55968         1.55968     67.9462E-03     67.9462E-03
            1319         702.190         702.190         1.47667         1.47667     54.6327E-03     54.6327E-03
            1320         702.260         702.260         1.40860         1.40860     42.2887E-03     42.2887E-03
            1321         702.314         702.314         1.35557         1.35557     30.7811E-03     30.7811E-03
            1322         702.353         702.353         1.31768         1.31768     19.9871E-03     19.9871E-03
            1323         702.375         702.375         1.29492         1.29492     9.81772E-03     9.81772E-03
            1324         604.326         604.326         12.6232         12.6232        -1.78279        -1.78279
            1325         625.747         625.747         10.5632         10.5632        -1.55576        -1.55576
            1326         640.839         640.839         9.11670         9.11670        -1.32188        -1.32188
            1327         651.942         651.942         8.10357         8.10357        -1.12770        -1.12770
            1328         660.364         660.364         7.39543         7.39543    -968.748E-03    -968.748E-03
            1329         666.907         666.907         6.90691         6.90691    -840.020E-03    -840.020E-03
            1330         672.095         672.095         6.57052         6.57052    -734.594E-03    -734.594E-03
            1331         676.280         676.280         6.33881         6.33881    -648.134E-03    -648.134E-03
            1332         679.710         679.710         6.17458         6.17458    -576.506E-03    -576.506E-03
            1333         682.561         682.561         6.05129         6.05129    -516.921E-03    -516.921E-03
            1334         684.960         684.960         5.94873         5.94873    -466.943E-03    -466.943E-03
            1335         687.003         687.003         5.85274         5.85274    -424.785E-03    -424.785E-03
            1336         688.761         688.761         5.75318         5.75318    -388.925E-03    -388.925E-03
            1337         690.288         690.288         5.64345         5.64345    -358.180E-03    -358.180E-03
            1338         691.626         691.626         5.51949         5.51949    -331.556E-03    -331.556E-03
            1339         692.807         692.807         5.37935         5.37935    -308.255E-03    -308.255E-03
            1340         693.856         693.856         5.22256         5.22256    -287.619E-03    -287.619E-03
            1341         694.793         694.793         5.04986         5.04986    -269.113E-03    -269.113E-03
            1342         695.633         695.633         4.86279         4.86279    -252.302E-03    -252.302E-03
            1343         696.389         696.389         4.66344         4.66344    -236.841E-03    -236.841E-03
            1344         697.072         697.072         4.45426         4.45426    -222.453E-03    -222.453E-03
            1345         697.689         697.689         4.23787         4.23787    -208.923E-03    -208.923E-03
            1346         698.247         698.247         4.01692         4.01692    -196.086E-03    -196.086E-03
            1347         698.753         698.753         3.79402         3.79402    -183.816E-03    -183.816E-03
            1348         699.210         699.210         3.57163         3.57163    -172.020E-03    -172.020E-03
            1349         699.624         699.624         3.35205         3.35205    -160.632E-03    -160.632E-03
            1350         699.997         699.997         3.13734         3.13734    -149.603E-03    -149.603E-03
            1351         700.334         700.334         2.92938         2.92938    -138.898E-03    -138.898E-03
            1352         700.636         700.636         2.72977         2.72977    -128.494E-03    -128.494E-03
            1353         700.908         700.908         2.53992         2.53992    -118.370E-03    -118.370E-03
            1354         701.150         701.150         2.36101         2.36101    -108.510E-03    -108.510E-03
            1355         701.366         701.366         2.19402         2.19402    -98.8963E-03    -98.8963E-03
            1356         701.556         701.556         2.03976         2.03976    -89.5105E-03    -89.5105E-03
            1357         701.724         701.724         1.89888         1.89888    -80.3294E-03    -80.3294E-03
            1358         701.869         701.869         1.77189         1.77189    -71.3250E-03    -71.3250E-03
            1359         701.994         701.994         1.65919         1.65919    -62.4629E-03    -62.4629E-03
            1360         702.101         702.101         1.56107         1.56107    -53.7021E-03    -53.7021E-03
            1361         702.189         702.189         1.47777         1.47777    -44.9936E-03    -44.9936E-03
            1362         702.259         702.259         1.40942         1.40942    -36.2803E-03    -36.2803E-03
            1363         702.314         702.314         1.35615         1.35615    -27.4961E-03    -27.4961E-03
            1364         702.352         702.352         1.31802         1.31802    -18.5651E-03    -18.5651E-03
            1365         702.375         702.375         1.29502         1.29502    -9.42186E-03    -9.42186E-03
            1366         620.321         620.321         4.75781         4.75781        -30.1155        -30.1155
            1367         635.950         635.950         5.44356         5.44356        -21.8170        -21.8170
            1368         647.735         647.735         5.60887         5.60887        -16.3579        -16.3579
            1369         656.795         656.795         5.61170         5.61170        -12.5892        -12.5892
            1370         663.889         663.889         5.57755         5.57755        -9.90027        -9.90027
            1371         669.536         669.536         5.54929         5.54929        -7.93049        -7.93049
            1372         674.101         674.101         5.53823         5.53823        -6.45713        -6.45713
            1373         677.841         677.841         5.54047         5.54047        -5.33499        -5.33499
            1374         680.946         680.946         5.54858         5.54858        -4.46717        -4.46717
            1375         683.554         683.554         5.55375         5.55375        -3.78665        -3.78665
            1376         685.770         685.770         5.54856         5.54856        -3.24626        -3.24626
            1377         687.672         687.672         5.52700         5.52700        -2.81193        -2.81193
            1378         689.320         689.320         5.48496         5.48496        -2.45874        -2.45874
            1379         690.760         690.760         5.41999         5.41999        -2.16815        -2.16815
            1380         692.029         692.029         5.33115         5.33115        -1.92621        -1.92621
            1381         693.154         693.154         5.21872         5.21872        -1.72237        -1.72237
            1382         694.157         694.157         5.08398         5.08398        -1.54853        -1.54853
            1383         695.056         695.056         4.92895         4.92895        -1.39852        -1.39852
            1384         695.865         695.865         4.75615         4.75615        -1.26755        -1.26755
            1385         696.594         696.594         4.56844         4.56844        -1.15195        -1.15195
            1386         697.254         697.254         4.36887         4.36887        -1.04888        -1.04888
            1387         697.851         697.851         4.16050         4.16050    -956.141E-03    -956.141E-03
            1388         698.392         698.392         3.94634         3.94634    -872.022E-03    -872.022E-03
            1389         698.882         698.882         3.72926         3.72926    -795.203E-03    -795.203E-03
            1390         699.326         699.326         3.51194         3.51194    -724.651E-03    -724.651E-03
            1391         699.728         699.728         3.29682         3.29682    -659.554E-03    -659.554E-03
            1392         700.090         700.090         3.08609         3.08609    -599.264E-03    -599.264E-03
            1393         700.417         700.417         2.88170         2.88170    -543.257E-03    -543.257E-03
            1394         700.712         700.712         2.68533         2.68533    -491.101E-03    -491.101E-03
            1395         700.975         700.975         2.49843         2.49843    -442.427E-03    -442.427E-03
            1396         701.211         701.211         2.32220         2.32220    -396.913E-03    -396.913E-03
            1397         701.420         701.420         2.15766         2.15766    -354.268E-03    -354.268E-03
            1398         701.605         701.605         2.00563         2.00563    -314.220E-03    -314.220E-03
            1399         701.767         701.767         1.86675         1.86675    -276.510E-03    -276.510E-03
            1400         701.908         701.908         1.74155         1.74155    -240.885E-03    -240.885E-03
            1401         702.030         702.030         1.63043         1.63043    -207.093E-03    -207.093E-03
            1402         702.133         702.133         1.53367         1.53367    -174.880E-03    -174.880E-03
            1403         702.218         702.218         1.45149         1.45149    -143.988E-03    -143.988E-03
            1404         702.287         702.287         1.38406         1.38406    -114.156E-03    -114.156E-03
            1405         702.340         702.340         1.33146         1.33146    -85.1140E-03    -85.1140E-03
            1406         702.377         702.377         1.29376         1.29376    -56.5855E-03    -56.5855E-03
            1407         702.399         702.399         1.27094         1.27094    -28.3578E-03    -28.3578E-03
            1408         654.375         654.375        -10.7227        -10.7227        -44.6244        -44.6244
            1409         658.541         658.541        -5.25866        -5.25866        -34.2035        -34.2035
            1410         663.360         663.360        -1.98131        -1.98131        -26.5771        -26.5771
            1411         667.958         667.958     99.2092E-03     99.2092E-03        -20.9705        -20.9705
            1412         672.080         672.080         1.49223         1.49223        -16.7892        -16.7892
            1413         675.685         675.685         2.46992         2.46992        -13.6283        -13.6283
            1414         678.808         678.808         3.18095         3.18095        -11.2065        -11.2065
            1415         681.509         681.509         3.71177         3.71177        -9.32823        -9.32823
            1416         683.849         683.849         4.11207         4.11207        -7.85452        -7.85452
            1417         685.886         685.886         4.41234         4.41234        -6.68565        -6.68565
            1418         687.668         687.668         4.63137         4.63137        -5.74869        -5.74869
            1419         689.236         689.236         4.78187         4.78187        -4.98972        -4.98972
            1420         690.623         690.623         4.87285         4.87285        -4.36836        -4.36836
            1421         691.857         691.857         4.91148         4.91148        -3.85412        -3.85412
            1422         692.962         692.962         4.90384         4.90384        -3.42375        -3.42375
            1423         693.954         693.954         4.85549         4.85549        -3.05946        -3.05946
            1424         694.848         694.848         4.77166         4.77166        -2.74757        -2.74757
            1425         695.657         695.657         4.65740         4.65740        -2.47750        -2.47750
            1426         696.391         696.391         4.51755         4.51755        -2.24110        -2.24110
            1427         697.057         697.057         4.35673         4.35673        -2.03204        -2.03204
            1428         697.662         697.662         4.17936         4.17936        -1.84543        -1.84543
            1429         698.212         698.212         3.98955         3.98955        -1.67747        -1.67747
            1430         698.713         698.713         3.79112         3.79112        -1.52522        -1.52522
            1431         699.168         699.168         3.58755         3.58755        -1.38636        -1.38636
            1432         699.580         699.580         3.38198         3.38198        -1.25909        -1.25909
            1433         699.954         699.954         3.17721         3.17721        -1.14197        -1.14197
            1434         700.292         700.292         2.97571         2.97571        -1.03386        -1.03386
            1435         700.597         700.597         2.77961         2.77961    -933.801E-03    -933.801E-03
            1436         700.872         700.872         2.59073         2.59073    -841.014E-03    -841.014E-03
            1437         701.118         701.118         2.41062         2.41062    -754.817E-03    -754.817E-03
            1438         701.338         701.338         2.24058         2.24058    -674.610E-03    -674.610E-03
            1439         701.533         701.533         2.08165         2.08165    -599.849E-03    -599.849E-03
            1440         701.705         701.705         1.93469         1.93469    -530.025E-03    -530.025E-03
            1441         701.857         701.857         1.80038         1.80038    -464.653E-03    -464.653E-03
            1442         701.989         701.989         1.67925         1.67925    -403.264E-03    -403.264E-03
            1443         702.102         702.102         1.57171         1.57171    -345.394E-03    -345.394E-03
            1444         702.198         702.198         1.47804         1.47804    -290.584E-03    -290.584E-03
            1445         702.277         702.277         1.39848         1.39848    -238.372E-03    -238.372E-03
            1446         702.341         702.341         1.33317         1.33317    -188.296E-03    -188.296E-03
            1447         702.390         702.390         1.28221         1.28221    -139.890E-03    -139.890E-03
            1448         702.425         702.425         1.24566         1.24566    -92.6841E-03    -92.6841E-03
            1449         702.446         702.446         1.22350         1.22350    -46.3204E-03    -46.3204E-03
            1450         689.214         689.214        -23.6948        -23.6948        -41.9790        -41.9790
            1451         684.201         684.201        -15.8462        -15.8462        -35.3115        -35.3115
            1452         682.327         682.327        -10.2786        -10.2786        -29.2698        -29.2698
            1453         682.166         682.166        -6.34798        -6.34798        -24.1968        -24.1968
            1454         682.879         682.879        -3.52132        -3.52132        -20.0696        -20.0696
            1455         684.015         684.015        -1.45025        -1.45025        -16.7470        -16.7470
            1456         685.325         685.325     95.5480E-03     95.5480E-03        -14.0789        -14.0789
            1457         686.676         686.676         1.26448         1.26448        -11.9325        -11.9325
            1458         687.998         687.998         2.15557         2.15557        -10.1987        -10.1987
            1459         689.257         689.257         2.83489         2.83489        -8.79042        -8.79042
            1460         690.439         690.439         3.34840         3.34840        -7.63876        -7.63876
            1461         691.537         691.537         3.72863         3.72863        -6.68969        -6.68969
            1462         692.554         692.554         3.99973         3.99973        -5.90086        -5.90086
            1463         693.493         693.493         4.18018         4.18018        -5.23910        -5.23910
            1464         694.359         694.359         4.28477         4.28477        -4.67840        -4.67840
            1465         695.156         695.156         4.32571         4.32571        -4.19841        -4.19841
            1466         695.890         695.890         4.31338         4.31338        -3.78319        -3.78319
            1467         696.566         696.566         4.25678         4.25678        -3.42027        -3.42027
            1468         697.187         697.187         4.16385         4.16385        -3.09991        -3.09991
            1469         697.758         697.758         4.04163         4.04163        -2.81452        -2.81452
            1470         698.281         698.281         3.89635         3.89635        -2.55816        -2.55816
            1471         698.761         698.761         3.73359         3.73359        -2.32621        -2.32621
            1472         699.200         699.200         3.55826         3.55826        -2.11506        -2.11506
            1473         699.600         699.600         3.37468         3.37468        -1.92187        -1.92187
            1474         699.965         699.965         3.18664         3.18664        -1.74439        -1.74439
            1475         700.296         700.296         2.99742         2.99742        -1.58081        -1.58081
            1476         700.596         700.596         2.80985         2.80985        -1.42969        -1.42969
            1477         700.868         700.868         2.62631         2.62631        -1.28981        -1.28981
            1478         701.112         701.112         2.44884         2.44884        -1.16014        -1.16014
            1479         701.331         701.331         2.27912         2.27912        -1.03979        -1.03979
            1480         701.527         701.527         2.11854         2.11854    -927.929E-03    -927.929E-03
            1481         701.701         701.701         1.96821         1.96821    -823.832E-03    -823.832E-03
            1482         701.855         701.855         1.82905         1.82905    -726.791E-03    -726.791E-03
            1483         701.989         701.989         1.70176         1.70176    -636.132E-03    -636.132E-03
            1484         702.107         702.107         1.58689         1.58689    -551.195E-03    -551.195E-03
            1485         702.207         702.207         1.48485         1.48485    -471.332E-03    -471.332E-03
            1486         702.293         702.293         1.39596         1.39596    -395.895E-03    -395.895E-03
            1487         702.363         702.363         1.32044         1.32044    -324.240E-03    -324.240E-03
            1488         702.420         702.420         1.25844         1.25844    -255.720E-03    -255.720E-03
            1489         702.464         702.464         1.21007         1.21007    -189.688E-03    -189.688E-03
            1490         702.495         702.495         1.17537         1.17537    -125.495E-03    -125.495E-03
            1491         702.513         702.513         1.15435         1.15435    -62.6482E-03    -62.6482E-03
            1492         713.150         713.150        -28.7591        -28.7591        -30.0409        -30.0409
            1493         704.700         704.700        -21.9608        -21.9608        -28.4667        -28.4667
            1494         699.151         699.151        -16.1879        -16.1879        -25.7378        -25.7378
            1495         695.738         695.738        -11.5656        -11.5656        -22.6997        -22.6997
            1496         693.790         693.790        -7.95532        -7.95532        -19.7866        -19.7866
            1497         692.804         692.804        -5.14674        -5.14674        -17.1724        -17.1724
            1498         692.444         692.444        -2.96053        -2.96053        -14.9033        -14.9033
            1499         692.483         692.483        -1.25429        -1.25429        -12.9676        -12.9676
            1500         692.773         692.773     78.0369E-03     78.0369E-03        -11.3305        -11.3305
            1501         693.216         693.216         1.11612         1.11612        -9.95010        -9.95010
            1502         693.749         693.749         1.91925         1.91925        -8.78544        -8.78544
            1503         694.328         694.328         2.53263         2.53263        -7.79954        -7.79954
            1504         694.926         694.926         2.99108         2.99108        -6.96052        -6.96052
            1505         695.524         695.524         3.32216         3.32216        -6.24158        -6.24158
            1506         696.110         696.110         3.54803         3.54803        -5.62062        -5.62062
            1507         696.676         696.676         3.68697         3.68697        -5.07962        -5.07962
            1508         697.217         697.217         3.75421         3.75421        -4.60407        -4.60407
            1509         697.729         697.729         3.76267         3.76267        -4.18235        -4.18235
            1510         698.212         698.212         3.72340         3.72340        -3.80524        -3.80524
            1511         698.663         698.663         3.64589         3.64589        -3.46542        -3.46542
            1512         699.083         699.083         3.53833         3.53833        -3.15714        -3.15714
            1513         699.473         699.473         3.40780         3.40780        -2.87586        -2.87586
            1514         699.832         699.832         3.26037         3.26037        -2.61801        -2.61801
            1515         700.162         700.162         3.10127         3.10127        -2.38075        -2.38075
            1516         700.465         700.465         2.93496         2.93496        -2.16179        -2.16179
            1517         700.741         700.741         2.76525         2.76525        -1.95931        -1.95931
            1518         700.992         700.992         2.59531         2.59531        -1.77178        -1.77178
            1519         701.219         701.219         2.42784         2.42784        -1.59789        -1.59789
            1520         701.423         701.423         2.26505         2.26505        -1.43653        -1.43653
            1521         701.607         701.607         2.10878         2.10878        -1.28668        -1.28668
            1522         701.771         701.771         1.96049         1.96049        -1.14742        -1.14742
            1523         701.917         701.917         1.82140         1.82140        -1.01787        -1.01787
            1524         702.046         702.046         1.69243         1.69243    -897.190E-03    -897.190E-03
            1525         702.159         702.159         1.57435         1.57435    -784.562E-03    -784.562E-03
            1526         702.257         702.257         1.46770         1.46770    -679.174E-03    -679.174E-03
            1527         702.341         702.341         1.37292         1.37292    -580.222E-03    -580.222E-03
            1528         702.413         702.413         1.29032         1.29032    -486.902E-03    -486.902E-03
            1529         702.472         702.472         1.22014         1.22014    -398.407E-03    -398.407E-03
            1530         702.519         702.519         1.16252         1.16252    -313.932E-03    -313.932E-03
            1531         702.556         702.556         1.11759         1.11759    -232.665E-03    -232.665E-03
            1532         702.581         702.581         1.08539         1.08539    -153.800E-03    -153.800E-03
            1533         702.597         702.597         1.06594         1.06594    -76.7285E-03    -76.7285E-03
            1534         705.763         705.763     16.0538E-03     16.0538E-03        -2.40530        -2.40530
            1535         708.103         708.103     27.3115E-03     27.3115E-03        -4.28580        -4.28580
            1536         710.461         710.461     8.02646E-03     8.02646E-03        -5.66545        -5.66545
            1537         712.891         712.891    -91.6517E-03    -91.6517E-03        -6.72389        -6.72389
            1538         715.470         715.470    -344.337E-03    -344.337E-03        -7.58967        -7.58967
            1539         718.290         718.290    -850.824E-03    -850.824E-03        -8.33657        -8.33657
            1540         721.459         721.459        -1.75116        -1.75116        -8.98345        -8.98345
            1541         725.100         725.100        -3.24158        -3.24158        -9.47967        -9.47967
            1542         729.338         729.338        -5.59454        -5.59454        -9.67060        -9.67060
            1543         734.251         734.251        -9.17347        -9.17347        -9.22739        -9.22739
            1544         739.739         739.739        -14.3966        -14.3966        -7.54126        -7.54126
            1545         745.199         745.199        -21.5653        -21.5653        -3.59963        -3.59963
            1546         702.780         702.780     221.464E-03     221.464E-03        -2.21424        -2.21424
            1547         705.952         705.952     603.086E-03     603.086E-03        -3.96052        -3.96052
            1548         708.811         708.811         1.14912         1.14912        -5.28473        -5.28473
            1549         711.512         711.512         1.78893         1.78893        -6.37874        -6.37874
            1550         714.204         714.204         2.45216         2.45216        -7.39038        -7.39038
            1551         717.037         717.037         3.05801         3.05801        -8.42818        -8.42818
            1552         720.182         720.182         3.49824         3.49824        -9.56956        -9.56956
            1553         723.845         723.845         3.61092         3.61092        -10.8590        -10.8590
            1554         728.286         728.286         3.13763         3.13763        -12.2881        -12.2881
            1555         733.842         733.842         1.65294         1.65294        -13.7417        -13.7417
            1556         740.903         740.903        -1.54069        -1.54069        -14.8520        -14.8520
            1557         749.766         749.766        -7.49876        -7.49876        -14.6961        -14.6961
            1558         700.271         700.271     412.638E-03     412.638E-03        -1.67167        -1.67167
            1559         704.120         704.120         1.14086         1.14086        -2.99286        -2.99286
            1560         707.348         707.348         2.22142         2.22142        -4.01247        -4.01247
            1561         710.195         710.195         3.57451         3.57451        -4.89459        -4.89459
            1562         712.860         712.860         5.15022         5.15022        -5.77231        -5.77231
            1563         715.528         715.528         6.91735         6.91735        -6.75720        -6.75720
            1564         718.390         718.390         8.85063         8.85063        -7.95385        -7.95385
            1565         721.670         721.670         10.9134         10.9134        -9.47082        -9.47082
            1566         725.668         725.668         13.0281         13.0281        -11.4285        -11.4285
            1567         730.814         730.814         15.0165         15.0165        -13.9577        -13.9577
            1568         737.796         737.796         16.4597         16.4597        -17.1617        -17.1617
            1569         747.707         747.707         16.3603         16.3603        -20.9516        -20.9516
            1570         698.654         698.654     549.569E-03     549.569E-03    -837.772E-03    -837.772E-03
            1571         702.943         702.943         1.52683         1.52683        -1.49025        -1.49025
            1572         706.390         706.390         2.99414         2.99414        -1.98956        -1.98956
            1573         709.289         709.289         4.86998         4.86998        -2.43248        -2.43248
            1574         711.871         711.871         7.12800         7.12800        -2.89967        -2.89967
            1575         714.332         714.332         9.78847         9.78847        -3.46353        -3.46353
            1576         716.858         716.858         12.9147         12.9147        -4.19936        -4.19936
            1577         719.650         719.650         16.6153         16.6153        -5.19802        -5.19802
            1578         722.967         722.967         21.0518         21.0518        -6.58222        -6.58222
            1579         727.184         727.184         26.4506         26.4506        -8.53217        -8.53217
            1580         732.920         732.920         33.1119         33.1119        -11.3396        -11.3396
            1581         741.314         741.314         41.3607         41.3607        -15.5080        -15.5080
            1582         698.230         698.230     601.126E-03     601.126E-03     163.710E-03     163.710E-03
            1583         702.665         702.665         1.67240         1.67240     320.978E-03     320.978E-03
            1584         706.174         706.174         3.28622         3.28622     469.196E-03     469.196E-03
            1585         709.070         709.070         5.36105         5.36105     603.515E-03     603.515E-03
            1586         711.596         711.596         7.88049         7.88049     720.520E-03     720.520E-03
            1587         713.949         713.949         10.8863         10.8863     817.567E-03     817.567E-03
            1588         716.309         716.309         14.4795         14.4795     892.690E-03     892.690E-03
            1589         718.862         718.862         18.8328         18.8328     944.660E-03     944.660E-03
            1590         721.839         721.839         24.2186         24.2186     972.790E-03     972.790E-03
            1591         725.563         725.563         31.0625         31.0625     977.100E-03     977.100E-03
            1592         730.548         730.548         40.0595         40.0595     958.459E-03     958.459E-03
            1593         737.726         737.726         52.4606         52.4606     917.196E-03     917.196E-03
            1594         699.112         699.112     555.526E-03     555.526E-03         1.17069         1.17069
            1595         703.380         703.380         1.54404         1.54404         2.14257         2.14257
            1596         706.792         706.792         3.02898         3.02898         2.94245         2.94245
            1597         709.646         709.646         4.92775         4.92775         3.65739         3.65739
            1598         712.175         712.175         7.21301         7.21301         4.36128         4.36128
            1599         714.577         714.577         9.90403         9.90403         5.12121         5.12121
            1600         717.038         717.038         13.0632         13.0632         6.00870         6.00870
            1601         719.763         719.763         16.7983         16.7983         7.11206         7.11206
            1602         723.012         723.012         21.2701         21.2701         8.55291         8.55291
            1603         727.163         727.163         26.7044         26.7044         10.5114         10.5114
            1604         732.835         732.835         33.4003         33.4003         13.2800         13.2800
            1605         741.168         741.168         41.6826         41.6826         17.3662         17.3662
            1606         701.203         701.203     424.526E-03     424.526E-03         2.02106         2.02106
            1607         705.006         705.006         1.17521         1.17521         3.67624         3.67624
            1608         708.164         708.164         2.29095         2.29095         5.00879         5.00879
            1609         710.918         710.918         3.68981         3.68981         6.17307         6.17307
            1610         713.475         713.475         5.31982         5.31982         7.29546         7.29546
            1611         716.021         716.021         7.14782         7.14782         8.48240         8.48240
            1612         718.753         718.753         9.14666         9.14666         9.83475         9.83475
            1613         721.898         721.898         11.2780         11.2780         11.4588         11.4588
            1614         725.759         725.759         13.4627         13.4627         13.4740         13.4740
            1615         730.770         730.770         15.5214         15.5214         16.0113         16.0113
            1616         737.622         737.622         17.0345         17.0345         19.1750         19.1750
            1617         747.411         747.411         17.0014         17.0014         22.8777         22.8777
            1618         704.215         704.215     239.229E-03     239.229E-03         2.59106         2.59106
            1619         707.313         707.313     654.455E-03     654.455E-03         4.69559         4.69559
            1620         710.061         710.061         1.25308         1.25308         6.35327         6.35327
            1621         712.619         712.619         1.96128         1.96128         7.74622         7.74622
            1622         715.142         715.142         2.70557         2.70557         9.01572         9.01572
            1623         717.789         717.789         3.40213         3.40213         10.2653         10.2653
            1624         720.734         720.734         3.93991         3.93991         11.5690         11.5690
            1625         724.190         724.190         4.15437         4.15437         12.9691         12.9691
            1626         728.422         728.422         3.78474         3.78474         14.4569         14.4569
            1627         733.773         733.773         2.40379         2.40379         15.9179         15.9179
            1628         740.636         740.636    -687.543E-03    -687.543E-03         16.9861         16.9861
            1629         749.310         749.310        -6.54417        -6.54417         16.7386         16.7386
            1630         707.745         707.745     39.6502E-03     39.6502E-03         2.82047         2.82047
            1631         709.977         709.977     95.5485E-03     95.5485E-03         5.09307         5.09307
            1632         712.176         712.176     146.101E-03     146.101E-03         6.83478         6.83478
            1633         714.406         714.406     137.147E-03     137.147E-03         8.21543         8.21543
            1634         716.751         716.751    -8.19735E-03    -8.19735E-03         9.35721         9.35721
            1635         719.313         719.313    -394.789E-03    -394.789E-03         10.3292         10.3292
            1636         722.207         722.207        -1.16654        -1.16654         11.1470         11.1470
            1637         725.566         725.566        -2.52324        -2.52324         11.7585         11.7585
            1638         729.519         729.519        -4.74061        -4.74061         12.0090         12.0090
            1639         734.154         734.154        -8.18500        -8.18500         11.5709         11.5709
            1640         739.376         739.376        -13.2763        -13.2763         9.83926         9.83926
            1641         744.580         744.580        -20.3155        -20.3155         5.80510         5.80510
            1642         702.771         702.771     871.538E-03     871.538E-03     95.0546E-03     95.0546E-03
            1643         702.762         702.762     887.629E-03     887.629E-03     190.632E-03     190.632E-03
            1644         702.748         702.748     914.367E-03     914.367E-03     288.570E-03     288.570E-03
            1645         702.728         702.728     951.741E-03     951.741E-03     389.643E-03     389.643E-03
            1646         702.701         702.701     999.688E-03     999.688E-03     494.886E-03     494.886E-03
            1647         702.668         702.668         1.05811         1.05811     605.333E-03     605.333E-03
            1648         702.628         702.628         1.12684         1.12684     722.010E-03     722.010E-03
            1649         702.580         702.580         1.20567         1.20567     845.932E-03     845.932E-03
            1650         702.525         702.525         1.29429         1.29429     978.104E-03     978.104E-03
            1651         702.460         702.460         1.39228         1.39228         1.11952         1.11952
            1652         702.387         702.387         1.49906         1.49906         1.27114         1.27114
            1653         702.303         702.303         1.61389         1.61389         1.43395         1.43395
            1654         702.209         702.209         1.73579         1.73579         1.60888         1.60888
            1655         702.103         702.103         1.86351         1.86351         1.79686         1.79686
            1656         701.986         701.986         1.99549         1.99549         1.99884         1.99884
            1657         701.856         701.856         2.12974         2.12974         2.21574         2.21574
            1658         701.712         701.712         2.26380         2.26380         2.44852         2.44852
            1659         701.556         701.556         2.39468         2.39468         2.69821         2.69821
            1660         701.387         701.387         2.51869         2.51869         2.96587         2.96587
            1661         701.205         701.205         2.63138         2.63138         3.25273         3.25273
            1662         701.011         701.011         2.72739         2.72739         3.56020         3.56020
            1663         700.807         700.807         2.80029         2.80029         3.88992         3.88992
            1664         700.596         700.596         2.84245         2.84245         4.24389         4.24389
            1665         700.382         700.382         2.84481         2.84481         4.62456         4.62456
            1666         700.169         700.169         2.79667         2.79667         5.03490         5.03490
            1667         699.966         699.966         2.68545         2.68545         5.47855         5.47855
            1668         699.782         699.782         2.49644         2.49644         5.95982         5.95982
            1669         699.632         699.632         2.21238         2.21238         6.48377         6.48377
            1670         699.532         699.532         1.81320         1.81320         7.05603         7.05603
            1671         699.507         699.507         1.27554         1.27554         7.68252         7.68252
            1672         699.586         699.586     572.379E-03     572.379E-03         8.36872         8.36872
            1673         699.810         699.810    -327.501E-03    -327.501E-03         9.11841         9.11841
            1674         700.231         700.231        -1.45943        -1.45943         9.93145         9.93145
            1675         700.916         700.916        -2.86312        -2.86312         10.8002         10.8002
            1676         701.951         701.951        -4.58049        -4.58049         11.7038         11.7038
            1677         703.443         703.443        -6.65329        -6.65329         12.5992         12.5992
            1678         705.522         705.522        -9.11284        -9.11284         13.4079         13.4079
            1679         708.336         708.336        -11.9662        -11.9662         14.0001         14.0001
            1680         712.035         712.035        -15.1599        -15.1599         14.1711         14.1711
            1681         716.729         716.729        -18.5328        -18.5328         13.6351         13.6351
            1682         722.419         722.419        -21.7374        -21.7374         12.0283         12.0283
            1683         728.910         728.910        -24.2117        -24.2117         9.01545         9.01545
            1684         702.851         702.851     774.716E-03     774.716E-03     99.5476E-03     99.5476E-03
            1685         702.846         702.846     789.194E-03     789.194E-03     199.634E-03     199.634E-03
            1686         702.837         702.837     813.262E-03     813.262E-03     302.236E-03     302.236E-03
            1687         702.825         702.825     846.906E-03     846.906E-03     408.177E-03     408.177E-03
            1688         702.809         702.809     890.065E-03     890.065E-03     518.556E-03     518.556E-03
            1689         702.789         702.789     942.646E-03     942.646E-03     634.469E-03     634.469E-03
            1690         702.765         702.765         1.00451         1.00451     757.002E-03     757.002E-03
            1691         702.736         702.736         1.07544         1.07544     887.227E-03     887.227E-03
            1692         702.701         702.701         1.15515         1.15515         1.02620         1.02620
            1693         702.662         702.662         1.24325         1.24325         1.17495         1.17495
            1694         702.616         702.616         1.33917         1.33917         1.33448         1.33448
            1695         702.564         702.564         1.44220         1.44220         1.50576         1.50576
            1696         702.504         702.504         1.55139         1.55139         1.68974         1.68974
            1697         702.438         702.438         1.66553         1.66553         1.88732         1.88732
            1698         702.363         702.363         1.78304         1.78304         2.09934         2.09934
            1699         702.281         702.281         1.90198         1.90198         2.32663         2.32663
            1700         702.191         702.191         2.01990         2.01990         2.56996         2.56996
            1701         702.093         702.093         2.13376         2.13376         2.83008         2.83008
            1702         701.987         701.987         2.23986         2.23986         3.10770         3.10770
            1703         701.876         701.876         2.33366         2.33366         3.40354         3.40354
            1704         701.760         701.760         2.40967         2.40967         3.71836         3.71836
            1705         701.641         701.641         2.46130         2.46130         4.05292         4.05292
            1706         701.524         701.524         2.48066         2.48066         4.40812         4.40812
            1707         701.413         701.413         2.45840         2.45840         4.78493         4.78493
            1708         701.315         701.315         2.38346         2.38346         5.18448         5.18448
            1709         701.240         701.240         2.24288         2.24288         5.60799         5.60799
            1710         701.197         701.197         2.02154         2.02154         6.05677         6.05677
            1711         701.204         701.204         1.70201         1.70201         6.53200         6.53200
            1712         701.279         701.279         1.26427         1.26427         7.03443         7.03443
            1713         701.449         701.449     685.666E-03     685.666E-03         7.56378         7.56378
            1714         701.745         701.745    -59.1270E-03    -59.1270E-03         8.11777         8.11777
            1715         702.207         702.207    -997.633E-03    -997.633E-03         8.69047         8.69047
            1716         702.885         702.885        -2.15901        -2.15901         9.26990         9.26990
            1717         703.841         703.841        -3.57178        -3.57178         9.83419         9.83419
            1718         705.147         705.147        -5.26097        -5.26097         10.3466         10.3466
            1719         706.886         706.886        -7.24074        -7.24074         10.7475         10.7475
            1720         709.149         709.149        -9.50434        -9.50434         10.9471         10.9471
            1721         712.018         712.018        -12.0039        -12.0039         10.8132         10.8132
            1722         715.550         715.550        -14.6236        -14.6236         10.1705         10.1705
            1723         719.739         719.739        -17.1420        -17.1420         8.80168         8.80168
            1724         724.471         724.471        -19.1984        -19.1984         6.49251         6.49251
            1725         729.530         729.530        -20.3128        -20.3128         3.05054         3.05054
            1726         702.928         702.928     674.570E-03     674.570E-03     101.703E-03     101.703E-03
            1727         702.927         702.927     687.355E-03     687.355E-03     203.953E-03     203.953E-03
            1728         702.924         702.924     708.612E-03     708.612E-03     308.828E-03     308.828E-03
            1729         702.921         702.921     738.329E-03     738.329E-03     417.179E-03     417.179E-03
            1730         702.916         702.916     776.451E-03     776.451E-03     530.151E-03     530.151E-03
            1731         702.910         702.910     822.896E-03     822.896E-03     648.881E-03     648.881E-03
            1732         702.902         702.902     877.536E-03     877.536E-03     774.494E-03     774.494E-03
            1733         702.892         702.892     940.181E-03     940.181E-03     908.099E-03     908.099E-03
            1734         702.881         702.881         1.01057         1.01057         1.05078         1.05078
            1735         702.867         702.867         1.08831         1.08831         1.20359         1.20359
            1736         702.851         702.851         1.17292         1.17292         1.36754         1.36754
            1737         702.831         702.831         1.26370         1.26370         1.54360         1.54360
            1738         702.809         702.809         1.35976         1.35976         1.73268         1.73268
            1739         702.784         702.784         1.45994         1.45994         1.93562         1.93562
            1740         702.755         702.755         1.56274         1.56274         2.15318         2.15318
            1741         702.724         702.724         1.66629         1.66629         2.38602         2.38602
            1742         702.689         702.689         1.76820         1.76820         2.63471         2.63471
            1743         702.652         702.652         1.86554         1.86554         2.89968         2.89968
            1744         702.613         702.613         1.95465         1.95465         3.18125         3.18125
            1745         702.574         702.574         2.03108         2.03108         3.47958         3.47958
            1746         702.537         702.537         2.08940         2.08940         3.79468         3.79468
            1747         702.505         702.505         2.12309         2.12309         4.12640         4.12640
            1748         702.482         702.482         2.12432         2.12432         4.47438         4.47438
            1749         702.473         702.473         2.08377         2.08377         4.83806         4.83806
            1750         702.485         702.485         1.99050         1.99050         5.21655         5.21655
            1751         702.529         702.529         1.83170         1.83170         5.60863         5.60863
            1752         702.616         702.616         1.59263         1.59263         6.01248         6.01248
            1753         702.762         702.762         1.25642         1.25642         6.42547         6.42547
            1754         702.987         702.987     804.194E-03     804.194E-03         6.84364         6.84364
            1755         703.315         703.315     215.174E-03     215.174E-03         7.26108         7.26108
            1756         703.777         703.777    -532.724E-03    -532.724E-03         7.66874         7.66874
            1757         704.409         704.409        -1.46208        -1.46208         8.05297         8.05297
            1758         705.256         705.256        -2.59397        -2.59397         8.39307         8.39307
            1759         706.367         706.367        -3.94536        -3.94536         8.65852         8.65852
            1760         707.797         707.797        -5.52384        -5.52384         8.80451         8.80451
            1761         709.601         709.601        -7.32042        -7.32042         8.76813         8.76813
            1762         711.831         711.831        -9.29762        -9.29762         8.46285         8.46285
            1763         714.514         714.514        -11.3732        -11.3732         7.77836         7.77836
            1764         717.645         717.645        -13.4004        -13.4004         6.58231         6.58231
            1765         721.148         721.148        -15.1446        -15.1446         4.73980         4.73980
            1766         724.877         724.877        -16.2835        -16.2835         2.13656         2.13656
            1767         728.571         728.571        -16.3653        -16.3653        -1.30475        -1.30475
            1768         702.999         702.999     573.466E-03     573.466E-03     101.429E-03     101.429E-03
            1769         703.001         703.001     584.507E-03     584.507E-03     203.396E-03     203.396E-03
            1770         703.005         703.005     602.869E-03     602.869E-03     308.049E-03     308.049E-03
            1771         703.010         703.010     628.541E-03     628.541E-03     416.245E-03     416.245E-03
            1772         703.017         703.017     661.477E-03     661.477E-03     529.149E-03     529.149E-03
            1773         703.025         703.025     701.606E-03     701.606E-03     647.922E-03     647.922E-03
            1774         703.035         703.035     748.817E-03     748.817E-03     773.706E-03     773.706E-03
            1775         703.045         703.045     802.946E-03     802.946E-03     907.624E-03     907.624E-03
            1776         703.057         703.057     863.754E-03     863.754E-03         1.05077         1.05077
            1777         703.070         703.070     930.907E-03     930.907E-03         1.20420         1.20420
            1778         703.084         703.084         1.00395         1.00395         1.36892         1.36892
            1779         703.100         703.100         1.08225         1.08225         1.54587         1.54587
            1780         703.116         703.116         1.16501         1.16501         1.73592         1.73592
            1781         703.134         703.134         1.25114         1.25114         1.93985         1.93985
            1782         703.153         703.153         1.33927         1.33927         2.15829         2.15829
            1783         703.173         703.173         1.42764         1.42764         2.39176         2.39176
            1784         703.196         703.196         1.51403         1.51403         2.64060         2.64060
            1785         703.222         703.222         1.59566         1.59566         2.90493         2.90493
            1786         703.251         703.251         1.66908         1.66908         3.18465         3.18465
            1787         703.287         703.287         1.73008         1.73008         3.47937         3.47937
            1788         703.330         703.330         1.77347         1.77347         3.78838         3.78838
            1789         703.385         703.385         1.79303         1.79303         4.11057         4.11057
            1790         703.454         703.454         1.78128         1.78128         4.44439         4.44439
            1791         703.544         703.544         1.72934         1.72934         4.78772         4.78772
            1792         703.661         703.661         1.62677         1.62677         5.13780         5.13780
            1793         703.815         703.815         1.46149         1.46149         5.49101         5.49101
            1794         704.018         704.018         1.21965         1.21965         5.84266         5.84266
            1795         704.284         704.284     885.736E-03     885.736E-03         6.18662         6.18662
            1796         704.630         704.630     442.703E-03     442.703E-03         6.51488         6.51488
            1797         705.081         705.081    -127.468E-03    -127.468E-03         6.81681         6.81681
            1798         705.660         705.660    -843.022E-03    -843.022E-03         7.07820         7.07820
            1799         706.401         706.401        -1.72084        -1.72084         7.27993         7.27993
            1800         707.335         707.335        -2.77429        -2.77429         7.39634         7.39634
            1801         708.501         708.501        -4.00944        -4.00944         7.39295         7.39295
            1802         709.935         709.935        -5.42002        -5.42002         7.22459         7.22459
            1803         711.667         711.667        -6.97980        -6.97980         6.83294         6.83294
            1804         713.714         713.714        -8.63242        -8.63242         6.14687         6.14687
            1805         716.070         716.070        -10.2800        -10.2800         5.08429         5.08429
            1806         718.686         718.686        -11.7683        -11.7683         3.56189         3.56189
            1807         721.465         721.465        -12.8827        -12.8827         1.51065         1.51065
            1808         724.239         724.239        -13.3331        -13.3331        -1.10594        -1.10594
            1809         726.752         726.752        -12.7607        -12.7607        -4.24261        -4.24261
            1810         703.060         703.060     473.842E-03     473.842E-03     98.6719E-03     98.6719E-03
            1811         703.066         703.066     483.125E-03     483.125E-03     197.857E-03     197.857E-03
            1812         703.076         703.076     498.569E-03     498.569E-03     299.733E-03     299.733E-03
            1813         703.090         703.090     520.162E-03     520.162E-03     405.142E-03     405.142E-03
            1814         703.108         703.108     547.869E-03     547.869E-03     515.250E-03     515.250E-03
            1815         703.131         703.131     581.632E-03     581.632E-03     631.209E-03     631.209E-03
            1816         703.158         703.158     621.360E-03     621.360E-03     754.160E-03     754.160E-03
            1817         703.189         703.189     666.914E-03     666.914E-03     885.218E-03     885.218E-03
            1818         703.225         703.225     718.090E-03     718.090E-03         1.02547         1.02547
            1819         703.266         703.266     774.603E-03     774.603E-03         1.17595         1.17595
            1820         703.311         703.311     836.054E-03     836.054E-03         1.33764         1.33764
            1821         703.361         703.361     901.902E-03     901.902E-03         1.51146         1.51146
            1822         703.417         703.417     971.425E-03     971.425E-03         1.69822         1.69822
            1823         703.479         703.479         1.04367         1.04367         1.89860         1.89860
            1824         703.546         703.546         1.11742         1.11742         2.11317         2.11317
            1825         703.621         703.621         1.19108         1.19108         2.34226         2.34226
            1826         703.702         703.702         1.26267         1.26267         2.58602         2.58602
            1827         703.792         703.792         1.32965         1.32965         2.84429         2.84429
            1828         703.891         703.891         1.38891         1.38891         3.11657         3.11657
            1829         704.002         704.002         1.43658         1.43658         3.40199         3.40199
            1830         704.126         704.126         1.46795         1.46795         3.69917         3.69917
            1831         704.266         704.266         1.47728         1.47728         4.00615         4.00615
            1832         704.426         704.426         1.45774         1.45774         4.32029         4.32029
            1833         704.611         704.611         1.40118         1.40118         4.63812         4.63812
            1834         704.828         704.828         1.29808         1.29808         4.95518         4.95518
            1835         705.084         705.084         1.13749         1.13749         5.26579         5.26579
            1836         705.389         705.389     906.965E-03     906.965E-03         5.56279         5.56279
            1837         705.757         705.757     592.794E-03     592.794E-03         5.83722         5.83722
            1838         706.201         706.201     180.313E-03     180.313E-03         6.07780         6.07780
            1839         706.740         706.740    -345.463E-03    -345.463E-03         6.27043         6.27043
            1840         707.395         707.395    -998.690E-03    -998.690E-03         6.39739         6.39739
            1841         708.189         708.189        -1.79105        -1.79105         6.43652         6.43652
            1842         709.146         709.146        -2.72912        -2.72912         6.36014         6.36014
            1843         710.289         710.289        -3.81076        -3.81076         6.13422         6.13422
            1844         711.637         711.637        -5.02014        -5.02014         5.71758         5.71758
            1845         713.202         713.202        -6.32106        -6.32106         5.06246         5.06246
            1846         714.978         714.978        -7.64977        -7.64977         4.11637         4.11637
            1847         716.933         716.933        -8.90572        -8.90572         2.82764         2.82764
            1848         719.005         719.005        -9.94701        -9.94701         1.15516         1.15516
            1849         721.087         721.087        -10.5837        -10.5837    -918.985E-03    -918.985E-03
            1850         723.021         723.021        -10.5834        -10.5834        -3.36309        -3.36309
            1851         724.607         724.607        -9.68938        -9.68938        -6.06991        -6.06991
            1852         703.106         703.106     378.163E-03     378.163E-03     93.4339E-03     93.4339E-03
            1853         703.116         703.116     385.715E-03     385.715E-03     187.336E-03     187.336E-03
            1854         703.132         703.132     398.281E-03     398.281E-03     283.873E-03     283.873E-03
            1855         703.155         703.155     415.853E-03     415.853E-03     383.853E-03     383.853E-03
            1856         703.185         703.185     438.406E-03     438.406E-03     488.410E-03     488.410E-03
            1857         703.222         703.222     465.893E-03     465.893E-03     598.670E-03     598.670E-03
            1858         703.266         703.266     498.245E-03     498.245E-03     715.741E-03     715.741E-03
            1859         703.318         703.318     535.350E-03     535.350E-03     840.711E-03     840.711E-03
            1860         703.378         703.378     577.045E-03     577.045E-03     974.631E-03     974.631E-03
            1861         703.446         703.446     623.094E-03     623.094E-03         1.11851         1.11851
            1862         703.523         703.523     673.168E-03     673.168E-03         1.27329         1.27329
            1863         703.609         703.609     726.813E-03     726.813E-03         1.43984         1.43984
            1864         703.704         703.704     783.424E-03     783.424E-03         1.61891         1.61891
            1865         703.810         703.810     842.195E-03     842.195E-03         1.81113         1.81113
            1866         703.927         703.927     902.079E-03     902.079E-03         2.01695         2.01695
            1867         704.055         704.055     961.722E-03     961.722E-03         2.23658         2.23658
            1868         704.196         704.196         1.01940         1.01940         2.47000         2.47000
            1869         704.351         704.351         1.07294         1.07294         2.71682         2.71682
            1870         704.520         704.520         1.11962         1.11962         2.97624         2.97624
            1871         704.706         704.706         1.15607         1.15607         3.24698         3.24698
            1872         704.911         704.911         1.17816         1.17816         3.52713         3.52713
            1873         705.136         705.136         1.18090         1.18090         3.81405         3.81405
            1874         705.386         705.386         1.15827         1.15827         4.10425         4.10425
            1875         705.664         705.664         1.10316         1.10316         4.39316         4.39316
            1876         705.975         705.975         1.00725         1.00725         4.67498         4.67498
            1877         706.326         706.326     861.040E-03     861.040E-03         4.94245         4.94245
            1878         706.724         706.724     653.844E-03     653.844E-03         5.18654         5.18654
            1879         707.178         707.178     374.064E-03     374.064E-03         5.39617         5.39617
            1880         707.700         707.700     9.57554E-03     9.57554E-03         5.55783         5.55783
            1881         708.302         708.302    -451.494E-03    -451.494E-03         5.65518         5.65518
            1882         708.999         708.999        -1.01962        -1.01962         5.66861         5.66861
            1883         709.805         709.805        -1.70211        -1.70211         5.57485         5.57485
            1884         710.735         710.735        -2.50058        -2.50058         5.34673         5.34673
            1885         711.799         711.799        -3.40767        -3.40767         4.95310         4.95310
            1886         713.004         713.004        -4.40256        -4.40256         4.35971         4.35971
            1887         714.346         714.346        -5.44618        -5.44618         3.53086         3.53086
            1888         715.803         715.803        -6.47517        -6.47517         2.43305         2.43305
            1889         717.336         717.336        -7.39801        -7.39801         1.04125         1.04125
            1890         718.877         718.877        -8.09088        -8.09088    -652.869E-03    -652.869E-03
            1891         720.327         720.327        -8.40029        -8.40029        -2.62637        -2.62637
            1892         721.561         721.561        -8.15239        -8.15239        -4.81042        -4.81042
            1893         722.430         722.430        -7.17435        -7.17435        -7.07039        -7.07039
            1894         703.135         703.135     288.867E-03     288.867E-03     85.7726E-03     85.7726E-03
            1895         703.148         703.148     294.754E-03     294.754E-03     171.943E-03     171.943E-03
            1896         703.170         703.170     304.556E-03     304.556E-03     260.633E-03     260.633E-03
            1897         703.202         703.202     318.264E-03     318.264E-03     352.585E-03     352.585E-03
            1898         703.243         703.243     335.861E-03     335.861E-03     448.874E-03     448.874E-03
            1899         703.294         703.294     357.316E-03     357.316E-03     550.571E-03     550.571E-03
            1900         703.355         703.355     382.576E-03     382.576E-03     658.728E-03     658.728E-03
            1901         703.427         703.427     411.559E-03     411.559E-03     774.377E-03     774.377E-03
            1902         703.510         703.510     444.140E-03     444.140E-03     898.516E-03     898.516E-03
            1903         703.605         703.605     480.138E-03     480.138E-03         1.03210         1.03210
            1904         703.713         703.713     519.293E-03     519.293E-03         1.17602         1.17602
            1905         703.834         703.834     561.249E-03     561.249E-03         1.33109         1.33109
            1906         703.969         703.969     605.522E-03     605.522E-03         1.49800         1.49800
            1907         704.119         704.119     651.466E-03     651.466E-03         1.67732         1.67732
            1908         704.284         704.284     698.234E-03     698.234E-03         1.86941         1.86941
            1909         704.467         704.467     744.729E-03     744.729E-03         2.07440         2.07440
            1910         704.667         704.667     789.541E-03     789.541E-03         2.29215         2.29215
            1911         704.887         704.887     830.888E-03     830.888E-03         2.52210         2.52210
            1912         705.127         705.127     866.531E-03     866.531E-03         2.76327         2.76327
            1913         705.388         705.388     893.686E-03     893.686E-03         3.01410         3.01410
            1914         705.674         705.674     908.935E-03     908.935E-03         3.27234         3.27234
            1915         705.984         705.984     908.121E-03     908.121E-03         3.53491         3.53491
            1916         706.323         706.323     886.253E-03     886.253E-03         3.79774         3.79774
            1917         706.692         706.692     837.417E-03     837.417E-03         4.05556         4.05556
            1918         707.095         707.095     754.735E-03     754.735E-03         4.30170         4.30170
            1919         707.536         707.536     630.349E-03     630.349E-03         4.52787         4.52787
            1920         708.020         708.020     455.534E-03     455.534E-03         4.72388         4.72388
            1921         708.552         708.552     220.916E-03     220.916E-03         4.87739         4.87739
            1922         709.138         709.138    -83.0646E-03    -83.0646E-03         4.97366         4.97366
            1923         709.787         709.787    -465.442E-03    -465.442E-03         4.99533         4.99533
            1924         710.504         710.504    -933.586E-03    -933.586E-03         4.92227         4.92227
            1925         711.296         711.296        -1.49158        -1.49158         4.73167         4.73167
            1926         712.168         712.168        -2.13805        -2.13805         4.39829         4.39829
            1927         713.121         713.121        -2.86322        -2.86322         3.89537         3.89537
            1928         714.150         714.150        -3.64565        -3.64565         3.19615         3.19615
            1929         715.240         715.240        -4.44819        -4.44819         2.27656         2.27656
            1930         716.365         716.365        -5.21483        -5.21483         1.11950         1.11950
            1931         717.480         717.480        -5.86756        -5.86756    -279.682E-03    -279.682E-03
            1932         718.525         718.525        -6.30690        -6.30690        -1.90443        -1.90443
            1933         719.418         719.418        -6.41590        -6.41590        -3.70836        -3.70836
            1934         720.067         720.067        -6.07114        -6.07114        -5.60377        -5.60377
            1935         720.377         720.377        -5.16375        -5.16375        -7.45404        -7.45404
            1936         703.141         703.141     208.303E-03     208.303E-03     75.8057E-03     75.8057E-03
            1937         703.158         703.158     212.641E-03     212.641E-03     151.917E-03     151.917E-03
            1938         703.186         703.186     219.868E-03     219.868E-03     230.358E-03     230.358E-03
            1939         703.226         703.226     229.975E-03     229.975E-03     311.787E-03     311.787E-03
            1940         703.278         703.278     242.952E-03     242.952E-03     397.189E-03     397.189E-03
            1941         703.342         703.342     258.779E-03     258.779E-03     487.544E-03     487.544E-03
            1942         703.419         703.419     277.422E-03     277.422E-03     583.822E-03     583.822E-03
            1943         703.510         703.510     298.826E-03     298.826E-03     686.972E-03     686.972E-03
            1944         703.616         703.616     322.900E-03     322.900E-03     797.912E-03     797.912E-03
            1945         703.737         703.737     349.516E-03     349.516E-03     917.523E-03     917.523E-03
            1946         703.874         703.874     378.483E-03     378.483E-03         1.04663         1.04663
            1947         704.029         704.029     409.539E-03     409.539E-03         1.18597         1.18597
            1948         704.202         704.202     442.324E-03     442.324E-03         1.33618         1.33618
            1949         704.395         704.395     476.355E-03     476.355E-03         1.49776         1.49776
            1950         704.609         704.609     510.991E-03     510.991E-03         1.67103         1.67103
            1951         704.845         704.845     545.401E-03     545.401E-03         1.85607         1.85607
            1952         705.104         705.104     578.511E-03     578.511E-03         2.05265         2.05265
            1953         705.388         705.388     608.952E-03     608.952E-03         2.26017         2.26017
            1954         705.698         705.698     635.001E-03     635.001E-03         2.47757         2.47757
            1955         706.035         706.035     654.510E-03     654.510E-03         2.70318         2.70318
            1956         706.402         706.402     664.827E-03     664.827E-03         2.93464         2.93464
            1957         706.798         706.798     662.724E-03     662.724E-03         3.16869         3.16869
            1958         707.226         707.226     644.315E-03     644.315E-03         3.40104         3.40104
            1959         707.686         707.686     605.000E-03     605.000E-03         3.62617         3.62617
            1960         708.181         708.181     539.424E-03     539.424E-03         3.83708         3.83708
            1961         708.712         708.712     441.502E-03     441.502E-03         4.02511         4.02511
            1962         709.280         709.280     304.504E-03     304.504E-03         4.17967         4.17967
            1963         709.887         709.887     121.287E-03     121.287E-03         4.28806         4.28806
            1964         710.534         710.534    -115.314E-03    -115.314E-03         4.33534         4.33534
            1965         711.222         711.222    -411.840E-03    -411.840E-03         4.30422         4.30422
            1966         711.950         711.950    -773.244E-03    -773.244E-03         4.17523         4.17523
            1967         712.718         712.718        -1.20156        -1.20156         3.92702         3.92702
            1968         713.521         713.521        -1.69405        -1.69405         3.53721         3.53721
            1969         714.350         714.350        -2.24110        -2.24110         2.98366         2.98366
            1970         715.192         715.192        -2.82350        -2.82350         2.24654         2.24654
            1971         716.027         716.027        -3.41003        -3.41003         1.31144         1.31144
            1972         716.824         716.824        -3.95503        -3.95503     173.336E-03     173.336E-03
            1973         717.543         717.543        -4.39770        -4.39770        -1.15778        -1.15778
            1974         718.131         718.131        -4.66313        -4.66313        -2.65115        -2.65115
            1975         718.530         718.530        -4.66734        -4.66734        -4.24815        -4.24815
            1976         718.677         718.677        -4.32758        -4.32758        -5.85754        -5.85754
            1977         718.518         718.518        -3.57719        -3.57719        -7.35311        -7.35311
            1978         703.124         703.124     138.672E-03     138.672E-03     63.7202E-03     63.7202E-03
            1979         703.143         703.143     141.626E-03     141.626E-03     127.618E-03     127.618E-03
            1980         703.177         703.177     146.549E-03     146.549E-03     193.593E-03     193.593E-03
            1981         703.224         703.224     153.433E-03     153.433E-03     262.174E-03     262.174E-03
            1982         703.285         703.285     162.270E-03     162.270E-03     334.226E-03     334.226E-03
            1983         703.361         703.361     173.052E-03     173.052E-03     410.614E-03     410.614E-03
            1984         703.453         703.453     185.761E-03     185.761E-03     492.184E-03     492.184E-03
            1985         703.562         703.562     200.362E-03     200.362E-03     579.771E-03     579.771E-03
            1986         703.688         703.688     216.798E-03     216.798E-03     674.189E-03     674.189E-03
            1987         703.833         703.833     234.983E-03     234.983E-03     776.215E-03     776.215E-03
            1988         703.999         703.999     254.791E-03     254.791E-03     886.580E-03     886.580E-03
            1989         704.185         704.185     276.046E-03     276.046E-03         1.00594         1.00594
            1990         704.395         704.395     298.504E-03     298.504E-03         1.13488         1.13488
            1991         704.629         704.629     321.834E-03     321.834E-03         1.27382         1.27382
            1992         704.889         704.889     345.595E-03     345.595E-03         1.42305         1.42305
            1993         705.177         705.177     369.210E-03     369.210E-03         1.58262         1.58262
            1994         705.494         705.494     391.931E-03     391.931E-03         1.75231         1.75231
            1995         705.842         705.842     412.799E-03     412.799E-03         1.93156         1.93156
            1996         706.221         706.221     430.601E-03     430.601E-03         2.11934         2.11934
            1997         706.634         706.634     443.820E-03     443.820E-03         2.31406         2.31406
            1998         707.082         707.082     450.576E-03     450.576E-03         2.51347         2.51347
            1999         707.565         707.565     448.571E-03     448.571E-03         2.71445         2.71445
            2000         708.083         708.083     435.038E-03     435.038E-03         2.91290         2.91290
            2001         708.638         708.638     406.689E-03     406.689E-03         3.10349         3.10349
            2002         709.228         709.228     359.705E-03     359.705E-03         3.27949         3.27949
            2003         709.853         709.853     289.738E-03     289.738E-03         3.43258         3.43258
            2004         710.510         710.510     192.010E-03     192.010E-03         3.55259         3.55259
            2005         711.196         711.196     61.4705E-03     61.4705E-03         3.62743         3.62743
            2006         711.908         711.908    -106.876E-03    -106.876E-03         3.64292         3.64292
            2007         712.641         712.641    -317.477E-03    -317.477E-03         3.58292         3.58292
            2008         713.387         713.387    -573.510E-03    -573.510E-03         3.42955         3.42955
            2009         714.135         714.135    -875.841E-03    -875.841E-03         3.16379         3.16379
            2010         714.874         714.874        -1.22176        -1.22176         2.76644         2.76644
            2011         715.588         715.588        -1.60330        -1.60330         2.21968         2.21968
            2012         716.254         716.254        -2.00561        -2.00561         1.50932         1.50932
            2013         716.847         716.847        -2.40513        -2.40513     627.753E-03     627.753E-03
            2014         717.336         717.336        -2.76847        -2.76847    -422.128E-03    -422.128E-03
            2015         717.684         717.684        -3.05217        -3.05217        -1.62274        -1.62274
            2016         717.850         717.850        -3.20431        -3.20431        -2.93688        -2.93688
            2017         717.795         717.795        -3.16888        -3.16888        -4.30403        -4.30403
            2018         717.483         717.483        -2.89294        -2.89294        -5.63832        -5.63832
            2019         716.894         716.894        -2.33787        -2.33787        -6.82961        -6.82961
            2020         703.078         703.078     81.9565E-03     81.9565E-03     49.7629E-03     49.7629E-03
            2021         703.100         703.100     83.7470E-03     83.7470E-03     99.5557E-03     99.5557E-03
            2022         703.138         703.138     86.7307E-03     86.7307E-03     151.079E-03     151.079E-03
            2023         703.191         703.191     90.8834E-03     90.8834E-03     204.726E-03     204.726E-03
            2024         703.261         703.261     96.2137E-03     96.2137E-03     261.209E-03     261.209E-03
            2025         703.348         703.348     102.726E-03     102.726E-03     321.221E-03     321.221E-03
            2026         703.453         703.453     110.408E-03     110.408E-03     385.458E-03     385.458E-03
            2027         703.577         703.577     119.240E-03     119.240E-03     454.608E-03     454.608E-03
            2028         703.722         703.722     129.189E-03     129.189E-03     529.342E-03     529.342E-03
            2029         703.889         703.889     140.208E-03     140.208E-03     610.306E-03     610.306E-03
            2030         704.079         704.079     152.222E-03     152.222E-03     698.108E-03     698.108E-03
            2031         704.295         704.295     165.127E-03     165.127E-03     793.306E-03     793.306E-03
            2032         704.539         704.539     178.777E-03     178.777E-03     896.379E-03     896.379E-03
            2033         704.811         704.811     192.975E-03     192.975E-03         1.00771         1.00771
            2034         705.115         705.115     207.452E-03     207.452E-03         1.12753         1.12753
            2035         705.452         705.452     221.858E-03     221.858E-03         1.25592         1.25592
            2036         705.825         705.825     235.733E-03     235.733E-03         1.39270         1.39270
            2037         706.234         706.234     248.489E-03     248.489E-03         1.53740         1.53740
            2038         706.682         706.682     259.375E-03     259.375E-03         1.68917         1.68917
            2039         707.171         707.171     267.448E-03     267.448E-03         1.84667         1.84667
            2040         707.700         707.700     271.536E-03     271.536E-03         2.00797         2.00797
            2041         708.271         708.271     270.202E-03     270.202E-03         2.17041         2.17041
            2042         708.884         708.884     261.709E-03     261.709E-03         2.33043         2.33043
            2043         709.537         709.537     243.991E-03     243.991E-03         2.48344         2.48344
            2044         710.228         710.228     214.637E-03     214.637E-03         2.62357         2.62357
            2045         710.955         710.955     170.910E-03     170.910E-03         2.74357         2.74357
            2046         711.711         711.711     109.793E-03     109.793E-03         2.83457         2.83457
            2047         712.490         712.490     28.1151E-03     28.1151E-03         2.88599         2.88599
            2048         713.283         713.283    -77.2455E-03    -77.2455E-03         2.88553         2.88553
            2049         714.078         714.078    -209.032E-03    -209.032E-03         2.81922         2.81922
            2050         714.861         714.861    -369.118E-03    -369.118E-03         2.67177         2.67177
            2051         715.614         715.614    -557.866E-03    -557.866E-03         2.42716         2.42716
            2052         716.315         716.315    -773.242E-03    -773.242E-03         2.06965         2.06965
            2053         716.939         716.939        -1.00987        -1.00987         1.58532         1.58532
            2054         717.458         717.458        -1.25785        -1.25785     964.090E-03     964.090E-03
            2055         717.839         717.839        -1.50189        -1.50189     202.491E-03     202.491E-03
            2056         718.050         718.050        -1.72056        -1.72056    -693.226E-03    -693.226E-03
            2057         718.057         718.057        -1.88647        -1.88647        -1.70347        -1.70347
            2058         717.826         717.826        -1.96761        -1.96761        -2.79220        -2.79220
            2059         717.335         717.335        -1.93015        -1.93015        -3.90447        -3.90447
            2060         716.570         716.570        -1.74333        -1.74333        -4.96614        -4.96614
            2061         715.537         715.537        -1.38551        -1.38551        -5.88659        -5.88659
            2062         703.001         703.001     39.8607E-03     39.8607E-03     34.2812E-03     34.2812E-03
            2063         703.026         703.026     40.7776E-03     40.7776E-03     68.3585E-03     68.3585E-03
            2064         703.067         703.067     42.2517E-03     42.2517E-03     103.775E-03     103.775E-03
            2065         703.125         703.125     44.2907E-03     44.2907E-03     140.738E-03     140.738E-03
            2066         703.202         703.202     46.9244E-03     46.9244E-03     179.730E-03     179.730E-03
            2067         703.297         703.297     50.1441E-03     50.1441E-03     221.255E-03     221.255E-03
            2068         703.413         703.413     53.9441E-03     53.9441E-03     265.819E-03     265.819E-03
            2069         703.550         703.550     58.3160E-03     58.3160E-03     313.921E-03     313.921E-03
            2070         703.710         703.710     63.2444E-03     63.2444E-03     366.051E-03     366.051E-03
            2071         703.896         703.896     68.7065E-03     68.7065E-03     422.685E-03     422.685E-03
            2072         704.109         704.109     74.6671E-03     74.6671E-03     484.273E-03     484.273E-03
            2073         704.350         704.350     81.0757E-03     81.0757E-03     551.232E-03     551.232E-03
            2074         704.624         704.624     87.8612E-03     87.8612E-03     623.927E-03     623.927E-03
            2075         704.931         704.931     94.9260E-03     94.9260E-03     702.652E-03     702.652E-03
            2076         705.275         705.275     102.138E-03     102.138E-03     787.607E-03     787.607E-03
            2077         705.658         705.658     109.324E-03     109.324E-03     878.863E-03     878.863E-03
            2078         706.083         706.083     116.253E-03     116.253E-03     976.323E-03     976.323E-03
            2079         706.551         706.551     122.630E-03     122.630E-03         1.07967         1.07967
            2080         707.066         707.066     128.079E-03     128.079E-03         1.18831         1.18831
            2081         707.628         707.628     132.121E-03     132.121E-03         1.30129         1.30129
            2082         708.240         708.240     134.163E-03     134.163E-03         1.41720         1.41720
            2083         708.901         708.901     133.474E-03     133.474E-03         1.53411         1.53411
            2084         709.612         709.612     129.167E-03     129.167E-03         1.64939         1.64939
            2085         710.370         710.370     120.182E-03     120.182E-03         1.75961         1.75961
            2086         711.172         711.172     105.285E-03     105.285E-03         1.86040         1.86040
            2087         712.012         712.012     83.0649E-03     83.0649E-03         1.94628         1.94628
            2088         712.885         712.885     51.9695E-03     51.9695E-03         2.01056         2.01056
            2089         713.777         713.777     10.3627E-03     10.3627E-03         2.04522         2.04522
            2090         714.677         714.677    -43.3624E-03    -43.3624E-03         2.04092         2.04092
            2091         715.566         715.566    -110.610E-03    -110.610E-03         1.98705         1.98705
            2092         716.422         716.422    -192.331E-03    -192.331E-03         1.87201         1.87201
            2093         717.219         717.219    -288.663E-03    -288.663E-03         1.68373         1.68373
            2094         717.927         717.927    -398.507E-03    -398.507E-03         1.41048         1.41048
            2095         718.510         718.510    -518.968E-03    -518.968E-03         1.04207         1.04207
            2096         718.931         718.931    -644.853E-03    -644.853E-03     571.561E-03     571.561E-03
            2097         719.149         719.149    -768.116E-03    -768.116E-03    -2.70597E-03    -2.70597E-03
            2098         719.125         719.125    -877.624E-03    -877.624E-03    -674.613E-03    -674.613E-03
            2099         718.823         718.823    -959.269E-03    -959.269E-03        -1.42781        -1.42781
            2100         718.215         718.215    -996.698E-03    -996.698E-03        -2.23346        -2.23346
            2101         717.286         717.286    -973.051E-03    -973.051E-03        -3.04893        -3.04893
            2102         716.039         716.039    -873.164E-03    -873.164E-03        -3.81809        -3.81809
            2103         714.500         714.500    -686.335E-03    -686.335E-03        -4.47308        -4.47308
            2104         702.892         702.892     13.7065E-03     13.7065E-03     17.6639E-03     17.6639E-03
            2105         702.918         702.918     14.0587E-03     14.0587E-03     34.9579E-03     34.9579E-03
            2106         702.962         702.962     14.5447E-03     14.5447E-03     53.1270E-03     53.1270E-03
            2107         703.024         703.024     15.2444E-03     15.2444E-03     72.1087E-03     72.1087E-03
            2108         703.105         703.105     16.1558E-03     16.1558E-03     92.1610E-03     92.1610E-03
            2109         703.206         703.206     17.2676E-03     17.2676E-03     113.562E-03     113.562E-03
            2110         703.330         703.330     18.5821E-03     18.5821E-03     136.581E-03     136.581E-03
            2111         703.477         703.477     20.0938E-03     20.0938E-03     161.487E-03     161.487E-03
            2112         703.649         703.649     21.7991E-03     21.7991E-03     188.546E-03     188.546E-03
            2113         703.850         703.850     23.6892E-03     23.6892E-03     218.016E-03     218.016E-03
            2114         704.080         704.080     25.7525E-03     25.7525E-03     250.144E-03     250.144E-03
            2115         704.343         704.343     27.9715E-03     27.9715E-03     285.161E-03     285.161E-03
            2116         704.642         704.642     30.3218E-03     30.3218E-03     323.270E-03     323.270E-03
            2117         704.979         704.979     32.7693E-03     32.7693E-03     364.641E-03     364.641E-03
            2118         705.358         705.358     35.2684E-03     35.2684E-03     409.396E-03     409.396E-03
            2119         705.782         705.782     37.7580E-03     37.7580E-03     457.587E-03     457.587E-03
            2120         706.254         706.254     40.1582E-03     40.1582E-03     509.182E-03     509.182E-03
            2121         706.778         706.778     42.3651E-03     42.3651E-03     564.029E-03     564.029E-03
            2122         707.356         707.356     44.2460E-03     44.2460E-03     621.828E-03     621.828E-03
            2123         707.990         707.990     45.6329E-03     45.6329E-03     682.088E-03     682.088E-03
            2124         708.683         708.683     46.3155E-03     46.3155E-03     744.075E-03     744.075E-03
            2125         709.436         709.436     46.0349E-03     46.0349E-03     806.755E-03     806.755E-03
            2126         710.248         710.248     44.4755E-03     44.4755E-03     868.724E-03     868.724E-03
            2127         711.118         711.118     41.2609E-03     41.2609E-03     928.133E-03     928.133E-03
            2128         712.042         712.042     35.9488E-03     35.9488E-03     982.603E-03     982.603E-03
            2129         713.014         713.014     28.0360E-03     28.0360E-03         1.02914         1.02914
            2130         714.024         714.024     16.9640E-03     16.9640E-03         1.06407         1.06407
            2131         715.058         715.058     2.14750E-03     2.14750E-03         1.08297         1.08297
            2132         716.100         716.100    -16.9937E-03    -16.9937E-03         1.08063         1.08063
            2133         717.126         717.126    -40.9633E-03    -40.9633E-03         1.05117         1.05117
            2134         718.108         718.108    -70.1025E-03    -70.1025E-03     988.095E-03     988.095E-03
            2135         719.010         719.010    -104.461E-03    -104.461E-03     884.659E-03     884.659E-03
            2136         719.792         719.792    -143.629E-03    -143.629E-03     734.277E-03     734.277E-03
            2137         720.406         720.406    -186.566E-03    -186.566E-03     531.274E-03     531.274E-03
            2138         720.803         720.803    -231.369E-03    -231.369E-03     271.769E-03     271.769E-03
            2139         720.929         720.929    -275.140E-03    -275.140E-03    -45.0623E-03    -45.0623E-03
            2140         720.732         720.732    -313.842E-03    -313.842E-03    -415.692E-03    -415.692E-03
            2141         720.167         720.167    -342.400E-03    -342.400E-03    -830.785E-03    -830.785E-03
            2142         719.200         719.200    -354.978E-03    -354.978E-03        -1.27402        -1.27402
            2143         717.816         717.816    -345.539E-03    -345.539E-03        -1.72153        -1.72153
            2144         716.026         716.026    -308.975E-03    -308.975E-03        -2.14206        -2.14206
            2145         713.873         713.873    -241.246E-03    -241.246E-03        -2.49772        -2.49772
            2146         665.813         665.813         192.349         192.349        -51.6057        -51.6057
            2147         673.004         673.004         175.002         175.002        -51.2729        -51.2729
            2148         679.990         679.990         157.602         157.602        -49.5478        -49.5478
            2149         686.521         686.521         140.580         140.580        -46.9413        -46.9413
            2150         692.443         692.443         124.260         124.260        -43.5822        -43.5822
            2151         697.641         697.641         108.903         108.903        -39.6076        -39.6076
            2152         702.037         702.037         94.7131         94.7131        -35.2219        -35.2219
            2153         705.640         705.640         81.7950         81.7950        -30.6144        -30.6144
            2154         708.464         708.464         70.1983         70.1983        -25.9669        -25.9669
            2155         710.597         710.597         59.8985         59.8985        -21.4353        -21.4353
            2156         712.107         712.107         50.8357         50.8357        -17.1282        -17.1282
            2157         713.101         713.101         42.9222         42.9222        -13.1327        -13.1327
            2158         713.659         713.659         36.0527         36.0527        -9.48814        -9.48814
            2159         713.869         713.869         30.1252         30.1252        -6.22166        -6.22166
            2160         713.798         713.798         25.0315         25.0315        -3.32877        -3.32877
            2161         713.512         713.512         20.6777         20.6777    -799.583E-03    -799.583E-03
            2162         713.058         713.058         16.9696         16.9696         1.39176         1.39176
            2163         712.479         712.479         13.8278         13.8278         3.27235         3.27235
            2164         711.808         711.808         11.1750         11.1750         4.87547         4.87547
            2165         711.072         711.072         8.94560         8.94560         6.23333         6.23333
            2166         710.294         710.294         7.07675         7.07675         7.37932         7.37932
            2167         709.491         709.491         5.51387         5.51387         8.34478         8.34478
            2168         708.679         708.679         4.20487         4.20487         9.16003         9.16003
            2169         707.871         707.871         3.10303         3.10303         9.85322         9.85322
            2170         707.080         707.080         2.16337         2.16337         10.4509         10.4509
            2171         706.319         706.319         1.34400         1.34400         10.9776         10.9776
            2172         705.602         705.602     603.786E-03     603.786E-03         11.4564         11.4564
            2173         704.944         704.944    -97.1854E-03    -97.1854E-03         11.9088         11.9088
            2174         704.366         704.366    -799.221E-03    -799.221E-03         12.3549         12.3549
            2175         703.891         703.891        -1.54313        -1.54313         12.8130         12.8130
            2176         703.550         703.550        -2.37130        -2.37130         13.2994         13.2994
            2177         703.384         703.384        -3.32820        -3.32820         13.8272         13.8272
            2178         703.443         703.443        -4.46073        -4.46073         14.4040         14.4040
            2179         703.794         703.794        -5.81853        -5.81853         15.0288         15.0288
            2180         704.521         704.521        -7.45201        -7.45201         15.6862         15.6862
            2181         705.731         705.731        -9.41023        -9.41023         16.3380         16.3380
            2182         707.551         707.551        -11.7306        -11.7306         16.9092         16.9092
            2183         710.129         710.129        -14.4251        -14.4251         17.2731         17.2731
            2184         713.613         713.613        -17.4444        -17.4444         17.2273         17.2273
            2185         718.109         718.109        -20.6304        -20.6304         16.4880         16.4880
            2186         723.618         723.618        -23.6369        -23.6369         14.6929         14.6929
            2187         729.939         729.939        -25.9014        -25.9014         11.5089         11.5089
            2188         667.765         667.765         191.933         191.933        -58.9951        -58.9951
            2189         675.323         675.323         173.582         173.582        -58.5662        -58.5662
            2190         682.570         682.570         155.179         155.179        -56.4262        -56.4262
            2191         689.273         689.273         137.235         137.235        -53.2321        -53.2321
            2192         695.223         695.223         120.150         120.150        -49.1014        -49.1014
            2193         700.282         700.282         104.255         104.255        -44.2862        -44.2862
            2194         704.423         704.423         89.7447         89.7447        -39.0247        -39.0247
            2195         707.635         707.635         76.7370         76.7370        -33.5785        -33.5785
            2196         710.027         710.027         65.2275         65.2275        -28.1735        -28.1735
            2197         711.676         711.676         55.1594         55.1594        -22.9746        -22.9746
            2198         712.727         712.727         46.4264         46.4264        -18.1178        -18.1178
            2199         713.281         713.281         38.8966         38.8966        -13.6660        -13.6660
            2200         713.458         713.458         32.4423         32.4423        -9.66695        -9.66695
            2201         713.342         713.342         26.9267         26.9267        -6.11965        -6.11965
            2202         713.013         713.013         22.2362         22.2362        -3.01764        -3.01764
            2203         712.530         712.530         18.2557         18.2557    -330.290E-03    -330.290E-03
            2204         711.942         711.942         14.8932         14.8932         1.97341         1.97341
            2205         711.284         711.284         12.0590         12.0590         3.93352         3.93352
            2206         710.586         710.586         9.68029         9.68029         5.58805         5.58805
            2207         709.868         709.868         7.68762         7.68762         6.97659         6.97659
            2208         709.148         709.148         6.02294         6.02294         8.13575         8.13575
            2209         708.439         708.439         4.63111         4.63111         9.10055         9.10055
            2210         707.752         707.752         3.46422         3.46422         9.90284         9.90284
            2211         707.098         707.098         2.47645         2.47645         10.5719         10.5719
            2212         706.486         706.486         1.62617         1.62617         11.1342         11.1342
            2213         705.926         705.926     872.879E-03     872.879E-03         11.6134         11.6134
            2214         705.433         705.433     178.083E-03     178.083E-03         12.0306         12.0306
            2215         705.020         705.020    -496.541E-03    -496.541E-03         12.4044         12.4044
            2216         704.708         704.708        -1.18886        -1.18886         12.7504         12.7504
            2217         704.520         704.520        -1.93731        -1.93731         13.0816         13.0816
            2218         704.488         704.488        -2.78076        -2.78076         13.4066         13.4066
            2219         704.651         704.651        -3.75860        -3.75860         13.7291         13.7291
            2220         705.056         705.056        -4.91015        -4.91015         14.0453         14.0453
            2221         705.764         705.764        -6.27272        -6.27272         14.3400         14.3400
            2222         706.846         706.846        -7.87883        -7.87883         14.5820         14.5820
            2223         708.382         708.382        -9.74898        -9.74898         14.7166         14.7166
            2224         710.462         710.462        -11.8818        -11.8818         14.6575         14.6575
            2225         713.167         713.167        -14.2337        -14.2337         14.2759         14.2759
            2226         716.550         716.550        -16.6923        -16.6923         13.3989         13.3989
            2227         720.606         720.606        -19.0390        -19.0390         11.8113         11.8113
            2228         725.217         725.217        -20.9145        -20.9145         9.30125         9.30125
            2229         730.163         730.163        -21.8408        -21.8408         5.67971         5.67971
            2230         670.325         670.325         191.425         191.425        -66.7920        -66.7920
            2231         678.252         678.252         171.844         171.844        -66.1920        -66.1920
            2232         685.840         685.840         152.177         152.177        -63.5664        -63.5664
            2233         692.693         692.693         133.102         133.102        -59.5844        -59.5844
            2234         698.587         698.587         115.138         115.138        -54.5325        -54.5325
            2235         703.416         703.416         98.6421         98.6421        -48.6851        -48.6851
            2236         707.112         707.112         83.8606         83.8606        -42.4155        -42.4155
            2237         709.804         709.804         70.8368         70.8368        -36.0471        -36.0471
            2238         711.574         711.574         59.5354         59.5354        -29.8335        -29.8335
            2239         712.627         712.627         49.8253         49.8253        -23.9864        -23.9864
            2240         713.094         713.094         41.5371         41.5371        -18.6036        -18.6036
            2241         713.142         713.142         34.5051         34.5051        -13.7648        -13.7648
            2242         712.882         712.882         28.5487         28.5487        -9.47211        -9.47211
            2243         712.416         712.416         23.5259         23.5259        -5.72350        -5.72350
            2244         711.817         711.817         19.2910         19.2910        -2.48046        -2.48046
            2245         711.143         711.143         15.7346         15.7346     293.930E-03     293.930E-03
            2246         710.433         710.433         12.7492         12.7492         2.64933         2.64933
            2247         709.718         709.718         10.2526         10.2526         4.63172         4.63172
            2248         709.016         709.016         8.16638         8.16638         6.28894         6.28894
            2249         708.344         708.344         6.42819         6.42819         7.66450         7.66450
            2250         707.710         707.710         4.97907         4.97907         8.79959         8.79959
            2251         707.122         707.122         3.76986         3.76986         9.73112         9.73112
            2252         706.586         706.586         2.75391         2.75391         10.4924         10.4924
            2253         706.108         706.108         1.89020         1.89020         11.1128         11.1128
            2254         705.693         705.693         1.13919         1.13919         11.6180         11.6180
            2255         705.350         705.350     464.229E-03     464.229E-03         12.0302         12.0302
            2256         705.088         705.088    -170.728E-03    -170.728E-03         12.3678         12.3678
            2257         704.921         704.921    -800.532E-03    -800.532E-03         12.6461         12.6461
            2258         704.866         704.866        -1.46001        -1.46001         12.8764         12.8764
            2259         704.945         704.945        -2.18354        -2.18354         13.0659         13.0659
            2260         705.186         705.186        -3.00513        -3.00513         13.2169         13.2169
            2261         705.623         705.623        -3.95755        -3.95755         13.3251         13.3251
            2262         706.298         706.298        -5.07074        -5.07074         13.3780         13.3780
            2263         707.257         707.257        -6.36920        -6.36920         13.3517         13.3517
            2264         708.555         708.555        -7.86699        -7.86699         13.2070         13.2070
            2265         710.245         710.245        -9.56055        -9.56055         12.8857         12.8857
            2266         712.375         712.375        -11.4170        -11.4170         12.3050         12.3050
            2267         714.973         714.973        -13.3577        -13.3577         11.3578         11.3578
            2268         718.030         718.030        -15.2391        -15.2391         9.91410         9.91410
            2269         721.470         721.470        -16.8288        -16.8288         7.84158         7.84158
            2270         725.144         725.144        -17.8069        -17.8069         5.02831         5.02831
            2271         728.789         728.789        -17.7252        -17.7252         1.39990         1.39990
            2272         673.589         673.589         190.847         190.847        -75.0527        -75.0527
            2273         682.073         682.073         169.665         169.665        -74.2645        -74.2645
            2274         689.976         689.976         148.422         148.422        -70.9184        -70.9184
            2275         696.938         696.938         127.983         127.983        -65.9799        -65.9799
            2276         702.680         702.680         108.984         108.984        -59.7097        -59.7097
            2277         707.026         707.026         91.9136         91.9136        -52.6317        -52.6317
            2278         710.110         710.110         76.9250         76.9250        -45.1985        -45.1985
            2279         711.997         711.997         64.0491         64.0491        -37.8102        -37.8102
            2280         712.989         712.989         53.1251         53.1251        -30.8006        -30.8006
            2281         713.259         713.259         43.9317         43.9317        -24.3228        -24.3228
            2282         713.049         713.049         36.2454         36.2454        -18.5082        -18.5082
            2283         712.511         712.511         29.8179         29.8179        -13.3594        -13.3594
            2284         711.782         711.782         24.4655         24.4655        -8.88016        -8.88016
            2285         710.954         710.954         19.9970         19.9970        -5.01790        -5.01790
            2286         710.096         710.096         16.2792         16.2792        -1.72623        -1.72623
            2287         709.252         709.252         13.1793         13.1793         1.05879         1.05879
            2288         708.452         708.452         10.6030         10.6030         3.39445         3.39445
            2289         707.713         707.713         8.45979         8.45979         5.33977         5.33977
            2290         707.047         707.047         6.68194         6.68194         6.94748         6.94748
            2291         706.457         706.457         5.20558         5.20558         8.26671         8.26671
            2292         705.945         705.945         3.98016         3.98016         9.34092         9.34092
            2293         705.512         705.512         2.95803         2.95803         10.2087         10.2087
            2294         705.158         705.158         2.09898         2.09898         10.9036         10.9036
            2295         704.882         704.882         1.36464         1.36464         11.4544         11.4544
            2296         704.687         704.687     720.570E-03     720.570E-03         11.8854         11.8854
            2297         704.576         704.576     133.209E-03     133.209E-03         12.2166         12.2166
            2298         704.555         704.555    -429.122E-03    -429.122E-03         12.4638         12.4638
            2299         704.635         704.635    -997.780E-03    -997.780E-03         12.6384         12.6384
            2300         704.829         704.829        -1.60314        -1.60314         12.7477         12.7477
            2301         705.155         705.155        -2.27500        -2.27500         12.7937         12.7937
            2302         705.635         705.635        -3.04156        -3.04156         12.7735         12.7735
            2303         706.297         706.297        -3.92844        -3.92844         12.6771         12.6771
            2304         707.172         707.172        -4.95637        -4.95637         12.4866         12.4866
            2305         708.295         708.295        -6.13783        -6.13783         12.1742         12.1742
            2306         709.698         709.698        -7.47193        -7.47193         11.6999         11.6999
            2307         711.412         711.412        -8.93702        -8.93702         11.0099         11.0099
            2308         713.450         713.450        -10.4805        -10.4805         10.0368         10.0368
            2309         715.805         715.805        -12.0077        -12.0077         8.70136         8.70136
            2310         718.427         718.427        -13.3671        -13.3671         6.92289         6.92289
            2311         721.218         721.218        -14.3460        -14.3460         4.63452         4.63452
            2312         724.007         724.007        -14.6570        -14.6570         1.80193         1.80193
            2313         726.543         726.543        -13.9446        -13.9446        -1.52906        -1.52906
            2314         678.016         678.016         190.104         190.104        -83.9463        -83.9463
            2315         686.993         686.993         166.915         166.915        -82.7621        -82.7621
            2316         695.299         695.299         143.658         143.658        -78.5509        -78.5509
            2317         702.268         702.268         121.531         121.531        -72.2093        -72.2093
            2318         707.543         707.543         101.450         101.450        -64.4397        -64.4397
            2319         711.193         711.193         83.8214         83.8214        -55.8414        -55.8414
            2320         713.222         713.222         68.8522         68.8522        -47.0668        -47.0668
            2321         714.080         714.080         56.3529         56.3529        -38.6540        -38.6540
            2322         713.999         713.999         46.0363         46.0363        -30.8514        -30.8514
            2323         713.351         713.351         37.5855         37.5855        -23.8794        -23.8794
            2324         712.350         712.350         30.6430         30.6430        -17.7342        -17.7342
            2325         711.185         711.185         24.9643         24.9643        -12.4257        -12.4257
            2326         709.977         709.977         20.2886         20.2886        -7.87632        -7.87632
            2327         708.807         708.807         16.4505         16.4505        -4.02330        -4.02330
            2328         707.724         707.724         13.2817         13.2817    -781.115E-03    -781.115E-03
            2329         706.756         706.756         10.6726         10.6726         1.92430         1.92430
            2330         705.916         705.916         8.51649         8.51649         4.16715         4.16715
            2331         705.207         705.207         6.73940         6.73940         6.01262         6.01262
            2332         704.627         704.627         5.27123         5.27123         7.51989         7.51989
            2333         704.169         704.169         4.05995         4.05995         8.74078         8.74078
            2334         703.826         703.826         3.05663         3.05663         9.72031         9.72031
            2335         703.589         703.589         2.22211         2.22211         10.4974         10.4974
            2336         703.453         703.453         1.51934         1.51934         11.1048         11.1048
            2337         703.412         703.412     916.359E-03     916.359E-03         11.5701         11.5701
            2338         703.462         703.462     382.326E-03     382.326E-03         11.9155         11.9155
            2339         703.603         703.603    -111.074E-03    -111.074E-03         12.1584         12.1584
            2340         703.836         703.836    -591.664E-03    -591.664E-03         12.3115         12.3115
            2341         704.167         704.167        -1.08597        -1.08597         12.3829         12.3829
            2342         704.604         704.604        -1.61996        -1.61996         12.3759         12.3759
            2343         705.161         705.161        -2.21812        -2.21812         12.2886         12.2886
            2344         705.853         705.853        -2.90294        -2.90294         12.1138         12.1138
            2345         706.699         706.699        -3.69315        -3.69315         11.8380         11.8380
            2346         707.720         707.720        -4.60143        -4.60143         11.4410         11.4410
            2347         708.936         708.936        -5.63081        -5.63081         10.8948         10.8948
            2348         710.365         710.365        -6.76987        -6.76987         10.1632         10.1632
            2349         712.015         712.015        -7.98612        -7.98612         9.20261         9.20261
            2350         713.878         713.878        -9.21894        -9.21894         7.96384         7.96384
            2351         715.923         715.923        -10.3703        -10.3703         6.39800         6.39800
            2352         718.086         718.086        -11.3007        -11.3007         4.46627         4.46627
            2353         720.258         720.258        -11.8218        -11.8218         2.15264         2.15264
            2354         722.283         722.283        -11.7037        -11.7037    -509.885E-03    -509.885E-03
            2355         723.959         723.959        -10.6906        -10.6906        -3.41403        -3.41403
            2356         683.795         683.795         189.236         189.236        -93.5181        -93.5181
            2357         693.637         693.637         163.295         163.295        -91.9067        -91.9067
            2358         702.208         702.208         137.437         137.437        -86.2098        -86.2098
            2359         708.868         708.868         113.377         113.377        -78.1092        -78.1092
            2360         713.411         713.411         92.0845         92.0845        -68.2919        -68.2919
            2361         715.664         715.664         74.2084         74.2084        -57.8570        -57.8570
            2362         716.310         716.310         59.5634         59.5634        -47.6887        -47.6887
            2363         715.650         715.650         47.7950         47.7950        -38.2194        -38.2194
            2364         714.293         714.293         38.4263         38.4263        -29.8369        -29.8369
            2365         712.557         712.557         30.9118         30.9118        -22.5110        -22.5110
            2366         710.713         710.713         24.9169         24.9169        -16.2564        -16.2564
            2367         708.918         708.918         20.0718         20.0718        -10.9490        -10.9490
            2368         707.266         707.266         16.1686         16.1686        -6.49729        -6.49729
            2369         705.812         705.812         12.9891         12.9891        -2.78244        -2.78244
            2370         704.573         704.573         10.4053         10.4053     294.995E-03     294.995E-03
            2371         703.556         703.556         8.28962         8.28962         2.82985         2.82985
            2372         702.750         702.750         6.56124         6.56124         4.90425         4.90425
            2373         702.142         702.142         5.14273         5.14273         6.58979         6.58979
            2374         701.715         701.715         3.98060         3.98060         7.94875         7.94875
            2375         701.450         701.450         3.02465         3.02465         9.03366         9.03366
            2376         701.331         701.331         2.23703         2.23703         9.88978         9.88978
            2377         701.341         701.341         1.58220         1.58220         10.5545         10.5545
            2378         701.466         701.466         1.03096         1.03096         11.0592         11.0592
            2379         701.697         701.697     555.434E-03     555.434E-03         11.4289         11.4289
            2380         702.022         702.022     130.859E-03     130.859E-03         11.6835         11.6835
            2381         702.438         702.438    -266.907E-03    -266.907E-03         11.8374         11.8374
            2382         702.941         702.941    -660.464E-03    -660.464E-03         11.9005         11.9005
            2383         703.531         703.531        -1.07197        -1.07197         11.8774         11.8774
            2384         704.213         704.213        -1.52230        -1.52230         11.7681         11.7681
            2385         704.992         704.992        -2.03106        -2.03106         11.5677         11.5677
            2386         705.877         705.877        -2.61519        -2.61519         11.2662         11.2662
            2387         706.879         706.879        -3.28763        -3.28763         10.8482         10.8482
            2388         708.007         708.007        -4.05477        -4.05477         10.2933         10.2933
            2389         709.271         709.271        -4.91333        -4.91333         9.57582         9.57582
            2390         710.674         710.674        -5.84593        -5.84593         8.66601         8.66601
            2391         712.209         712.209        -6.81645        -6.81645         7.53184         7.53184
            2392         713.857         713.857        -7.76395        -7.76395         6.14281         6.14281
            2393         715.574         715.574        -8.59904        -8.59904         4.47628         4.47628
            2394         717.292         717.292        -9.19957        -9.19957         2.52583         2.52583
            2395         718.915         718.915        -9.41378        -9.41378     315.915E-03     315.915E-03
            2396         720.314         720.314        -9.06883        -9.06883        -2.08378        -2.08378
            2397         721.344         721.344        -7.99275        -7.99275        -4.53827        -4.53827
            2398         692.113         692.113         187.953         187.953        -104.162        -104.162
            2399         702.515         702.515         158.382         158.382        -101.432        -101.432
            2400         711.262         711.262         129.199         129.199        -93.9078        -93.9078
            2401         717.279         717.279         102.708         102.708        -83.0053        -83.0053
            2402         719.972         719.972         80.5974         80.5974        -70.5957        -70.5957
            2403         720.345         720.345         62.8502         62.8502        -58.1311        -58.1311
            2404         718.736         718.736         49.1197         49.1197        -46.4509        -46.4509
            2405         716.234         716.234         38.6276         38.6276        -36.2895        -36.2895
            2406         713.349         713.349         30.4762         30.4762        -27.5363        -27.5363
            2407         710.462         710.462         24.1957         24.1957        -20.1986        -20.1986
            2408         707.792         707.792         19.2415         19.2415        -14.0667        -14.0667
            2409         705.432         705.432         15.3515         15.3515        -8.99517        -8.99517
            2410         703.437         703.437         12.2379         12.2379        -4.81458        -4.81458
            2411         701.804         701.804         9.75206         9.75206        -1.38617        -1.38617
            2412         700.522         700.522         7.74120         7.74120         1.41236         1.41236
            2413         699.560         699.560         6.11769         6.11769         3.68616         3.68616
            2414         698.889         698.889         4.79636         4.79636         5.52157         5.52157
            2415         698.473         698.473         3.72291         3.72291         6.99363         6.99363
            2416         698.281         698.281         2.84624         2.84624         8.16297         8.16297
            2417         698.283         698.283         2.13033         2.13033         9.08198         9.08198
            2418         698.453         698.453         1.54157         1.54157         9.79270         9.79270
            2419         698.766         698.766         1.05383         1.05383         10.3307         10.3307
            2420         699.202         699.202     642.450E-03     642.450E-03         10.7239         10.7239
            2421         699.745         699.745     286.415E-03     286.415E-03         10.9949         10.9949
            2422         700.382         700.382    -34.5917E-03    -34.5917E-03         11.1602         11.1602
            2423         701.100         701.100    -339.128E-03    -339.128E-03         11.2316         11.2316
            2424         701.895         701.895    -645.411E-03    -645.411E-03         11.2156         11.2156
            2425         702.759         702.759    -970.574E-03    -970.574E-03         11.1142         11.1142
            2426         703.692         703.692        -1.33103        -1.33103         10.9247         10.9247
            2427         704.693         704.693        -1.74150        -1.74150         10.6398         10.6398
            2428         705.764         705.764        -2.21435        -2.21435         10.2480         10.2480
            2429         706.906         706.906        -2.75782        -2.75782         9.73331         9.73331
            2430         708.121         708.121        -3.37419        -3.37419         9.07645         9.07645
            2431         709.408         709.408        -4.05671        -4.05671         8.25541         8.25541
            2432         710.758         710.758        -4.78656        -4.78656         7.24730         7.24730
            2433         712.157         712.157        -5.52874        -5.52874         6.03120         6.03120
            2434         713.577         713.577        -6.22914        -6.22914         4.59249         4.59249
            2435         714.973         714.973        -6.81126        -6.81126         2.92852         2.92852
            2436         716.285         716.285        -7.17708        -7.17708         1.05737         1.05737
            2437         717.433         717.433        -7.21061        -7.21061    -973.487E-03    -973.487E-03
            2438         718.323         718.323        -6.78940        -6.78940        -3.07551        -3.07551
            2439         718.862         718.862        -5.80444        -5.80444        -5.11175        -5.11175
            2440         703.404         703.404         186.277         186.277        -115.738        -115.738
            2441         715.129         715.129         151.358         151.358        -111.827        -111.827
            2442         723.533         723.533         117.562         117.562        -100.565        -100.565
            2443         727.215         727.215         88.9676         88.9676        -85.9983        -85.9983
            2444         727.357         727.357         66.3705         66.3705        -70.3652        -70.3652
            2445         724.136         724.136         49.8403         49.8403        -55.5309        -55.5309
            2446         719.724         719.724         37.9717         37.9717        -43.0338        -43.0338
            2447         715.015         715.015         29.1292         29.1292        -32.5250        -32.5250
            2448         710.532         710.532         22.6444         22.6444        -23.9564        -23.9564
            2449         706.573         706.573         17.6840         17.6840        -16.9593        -16.9593
            2450         703.201         703.201         13.9217         13.9217        -11.2846        -11.2846
            2451         700.453         700.453         10.9767         10.9767        -6.68762        -6.68762
            2452         698.279         698.279         8.67957         8.67957        -2.96837        -2.96837
            2453         696.638         696.638         6.85007         6.85007     30.1169E-03     30.1169E-03
            2454         695.464         695.464         5.39524         5.39524         2.44376         2.44376
            2455         694.700         694.700         4.22364         4.22364         4.37509         4.37509
            2456         694.286         694.286         3.28138         3.28138         5.91402         5.91402
            2457         694.173         694.173         2.51792         2.51792         7.12899         7.12899
            2458         694.313         694.313         1.89982         1.89982         8.07964         8.07964
            2459         694.666         694.666         1.39624         1.39624         8.81202         8.81202
            2460         695.197         695.197     984.542E-03     984.542E-03         9.36551         9.36551
            2461         695.876         695.876     643.614E-03     643.614E-03         9.77044         9.77044
            2462         696.677         696.677     356.335E-03     356.335E-03         10.0518         10.0518
            2463         697.580         697.580     106.325E-03     106.325E-03         10.2279         10.2279
            2464         698.565         698.565    -120.906E-03    -120.906E-03         10.3124         10.3124
            2465         699.620         699.620    -339.559E-03    -339.559E-03         10.3139         10.3139
            2466         700.731         700.731    -562.868E-03    -562.868E-03         10.2363         10.2363
            2467         701.890         701.890    -803.742E-03    -803.742E-03         10.0791         10.0791
            2468         703.089         703.089        -1.07407        -1.07407         9.83772         9.83772
            2469         704.321         704.321        -1.38456        -1.38456         9.50340         9.50340
            2470         705.582         705.582        -1.74362        -1.74362         9.06383         9.06383
            2471         706.865         706.865        -2.15631        -2.15631         8.50355         8.50355
            2472         708.163         708.163        -2.62242        -2.62242         7.80505         7.80505
            2473         709.466         709.466        -3.13452        -3.13452         6.95011         6.95011
            2474         710.759         710.759        -3.67519        -3.67519         5.92211         5.92211
            2475         712.020         712.020        -4.21481        -4.21481         4.70917         4.70917
            2476         713.220         713.220        -4.70900        -4.70900         3.30824         3.30824
            2477         714.317         714.317        -5.09810        -5.09810         1.73085         1.73085
            2478         715.262         715.262        -5.30811        -5.30811     8.86559E-03     8.86559E-03
            2479         715.995         715.995        -5.25593        -5.25593        -1.79824        -1.79824
            2480         716.458         716.458        -4.85922        -4.85922        -3.59869        -3.59869
            2481         716.596         716.596        -4.05143        -4.05143        -5.26545        -5.26545
            2482         721.496         721.496         183.117         183.117        -129.490        -129.490
            2483         733.198         733.198         140.321         140.321        -121.408        -121.408
            2484         739.262         739.262         101.397         101.397        -105.357        -105.357
            2485         739.601         739.601         70.4130         70.4130        -85.0842        -85.0842
            2486         733.421         733.421         49.5845         49.5845        -65.2941        -65.2941
            2487         725.610         725.610         36.1023         36.1023        -49.5939        -49.5939
            2488         717.918         717.918         26.5789         26.5789        -36.9282        -36.9282
            2489         710.964         710.964         20.0780         20.0780        -27.0134        -27.0134
            2490         705.126         705.126         15.2907         15.2907        -19.1929        -19.1929
            2491         700.339         700.339         11.8241         11.8241        -13.0147        -13.0147
            2492         696.583         696.583         9.18498         9.18498        -8.13042        -8.13042
            2493         693.711         693.711         7.18643         7.18643        -4.24630        -4.24630
            2494         691.625         691.625         5.62588         5.62588        -1.16665        -1.16665
            2495         690.197         690.197         4.40789         4.40789         1.28370         1.28370
            2496         689.331         689.331         3.44011         3.44011         3.22212         3.22212
            2497         688.933         688.933         2.67089         2.67089         4.75435         4.75435
            2498         688.925         688.925         2.05335         2.05335         5.95444         5.95444
            2499         689.239         689.239         1.55764         1.55764         6.88827         6.88827
            2500         689.819         689.819         1.15721         1.15721         7.60399         7.60399
            2501         690.614         690.614     833.261E-03     833.261E-03         8.14352         8.14352
            2502         691.585         691.585     568.849E-03     568.849E-03         8.53822         8.53822
            2503         692.697         692.697     350.753E-03     350.753E-03         8.81441         8.81441
            2504         693.921         693.921     166.611E-03     166.611E-03         8.99144         8.99144
            2505         695.231         695.231     5.86226E-03     5.86226E-03         9.08435         9.08435
            2506         696.608         696.608    -141.756E-03    -141.756E-03         9.10300         9.10300
            2507         698.034         698.034    -285.643E-03    -285.643E-03         9.05329         9.05329
            2508         699.494         699.494    -435.080E-03    -435.080E-03         8.93676         8.93676
            2509         700.974         700.974    -598.733E-03    -598.733E-03         8.75128         8.75128
            2510         702.461         702.461    -784.821E-03    -784.821E-03         8.49089         8.49089
            2511         703.945         703.945        -1.00042        -1.00042         8.14635         8.14635
            2512         705.411         705.411        -1.25105        -1.25105         7.70542         7.70542
            2513         706.849         706.849        -1.53948        -1.53948         7.15377         7.15377
            2514         708.242         708.242        -1.86470        -1.86470         6.47599         6.47599
            2515         709.573         709.573        -2.22012        -2.22012         5.65733         5.65733
            2516         710.821         710.821        -2.59212        -2.59212         4.68604         4.68604
            2517         711.960         711.960        -2.95810        -2.95810         3.55643         3.55643
            2518         712.958         712.958        -3.28559        -3.28559         2.27286         2.27286
            2519         713.782         713.782        -3.53179        -3.53179     853.988E-03     853.988E-03
            2520         714.393         714.393        -3.64544        -3.64544    -662.199E-03    -662.199E-03
            2521         714.751         714.751        -3.57103        -3.57103        -2.21476        -2.21476
            2522         714.826         714.826        -3.25616        -3.25616        -3.71734        -3.71734
            2523         714.597         714.597        -2.66232        -2.66232        -5.05909        -5.05909
            2524         747.939         747.939         177.644         177.644        -143.371        -143.371
            2525         759.970         759.970         122.779         122.779        -130.936        -130.936
            2526         761.933         761.933         75.6773         75.6773        -103.513        -103.513
            2527         749.565         749.565         47.4954         47.4954        -75.0435        -75.0435
            2528         735.140         735.140         32.4388         32.4388        -54.7982        -54.7982
            2529         722.395         722.395         22.4500         22.4500        -39.6548        -39.6548
            2530         711.585         711.585         16.3204         16.3204        -28.4528        -28.4528
            2531         703.045         703.045         12.0102         12.0102        -20.0714        -20.0714
            2532         696.352         696.352         9.07154         9.07154        -13.6641        -13.6641
            2533         691.318         691.318         6.91263         6.91263        -8.76809        -8.76809
            2534         687.615         687.615         5.33383         5.33383        -4.95386        -4.95386
            2535         685.034         685.034         4.13314         4.13314        -1.99542        -1.99542
            2536         683.358         683.358         3.21507         3.21507     326.851E-03     326.851E-03
            2537         682.427         682.427         2.49881         2.49881         2.13735         2.13735
            2538         682.100         682.100         1.93635         1.93635         3.55518         3.55518
            2539         682.263         682.263         1.49020         1.49020         4.65453         4.65453
            2540         682.822         682.822         1.13482         1.13482         5.50425         5.50425
            2541         683.700         683.700     850.252E-03     850.252E-03         6.15091         6.15091
            2542         684.832         684.832     621.808E-03     621.808E-03         6.63633         6.63633
            2543         686.165         686.165     437.426E-03     437.426E-03         6.99036         6.99036
            2544         687.657         687.657     287.660E-03     287.660E-03         7.23884         7.23884
            2545         689.269         689.269     164.175E-03     164.175E-03         7.40041         7.40041
            2546         690.973         690.973     59.9958E-03     59.9958E-03         7.49024         7.49024
            2547         692.742         692.742    -31.4857E-03    -31.4857E-03         7.51857         7.51857
            2548         694.554         694.554    -116.192E-03    -116.192E-03         7.49243         7.49243
            2549         696.390         696.390    -199.989E-03    -199.989E-03         7.41497         7.41497
            2550         698.233         698.233    -288.353E-03    -288.353E-03         7.28626         7.28626
            2551         700.066         700.066    -386.676E-03    -386.676E-03         7.10300         7.10300
            2552         701.873         701.873    -499.851E-03    -499.851E-03         6.85905         6.85905
            2553         703.636         703.636    -632.222E-03    -632.222E-03         6.54546         6.54546
            2554         705.338         705.338    -786.951E-03    -786.951E-03         6.15110         6.15110
            2555         706.958         706.958    -965.562E-03    -965.562E-03         5.66334         5.66334
            2556         708.475         708.475        -1.16695        -1.16695         5.06917         5.06917
            2557         709.863         709.863        -1.38658        -1.38658         4.35685         4.35685
            2558         711.095         711.095        -1.61523        -1.61523         3.51800         3.51800
            2559         712.140         712.140        -1.83821        -1.83821         2.55047         2.55047
            2560         712.966         712.966        -2.03454        -2.03454         1.46150         1.46150
            2561         713.543         713.543        -2.17729        -2.17729     271.364E-03     271.364E-03
            2562         713.841         713.841        -2.23475        -2.23475    -983.463E-03    -983.463E-03
            2563         713.838         713.838        -2.17345        -2.17345        -2.24775        -2.24775
            2564         713.525         713.525        -1.96303        -1.96303        -3.44739        -3.44739
            2565         712.911         712.911        -1.58245        -1.58245        -4.49118        -4.49118
            2566         801.069         801.069         163.802         163.802        -163.681        -163.681
            2567         806.073         806.073         84.7932         84.7932        -126.762        -126.762
            2568         778.225         778.225         41.8025         41.8025        -82.2271        -82.2271
            2569         749.702         749.702         26.1511         26.1511        -55.6495        -55.6495
            2570         728.205         728.205         16.4615         16.4615        -38.5077        -38.5077
            2571         711.510         711.510         11.3572         11.3572        -26.6677        -26.6677
            2572         699.269         699.269         7.99512         7.99512        -18.5136        -18.5136
            2573         690.203         690.203         5.84760         5.84760        -12.4993        -12.4993
            2574         683.713         683.713         4.35871         4.35871        -8.11899        -8.11899
            2575         679.162         679.162         3.29941         3.29941        -4.77923        -4.77923
            2576         676.152         676.152         2.52992         2.52992        -2.26264        -2.26264
            2577         674.337         674.337         1.94821         1.94821    -314.653E-03    -314.653E-03
            2578         673.469         673.469         1.50894         1.50894         1.17669         1.17669
            2579         673.346         673.346         1.16559         1.16559         2.33337         2.33337
            2580         673.812         673.812     898.925E-03     898.925E-03         3.21941         3.21941
            2581         674.742         674.742     686.913E-03     686.913E-03         3.89938         3.89938
            2582         676.037         676.037     519.347E-03     519.347E-03         4.41235         4.41235
            2583         677.616         677.616     385.119E-03     385.119E-03         4.79534         4.79534
            2584         679.414         679.414     277.893E-03     277.893E-03         5.07305         5.07305
            2585         681.380         681.380     191.473E-03     191.473E-03         5.26774         5.26774
            2586         683.469         683.469     121.428E-03     121.428E-03         5.39498         5.39498
            2587         685.648         685.648     63.7471E-03     63.7471E-03         5.46800         5.46800
            2588         687.888         687.888     14.9600E-03     14.9600E-03         5.49585         5.49585
            2589         690.163         690.163    -28.0392E-03    -28.0392E-03         5.48537         5.48537
            2590         692.453         692.453    -68.2802E-03    -68.2802E-03         5.44030         5.44030
            2591         694.739         694.739    -108.546E-03    -108.546E-03         5.36222         5.36222
            2592         697.003         697.003    -151.663E-03    -151.663E-03         5.25010         5.25010
            2593         699.225         699.225    -200.234E-03    -200.234E-03         5.10076         5.10076
            2594         701.388         701.388    -256.787E-03    -256.787E-03         4.90876         4.90876
            2595         703.470         703.470    -323.425E-03    -323.425E-03         4.66676         4.66676
            2596         705.448         705.448    -401.766E-03    -401.766E-03         4.36580         4.36580
            2597         707.295         707.295    -492.454E-03    -492.454E-03         3.99596         3.99596
            2598         708.981         708.981    -594.877E-03    -594.877E-03         3.54721         3.54721
            2599         710.473         710.473    -706.503E-03    -706.503E-03         3.01070         3.01070
            2600         711.735         711.735    -822.493E-03    -822.493E-03         2.38054         2.38054
            2601         712.731         712.731    -935.047E-03    -935.047E-03         1.65584         1.65584
            2602         713.424         713.424        -1.03330        -1.03330     843.281E-03     843.281E-03
            2603         713.781         713.781        -1.10330        -1.10330    -40.4399E-03    -40.4399E-03
            2604         713.779         713.779        -1.12891        -1.12891    -966.242E-03    -966.242E-03
            2605         713.407         713.407        -1.09335        -1.09335        -1.89145        -1.89145
            2606         712.672         712.672    -981.707E-03    -981.707E-03        -2.75998        -2.75998
            2607         711.604         711.604    -784.065E-03    -784.065E-03        -3.50399        -3.50399
            2608         903.316         903.316         111.187         111.187        -143.826        -143.826
            2609         827.764         827.764         31.3700         31.3700        -78.0948        -78.0948
            2610         768.329         768.329         16.6687         16.6687        -44.8067        -44.8067
            2611         732.458         732.458         9.30811         9.30811        -29.3420        -29.3420
            2612         707.788         707.788         5.80283         5.80283        -19.1361        -19.1361
            2613         691.220         691.220         3.95431         3.95431        -13.0525        -13.0525
            2614         679.776         679.776         2.70881         2.70881        -8.65846        -8.65846
            2615         672.052         672.052         2.00560         2.00560        -5.68586        -5.68586
            2616         666.971         666.971         1.45795         1.45795        -3.45006        -3.45006
            2617         663.860         663.860         1.11994         1.11994        -1.83157        -1.83157
            2618         662.225         662.225     843.043E-03     843.043E-03    -590.733E-03    -590.733E-03
            2619         661.714         661.714     656.546E-03     656.546E-03     337.983E-03     337.983E-03
            2620         662.062         662.062     502.190E-03     502.190E-03         1.05352         1.05352
            2621         663.069         663.069     390.667E-03     390.667E-03         1.59449         1.59449
            2622         664.583         664.583     298.747E-03     298.747E-03         2.00785         2.00785
            2623         666.483         666.483     229.036E-03     229.036E-03         2.31732         2.31732
            2624         668.676         668.676     172.045E-03     172.045E-03         2.54790         2.54790
            2625         671.087         671.087     127.510E-03     127.510E-03         2.71456         2.71456
            2626         673.657         673.657     91.3491E-03     91.3491E-03         2.83176         2.83176
            2627         676.341         676.341     62.4924E-03     62.4924E-03         2.90903         2.90903
            2628         679.100         679.100     38.9660E-03     38.9660E-03         2.95495         2.95495
            2629         681.905         681.905     19.5842E-03     19.5842E-03         2.97531         2.97531
            2630         684.730         684.730     3.15743E-03     3.15743E-03         2.97488         2.97488
            2631         687.555         687.555    -11.4488E-03    -11.4488E-03         2.95654         2.95654
            2632         690.363         690.363    -25.1734E-03    -25.1734E-03         2.92210         2.92210
            2633         693.135         693.135    -39.0930E-03    -39.0930E-03         2.87186         2.87186
            2634         695.856         695.856    -54.0879E-03    -54.0879E-03         2.80499         2.80499
            2635         698.508         698.508    -71.1643E-03    -71.1643E-03         2.71936         2.71936
            2636         701.070         701.070    -91.1310E-03    -91.1310E-03         2.61170         2.61170
            2637         703.518         703.518    -114.796E-03    -114.796E-03         2.47765         2.47765
            2638         705.825         705.825    -142.669E-03    -142.669E-03         2.31201         2.31201
            2639         707.957         707.957    -175.019E-03    -175.019E-03         2.10904         2.10904
            2640         709.876         709.876    -211.561E-03    -211.561E-03         1.86294         1.86294
            2641         711.540         711.540    -251.413E-03    -251.413E-03         1.56868         1.56868
            2642         712.902         712.902    -292.757E-03    -292.757E-03         1.22282         1.22282
            2643         713.913         713.913    -332.817E-03    -332.817E-03     824.901E-03     824.901E-03
            2644         714.526         714.526    -367.602E-03    -367.602E-03     378.663E-03     378.663E-03
            2645         714.701         714.701    -392.145E-03    -392.145E-03    -106.393E-03    -106.393E-03
            2646         714.411         714.411    -400.601E-03    -400.601E-03    -613.901E-03    -613.901E-03
            2647         713.644         713.644    -387.073E-03    -387.073E-03        -1.11996        -1.11996
            2648         712.418         712.418    -346.388E-03    -346.388E-03        -1.59339        -1.59339
            2649         710.780         710.780    -275.039E-03    -275.039E-03        -1.99623        -1.99623
            2650         744.197         744.197        -23.2918        -23.2918         1.69921         1.69921
            2651         739.407         739.407        -16.1619        -16.1619         6.19199         6.19199
            2652         734.266         734.266        -10.7435        -10.7435         8.36164         8.36164
            2653         729.505         729.505        -6.87970        -6.87970         9.16298         9.16298
            2654         725.311         725.311        -4.23858        -4.23858         9.21056         9.21056
            2655         721.667         721.667        -2.49475        -2.49475         8.86374         8.86374
            2656         718.482         718.482        -1.38525        -1.38525         8.30605         8.30605
            2657         715.648         715.648    -711.650E-03    -711.650E-03         7.60906         7.60906
            2658         713.066         713.066    -328.477E-03    -328.477E-03         6.76741         6.76741
            2659         710.647         710.647    -129.743E-03    -129.743E-03         5.71549         5.71549
            2660         708.323         708.323    -39.3307E-03    -39.3307E-03         4.32920         4.32920
            2661         706.044         706.044    -6.67926E-03    -6.67926E-03         2.42973         2.42973
            2662         749.335         749.335        -13.8009        -13.8009         11.3732         11.3732
            2663         741.362         741.362        -6.69534        -6.69534         13.0746         13.0746
            2664         734.556         734.556        -2.29195        -2.29195         12.9392         12.9392
            2665         728.986         728.986     223.074E-03     223.074E-03         12.0455         12.0455
            2666         724.448         724.448         1.50209         1.50209         10.9163         10.9163
            2667         720.678         720.678         2.00024         2.00024         9.77677         9.77677
            2668         717.445         717.445         2.01903         2.01903         8.69933         8.69933
            2669         714.554         714.554         1.75706         1.75706         7.67531         7.67531
            2670         711.838         711.838         1.35006         1.35006         6.64654         6.64654
            2671         709.150         709.150     897.898E-03     897.898E-03         5.51384         5.51384
            2672         706.345         706.345     482.546E-03     482.546E-03         4.13196         4.13196
            2673         703.279         703.279     179.963E-03     179.963E-03         2.30699         2.30699
            2674         749.971         749.971         3.49448         3.49448         19.5235         19.5235
            2675         739.999         739.999         7.53076         7.53076         17.4482         17.4482
            2676         732.590         732.590         8.89519         8.89519         14.9354         14.9354
            2677         727.012         727.012         8.82731         8.82731         12.6121         12.6121
            2678         722.668         722.668         8.02550         8.02550         10.6536         10.6536
            2679         719.131         719.131         6.87449         6.87449         9.05024         9.05024
            2680         716.090         716.090         5.58463         5.58463         7.73445         7.73445
            2681         713.309         713.309         4.27766         4.27766         6.61868         6.61868
            2682         710.589         710.589         3.03285         3.03285         5.60429         5.60429
            2683         707.742         707.742         1.91509         1.91509         4.57743         4.57743
            2684         704.567         704.567     994.830E-03     994.830E-03         3.39725         3.39725
            2685         700.831         700.831     362.599E-03     362.599E-03         1.88721         1.88721
            2686         745.789         745.789         26.0910         26.0910         21.3680         21.3680
            2687         735.985         735.985         23.7451         23.7451         16.5654         16.5654
            2688         729.250         729.250         20.5024         20.5024         12.8636         12.8636
            2689         724.370         724.370         17.1709         17.1709         10.1089         10.1089
            2690         720.611         720.611         14.0460         14.0460         8.06816         8.06816
            2691         717.523         717.523         11.2070         11.2070         6.54504         6.54504
            2692         714.802         714.802         8.66395         8.66395         5.38663         5.38663
            2693         712.220         712.220         6.40678         6.40678         4.47236         4.47236
            2694         709.575         709.575         4.43071         4.43071         3.69923         3.69923
            2695         706.663         706.663         2.75020         2.75020         2.96959         2.96959
            2696         703.249         703.249         1.41192         1.41192         2.17818         2.17818
            2697         699.037         699.037     509.867E-03     509.867E-03         1.20185         1.20185
            2698         739.857         739.857         46.2372         46.2372         13.5342         13.5342
            2699         731.755         731.755         36.7034         36.7034         9.30290         9.30290
            2700         726.272         726.272         29.1038         29.1038         6.55292         6.55292
            2701         722.256         722.256         23.0324         23.0324         4.71378         4.71378
            2702         719.097         719.097         18.1008         18.1008         3.45167         3.45167
            2703         716.426         716.426         14.0269         14.0269         2.57140         2.57140
            2704         713.989         713.989         10.6110         10.6110         1.94866         1.94866
            2705         711.586         711.586         7.71992         7.71992         1.49833         1.49833
            2706         709.030         709.030         5.27462         5.27462         1.15849         1.15849
            2707         706.118         706.118         3.24620         3.24620     879.088E-03     879.088E-03
            2708         702.604         702.604         1.65837         1.65837     616.074E-03     616.074E-03
            2709         698.164         698.164     598.166E-03     598.166E-03     328.240E-03     328.240E-03
            2710         737.501         737.501         53.1417         53.1417        -2.33498        -2.33498
            2711         730.391         730.391         40.5228         40.5228        -2.51663        -2.51663
            2712         725.459         725.459         31.3645         31.3645        -2.51482        -2.51482
            2713         721.776         721.776         24.4132         24.4132        -2.44691        -2.44691
            2714         718.829         718.829         18.9544         18.9544        -2.34266        -2.34266
            2715         716.301         716.301         14.5509         14.5509        -2.21499        -2.21499
            2716         713.963         713.963         10.9235         10.9235        -2.06627        -2.06627
            2717         711.630         711.630         7.89514         7.89514        -1.89281        -1.89281
            2718         709.123         709.123         5.36213         5.36213        -1.68526        -1.68526
            2719         706.248         706.248         3.28101         3.28101        -1.42620        -1.42620
            2720         702.765         702.765         1.66673         1.66673        -1.08601        -1.08601
            2721         698.368         698.368     598.171E-03     598.171E-03    -616.311E-03    -616.311E-03
            2722         741.400         741.400         40.9615         40.9615        -17.7631        -17.7631
            2723         733.126         733.126         32.5303         32.5303        -13.9326        -13.9326
            2724         727.457         727.457         25.8820         25.8820        -11.2945        -11.2945
            2725         723.288         723.288         20.5407         20.5407        -9.39237        -9.39237
            2726         720.018         720.018         16.1717         16.1717        -7.97104        -7.97104
            2727         717.274         717.274         12.5374         12.5374        -6.86633        -6.86633
            2728         714.802         714.802         9.47381         9.47381        -5.96420        -5.96420
            2729         712.401         712.401         6.87359         6.87359        -5.17668        -5.17668
            2730         709.891         709.891         4.67499         4.67499        -4.42640        -4.42640
            2731         707.082         707.082         2.85855         2.85855        -3.63317        -3.63317
            2732         703.758         703.758         1.44871         1.44871        -2.69926        -2.69926
            2733         699.656         699.656     518.374E-03     518.374E-03        -1.50105        -1.50105
            2734         747.541         747.541         16.3391         16.3391        -22.8688        -22.8688
            2735         737.838         737.838         16.1262         16.1262        -19.2585        -19.2585
            2736         731.037         731.037         14.5732         14.5732        -16.2143        -16.2143
            2737         726.040         726.040         12.5770         12.5770        -13.7750        -13.7750
            2738         722.175         722.175         10.4938         10.4938        -11.8281        -11.8281
            2739         719.021         719.021         8.47771         8.47771        -10.2492        -10.2492
            2740         716.283         716.283         6.59723         6.59723        -8.92286        -8.92286
            2741         713.743         713.743         4.88634         4.88634        -7.74434        -7.74434
            2742         711.213         711.213         3.37035         3.37035        -6.61058        -6.61058
            2743         708.519         708.519         2.08008         2.08008        -5.40850        -5.40850
            2744         705.479         705.479         1.06157         1.06157        -3.99939        -3.99939
            2745         701.889         701.889     382.552E-03     382.552E-03        -2.21267        -2.21267
            2746         749.290         749.290        -6.93314        -6.93314        -16.5829        -16.5829
            2747         740.659         740.659        -1.23303        -1.23303        -16.8244        -16.8244
            2748         733.854         733.854         1.78319         1.78319        -15.8086        -15.8086
            2749         728.548         728.548         3.15919         3.15919        -14.4200        -14.4200
            2750         724.343         724.343         3.57124         3.57124        -13.0012        -13.0012
            2751         720.902         720.902         3.42477         3.42477        -11.6568        -11.6568
            2752         717.970         717.970         2.96844         2.96844        -10.3946        -10.3946
            2753         715.343         715.343         2.35976         2.35976        -9.17136        -9.17136
            2754         712.854         712.854         1.70519         1.70519        -7.91239        -7.91239
            2755         710.359         710.359         1.08412         1.08412        -6.51187        -6.51187
            2756         707.721         707.721     563.177E-03     563.177E-03        -4.82569        -4.82569
            2757         704.810         704.810     204.961E-03     204.961E-03        -2.66955        -2.66955
            2758         744.483         744.483        -20.4702        -20.4702        -5.67169        -5.67169
            2759         739.293         739.293        -13.4828        -13.4828        -9.69637        -9.69637
            2760         734.107         734.107        -8.43513        -8.43513        -11.4392        -11.4392
            2761         729.511         729.511        -5.01259        -5.01259        -11.9039        -11.9039
            2762         725.590         725.590        -2.79410        -2.79410        -11.6872        -11.6872
            2763         722.257         722.257        -1.41698        -1.41698        -11.1089        -11.1089
            2764         719.384         719.384    -612.058E-03    -612.058E-03        -10.3188        -10.3188
            2765         716.845         716.845    -184.448E-03    -184.448E-03        -9.36748        -9.36748
            2766         714.530         714.530     5.67183E-03     5.67183E-03        -8.23810        -8.23810
            2767         712.345         712.345     59.1113E-03     59.1113E-03        -6.86156        -6.86156
            2768         710.216         710.216     48.2727E-03     48.2727E-03        -5.11641        -5.11641
            2769         708.094         708.094     21.6857E-03     21.6857E-03        -2.83579        -2.83579
            2770         662.841         662.841         193.080         193.080         35.9187         35.9187
            2771         669.473         669.473         177.296         177.296         35.7221         35.7221
            2772         675.965         675.965         161.495         161.495         34.6351         34.6351
            2773         682.152         682.152         145.976         145.976         33.0133         33.0133
            2774         687.923         687.923         130.947         130.947         30.9148         30.9148
            2775         693.183         693.183         116.594         116.594         28.4094         28.4094
            2776         697.860         697.860         103.074         103.074         25.6002         25.6002
            2777         701.921         701.921         90.4961         90.4961         22.5904         22.5904
            2778         705.351         705.351         78.9321         78.9321         19.4884         19.4884
            2779         708.169         708.169         68.4106         68.4106         16.3911         16.3911
            2780         710.405         710.405         58.9294         58.9294         13.3793         13.3793
            2781         712.109         712.109         50.4582         50.4582         10.5190         10.5190
            2782         713.331         713.331         42.9479         42.9479         7.85359         7.85359
            2783         714.130         714.130         36.3375         36.3375         5.41396         5.41396
            2784         714.561         714.561         30.5573         30.5573         3.21187         3.21187
            2785         714.676         714.676         25.5365         25.5365         1.25130         1.25130
            2786         714.523         714.523         21.2015         21.2015    -476.411E-03    -476.411E-03
            2787         714.145         714.145         17.4830         17.4830        -1.98360        -1.98360
            2788         713.581         713.581         14.3123         14.3123        -3.28948        -3.28948
            2789         712.863         712.863         11.6260         11.6260        -4.41423        -4.41423
            2790         712.019         712.019         9.36337         9.36337        -5.38109        -5.38109
            2791         711.074         711.074         7.46843         7.46843        -6.21292        -6.21292
            2792         710.048         710.048         5.88816         5.88816        -6.93363        -6.93363
            2793         708.958         708.958         4.57363         4.57363        -7.56639        -7.56639
            2794         707.820         707.820         3.47847         3.47847        -8.13479        -8.13479
            2795         706.646         706.646         2.55931         2.55931        -8.66207        -8.66207
            2796         705.447         705.447         1.77458         1.77458        -9.17214        -9.17214
            2797         704.234         704.234         1.08442         1.08442        -9.68950        -9.68950
            2798         703.020         703.020     449.557E-03     449.557E-03        -10.2402        -10.2402
            2799         701.815         701.815    -169.345E-03    -169.345E-03        -10.8523        -10.8523
            2800         700.636         700.636    -813.091E-03    -813.091E-03        -11.5568        -11.5568
            2801         699.504         699.504        -1.52547        -1.52547        -12.3878        -12.3878
            2802         698.448         698.448        -2.35551        -2.35551        -13.3839        -13.3839
            2803         697.512         697.512        -3.36068        -3.36068        -14.5874        -14.5874
            2804         696.758         696.758        -4.61091        -4.61091        -16.0441        -16.0441
            2805         696.286         696.286        -6.19494        -6.19494        -17.7997        -17.7997
            2806         696.242         696.242        -8.22659        -8.22659        -19.8922        -19.8922
            2807         696.851         696.851        -10.8548        -10.8548        -22.3359        -22.3359
            2808         698.450         698.450        -14.2644        -14.2644        -25.0865        -25.0865
            2809         701.540         701.540        -18.6703        -18.6703        -27.9712        -27.9712
            2810         706.790         706.790        -24.2155        -24.2155        -30.5563        -30.5563
            2811         714.967         714.967        -30.7792        -30.7792        -31.9964        -31.9964
            2812         661.766         661.766         193.370         193.370         27.5961         27.5961
            2813         668.183         668.183         178.174         178.174         27.4363         27.4363
            2814         674.475         674.475         162.978         162.978         26.6136         26.6136
            2815         680.513         680.513         148.031         148.031         25.4083         25.4083
            2816         686.194         686.194         133.509         133.509         23.8499         23.8499
            2817         691.435         691.435         119.572         119.572         21.9948         21.9948
            2818         696.173         696.173         106.353         106.353         19.9040         19.9040
            2819         700.360         700.360         93.9598         93.9598         17.6547         17.6547
            2820         703.980         703.980         82.4648         82.4648         15.3199         15.3199
            2821         707.027         707.027         71.9115         71.9115         12.9707         12.9707
            2822         709.520         709.520         62.3130         62.3130         10.6690         10.6690
            2823         711.487         711.487         53.6593         53.6593         8.46383         8.46383
            2824         712.969         712.969         45.9213         45.9213         6.39421         6.39421
            2825         714.007         714.007         39.0549         39.0549         4.48383         4.48383
            2826         714.649         714.649         33.0071         33.0071         2.74863         2.74863
            2827         714.942         714.942         27.7177         27.7177         1.19204         1.19204
            2828         714.929         714.929         23.1246         23.1246    -187.201E-03    -187.201E-03
            2829         714.652         714.652         19.1635         19.1635        -1.39851        -1.39851
            2830         714.148         714.148         15.7721         15.7721        -2.45348        -2.45348
            2831         713.453         713.453         12.8889         12.8889        -3.36812        -3.36812
            2832         712.594         712.594         10.4559         10.4559        -4.15906        -4.15906
            2833         711.597         711.597         8.41732         8.41732        -4.84498        -4.84498
            2834         710.484         710.484         6.72142         6.72142        -5.44445        -5.44445
            2835         709.273         709.273         5.31908         5.31908        -5.97707        -5.97707
            2836         707.977         707.977         4.16479         4.16479        -6.46239        -6.46239
            2837         706.608         706.608         3.21568         3.21568        -6.92090        -6.92090
            2838         705.174         705.174         2.43181         2.43181        -7.37383        -7.37383
            2839         703.680         703.680         1.77536         1.77536        -7.84412        -7.84412
            2840         702.129         702.129         1.21037         1.21037        -8.35689        -8.35689
            2841         700.523         700.523     701.905E-03     701.905E-03        -8.94068        -8.94068
            2842         698.862         698.862     215.179E-03     215.179E-03        -9.62853        -9.62853
            2843         697.145         697.145    -285.902E-03    -285.902E-03        -10.4598        -10.4598
            2844         695.374         695.374    -840.845E-03    -840.845E-03        -11.4820        -11.4820
            2845         693.555         693.555        -1.49556        -1.49556        -12.7538        -12.7538
            2846         691.704         691.704        -2.30754        -2.30754        -14.3478        -14.3478
            2847         689.856         689.856        -3.35282        -3.35282        -16.3544        -16.3544
            2848         688.079         688.079        -4.73890        -4.73890        -18.8854        -18.8854
            2849         686.506         686.506        -6.62150        -6.62150        -22.0756        -22.0756
            2850         685.384         685.384        -9.23711        -9.23711        -26.0771        -26.0771
            2851         685.164         685.164        -12.9396        -12.9396        -31.0322        -31.0322
            2852         686.683         686.683        -18.2671        -18.2671        -36.9651        -36.9651
            2853         691.368         691.368        -25.8672        -25.8672        -43.5320        -43.5320
            2854         661.028         661.028         193.584         193.584         19.5194         19.5194
            2855         667.285         667.285         178.805         178.805         19.3821         19.3821
            2856         673.438         673.438         164.032         164.032         18.7915         18.7915
            2857         679.361         679.361         149.489         149.489         17.9403         17.9403
            2858         684.970         684.970         135.329         135.329         16.8548         16.8548
            2859         690.187         690.187         121.692         121.692         15.5644         15.5644
            2860         694.949         694.949         108.700         108.700         14.1149         14.1149
            2861         699.212         699.212         96.4533         96.4533         12.5520         12.5520
            2862         702.946         702.946         85.0262         85.0262         10.9268         10.9268
            2863         706.144         706.144         74.4673         74.4673         9.28597         9.28597
            2864         708.807         708.807         64.8013         64.8013         7.67170         7.67170
            2865         710.956         710.956         56.0305         56.0305         6.11971         6.11971
            2866         712.618         712.618         48.1387         48.1387         4.65608         4.65608
            2867         713.828         713.828         41.0951         41.0951         3.30100         3.30100
            2868         714.624         714.624         34.8571         34.8571         2.06463         2.06463
            2869         715.048         715.048         29.3751         29.3751     952.944E-03     952.944E-03
            2870         715.141         715.141         24.5933         24.5933    -35.7918E-03    -35.7918E-03
            2871         714.943         714.943         20.4544         20.4544    -905.645E-03    -905.645E-03
            2872         714.489         714.489         16.8992         16.8992        -1.66556        -1.66556
            2873         713.814         713.814         13.8700         13.8700        -2.32542        -2.32542
            2874         712.947         712.947         11.3099         11.3099        -2.89774        -2.89774
            2875         711.915         711.915         9.16514         9.16514        -3.39521        -3.39521
            2876         710.739         710.739         7.38423         7.38423        -3.83186        -3.83186
            2877         709.436         709.436         5.91921         5.91921        -4.22173        -4.22173
            2878         708.019         708.019         4.72516         4.72516        -4.57978        -4.57978
            2879         706.497         706.497         3.76068         3.76068        -4.92135        -4.92135
            2880         704.875         704.875         2.98750         2.98750        -5.26305        -5.26305
            2881         703.153         703.153         2.37062         2.37062        -5.62288        -5.62288
            2882         701.325         701.325         1.87793         1.87793        -6.02127        -6.02127
            2883         699.380         699.380         1.48002         1.48002        -6.48183        -6.48183
            2884         697.303         697.303         1.14964         1.14964        -7.03296        -7.03296
            2885         695.070         695.070     861.068E-03     861.068E-03        -7.70955        -7.70955
            2886         692.651         692.651     588.990E-03     588.990E-03        -8.55583        -8.55583
            2887         690.007         690.007     306.547E-03     306.547E-03        -9.62891        -9.62891
            2888         687.091         687.091    -17.3396E-03    -17.3396E-03        -11.0045        -11.0045
            2889         683.845         683.845    -423.723E-03    -423.723E-03        -12.7847        -12.7847
            2890         680.208         680.208    -971.364E-03    -971.364E-03        -15.1102        -15.1102
            2891         676.121         676.121        -1.75444        -1.75444        -18.1785        -18.1785
            2892         671.545         671.545        -2.92834        -2.92834        -22.2722        -22.2722
            2893         666.522         666.522        -4.77100        -4.77100        -27.7974        -27.7974
            2894         661.303         661.303        -7.79700        -7.79700        -35.3498        -35.3498
            2895         656.762         656.762        -13.0015        -13.0015        -45.7043        -45.7043
            2896         660.562         660.562         193.729         193.729         11.6091         11.6091
            2897         666.721         666.721         179.213         179.213         11.4897         11.4897
            2898         672.782         672.782         164.707         164.707         11.1050         11.1050
            2899         678.633         678.633         150.420         150.420         10.5761         10.5761
            2900         684.192         684.192         136.490         136.490         9.91332         9.91332
            2901         689.389         689.389         123.045         123.045         9.13925         9.13925
            2902         694.162         694.162         110.200         110.200         8.27543         8.27543
            2903         698.465         698.465         98.0502         98.0502         7.35167         7.35167
            2904         702.268         702.268         86.6708         86.6708         6.39455         6.39455
            2905         705.553         705.553         76.1139         76.1139         5.43189         5.43189
            2906         708.321         708.321         66.4097         66.4097         4.48754         4.48754
            2907         710.581         710.581         57.5682         57.5682         3.58125         3.58125
            2908         712.356         712.356         49.5814         49.5814         2.72924         2.72924
            2909         713.673         713.673         42.4262         42.4262         1.94147         1.94147
            2910         714.568         714.568         36.0677         36.0677         1.22547         1.22547
            2911         715.077         715.077         30.4620         30.4620     582.909E-03     582.909E-03
            2912         715.239         715.239         25.5591         25.5591     14.1648E-03     14.1648E-03
            2913         715.092         715.092         21.3049         21.3049    -484.630E-03    -484.630E-03
            2914         714.671         714.671         17.6437         17.6437    -917.764E-03    -917.764E-03
            2915         714.011         714.011         14.5195         14.5195        -1.29211        -1.29211
            2916         713.141         713.141         11.8772         11.8772        -1.61444        -1.61444
            2917         712.086         712.086         9.66360         9.66360        -1.89293        -1.89293
            2918         710.869         710.869         7.82834         7.82834        -2.13547        -2.13547
            2919         709.506         709.506         6.32382         6.32382        -2.35075        -2.35075
            2920         708.010         708.010         5.10606         5.10606        -2.54733        -2.54733
            2921         706.387         706.387         4.13454         4.13454        -2.73446        -2.73446
            2922         704.640         704.640         3.37259         3.37259        -2.92175        -2.92175
            2923         702.763         702.763         2.78733         2.78733        -3.11986        -3.11986
            2924         700.746         700.746         2.34984         2.34984        -3.34072        -3.34072
            2925         698.569         698.569         2.03516         2.03516        -3.59834        -3.59834
            2926         696.203         696.203         1.82238         1.82238        -3.90957        -3.90957
            2927         693.606         693.606         1.69469         1.69469        -4.29551        -4.29551
            2928         690.723         690.723         1.63932         1.63932        -4.78321        -4.78321
            2929         687.477         687.477         1.64755         1.64755        -5.40856        -5.40856
            2930         683.766         683.766         1.71409         1.71409        -6.22023        -6.22023
            2931         679.451         679.451         1.83675         1.83675        -7.28652        -7.28652
            2932         674.344         674.344         2.01355         2.01355        -8.70535        -8.70535
            2933         668.185         668.185         2.24034         2.24034        -10.6228        -10.6228
            2934         660.608         660.608         2.49899         2.49899        -13.2624        -13.2624
            2935         651.094         651.094         2.74070         2.74070        -16.9855        -16.9855
            2936         638.878         638.878         2.83489         2.83489        -22.4033        -22.4033
            2937         622.841         622.841         2.41836         2.41836        -30.6664        -30.6664
            2938         660.337         660.337         193.799         193.799         3.80481         3.80481
            2939         666.448         666.448         179.408         179.408         3.70540         3.70540
            2940         672.468         672.468         165.028         165.028         3.52529         3.52529
            2941         678.284         678.284         150.861         150.861         3.30237         3.30237
            2942         683.821         683.821         137.037         137.037         3.04595         3.04595
            2943         689.008         689.008         123.681         123.681         2.76067         2.76067
            2944         693.787         693.787         110.903         110.903         2.45813         2.45813
            2945         698.109         698.109         98.7967         98.7967         2.14548         2.14548
            2946         701.943         701.943         87.4374         87.4374         1.83331         1.83331
            2947         705.270         705.270         76.8792         76.8792         1.52891         1.52891
            2948         708.085         708.085         67.1551         67.1551         1.23940         1.23940
            2949         710.396         710.396         58.2787         58.2787     970.318E-03     970.318E-03
            2950         712.222         712.222         50.2459         50.2459     724.766E-03     724.766E-03
            2951         713.588         713.588         43.0373         43.0373     505.686E-03     505.686E-03
            2952         714.528         714.528         36.6215         36.6215     312.954E-03     312.954E-03
            2953         715.075         715.075         30.9576         30.9576     147.112E-03     147.112E-03
            2954         715.268         715.268         25.9976         25.9976     6.08973E-03     6.08973E-03
            2955         715.144         715.144         21.6897         21.6897    -111.232E-03    -111.232E-03
            2956         714.739         714.739         17.9793         17.9793    -207.748E-03    -207.748E-03
            2957         714.085         714.085         14.8113         14.8113    -285.425E-03    -285.425E-03
            2958         713.212         713.212         12.1312         12.1312    -347.249E-03    -347.249E-03
            2959         712.148         712.148         9.88633         9.88633    -395.429E-03    -395.429E-03
            2960         710.912         710.912         8.02642         8.02642    -432.670E-03    -432.670E-03
            2961         709.523         709.523         6.50414         6.50414    -461.084E-03    -461.084E-03
            2962         707.992         707.992         5.27576         5.27576    -482.985E-03    -482.985E-03
            2963         706.326         706.326         4.30112         4.30112    -500.265E-03    -500.265E-03
            2964         704.524         704.524         3.54415         3.54415    -514.890E-03    -514.890E-03
            2965         702.582         702.582         2.97281         2.97281    -528.552E-03    -528.552E-03
            2966         700.484         700.484         2.55954         2.55954    -543.000E-03    -543.000E-03
            2967         698.208         698.208         2.28119         2.28119    -559.843E-03    -559.843E-03
            2968         695.719         695.719         2.11967         2.11967    -580.799E-03    -580.799E-03
            2969         692.969         692.969         2.06195         2.06195    -607.578E-03    -607.578E-03
            2970         689.889         689.889         2.10103         2.10103    -642.147E-03    -642.147E-03
            2971         686.388         686.388         2.23611         2.23611    -686.594E-03    -686.594E-03
            2972         682.339         682.339         2.47442         2.47442    -743.596E-03    -743.596E-03
            2973         677.566         677.566         2.83131         2.83131    -816.058E-03    -816.058E-03
            2974         671.824         671.824         3.33444         3.33444    -908.208E-03    -908.208E-03
            2975         664.757         664.757         4.02307         4.02307        -1.02435        -1.02435
            2976         655.842         655.842         4.95776         4.95776        -1.17140        -1.17140
            2977         644.272         644.272         6.21795         6.21795        -1.35420        -1.35420
            2978         628.738         628.738         7.92698         7.92698        -1.57703        -1.57703
            2979         606.896         606.896         10.2606         10.2606        -1.79287        -1.79287
            2980         660.337         660.337         193.799         193.799        -3.95353        -3.95353
            2981         666.452         666.452         179.403         179.403        -4.01435        -4.01435
            2982         672.475         672.475         165.016         165.016        -3.98164        -3.98164
            2983         678.295         678.295         150.841         150.841        -3.88801        -3.88801
            2984         683.836         683.836         137.008         137.008        -3.73789        -3.73789
            2985         689.028         689.028         123.641         123.641        -3.53182        -3.53182
            2986         693.809         693.809         110.852         110.852        -3.27874        -3.27874
            2987         698.134         698.134         98.7358         98.7358        -2.98457        -2.98457
            2988         701.968         701.968         87.3675         87.3675        -2.66041        -2.66041
            2989         705.294         705.294         76.8017         76.8017        -2.31533        -2.31533
            2990         708.107         708.107         67.0721         67.0721        -1.95949        -1.95949
            2991         710.414         710.414         58.1922         58.1922        -1.60223        -1.60223
            2992         712.235         712.235         50.1579         50.1579        -1.25084        -1.25084
            2993         713.596         713.596         42.9499         42.9499    -912.604E-03    -912.604E-03
            2994         714.529         714.529         36.5364         36.5364    -591.453E-03    -591.453E-03
            2995         715.071         715.071         30.8760         30.8760    -291.655E-03    -291.655E-03
            2996         715.258         715.258         25.9207         25.9207    -14.2240E-03    -14.2240E-03
            2997         715.129         715.129         21.6180         21.6180     239.435E-03     239.435E-03
            2998         714.720         714.720         17.9131         17.9131     470.439E-03     470.439E-03
            2999         714.064         714.064         14.7505         14.7505     679.595E-03     679.595E-03
            3000         713.191         713.191         12.0756         12.0756     869.436E-03     869.436E-03
            3001         712.127         712.127         9.83523         9.83523         1.04233         1.04233
            3002         710.895         710.895         7.97886         7.97886         1.20181         1.20181
            3003         709.512         709.512         6.45896         6.45896         1.35145         1.35145
            3004         707.990         707.990         5.23137         5.23137         1.49573         1.49573
            3005         706.336         706.336         4.25564         4.25564         1.63951         1.63951
            3006         704.552         704.552         3.49516         3.49516         1.78866         1.78866
            3007         702.631         702.631         2.91735         2.91735         1.94997         1.94997
            3008         700.562         700.562         2.49374         2.49374         2.13182         2.13182
            3009         698.323         698.323         2.20017         2.20017         2.34445         2.34445
            3010         695.883         695.883         2.01689         2.01689         2.60102         2.60102
            3011         693.196         693.196         1.92880         1.92880         2.91848         2.91848
            3012         690.202         690.202         1.92558         1.92558         3.31959         3.31959
            3013         686.816         686.816         2.00201         2.00201         3.83499         3.83499
            3014         682.926         682.926         2.15795         2.15795         4.50786         4.50786
            3015         678.378         678.378         2.39850         2.39850         5.39913         5.39913
            3016         672.958         672.958         2.73307         2.73307         6.59967         6.59967
            3017         666.371         666.371         3.17370         3.17370         8.24526         8.24526
            3018         658.193         658.193         3.72865         3.72865         10.5533         10.5533
            3019         647.808         647.808         4.38814         4.38814         13.8778         13.8778
            3020         634.299         634.299         5.08163         5.08163         18.8504         18.8504
            3021         616.349         616.349         5.51766         5.51766         26.6774         26.6774
            3022         660.562         660.562         193.731         193.731        -11.7360        -11.7360
            3023         666.730         666.730         179.202         179.202        -11.7511        -11.7511
            3024         672.801         672.801         164.679         164.679        -11.4908        -11.4908
            3025         678.663         678.663         150.370         150.370        -11.0708        -11.0708
            3026         684.234         684.234         136.415         136.415        -10.4968        -10.4968
            3027         689.441         689.441         122.943         122.943        -9.78809        -9.78809
            3028         694.223         694.223         110.070         110.070        -8.96392        -8.96392
            3029         698.531         698.531         97.8933         97.8933        -8.05335        -8.05335
            3030         702.336         702.336         86.4899         86.4899        -7.08352        -7.08352
            3031         705.619         705.619         75.9134         75.9134        -6.08412        -6.08412
            3032         708.380         708.380         66.1946         66.1946        -5.08176        -5.08176
            3033         710.629         710.629         57.3442         57.3442        -4.09959        -4.09959
            3034         712.391         712.391         49.3539         49.3539        -3.15754        -3.15754
            3035         713.693         713.693         42.2002         42.2002        -2.26923        -2.26923
            3036         714.572         714.572         35.8476         35.8476        -1.44566        -1.44566
            3037         715.065         715.065         30.2513         30.2513    -691.528E-03    -691.528E-03
            3038         715.212         715.212         25.3603         25.3603    -9.79973E-03    -9.79973E-03
            3039         715.052         715.052         21.1197         21.1197     601.423E-03     601.423E-03
            3040         714.622         714.622         17.4728         17.4728         1.14496         1.14496
            3041         713.956         713.956         14.3628         14.3628         1.62681         1.62681
            3042         713.084         713.084         11.7338         11.7338         2.05338         2.05338
            3043         712.032         712.032         9.53186         9.53186         2.43298         2.43298
            3044         710.824         710.824         7.70591         7.70591         2.77416         2.77416
            3045         709.477         709.477         6.20762         6.20762         3.08673         3.08673
            3046         708.004         708.004         4.99219         4.99219         3.38090         3.38090
            3047         706.413         706.413         4.01817         4.01817         3.66814         3.66814
            3048         704.708         704.708         3.24770         3.24770         3.96096         3.96096
            3049         702.888         702.888         2.64641         2.64641         4.27377         4.27377
            3050         700.943         700.943         2.18336         2.18336         4.62323         4.62323
            3051         698.860         698.860         1.83087         1.83087         5.02950         5.02950
            3052         696.616         696.616         1.56430         1.56430         5.51731         5.51731
            3053         694.180         694.180         1.36158         1.36158         6.11812         6.11812
            3054         691.510         691.510         1.20245         1.20245         6.87252         6.87252
            3055         688.551         688.551         1.06731         1.06731         7.83460         7.83460
            3056         685.232         685.232     934.807E-03     934.807E-03         9.07726         9.07726
            3057         681.465         681.465     778.239E-03     778.239E-03         10.7022         10.7022
            3058         677.138         677.138     557.714E-03     557.714E-03         12.8526         12.8526
            3059         672.120         672.120     207.787E-03     207.787E-03         15.7376         15.7376
            3060         666.266         666.266    -391.221E-03    -391.221E-03         19.6653         19.6653
            3061         659.450         659.450        -1.46463        -1.46463         25.1078         25.1078
            3062         651.679         651.679        -3.47415        -3.47415         32.7891         32.7891
            3063         643.435         643.435        -7.36686        -7.36686         43.7584         43.7584
            3064         661.029         661.029         193.590         193.590        -19.6173        -19.6173
            3065         667.297         667.297         178.795         178.795        -19.5811        -19.5811
            3066         673.464         673.464         163.999         163.999        -19.0839        -19.0839
            3067         679.403         679.403         149.428         149.428        -18.3140        -18.3140
            3068         685.026         685.026         135.235         135.235        -17.2939        -17.2939
            3069         690.257         690.257         121.562         121.562        -16.0502        -16.0502
            3070         695.029         695.029         108.534         108.534        -14.6273        -14.6273
            3071         699.299         699.299         96.2520         96.2520        -13.0704        -13.0704
            3072         703.034         703.034         84.7944         84.7944        -11.4317        -11.4317
            3073         706.228         706.228         74.2106         74.2106        -9.75941        -9.75941
            3074         708.881         708.881         64.5267         64.5267        -8.09839        -8.09839
            3075         711.016         711.016         55.7451         55.7451        -6.48716        -6.48716
            3076         712.660         712.660         47.8495         47.8495        -4.95477        -4.95477
            3077         713.850         713.850         40.8086         40.8086        -3.52427        -3.52427
            3078         714.625         714.625         34.5788         34.5788        -2.20833        -2.20833
            3079         715.028         715.028         29.1093         29.1093        -1.01518        -1.01518
            3080         715.102         715.102         24.3432         24.3432     55.1879E-03     55.1879E-03
            3081         714.887         714.887         20.2219         20.2219         1.00543         1.00543
            3082         714.421         714.421         16.6851         16.6851         1.84360         1.84360
            3083         713.739         713.739         13.6741         13.6741         2.57896         2.57896
            3084         712.870         712.870         11.1311         11.1311         3.22386         3.22386
            3085         711.841         711.841         9.00139         9.00139         3.79107         3.79107
            3086         710.676         710.676         7.23262         7.23262         4.29505         4.29505
            3087         709.392         709.392         5.77598         5.77598         4.75051         4.75051
            3088         708.004         708.004         4.58560         4.58560         5.17340         5.17340
            3089         706.522         706.522         3.61900         3.61900         5.58033         5.58033
            3090         704.952         704.952         2.83656         2.83656         5.98951         5.98951
            3091         703.298         703.298         2.20160         2.20160         6.42092         6.42092
            3092         701.557         701.557         1.67974         1.67974         6.89739         6.89739
            3093         699.725         699.725         1.23861         1.23861         7.44547         7.44547
            3094         697.793         697.793     846.906E-03     846.906E-03         8.09709         8.09709
            3095         695.750         695.750     473.338E-03     473.338E-03         8.89134         8.89134
            3096         693.579         693.579     84.8735E-03     84.8735E-03         9.87739         9.87739
            3097         691.264         691.264    -356.205E-03    -356.205E-03         11.1178         11.1178
            3098         688.792         688.792    -896.422E-03    -896.422E-03         12.6941         12.6941
            3099         686.154         686.154        -1.59919        -1.59919         14.7127         14.7127
            3100         683.362         683.362        -2.55564        -2.55564         17.3155         17.3155
            3101         680.474         680.474        -3.90796        -3.90796         20.6889         20.6889
            3102         677.635         677.635        -5.88010        -5.88010         25.0789         25.0789
            3103         675.178         675.178        -8.84758        -8.84758         30.7866         30.7866
            3104         673.815         673.815        -13.4256        -13.4256         38.1245         38.1245
            3105         674.954         674.954        -20.5512        -20.5512         47.2217         47.2217
            3106         661.766         661.766         193.376         193.376        -27.6642        -27.6642
            3107         668.195         668.195         178.165         178.165        -27.5725        -27.5725
            3108         674.501         674.501         162.947         162.947        -26.8115        -26.8115
            3109         680.553         680.553         147.973         147.973        -25.6597        -25.6597
            3110         686.248         686.248         133.419         133.419        -24.1434        -24.1434
            3111         691.502         691.502         119.447         119.447        -22.3170        -22.3170
            3112         696.249         696.249         106.194         106.194        -20.2407        -20.2407
            3113         700.441         700.441         93.7684         93.7684        -17.9916        -17.9916
            3114         704.060         704.060         82.2454         82.2454        -15.6438        -15.6438
            3115         707.101         707.101         71.6700         71.6700        -13.2700        -13.2700
            3116         709.585         709.585         62.0560         62.0560        -10.9342        -10.9342
            3117         711.537         711.537         53.3938         53.3938        -8.68759        -8.68759
            3118         713.001         713.001         45.6538         45.6538        -6.57132        -6.57132
            3119         714.019         714.019         38.7912         38.7912        -4.61097        -4.61097
            3120         714.641         714.641         32.7523         32.7523        -2.82418        -2.82418
            3121         714.914         714.914         27.4754         27.4754        -1.21568        -1.21568
            3122         714.883         714.883         22.8976         22.8976     214.707E-03     214.707E-03
            3123         714.591         714.591         18.9534         18.9534         1.47569         1.47569
            3124         714.076         714.076         15.5795         15.5795         2.57833         2.57833
            3125         713.373         713.373         12.7135         12.7135         3.53840         3.53840
            3126         712.512         712.512         10.2966         10.2966         4.37241         4.37241
            3127         711.519         711.519         8.27228         8.27228         5.09913         5.09913
            3128         710.416         710.416         6.58804         6.58804         5.73735         5.73735
            3129         709.222         709.222         5.19408         5.19408         6.30699         6.30699
            3130         707.952         707.952         4.04412         4.04412         6.82802         6.82802
            3131         706.617         706.617         3.09445         3.09445         7.32147         7.32147
            3132         705.228         705.228         2.30408         2.30408         7.80913         7.80913
            3133         703.793         703.793         1.63388         1.63388         8.31459         8.31459
            3134         702.316         702.316         1.04623         1.04623         8.86363         8.86363
            3135         700.805         700.805     504.014E-03     504.014E-03         9.48539         9.48539
            3136         699.265         699.265    -30.4490E-03    -30.4490E-03         10.2134         10.2134
            3137         697.703         697.703    -597.040E-03    -597.040E-03         11.0870         11.0870
            3138         696.132         696.132        -1.24032        -1.24032         12.1532         12.1532
            3139         694.573         694.573        -2.01279        -2.01279         13.4684         13.4684
            3140         693.065         693.065        -2.98073        -2.98073         15.1002         15.1002
            3141         691.670         691.670        -4.23107        -4.23107         17.1288         17.1288
            3142         690.502         690.502        -5.88511        -5.88511         19.6460         19.6460
            3143         689.749         689.749        -8.11205        -8.11205         22.7487         22.7487
            3144         689.732         689.732        -11.1580        -11.1580         26.5172         26.5172
            3145         690.987         690.987        -15.3565        -15.3565         30.9598         30.9598
            3146         694.368         694.368        -21.1352        -21.1352         35.8742         35.8742
            3147         701.146         701.146        -28.8630        -28.8630         40.6340         40.6340
            3148         662.838         662.838         193.084         193.084        -35.9553        -35.9553
            3149         669.478         669.478         177.288         177.288        -35.7916        -35.7916
            3150         675.979         675.979         161.473         161.473        -34.7345        -34.7345
            3151         682.176         682.176         145.937         145.937        -33.1385        -33.1385
            3152         687.955         687.955         130.887         130.887        -31.0601        -31.0601
            3153         693.222         693.222         116.513         116.513        -28.5675        -28.5675
            3154         697.904         697.904         102.972         102.972        -25.7637        -25.7637
            3155         701.968         701.968         90.3740         90.3740        -22.7519        -22.7519
            3156         705.396         705.396         78.7934         78.7934        -19.6415        -19.6415
            3157         708.211         708.211         68.2591         68.2591        -16.5301        -16.5301
            3158         710.439         710.439         58.7694         58.7694        -13.5000        -13.5000
            3159         712.133         712.133         50.2940         50.2940        -10.6182        -10.6182
            3160         713.343         713.343         42.7835         42.7835        -7.92931        -7.92931
            3161         714.130         714.130         36.1766         36.1766        -5.46520        -5.46520
            3162         714.547         714.547         30.4026         30.4026        -3.23829        -3.23829
            3163         714.650         714.650         25.3902         25.3902        -1.25327        -1.25327
            3164         714.486         714.486         21.0652         21.0652     498.175E-03     498.175E-03
            3165         714.099         714.099         17.3575         17.3575         2.02803         2.02803
            3166         713.528         713.528         14.1978         14.1978         3.35538         3.35538
            3167         712.805         712.805         11.5223         11.5223         4.50029         4.50029
            3168         711.961         711.961         9.26975         9.26975         5.48600         5.48600
            3169         711.018         711.018         7.38372         7.38372         6.33541         6.33541
            3170         709.998         709.998         5.81080         5.81080         7.07251         7.07251
            3171         708.919         708.919         4.50171         4.50171         7.72058         7.72058
            3172         707.795         707.795         3.40963         3.40963         8.30331         8.30331
            3173         706.641         706.641         2.49077         2.49077         8.84405         8.84405
            3174         705.469         705.469         1.70299         1.70299         9.36677         9.36677
            3175         704.290         704.290         1.00578         1.00578         9.89598         9.89598
            3176         703.117         703.117     359.035E-03     359.035E-03         10.4577         10.4577
            3177         701.966         701.966    -277.644E-03    -277.644E-03         11.0795         11.0795
            3178         700.855         700.855    -946.380E-03    -946.380E-03         11.7919         11.7919
            3179         699.807         699.807        -1.69264        -1.69264         12.6279         12.6279
            3180         698.859         698.859        -2.56741        -2.56741         13.6240         13.6240
            3181         698.058         698.058        -3.63056        -3.63056         14.8191         14.8191
            3182         697.479         697.479        -4.95432        -4.95432         16.2531         16.2531
            3183         697.229         697.229        -6.62962        -6.62962         17.9618         17.9618
            3184         697.468         697.468        -8.76986        -8.76986         19.9676         19.9676
            3185         698.430         698.430        -11.5192        -11.5192         22.2590         22.2590
            3186         700.457         700.457        -15.0432        -15.0432         24.7518         24.7518
            3187         704.021         704.021        -19.5111        -19.5111         27.2215         27.2215
            3188         709.714         709.714        -24.9769        -24.9769         29.1928         29.1928
            3189         718.147         718.147        -31.2004        -31.2004         29.8111         29.8111
            3190         730.057         730.057        -25.8477        -25.8477        -11.4418        -11.4418
            3191         723.747         723.747        -23.6473        -23.6473        -14.6791        -14.6791
            3192         718.205         718.205        -20.6525        -20.6525        -16.5156        -16.5156
            3193         713.670         713.670        -17.4576        -17.4576        -17.2708        -17.2708
            3194         710.157         710.157        -14.4259        -14.4259        -17.3161        -17.3161
            3195         707.561         707.561        -11.7227        -11.7227        -16.9442        -16.9442
            3196         705.731         705.731        -9.39828        -9.39828        -16.3636        -16.3636
            3197         704.518         704.518        -7.43919        -7.43919        -15.7039        -15.7039
            3198         703.789         703.789        -5.80649        -5.80649        -15.0404        -15.0404
            3199         703.439         703.439        -4.45032        -4.45032        -14.4112        -14.4112
            3200         703.381         703.381        -3.31958        -3.31958        -13.8314        -13.8314
            3201         703.548         703.548        -2.36443        -2.36443        -13.3016        -13.3016
            3202         703.889         703.889        -1.53776        -1.53776        -12.8139        -12.8139
            3203         704.365         704.365    -795.120E-03    -795.120E-03        -12.3549        -12.3549
            3204         704.944         704.944    -94.0860E-03    -94.0860E-03        -11.9084        -11.9084
            3205         705.602         705.602     606.101E-03     606.101E-03        -11.4557        -11.4557
            3206         706.319         706.319         1.34573         1.34573        -10.9767        -10.9767
            3207         707.080         707.080         2.16467         2.16467        -10.4498        -10.4498
            3208         707.871         707.871         3.10403         3.10403        -9.85214        -9.85214
            3209         708.679         708.679         4.20567         4.20567        -9.15889        -9.15889
            3210         709.491         709.491         5.51454         5.51454        -8.34361        -8.34361
            3211         710.294         710.294         7.07734         7.07734        -7.37810        -7.37810
            3212         711.072         711.072         8.94615         8.94615        -6.23207        -6.23207
            3213         711.808         711.808         11.1755         11.1755        -4.87413        -4.87413
            3214         712.478         712.478         13.8283         13.8283        -3.27096        -3.27096
            3215         713.057         713.057         16.9701         16.9701        -1.39028        -1.39028
            3216         713.511         713.511         20.6781         20.6781     801.144E-03     801.144E-03
            3217         713.798         713.798         25.0318         25.0318         3.33042         3.33042
            3218         713.868         713.868         30.1254         30.1254         6.22340         6.22340
            3219         713.658         713.658         36.0527         36.0527         9.48996         9.48996
            3220         713.100         713.100         42.9220         42.9220         13.1346         13.1346
            3221         712.106         712.106         50.8353         50.8353         17.1301         17.1301
            3222         710.596         710.596         59.8977         59.8977         21.4373         21.4373
            3223         708.463         708.463         70.1971         70.1971         25.9689         25.9689
            3224         705.639         705.639         81.7933         81.7933         30.6164         30.6164
            3225         702.036         702.036         94.7108         94.7108         35.2238         35.2238
            3226         697.641         697.641         108.900         108.900         39.6094         39.6094
            3227         692.443         692.443         124.256         124.256         43.5836         43.5836
            3228         686.521         686.521         140.576         140.576         46.9422         46.9422
            3229         679.991         679.991         157.596         157.596         49.5477         49.5477
            3230         673.006         673.006         174.996         174.996         51.2713         51.2713
            3231         665.815         665.815         192.344         192.344         51.6014         51.6014
            3232         730.194         730.194        -21.7596        -21.7596        -5.65283        -5.65283
            3233         725.280         725.280        -20.8856        -20.8856        -9.27864        -9.27864
            3234         720.672         720.672        -19.0372        -19.0372        -11.8105        -11.8105
            3235         716.602         716.602        -16.6972        -16.6972        -13.4145        -13.4145
            3236         713.201         713.201        -14.2362        -14.2362        -14.2985        -14.2985
            3237         710.481         710.481        -11.8798        -11.8798        -14.6805        -14.6805
            3238         708.392         708.392        -9.74355        -9.74355        -14.7363        -14.7363
            3239         706.850         706.850        -7.87162        -7.87162        -14.5975        -14.5975
            3240         705.765         705.765        -6.26511        -6.26511        -14.3515        -14.3515
            3241         705.056         705.056        -4.90296        -4.90296        -14.0535        -14.0535
            3242         704.650         704.650        -3.75228        -3.75228        -13.7348        -13.7348
            3243         704.488         704.488        -2.77544        -2.77544        -13.4103        -13.4103
            3244         704.520         704.520        -1.93300        -1.93300        -13.0839        -13.0839
            3245         704.708         704.708        -1.18545        -1.18545        -12.7519        -12.7519
            3246         705.020         705.020    -493.896E-03    -493.896E-03        -12.4052        -12.4052
            3247         705.433         705.433     180.114E-03     180.114E-03        -12.0310        -12.0310
            3248         705.927         705.927     874.425E-03     874.425E-03        -11.6135        -11.6135
            3249         706.486         706.486         1.62736         1.62736        -11.1341        -11.1341
            3250         707.098         707.098         2.47737         2.47737        -10.5717        -10.5717
            3251         707.753         707.753         3.46496         3.46496        -9.90250        -9.90250
            3252         708.439         708.439         4.63172         4.63172        -9.10012        -9.10012
            3253         709.148         709.148         6.02347         6.02347        -8.13525        -8.13525
            3254         709.868         709.868         7.68810         7.68810        -6.97602        -6.97602
            3255         710.585         710.585         9.68073         9.68073        -5.58740        -5.58740
            3256         711.284         711.284         12.0594         12.0594        -3.93278        -3.93278
            3257         711.941         711.941         14.8936         14.8936        -1.97259        -1.97259
            3258         712.530         712.530         18.2560         18.2560     331.217E-03     331.217E-03
            3259         713.013         713.013         22.2364         22.2364         3.01866         3.01866
            3260         713.341         713.341         26.9269         26.9269         6.12078         6.12078
            3261         713.457         713.457         32.4423         32.4423         9.66817         9.66817
            3262         713.281         713.281         38.8963         38.8963         13.6673         13.6673
            3263         712.726         712.726         46.4259         46.4259         18.1192         18.1192
            3264         711.675         711.675         55.1586         55.1586         22.9761         22.9761
            3265         710.026         710.026         65.2263         65.2263         28.1750         28.1750
            3266         707.635         707.635         76.7354         76.7354         33.5800         33.5800
            3267         704.423         704.423         89.7425         89.7425         39.0261         39.0261
            3268         700.282         700.282         104.252         104.252         44.2874         44.2874
            3269         695.224         695.224         120.146         120.146         49.1023         49.1023
            3270         689.274         689.274         137.231         137.231         53.2324         53.2324
            3271         682.571         682.571         155.174         155.174         56.4256         56.4256
            3272         675.324         675.324         173.578         173.578         58.5641         58.5641
            3273         667.767         667.767         191.930         191.930         58.9916         58.9916
            3274         728.791         728.791        -17.6617        -17.6617        -1.41188        -1.41188
            3275         725.169         725.169        -17.7686        -17.7686        -5.02185        -5.02185
            3276         721.506         721.506        -16.8124        -16.8124        -7.83742        -7.83742
            3277         718.066         718.066        -15.2343        -15.2343        -9.91791        -9.91791
            3278         715.002         715.002        -13.3565        -13.3565        -11.3679        -11.3679
            3279         712.396         712.396        -11.4156        -11.4156        -12.3180        -12.3180
            3280         710.259         710.259        -9.55773        -9.55773        -12.8987        -12.8987
            3281         708.563         708.563        -7.86295        -7.86295        -13.2184        -13.2184
            3282         707.262         707.262        -6.36455        -6.36455        -13.3609        -13.3609
            3283         706.300         706.300        -5.06604        -5.06604        -13.3851        -13.3851
            3284         705.624         705.624        -3.95316        -3.95316        -13.3303        -13.3303
            3285         705.187         705.187        -3.00128        -3.00128        -13.2205        -13.2205
            3286         704.945         704.945        -2.18029        -2.18029        -13.0684        -13.0684
            3287         704.866         704.866        -1.45737        -1.45737        -12.8780        -12.8780
            3288         704.921         704.921    -798.415E-03    -798.415E-03        -12.6471        -12.6471
            3289         705.088         705.088    -169.069E-03    -169.069E-03        -12.3683        -12.3683
            3290         705.350         705.350     465.521E-03     465.521E-03        -12.0303        -12.0303
            3291         705.693         705.693         1.14019         1.14019        -11.6179        -11.6179
            3292         706.108         706.108         1.89099         1.89099        -11.1125        -11.1125
            3293         706.586         706.586         2.75454         2.75454        -10.4920        -10.4920
            3294         707.122         707.122         3.77038         3.77038        -9.73059        -9.73059
            3295         707.710         707.710         4.97952         4.97952        -8.79898        -8.79898
            3296         708.344         708.344         6.42859         6.42859        -7.66380        -7.66380
            3297         709.016         709.016         8.16675         8.16675        -6.28816        -6.28816
            3298         709.717         709.717         10.2529         10.2529        -4.63087        -4.63087
            3299         710.433         710.433         12.7494         12.7494        -2.64840        -2.64840
            3300         711.142         711.142         15.7348         15.7348    -292.917E-03    -292.917E-03
            3301         711.817         711.817         19.2911         19.2911         2.48156         2.48156
            3302         712.415         712.415         23.5259         23.5259         5.72468         5.72468
            3303         712.881         712.881         28.5486         28.5486         9.47335         9.47335
            3304         713.142         713.142         34.5047         34.5047         13.7661         13.7661
            3305         713.094         713.094         41.5365         41.5365         18.6049         18.6049
            3306         712.626         712.626         49.8245         49.8245         23.9878         23.9878
            3307         711.574         711.574         59.5342         59.5342         29.8349         29.8349
            3308         709.804         709.804         70.8353         70.8353         36.0484         36.0484
            3309         707.112         707.112         83.8585         83.8585         42.4166         42.4166
            3310         703.417         703.417         98.6396         98.6396         48.6860         48.6860
            3311         698.588         698.588         115.136         115.136         54.5329         54.5329
            3312         692.694         692.694         133.099         133.099         59.5843         59.5843
            3313         685.841         685.841         152.174         152.174         63.5655         63.5655
            3314         678.254         678.254         171.841         171.841         66.1900         66.1900
            3315         670.326         670.326         191.423         191.423         66.7892         66.7892
            3316         726.543         726.543        -13.9104        -13.9104         1.49888         1.49888
            3317         724.018         724.018        -14.6266        -14.6266        -1.81004        -1.81004
            3318         721.236         721.236        -14.3266        -14.3266        -4.63542        -4.63542
            3319         718.450         718.450        -13.3569        -13.3569        -6.92428        -6.92428
            3320         715.826         715.826        -12.0028        -12.0028        -8.70564        -8.70564
            3321         713.468         713.468        -10.4777        -10.4777        -10.0435        -10.0435
            3322         711.425         711.425        -8.93456        -8.93456        -11.0176        -11.0176
            3323         709.707         709.707        -7.46923        -7.46923        -11.7075        -11.7075
            3324         708.301         708.301        -6.13487        -6.13487        -12.1809        -12.1809
            3325         707.176         707.176        -4.95332        -4.95332        -12.4921        -12.4921
            3326         706.300         706.300        -3.92551        -3.92551        -12.6813        -12.6813
            3327         705.637         705.637        -3.03890        -3.03890        -12.7766        -12.7766
            3328         705.156         705.156        -2.27269        -2.27269        -12.7959        -12.7959
            3329         704.830         704.830        -1.60120        -1.60120        -12.7491        -12.7491
            3330         704.636         704.636    -996.192E-03    -996.192E-03        -12.6393        -12.6393
            3331         704.556         704.556    -427.847E-03    -427.847E-03        -12.4642        -12.4642
            3332         704.576         704.576     134.218E-03     134.218E-03        -12.2167        -12.2167
            3333         704.687         704.687     721.369E-03     721.369E-03        -11.8852        -11.8852
            3334         704.883         704.883         1.36528         1.36528        -11.4540        -11.4540
            3335         705.158         705.158         2.09950         2.09950        -10.9031        -10.9031
            3336         705.513         705.513         2.95846         2.95846        -10.2081        -10.2081
            3337         705.945         705.945         3.98053         3.98053        -9.34021        -9.34021
            3338         706.457         706.457         5.20590         5.20590        -8.26592        -8.26592
            3339         707.046         707.046         6.68222         6.68222        -6.94661        -6.94661
            3340         707.713         707.713         8.46004         8.46004        -5.33882        -5.33882
            3341         708.451         708.451         10.6032         10.6032        -3.39344        -3.39344
            3342         709.252         709.252         13.1794         13.1794        -1.05771        -1.05771
            3343         710.095         710.095         16.2793         16.2793         1.72737         1.72737
            3344         710.954         710.954         19.9970         19.9970         5.01910         5.01910
            3345         711.781         711.781         24.4653         24.4653         8.88140         8.88140
            3346         712.510         712.510         29.8175         29.8175         13.3607         13.3607
            3347         713.049         713.049         36.2448         36.2448         18.5095         18.5095
            3348         713.259         713.259         43.9309         43.9309         24.3240         24.3240
            3349         712.988         712.988         53.1240         53.1240         30.8018         30.8018
            3350         711.997         711.997         64.0477         64.0477         37.8113         37.8113
            3351         710.110         710.110         76.9232         76.9232         45.1994         45.1994
            3352         707.027         707.027         91.9115         91.9115         52.6322         52.6322
            3353         702.681         702.681         108.982         108.982         59.7099         59.7099
            3354         696.940         696.940         127.981         127.981         65.9795         65.9795
            3355         689.977         689.977         148.420         148.420         70.9173         70.9173
            3356         682.074         682.074         169.663         169.663         74.2627         74.2627
            3357         673.590         673.590         190.846         190.846         75.0504         75.0504
            3358         723.966         723.966        -10.6813        -10.6813         3.38177         3.38177
            3359         722.290         722.290        -11.6861        -11.6861     494.675E-03     494.675E-03
            3360         720.268         720.268        -11.8062        -11.8062        -2.15860        -2.15860
            3361         718.099         718.099        -11.2896        -11.2896        -4.46890        -4.46890
            3362         715.937         715.937        -10.3635        -10.3635        -6.40059        -6.40059
            3363         713.891         713.891        -9.21470        -9.21470        -7.96742        -7.96742
            3364         712.026         712.026        -7.98322        -7.98322        -9.20703        -9.20703
            3365         710.373         710.373        -6.76751        -6.76751        -10.1679        -10.1679
            3366         708.942         708.942        -5.62864        -5.62864        -10.8993        -10.8993
            3367         707.724         707.724        -4.59936        -4.59936        -11.4449        -11.4449
            3368         706.702         706.702        -3.69120        -3.69120        -11.8412        -11.8412
            3369         705.855         705.855        -2.90117        -2.90117        -12.1162        -12.1162
            3370         705.163         705.163        -2.21655        -2.21655        -12.2903        -12.2903
            3371         704.605         704.605        -1.61862        -1.61862        -12.3770        -12.3770
            3372         704.167         704.167        -1.08485        -1.08485        -12.3836        -12.3836
            3373         703.836         703.836    -590.749E-03    -590.749E-03        -12.3118        -12.3118
            3374         703.603         703.603    -110.334E-03    -110.334E-03        -12.1584        -12.1584
            3375         703.462         703.462     382.919E-03     382.919E-03        -11.9152        -11.9152
            3376         703.412         703.412     916.838E-03     916.838E-03        -11.5697        -11.5697
            3377         703.453         703.453         1.51974         1.51974        -11.1042        -11.1042
            3378         703.589         703.589         2.22244         2.22244        -10.4967        -10.4967
            3379         703.825         703.825         3.05691         3.05691        -9.71952        -9.71952
            3380         704.168         704.168         4.06019         4.06019        -8.73991        -8.73991
            3381         704.627         704.627         5.27145         5.27145        -7.51895        -7.51895
            3382         705.207         705.207         6.73958         6.73958        -6.01162        -6.01162
            3383         705.916         705.916         8.51664         8.51664        -4.16609        -4.16609
            3384         706.756         706.756         10.6727         10.6727        -1.92319        -1.92319
            3385         707.724         707.724         13.2817         13.2817     782.269E-03     782.269E-03
            3386         708.806         708.806         16.4504         16.4504         4.02449         4.02449
            3387         709.977         709.977         20.2884         20.2884         7.87752         7.87752
            3388         711.185         711.185         24.9640         24.9640         12.4269         12.4269
            3389         712.349         712.349         30.6424         30.6424         17.7354         17.7354
            3390         713.351         713.351         37.5847         37.5847         23.8805         23.8805
            3391         714.000         714.000         46.0353         46.0353         30.8524         30.8524
            3392         714.080         714.080         56.3516         56.3516         38.6549         38.6549
            3393         713.223         713.223         68.8506         68.8506         47.0675         47.0675
            3394         711.194         711.194         83.8196         83.8196         55.8417         55.8417
            3395         707.544         707.544         101.448         101.448         64.4397         64.4397
            3396         702.269         702.269         121.529         121.529         72.2088         72.2088
            3397         695.300         695.300         143.656         143.656         78.5498         78.5498
            3398         686.994         686.994         166.913         166.913         82.7605         82.7605
            3399         678.017         678.017         190.103         190.103         83.9443         83.9443
            3400         721.356         721.356        -7.99853        -7.99853         4.51249         4.51249
            3401         720.321         720.321        -9.06240        -9.06240         2.06780         2.06780
            3402         718.921         718.921        -9.40376        -9.40376    -324.323E-03    -324.323E-03
            3403         717.300         717.300        -9.19039        -9.19039        -2.53011        -2.53011
            3404         715.582         715.582        -8.59204        -8.59204        -4.47894        -4.47894
            3405         713.865         713.865        -7.75910        -7.75910        -6.14527        -6.14527
            3406         712.217         712.217        -6.81313        -6.81313        -7.53452        -7.53452
            3407         710.681         710.681        -5.84356        -5.84356        -8.66886        -8.66886
            3408         709.276         709.276        -4.91149        -4.91149        -9.57861        -9.57861
            3409         708.011         708.011        -4.05324        -4.05324        -10.2958        -10.2958
            3410         706.882         706.882        -3.28631        -3.28631        -10.8503        -10.8503
            3411         705.879         705.879        -2.61403        -2.61403        -11.2678        -11.2678
            3412         704.993         704.993        -2.03005        -2.03005        -11.5689        -11.5689
            3413         704.214         704.214        -1.52143        -1.52143        -11.7688        -11.7688
            3414         703.532         703.532        -1.07123        -1.07123        -11.8777        -11.8777
            3415         702.941         702.941    -659.853E-03    -659.853E-03        -11.9005        -11.9005
            3416         702.438         702.438    -266.406E-03    -266.406E-03        -11.8372        -11.8372
            3417         702.022         702.022     131.269E-03     131.269E-03        -11.6831        -11.6831
            3418         701.696         701.696     555.770E-03     555.770E-03        -11.4283        -11.4283
            3419         701.466         701.466         1.03124         1.03124        -11.0585        -11.0585
            3420         701.341         701.341         1.58243         1.58243        -10.5537        -10.5537
            3421         701.331         701.331         2.23723         2.23723        -9.88894        -9.88894
            3422         701.450         701.450         3.02482         3.02482        -9.03275        -9.03275
            3423         701.714         701.714         3.98075         3.98075        -7.94778        -7.94778
            3424         702.142         702.142         5.14285         5.14285        -6.58876        -6.58876
            3425         702.749         702.749         6.56133         6.56133        -4.90319        -4.90319
            3426         703.556         703.556         8.28966         8.28966        -2.82874        -2.82874
            3427         704.573         704.573         10.4053         10.4053    -293.862E-03    -293.862E-03
            3428         705.812         705.812         12.9890         12.9890         2.78359         2.78359
            3429         707.266         707.266         16.1684         16.1684         6.49844         6.49844
            3430         708.918         708.918         20.0714         20.0714         10.9501         10.9501
            3431         710.712         710.712         24.9164         24.9164         16.2574         16.2574
            3432         712.558         712.558         30.9112         30.9112         22.5120         22.5120
            3433         714.293         714.293         38.4255         38.4255         29.8377         29.8377
            3434         715.650         715.650         47.7940         47.7940         38.2201         38.2201
            3435         716.310         716.310         59.5621         59.5621         47.6892         47.6892
            3436         715.664         715.664         74.2070         74.2070         57.8572         57.8572
            3437         713.412         713.412         92.0830         92.0830         68.2916         68.2916
            3438         708.869         708.869         113.375         113.375         78.1085         78.1085
            3439         702.209         702.209         137.436         137.436         86.2088         86.2088
            3440         693.638         693.638         163.294         163.294         91.9053         91.9053
            3441         683.795         683.795         189.235         189.235         93.5165         93.5165
            3442         718.875         718.875        -5.81713        -5.81713         5.09461         5.09461
            3443         718.330         718.330        -6.79010        -6.79010         3.06243         3.06243
            3444         717.438         717.438        -7.20559        -7.20559     964.954E-03     964.954E-03
            3445         716.290         716.290        -7.17047        -7.17047        -1.06248        -1.06248
            3446         714.979         714.979        -6.80526        -6.80526        -2.93170        -2.93170
            3447         713.582         713.582        -6.22444        -6.22444        -4.59476        -4.59476
            3448         712.162         712.162        -5.52537        -5.52537        -6.03315        -6.03315
            3449         710.763         710.763        -4.78420        -4.78420        -7.24912        -7.24912
            3450         709.412         709.412        -4.05505        -4.05505        -8.25710        -8.25710
            3451         708.124         708.124        -3.37297        -3.37297        -9.07794        -9.07794
            3452         706.908         706.908        -2.75689        -2.75689        -9.73453        -9.73453
            3453         705.765         705.765        -2.21359        -2.21359        -10.2489        -10.2489
            3454         704.694         704.694        -1.74087        -1.74087        -10.6404        -10.6404
            3455         703.692         703.692        -1.33050        -1.33050        -10.9250        -10.9250
            3456         702.759         702.759    -970.128E-03    -970.128E-03        -11.1142        -11.1142
            3457         701.895         701.895    -645.038E-03    -645.038E-03        -11.2154        -11.2154
            3458         701.100         701.100    -338.817E-03    -338.817E-03        -11.2312        -11.2312
            3459         700.381         700.381    -34.3335E-03    -34.3335E-03        -11.1597        -11.1597
            3460         699.745         699.745     286.631E-03     286.631E-03        -10.9943        -10.9943
            3461         699.202         699.202     642.632E-03     642.632E-03        -10.7232        -10.7232
            3462         698.766         698.766         1.05399         1.05399        -10.3299        -10.3299
            3463         698.453         698.453         1.54170         1.54170        -9.79183        -9.79183
            3464         698.283         698.283         2.13045         2.13045        -9.08106        -9.08106
            3465         698.281         698.281         2.84635         2.84635        -8.16200        -8.16200
            3466         698.472         698.472         3.72299         3.72299        -6.99262        -6.99262
            3467         698.888         698.888         4.79642         4.79642        -5.52052        -5.52052
            3468         699.560         699.560         6.11771         6.11771        -3.68510        -3.68510
            3469         700.522         700.522         7.74117         7.74117        -1.41128        -1.41128
            3470         701.803         701.803         9.75196         9.75196         1.38726         1.38726
            3471         703.437         703.437         12.2377         12.2377         4.81565         4.81565
            3472         705.432         705.432         15.3512         15.3512         8.99620         8.99620
            3473         707.792         707.792         19.2411         19.2411         14.0676         14.0676
            3474         710.463         710.463         24.1952         24.1952         20.1994         20.1994
            3475         713.350         713.350         30.4755         30.4755         27.5371         27.5371
            3476         716.234         716.234         38.6267         38.6267         36.2901         36.2901
            3477         718.737         718.737         49.1187         49.1187         46.4512         46.4512
            3478         720.346         720.346         62.8491         62.8491         58.1311         58.1311
            3479         719.973         719.973         80.5962         80.5962         70.5954         70.5954
            3480         717.280         717.280         102.706         102.706         83.0046         83.0046
            3481         711.263         711.263         129.198         129.198         93.9068         93.9068
            3482         702.516         702.516         158.382         158.382         101.430         101.430
            3483         692.114         692.114         187.952         187.952         104.161         104.161
            3484         716.608         716.608        -4.06557        -4.06557         5.25609         5.25609
            3485         716.464         716.464        -4.86324        -4.86324         3.58946         3.58946
            3486         715.999         715.999        -5.25410        -5.25410         1.79094         1.79094
            3487         715.265         715.265        -5.30382        -5.30382    -14.0885E-03    -14.0885E-03
            3488         714.320         714.320        -5.09343        -5.09343        -1.73437        -1.73437
            3489         713.223         713.223        -4.70501        -4.70501        -3.31064        -3.31064
            3490         712.023         712.023        -4.21177        -4.21177        -4.71087        -4.71087
            3491         710.761         710.761        -3.67305        -3.67305        -5.92341        -5.92341
            3492         709.468         709.468        -3.13306        -3.13306        -6.95113        -6.95113
            3493         708.165         708.165        -2.62144        -2.62144        -7.80584        -7.80584
            3494         706.866         706.866        -2.15563        -2.15563        -8.50412        -8.50412
            3495         705.583         705.583        -1.74313        -1.74313        -9.06418        -9.06418
            3496         704.322         704.322        -1.38419        -1.38419        -9.50354        -9.50354
            3497         703.089         703.089        -1.07377        -1.07377        -9.83767        -9.83767
            3498         701.890         701.890    -803.499E-03    -803.499E-03        -10.0789        -10.0789
            3499         700.731         700.731    -562.665E-03    -562.665E-03        -10.2359        -10.2359
            3500         699.619         699.619    -339.388E-03    -339.388E-03        -10.3134        -10.3134
            3501         698.565         698.565    -120.761E-03    -120.761E-03        -10.3118        -10.3118
            3502         697.579         697.579     106.449E-03     106.449E-03        -10.2272        -10.2272
            3503         696.677         696.677     356.443E-03     356.443E-03        -10.0510        -10.0510
            3504         695.875         695.875     643.710E-03     643.710E-03        -9.76964        -9.76964
            3505         695.197         695.197     984.627E-03     984.627E-03        -9.36465        -9.36465
            3506         694.666         694.666         1.39632         1.39632        -8.81113        -8.81113
            3507         694.312         694.312         1.89988         1.89988        -8.07871        -8.07871
            3508         694.172         694.172         2.51797         2.51797        -7.12803        -7.12803
            3509         694.286         694.286         3.28142         3.28142        -5.91304        -5.91304
            3510         694.699         694.699         4.22365         4.22365        -4.37409        -4.37409
            3511         695.463         695.463         5.39520         5.39520        -2.44276        -2.44276
            3512         696.638         696.638         6.84999         6.84999    -29.1254E-03    -29.1254E-03
            3513         698.279         698.279         8.67942         8.67942         2.96934         2.96934
            3514         700.453         700.453         10.9765         10.9765         6.68854         6.68854
            3515         703.201         703.201         13.9214         13.9214         11.2855         11.2855
            3516         706.574         706.574         17.6836         17.6836         16.9600         16.9600
            3517         710.532         710.532         22.6438         22.6438         23.9570         23.9570
            3518         715.015         715.015         29.1285         29.1285         32.5254         32.5254
            3519         719.725         719.725         37.9709         37.9709         43.0340         43.0340
            3520         724.137         724.137         49.8394         49.8394         55.5308         55.5308
            3521         727.357         727.357         66.3696         66.3696         70.3648         70.3648
            3522         727.216         727.216         88.9667         88.9667         85.9976         85.9976
            3523         723.534         723.534         117.561         117.561         100.564         100.564
            3524         715.130         715.130         151.357         151.357         111.825         111.825
            3525         703.405         703.405         186.276         186.276         115.736         115.736
            3526         714.605         714.605        -2.67469        -2.67469         5.05545         5.05545
            3527         714.830         714.830        -3.26066        -3.26066         3.71146         3.71146
            3528         714.754         714.754        -3.57068        -3.57068         2.20888         2.20888
            3529         714.394         714.394        -3.64276        -3.64276     657.322E-03     657.322E-03
            3530         713.784         713.784        -3.52847        -3.52847    -857.610E-03    -857.610E-03
            3531         712.960         712.960        -3.28253        -3.28253        -2.27534        -2.27534
            3532         711.961         711.961        -2.95569        -2.95569        -3.55806        -3.55806
            3533         710.822         710.822        -2.59038        -2.59038        -4.68707        -4.68707
            3534         709.574         709.574        -2.21896        -2.21896        -5.65795        -5.65795
            3535         708.242         708.242        -1.86395        -1.86395        -6.47632        -6.47632
            3536         706.849         706.849        -1.53901        -1.53901        -7.15389        -7.15389
            3537         705.411         705.411        -1.25075        -1.25075        -7.70537        -7.70537
            3538         703.944         703.944        -1.00022        -1.00022        -8.14616        -8.14616
            3539         702.461         702.461    -784.675E-03    -784.675E-03        -8.49058        -8.49058
            3540         700.973         700.973    -598.621E-03    -598.621E-03        -8.75087        -8.75087
            3541         699.493         699.493    -434.987E-03    -434.987E-03        -8.93626        -8.93626
            3542         698.033         698.033    -285.564E-03    -285.564E-03        -9.05272        -9.05272
            3543         696.607         696.607    -141.686E-03    -141.686E-03        -9.10237        -9.10237
            3544         695.230         695.230     5.92410E-03     5.92410E-03        -9.08367        -9.08367
            3545         693.919         693.919     166.667E-03     166.667E-03        -8.99071        -8.99071
            3546         692.696         692.696     350.805E-03     350.805E-03        -8.81364        -8.81364
            3547         691.584         691.584     568.897E-03     568.897E-03        -8.53742        -8.53742
            3548         690.613         690.613     833.305E-03     833.305E-03        -8.14270        -8.14270
            3549         689.818         689.818         1.15724         1.15724        -7.60314        -7.60314
            3550         689.239         689.239         1.55767         1.55767        -6.88740        -6.88740
            3551         688.925         688.925         2.05336         2.05336        -5.95356        -5.95356
            3552         688.932         688.932         2.67089         2.67089        -4.75346        -4.75346
            3553         689.331         689.331         3.44008         3.44008        -3.22123        -3.22123
            3554         690.197         690.197         4.40783         4.40783        -1.28283        -1.28283
            3555         691.625         691.625         5.62577         5.62577         1.16749         1.16749
            3556         693.711         693.711         7.18626         7.18626         4.24709         4.24709
            3557         696.583         696.583         9.18475         9.18475         8.13112         8.13112
            3558         700.339         700.339         11.8238         11.8238         13.0153         13.0153
            3559         705.126         705.126         15.2903         15.2903         19.1933         19.1933
            3560         710.965         710.965         20.0776         20.0776         27.0137         27.0137
            3561         717.919         717.919         26.5784         26.5784         36.9283         36.9283
            3562         725.611         725.611         36.1017         36.1017         49.5937         49.5937
            3563         733.421         733.421         49.5838         49.5838         65.2937         65.2937
            3564         739.602         739.602         70.4124         70.4124         85.0836         85.0836
            3565         739.262         739.262         101.396         101.396         105.356         105.356
            3566         733.198         733.198         140.320         140.320         121.407         121.407
            3567         721.497         721.497         183.116         183.116         129.489         129.489
            3568         712.916         712.916        -1.59128        -1.59128         4.49081         4.49081
            3569         713.528         713.528        -1.96629        -1.96629         3.44358         3.44358
            3570         713.839         713.839        -2.17343        -2.17343         2.24299         2.24299
            3571         713.841         713.841        -2.23314        -2.23314     979.093E-03     979.093E-03
            3572         713.543         713.543        -2.17513        -2.17513    -274.767E-03    -274.767E-03
            3573         712.966         712.966        -2.03249        -2.03249        -1.46388        -1.46388
            3574         712.139         712.139        -1.83654        -1.83654        -2.55196        -2.55196
            3575         711.094         711.094        -1.61403        -1.61403        -3.51882        -3.51882
            3576         709.862         709.862        -1.38578        -1.38578        -4.35720        -4.35720
            3577         708.474         708.474        -1.16645        -1.16645        -5.06922        -5.06922
            3578         706.957         706.957    -965.266E-03    -965.266E-03        -5.66318        -5.66318
            3579         705.336         705.336    -786.784E-03    -786.784E-03        -6.15082        -6.15082
            3580         703.634         703.634    -632.126E-03    -632.126E-03        -6.54508        -6.54508
            3581         701.871         701.871    -499.793E-03    -499.793E-03        -6.85861        -6.85861
            3582         700.064         700.064    -386.636E-03    -386.636E-03        -7.10251        -7.10251
            3583         698.232         698.232    -288.322E-03    -288.322E-03        -7.28572        -7.28572
            3584         696.389         696.389    -199.961E-03    -199.961E-03        -7.41440        -7.41440
            3585         694.552         694.552    -116.166E-03    -116.166E-03        -7.49184        -7.49184
            3586         692.740         692.740    -31.4608E-03    -31.4608E-03        -7.51795        -7.51795
            3587         690.971         690.971     60.0203E-03     60.0203E-03        -7.48960        -7.48960
            3588         689.268         689.268     164.199E-03     164.199E-03        -7.39975        -7.39975
            3589         687.655         687.655     287.683E-03     287.683E-03        -7.23815        -7.23815
            3590         686.164         686.164     437.448E-03     437.448E-03        -6.98967        -6.98967
            3591         684.831         684.831     621.828E-03     621.828E-03        -6.63561        -6.63561
            3592         683.699         683.699     850.267E-03     850.267E-03        -6.15019        -6.15019
            3593         682.821         682.821         1.13482         1.13482        -5.50351        -5.50351
            3594         682.263         682.263         1.49020         1.49020        -4.65380        -4.65380
            3595         682.099         682.099         1.93633         1.93633        -3.55445        -3.55445
            3596         682.427         682.427         2.49877         2.49877        -2.13664        -2.13664
            3597         683.358         683.358         3.21500         3.21500    -326.167E-03    -326.167E-03
            3598         685.034         685.034         4.13304         4.13304         1.99606         1.99606
            3599         687.615         687.615         5.33369         5.33369         4.95443         4.95443
            3600         691.318         691.318         6.91244         6.91244         8.76856         8.76856
            3601         696.352         696.352         9.07130         9.07130         13.6645         13.6645
            3602         703.045         703.045         12.0099         12.0099         20.0717         20.0717
            3603         711.585         711.585         16.3200         16.3200         28.4529         28.4529
            3604         722.395         722.395         22.4496         22.4496         39.6546         39.6546
            3605         735.141         735.141         32.4384         32.4384         54.7978         54.7978
            3606         749.566         749.566         47.4950         47.4950         75.0429         75.0429
            3607         761.933         761.933         75.6770         75.6770         103.512         103.512
            3608         759.970         759.970         122.779         122.779         130.935         130.935
            3609         747.939         747.939         177.643         177.643         143.370         143.370
            3610         711.606         711.606    -788.770E-03    -788.770E-03         3.50435         3.50435
            3611         712.673         712.673    -983.225E-03    -983.225E-03         2.75699         2.75699
            3612         713.408         713.408        -1.09329        -1.09329         1.88759         1.88759
            3613         713.779         713.779        -1.12803        -1.12803     962.675E-03     962.675E-03
            3614         713.780         713.780        -1.10214        -1.10214     37.6230E-03     37.6230E-03
            3615         713.422         713.422        -1.03218        -1.03218    -845.224E-03    -845.224E-03
            3616         712.729         712.729    -934.132E-03    -934.132E-03        -1.65702        -1.65702
            3617         711.733         711.733    -821.823E-03    -821.823E-03        -2.38112        -2.38112
            3618         710.470         710.470    -706.063E-03    -706.063E-03        -3.01086        -3.01086
            3619         708.978         708.978    -594.607E-03    -594.607E-03        -3.54709        -3.54709
            3620         707.292         707.292    -492.304E-03    -492.304E-03        -3.99569        -3.99569
            3621         705.445         705.445    -401.687E-03    -401.687E-03        -4.36544        -4.36544
            3622         703.467         703.467    -323.388E-03    -323.388E-03        -4.66635        -4.66635
            3623         701.385         701.385    -256.770E-03    -256.770E-03        -4.90832        -4.90832
            3624         699.223         699.223    -200.226E-03    -200.226E-03        -5.10030        -5.10030
            3625         697.000         697.000    -151.657E-03    -151.657E-03        -5.24963        -5.24963
            3626         694.737         694.737    -108.540E-03    -108.540E-03        -5.36174        -5.36174
            3627         692.451         692.451    -68.2737E-03    -68.2737E-03        -5.43981        -5.43981
            3628         690.161         690.161    -28.0316E-03    -28.0316E-03        -5.48488        -5.48488
            3629         687.886         687.886     14.9684E-03     14.9684E-03        -5.49536        -5.49536
            3630         685.647         685.647     63.7563E-03     63.7563E-03        -5.46750        -5.46750
            3631         683.468         683.468     121.438E-03     121.438E-03        -5.39447        -5.39447
            3632         681.378         681.378     191.482E-03     191.482E-03        -5.26722        -5.26722
            3633         679.413         679.413     277.902E-03     277.902E-03        -5.07253        -5.07253
            3634         677.615         677.615     385.126E-03     385.126E-03        -4.79480        -4.79480
            3635         676.037         676.037     519.351E-03     519.351E-03        -4.41181        -4.41181
            3636         674.742         674.742     686.910E-03     686.910E-03        -3.89884        -3.89884
            3637         673.812         673.812     898.915E-03     898.915E-03        -3.21888        -3.21888
            3638         673.346         673.346         1.16557         1.16557        -2.33285        -2.33285
            3639         673.469         673.469         1.50891         1.50891        -1.17619        -1.17619
            3640         674.337         674.337         1.94815         1.94815     315.113E-03     315.113E-03
            3641         676.153         676.153         2.52985         2.52985         2.26305         2.26305
            3642         679.163         679.163         3.29931         3.29931         4.77957         4.77957
            3643         683.714         683.714         4.35858         4.35858         8.11924         8.11924
            3644         690.204         690.204         5.84745         5.84745         12.4994         12.4994
            3645         699.270         699.270         7.99495         7.99495         18.5136         18.5136
            3646         711.511         711.511         11.3570         11.3570         26.6675         26.6675
            3647         728.206         728.206         16.4613         16.4613         38.5074         38.5074
            3648         749.703         749.703         26.1509         26.1509         55.6490         55.6490
            3649         778.225         778.225         41.8023         41.8023         82.2265         82.2265
            3650         806.074         806.074         84.7930         84.7930         126.761         126.761
            3651         801.070         801.070         163.802         163.802         163.680         163.680
            3652         710.784         710.784    -276.545E-03    -276.545E-03         1.99599         1.99599
            3653         712.421         712.421    -346.771E-03    -346.771E-03         1.59129         1.59129
            3654         713.646         713.646    -387.007E-03    -387.007E-03         1.11757         1.11757
            3655         714.410         714.410    -400.257E-03    -400.257E-03     611.745E-03     611.745E-03
            3656         714.700         714.700    -391.698E-03    -391.698E-03     104.723E-03     104.723E-03
            3657         714.523         714.523    -367.179E-03    -367.179E-03    -379.800E-03    -379.800E-03
            3658         713.909         713.909    -332.468E-03    -332.468E-03    -825.555E-03    -825.555E-03
            3659         712.898         712.898    -292.506E-03    -292.506E-03        -1.22311        -1.22311
            3660         711.536         711.536    -251.246E-03    -251.246E-03        -1.56871        -1.56871
            3661         709.872         709.872    -211.462E-03    -211.462E-03        -1.86282        -1.86282
            3662         707.953         707.953    -174.965E-03    -174.965E-03        -2.10882        -2.10882
            3663         705.820         705.820    -142.643E-03    -142.643E-03        -2.31175        -2.31175
            3664         703.514         703.514    -114.785E-03    -114.785E-03        -2.47737        -2.47737
            3665         701.066         701.066    -91.1274E-03    -91.1274E-03        -2.61142        -2.61142
            3666         698.504         698.504    -71.1640E-03    -71.1640E-03        -2.71908        -2.71908
            3667         695.853         695.853    -54.0878E-03    -54.0878E-03        -2.80471        -2.80471
            3668         693.132         693.132    -39.0929E-03    -39.0929E-03        -2.87158        -2.87158
            3669         690.360         690.360    -25.1723E-03    -25.1723E-03        -2.92182        -2.92182
            3670         687.553         687.553    -11.4473E-03    -11.4473E-03        -2.95626        -2.95626
            3671         684.727         684.727     3.15976E-03     3.15976E-03        -2.97460        -2.97460
            3672         681.903         681.903     19.5869E-03     19.5869E-03        -2.97503        -2.97503
            3673         679.098         679.098     38.9691E-03     38.9691E-03        -2.95467        -2.95467
            3674         676.340         676.340     62.4956E-03     62.4956E-03        -2.90875        -2.90875
            3675         673.656         673.656     91.3520E-03     91.3520E-03        -2.83148        -2.83148
            3676         671.086         671.086     127.512E-03     127.512E-03        -2.71427        -2.71427
            3677         668.675         668.675     172.046E-03     172.046E-03        -2.54761        -2.54761
            3678         666.483         666.483     229.035E-03     229.035E-03        -2.31703        -2.31703
            3679         664.583         664.583     298.743E-03     298.743E-03        -2.00757        -2.00757
            3680         663.069         663.069     390.659E-03     390.659E-03        -1.59421        -1.59421
            3681         662.062         662.062     502.177E-03     502.177E-03        -1.05325        -1.05325
            3682         661.714         661.714     656.527E-03     656.527E-03    -337.735E-03    -337.735E-03
            3683         662.226         662.226     843.016E-03     843.016E-03     590.952E-03     590.952E-03
            3684         663.861         663.861         1.11990         1.11990         1.83175         1.83175
            3685         666.972         666.972         1.45791         1.45791         3.45019         3.45019
            3686         672.054         672.054         2.00554         2.00554         5.68593         5.68593
            3687         679.778         679.778         2.70875         2.70875         8.65845         8.65845
            3688         691.221         691.221         3.95424         3.95424         13.0524         13.0524
            3689         707.789         707.789         5.80276         5.80276         19.1359         19.1359
            3690         732.459         732.459         9.30803         9.30803         29.3417         29.3417
            3691         768.329         768.329         16.6686         16.6686         44.8063         44.8063
            3692         827.764         827.764         31.3700         31.3700         78.0943         78.0943
            3693         903.316         903.316         111.186         111.186         143.825         143.825
            3694         41.2917         41.2917        -315.942        -315.942        -38.9116        -38.9116
            3695         149.579         149.579        -129.129        -129.129        -102.206        -102.206
            3696         290.734         290.734        -40.4185        -40.4185        -111.207        -111.207
            3697         423.282         423.282        -6.81541        -6.81541        -91.9062        -91.9062
            3698         526.803         526.803         2.33097         2.33097        -65.0773        -65.0773
            3699         131.517         131.517        -233.994        -233.994        -89.3289        -89.3289
            3700         289.974         289.974        -129.512        -129.512        -178.712        -178.712
            3701         430.986         430.986        -76.2860        -76.2860        -177.615        -177.615
            3702         535.952         535.952        -47.3913        -47.3913        -138.107        -138.107
            3703         605.937         605.937        -29.9649        -29.9649        -93.8462        -93.8462
            3704         281.743         281.743        -134.726        -134.726        -148.178        -148.178
            3705         478.501         478.501        -130.710        -130.710        -209.677        -209.677
            3706         594.039         594.039        -109.362        -109.362        -182.116        -182.116
            3707         653.872         653.872        -80.2755        -80.2755        -130.443        -130.443
            3708         682.851         682.851        -53.9699        -53.9699        -83.7578        -83.7578
            3709         479.508         479.508        -46.6314        -46.6314        -198.013        -198.013
            3710         664.041         664.041        -125.950        -125.950        -190.199        -190.199
            3711         726.390         726.390        -120.645        -120.645        -140.658        -140.658
            3712         737.568         737.568        -90.0233        -90.0233        -91.9473        -91.9473
            3713         732.161         732.161        -59.7071        -59.7071        -55.3527        -55.3527
            3714         790.289         790.289         89.0179         89.0179         31.9647         31.9647
            3715         855.239         855.239         137.097         137.097         37.5209         37.5209
            3716         971.781         971.781         186.689         186.689         26.9995         26.9995
            3717     1.17466E+03     1.17466E+03         212.734         212.734        -20.0483        -20.0483
            3718     1.50556E+03     1.50556E+03         174.991         174.991        -126.739        -126.739
            3719         799.342         799.342         33.0342         33.0342         38.3355         38.3355
            3720         859.791         859.791         60.3933         60.3933         45.6477         45.6477
            3721         955.114         955.114         99.5370         99.5370         31.1469         31.1469
            3722     1.10500E+03     1.10500E+03         143.986         143.986        -40.2713        -40.2713
            3723     1.33926E+03     1.33926E+03         171.683         171.683        -216.951        -216.951
            3724         796.760         796.760        -17.4034        -17.4034         20.5845         20.5845
            3725         850.214         850.214        -15.2147        -15.2147         22.4491         22.4491
            3726         923.188         923.188         1.76095         1.76095         5.93284         5.93284
            3727     1.01313E+03     1.01313E+03         50.5862         50.5862        -65.0718        -65.0718
            3728     1.11887E+03     1.11887E+03         146.397         146.397        -256.179        -256.179
            3729         780.246         780.246        -44.5217        -44.5217        -4.54396        -4.54396
            3730         822.816         822.816        -61.9492        -61.9492        -13.7966        -13.7966
            3731         874.436         874.436        -70.7123        -70.7123        -37.6396        -37.6396
            3732         914.222         914.222        -39.8706        -39.8706        -99.3480        -99.3480
            3733         893.535         893.535         91.8024         91.8024        -254.105        -254.105
            3734         512.582         512.582        -33.2019        -33.2019         205.466         205.466
            3735         692.365         692.365        -124.768        -124.768         185.109         185.109
            3736         745.324         745.324        -121.336        -121.336         132.604         132.604
            3737         748.877         748.877        -90.4769        -90.4769         84.9487         84.9487
            3738         738.501         738.501        -59.7754        -59.7754         50.3523         50.3523
            3739         340.686         340.686        -102.996        -102.996         166.967         166.967
            3740         542.389         542.389        -130.850        -130.850         210.707         210.707
            3741         644.160         644.160        -117.197        -117.197         174.210         174.210
            3742         687.722         687.722        -87.3814        -87.3814         120.964         120.964
            3743         703.819         703.819        -58.7535        -58.7535         75.9124         75.9124
            3744         196.896         196.896        -185.885        -185.885         117.981         117.981
            3745         379.373         379.373        -130.872        -130.872         202.439         202.439
            3746         512.847         512.847        -95.1830        -95.1830         189.896         189.896
            3747         597.714         597.714        -67.0366        -67.0366         142.293         142.293
            3748         647.457         647.457        -44.8137        -44.8137         94.1728         94.1728
            3749         92.4817         92.4817        -268.365        -268.365         70.2774         70.2774
            3750         232.764         232.764        -130.154        -130.154         158.807         158.807
            3751         375.904         375.904        -63.3818        -63.3818         164.637         164.637
            3752         493.088         493.088        -33.1527        -33.1527         131.816         131.816
            3753         576.539         576.539        -18.9489        -18.9489         91.3430         91.3430
            3754         30.9941         30.9941        -330.656        -330.656         31.2565         31.2565
            3755         131.295         131.295        -130.673        -130.673         87.1061         87.1061
            3756         270.447         270.447        -35.5575        -35.5575         96.3319         96.3319
            3757         405.563         405.563    -193.683E-03    -193.683E-03         80.6230         80.6230
            3758         513.624         513.624         8.05658         8.05658         57.6828         57.6828
            3759         781.103         781.103        -45.7299        -45.7299         6.17992         6.17992
            3760         823.601         823.601        -62.9854        -62.9854         15.0342         15.0342
            3761         875.148         875.148        -71.5578        -71.5578         38.5630         38.5630
            3762         915.033         915.033        -40.5302        -40.5302         100.062         100.062
            3763         894.571         894.571         91.3655         91.3655         254.715         254.715
            3764         797.400         797.400        -18.3204        -18.3204        -19.0349        -19.0349
            3765         850.805         850.805        -15.9520        -15.9520        -21.2638        -21.2638
            3766         923.745         923.745         1.24749         1.24749        -5.04418        -5.04418
            3767     1.01378E+03     1.01378E+03         50.3207         50.3207         65.7137         65.7137
            3768     1.11986E+03     1.11986E+03         146.477         146.477         256.756         256.756
            3769         799.750         799.750         32.4475         32.4475        -36.8410        -36.8410
            3770         860.161         860.161         59.9779         59.9779        -44.4560        -44.4560
            3771         955.451         955.451         99.3396         99.3396        -30.2141        -30.2141
            3772     1.10541E+03     1.10541E+03         144.056         144.056         41.0070         41.0070
            3773     1.34008E+03     1.34008E+03         171.928         171.928         217.570         217.570
            3774         790.481         790.481         88.7450         88.7450        -30.4774        -30.4774
            3775         855.402         855.402         136.933         136.933        -36.2773        -36.2773
            3776         971.919         971.919         186.677         186.677        -25.9484        -25.9484
            3777     1.17486E+03     1.17486E+03         212.867         212.867         20.9335         20.9335
            3778     1.50603E+03     1.50603E+03         175.162         175.162         127.371         127.371
            3779         857.782         857.782         82.3870         82.3870        -252.504        -252.504
            3780         898.500         898.500        -53.7499        -53.7499        -105.734        -105.734
            3781         866.432         866.432        -81.3102        -81.3102        -45.9116        -45.9116
            3782         818.401         818.401        -68.7708        -68.7708        -21.0190        -21.0190
            3783         777.896         777.896        -48.8604        -48.8604        -10.2552        -10.2552
            3784     1.04342E+03     1.04342E+03         133.473         133.473        -261.611        -261.611
            3785         981.493         981.493         19.0181         19.0181        -75.5796        -75.5796
            3786         910.098         910.098        -27.6677        -27.6677        -7.39122        -7.39122
            3787         844.380         844.380        -36.4921        -36.4921         10.1138         10.1138
            3788         793.945         793.945        -31.1863        -31.1863         10.8452         10.8452
            3789     1.23535E+03     1.23535E+03         164.225         164.225        -245.825        -245.825
            3790     1.06207E+03     1.06207E+03         99.8678         99.8678        -52.4656        -52.4656
            3791         942.406         942.406         49.3625         49.3625         22.0452         22.0452
            3792         858.661         858.661         19.0886         19.0886         37.0922         37.0922
            3793         801.299         801.299         4.01163         4.01163         30.8877         30.8877
            3794     1.40820E+03     1.40820E+03         174.980         174.980        -195.466        -195.466
            3795     1.13396E+03     1.13396E+03         172.223         172.223        -34.5889        -34.5889
            3796         963.288         963.288         133.191         133.191         32.9399         32.9399
            3797         860.022         860.022         88.6293         88.6293         47.1464         47.1464
            3798         797.795         797.795         52.7261         52.7261         39.3768         39.3768
            3799     1.53064E+03     1.53064E+03         173.906         173.906        -109.420        -109.420
            3800     1.18574E+03     1.18574E+03         221.176         221.176        -17.9240        -17.9240
            3801         974.629         974.629         199.011         199.011         23.1284         23.1284
            3802         854.354         854.354         148.866         148.866         32.5963         32.5963
            3803         788.509         788.509         98.0690         98.0690         27.6780         27.6780
            3804         780.114         780.114        -44.6624        -44.6624         4.68520         4.68520
            3805         822.625         822.625        -62.1521        -62.1521         14.0092         14.0092
            3806         874.161         874.161        -70.9549        -70.9549         37.9190         37.9190
            3807         913.921         913.921        -40.1911        -40.1911         99.6387         99.6387
            3808         893.241         893.241         91.2735         91.2735         254.182         254.182
            3809         796.689         796.689        -17.6151        -17.6151        -20.4459        -20.4459
            3810         850.092         850.092        -15.4745        -15.4745        -22.2361        -22.2361
            3811         922.977         922.977         1.48717         1.48717        -5.65110        -5.65110
            3812     1.01277E+03     1.01277E+03         50.2960         50.2960         65.3043         65.3043
            3813     1.11836E+03     1.11836E+03         146.205         146.205         256.198         256.198
            3814         799.343         799.343         32.7619         32.7619        -38.2074        -38.2074
            3815         859.733         859.733         60.1125         60.1125        -45.4222        -45.4222
            3816         954.939         954.939         99.2742         99.2742        -30.8737        -30.8737
            3817     1.10459E+03     1.10459E+03         143.791         143.791         40.5398         40.5398
            3818     1.33848E+03     1.33848E+03         171.550         171.550         217.078         217.078
            3819         790.377         790.377         88.7128         88.7128        -31.8914        -31.8914
            3820         855.280         855.280         136.769         136.769        -37.3394        -37.3394
            3821         971.640         971.640         186.467         186.467        -26.7092        -26.7092
            3822     1.17424E+03     1.17424E+03         212.729         212.729         20.3369         20.3369
            3823     1.50454E+03     1.50454E+03         175.116         175.116         126.848         126.848
            3824         513.508         513.508        -33.6439        -33.6439         205.883         205.883
            3825         693.516         693.516        -125.648        -125.648         185.634         185.634
            3826         746.527         746.527        -122.402        -122.402         133.304         133.304
            3827         750.165         750.165        -91.7278        -91.7278         85.9327         85.9327
            3828         739.917         739.917        -61.2758        -61.2758         51.7547         51.7547
            3829         341.350         341.350        -103.747        -103.747         167.307         167.307
            3830         543.408         543.408        -131.882        -131.882         211.263         211.263
            3831         645.341         645.341        -118.376        -118.376         174.896         174.896
            3832         689.061         689.061        -88.7281        -88.7281         121.838         121.838
            3833         705.378         705.378        -60.3554        -60.3554         77.1069         77.1069
            3834         197.299         197.299        -186.978        -186.978         118.222         118.222
            3835         380.151         380.151        -132.023        -132.023         202.983         202.983
            3836         513.899         513.899        -96.4232        -96.4232         190.547         190.547
            3837         599.026         599.026        -68.4387        -68.4387         143.051         143.051
            3838         649.092         649.092        -46.4861        -46.4861         95.1439         95.1439
            3839         92.6585         92.6585        -269.796        -269.796         70.4304         70.4304
            3840         233.260         233.260        -131.391        -131.391         159.261         159.261
            3841         376.744         376.744        -64.6289        -64.6289         165.184         165.184
            3842         494.294         494.294        -34.5589        -34.5589         132.415         132.415
            3843         578.179         578.179        -20.6496        -20.6496         92.0569         92.0569
            3844         31.0170         31.0170        -332.348        -332.348         31.3448         31.3448
            3845         131.554         131.554        -131.965        -131.965         87.3933         87.3933
            3846         271.079         271.079        -36.7821        -36.7821         96.6779         96.6779
            3847         406.637         406.637        -1.57071        -1.57071         80.9835         80.9835
            3848         515.223         515.223         6.36200         6.36200         58.0838         58.0838
            3849         733.548         733.548        -61.2002        -61.2002        -56.7124        -56.7124
            3850         738.763         738.763        -91.2413        -91.2413        -92.9116        -92.9116
            3851         727.397         727.397        -121.650        -121.650        -141.338        -141.338
            3852         664.904         664.904        -126.811        -126.811        -190.608        -190.608
            3853         480.172         480.172        -47.2663        -47.2663        -198.180        -198.180
            3854         684.382         684.382        -55.5729        -55.5729        -84.8483        -84.8483
            3855         655.093         655.093        -81.5980        -81.5980        -131.247        -131.247
            3856         595.004         595.004        -110.520        -110.520        -182.724        -182.724
            3857         479.239         479.239        -131.805        -131.805        -210.112        -210.112
            3858         282.129         282.129        -135.773        -135.773        -148.316        -148.316
            3859         607.513         607.513        -31.6218        -31.6218        -94.6263        -94.6263
            3860         537.098         537.098        -48.7532        -48.7532        -138.709        -138.709
            3861         431.777         431.777        -77.4996        -77.4996        -178.110        -178.110
            3862         290.433         290.433        -130.734        -130.734        -179.078        -179.078
            3863         131.660         131.660        -235.418        -235.418        -89.3832        -89.3832
            3864         528.365         528.365     660.121E-03     660.121E-03        -65.4775        -65.4775
            3865         424.318         424.318        -8.16993        -8.16993        -92.2212        -92.2212
            3866         291.326         291.326        -41.6278        -41.6278        -111.470        -111.470
            3867         149.801         149.801        -130.421        -130.421        -102.390        -102.390
            3868         41.2852         41.2852        -317.649        -317.649        -38.9029        -38.9029


  Minimum               -11.6203        -11.6203        -498.628        -498.628        -394.816        -394.816
         At Node              28              28              28              28             590             590

  Maximum            1.79625E+03     1.79625E+03         238.070         238.070         392.495         392.495
         At Node              27              27             585             585             574             574

           Total     2.72866E+06     2.72866E+06     43.9010E+03     43.9010E+03     1.31454E+03     1.31454E+03


