********************************************************************************
Field Output Report, written Sat Feb 24 11:10:49 2024

Source 1
---------

   ODB: C:/Users/Isabel Haycock/OneDrive - Imperial College London/Fourth Year/FYP/Isabel Haycock/06 - FE models/Specimen_2/Plate_hole_1.odb
   Step: load
   Frame: Increment     13: Step Time =   0.9286

Loc 1 : Nodal values at shell < composite > < elset = ASSEMBLY_PLATE_1-1_COMPOSITELAYUP-1-1 > from source 1 : SNEG, (fraction = -1.0), Layer = 1
Loc 2 : Nodal values at shell < composite > < elset = ASSEMBLY_PLATE_1-1_COMPOSITELAYUP-1-1 > from source 1 : SPOS, (fraction = 1.0), Layer = 8

Output sorted by column "Node Label".

Field Output reported at nodes for part: PLATE_1-1
   Computation algorithm: EXTRAPOLATE_COMPUTE_AVERAGE
   Averaged at nodes
   Averaging regions: ODB_REGIONS

      Node Label           S.S11           S.S11           S.S22           S.S22           S.S12           S.S12
                          @Loc 1          @Loc 2          @Loc 1          @Loc 2          @Loc 1          @Loc 2
-----------------------------------------------------------------------------------------------------------------
               1     1.59611E+03     1.59611E+03        -73.7837        -73.7837        -33.4955        -33.4955
               2     1.51876E+03     1.51876E+03         2.01817         2.01817    -92.8264E-03    -92.8264E-03
               3     1.51901E+03     1.51901E+03     10.4656E-03     10.4656E-03    -10.4134E-03    -10.4134E-03
               4     1.53617E+03     1.53617E+03    -93.4036E-03    -93.4036E-03         3.18212         3.18212
               5     1.59677E+03     1.59677E+03        -73.5275        -73.5275         32.3137         32.3137
               6     1.51876E+03     1.51876E+03         2.01846         2.01846     92.8175E-03     92.8175E-03
               7     1.22467E+03     1.22467E+03         33.7275         33.7275        -4.67949        -4.67949
               8     1.53067E+03     1.53067E+03    -114.147E-03    -114.147E-03        -2.68247        -2.68247
               9     1.59934E+03     1.59934E+03        -76.8197        -76.8197         36.6160         36.6160
              10     1.62568E+03     1.62568E+03         159.193         159.193         1.79172         1.79172
              11     1.53647E+03     1.53647E+03    -97.4450E-03    -97.4450E-03        -3.18155        -3.18155
              12     1.51901E+03     1.51901E+03     10.4680E-03     10.4680E-03     10.4158E-03     10.4158E-03
              13     1.42803E+03     1.42803E+03         434.170         434.170        -94.5474        -94.5474
              14     2.31952E+03     2.31952E+03         319.864         319.864        -374.332        -374.332
              15     1.59760E+03     1.59760E+03        -77.2954        -77.2954        -38.7290        -38.7290
              16     1.53086E+03     1.53086E+03    -119.297E-03    -119.297E-03         2.68488         2.68488
              17     1.62509E+03     1.62509E+03         161.202         161.202        -4.57284        -4.57284
              18     1.42804E+03     1.42804E+03         434.157         434.157         94.5255         94.5255
              19     1.22916E+03     1.22916E+03         29.3877         29.3877        -4.67297        -4.67297
              20     2.31952E+03     2.31952E+03         319.864         319.864         374.332         374.332
              21        -25.1705        -25.1705    -1.06449E+03    -1.06449E+03     840.788E-03     840.788E-03
              22     1.26200E+03     1.26200E+03         294.861         294.861        -622.242        -622.242
              23     3.86822E+03     3.86822E+03         241.412         241.412     426.094E-03     426.094E-03
              24     1.28147E+03     1.28147E+03         303.261         303.261         630.867         630.867
              25     1.28375E+03     1.28375E+03         303.622         303.622         632.099         632.099
              26     1.23918E+03     1.23918E+03         290.951         290.951        -615.711        -615.711
              27     3.87577E+03     3.87577E+03         238.723         238.723         18.1642         18.1642
              28        -25.3487        -25.3487    -1.06906E+03    -1.06906E+03     919.909E-03     919.909E-03
              29     1.56642E+03     1.56642E+03        -59.1244        -59.1244        -38.8511        -38.8511
              30     1.54918E+03     1.54918E+03        -49.6751        -49.6751        -42.4052        -42.4052
              31     1.53554E+03     1.53554E+03        -39.7820        -39.7820        -42.4386        -42.4386
              32     1.52543E+03     1.52543E+03        -30.7264        -30.7264        -40.3888        -40.3888
              33     1.51824E+03     1.51824E+03        -22.9399        -22.9399        -37.3214        -37.3214
              34     1.51334E+03     1.51334E+03        -16.4681        -16.4681        -33.9161        -33.9161
              35     1.51013E+03     1.51013E+03        -11.1765        -11.1765        -30.5502        -30.5502
              36     1.50814E+03     1.50814E+03        -6.89580        -6.89580        -27.4096        -27.4096
              37     1.50704E+03     1.50704E+03        -3.45860        -3.45860        -24.5707        -24.5707
              38     1.50657E+03     1.50657E+03    -720.494E-03    -720.494E-03        -22.0487        -22.0487
              39     1.50653E+03     1.50653E+03         1.44025         1.44025        -19.8281        -19.8281
              40     1.50681E+03     1.50681E+03         3.12360         3.12360        -17.8791        -17.8791
              41     1.50728E+03     1.50728E+03         4.41195         4.41195        -16.1675        -16.1675
              42     1.50789E+03     1.50789E+03         5.37324         5.37324        -14.6593        -14.6593
              43     1.50859E+03     1.50859E+03         6.06396         6.06396        -13.3238        -13.3238
              44     1.50933E+03     1.50933E+03         6.53143         6.53143        -12.1337        -12.1337
              45     1.51008E+03     1.51008E+03         6.81547         6.81547        -11.0664        -11.0664
              46     1.51083E+03     1.51083E+03         6.94987         6.94987        -10.1029        -10.1029
              47     1.51156E+03     1.51156E+03         6.96329         6.96329        -9.22780        -9.22780
              48     1.51227E+03     1.51227E+03         6.88018         6.88018        -8.42856        -8.42856
              49     1.51294E+03     1.51294E+03         6.72131         6.72131        -7.69527        -7.69527
              50     1.51357E+03     1.51357E+03         6.50436         6.50436        -7.01993        -7.01993
              51     1.51416E+03     1.51416E+03         6.24432         6.24432        -6.39617        -6.39617
              52     1.51470E+03     1.51470E+03         5.95385         5.95385        -5.81882        -5.81882
              53     1.51520E+03     1.51520E+03         5.64360         5.64360        -5.28368        -5.28368
              54     1.51566E+03     1.51566E+03         5.32246         5.32246        -4.78722        -4.78722
              55     1.51608E+03     1.51608E+03         4.99783         4.99783        -4.32644        -4.32644
              56     1.51646E+03     1.51646E+03         4.67582         4.67582        -3.89870        -3.89870
              57     1.51680E+03     1.51680E+03         4.36141         4.36141        -3.50161        -3.50161
              58     1.51711E+03     1.51711E+03         4.05866         4.05866        -3.13294        -3.13294
              59     1.51738E+03     1.51738E+03         3.77080         3.77080        -2.79059        -2.79059
              60     1.51763E+03     1.51763E+03         3.50042         3.50042        -2.47249        -2.47249
              61     1.51784E+03     1.51784E+03         3.24954         3.24954        -2.17665        -2.17665
              62     1.51803E+03     1.51803E+03         3.01970         3.01970        -1.90105        -1.90105
              63     1.51819E+03     1.51819E+03         2.81209         2.81209        -1.64370        -1.64370
              64     1.51833E+03     1.51833E+03         2.62758         2.62758        -1.40259        -1.40259
              65     1.51845E+03     1.51845E+03         2.46682         2.46682        -1.17572        -1.17572
              66     1.51855E+03     1.51855E+03         2.33026         2.33026    -961.075E-03    -961.075E-03
              67     1.51863E+03     1.51863E+03         2.21820         2.21820    -756.620E-03    -756.620E-03
              68     1.51869E+03     1.51869E+03         2.13086         2.13086    -560.327E-03    -560.327E-03
              69     1.51873E+03     1.51873E+03         2.06837         2.06837    -370.162E-03    -370.162E-03
              70     1.51875E+03     1.51875E+03         2.03076         2.03076    -184.592E-03    -184.592E-03
              71     1.51894E+03     1.51894E+03         1.81722         1.81722    -100.596E-03    -100.596E-03
              72     1.51910E+03     1.51910E+03         1.61576         1.61576    -105.324E-03    -105.324E-03
              73     1.51926E+03     1.51926E+03         1.40741         1.40741    -107.609E-03    -107.609E-03
              74     1.51940E+03     1.51940E+03         1.19708         1.19708    -107.326E-03    -107.326E-03
              75     1.51953E+03     1.51953E+03     989.837E-03     989.837E-03    -104.431E-03    -104.431E-03
              76     1.51962E+03     1.51962E+03     790.778E-03     790.778E-03    -98.9198E-03    -98.9198E-03
              77     1.51967E+03     1.51967E+03     604.947E-03     604.947E-03    -90.8663E-03    -90.8663E-03
              78     1.51968E+03     1.51968E+03     437.201E-03     437.201E-03    -80.3872E-03    -80.3872E-03
              79     1.51964E+03     1.51964E+03     292.062E-03     292.062E-03    -67.7047E-03    -67.7047E-03
              80     1.51954E+03     1.51954E+03     173.612E-03     173.612E-03    -53.0485E-03    -53.0485E-03
              81     1.51938E+03     1.51938E+03     85.2720E-03     85.2720E-03    -36.8650E-03    -36.8650E-03
              82     1.51915E+03     1.51915E+03     29.7347E-03     29.7347E-03    -19.4509E-03    -19.4509E-03
              83     1.51903E+03     1.51903E+03     10.6759E-03     10.6759E-03    -19.0928E-03    -19.0928E-03
              84     1.51909E+03     1.51909E+03     10.9757E-03     10.9757E-03    -37.4047E-03    -37.4047E-03
              85     1.51918E+03     1.51918E+03     11.2764E-03     11.2764E-03    -56.9797E-03    -56.9797E-03
              86     1.51932E+03     1.51932E+03     11.7861E-03     11.7861E-03    -77.3973E-03    -77.3973E-03
              87     1.51949E+03     1.51949E+03     12.4418E-03     12.4418E-03    -99.0252E-03    -99.0252E-03
              88     1.51971E+03     1.51971E+03     13.2402E-03     13.2402E-03    -122.165E-03    -122.165E-03
              89     1.51998E+03     1.51998E+03     14.1843E-03     14.1843E-03    -147.129E-03    -147.129E-03
              90     1.52030E+03     1.52030E+03     15.2647E-03     15.2647E-03    -174.221E-03    -174.221E-03
              91     1.52067E+03     1.52067E+03     16.4810E-03     16.4810E-03    -203.748E-03    -203.748E-03
              92     1.52111E+03     1.52111E+03     17.8223E-03     17.8223E-03    -236.006E-03    -236.006E-03
              93     1.52161E+03     1.52161E+03     19.2803E-03     19.2803E-03    -271.286E-03    -271.286E-03
              94     1.52219E+03     1.52219E+03     20.8384E-03     20.8384E-03    -309.859E-03    -309.859E-03
              95     1.52284E+03     1.52284E+03     22.4770E-03     22.4770E-03    -351.972E-03    -351.972E-03
              96     1.52359E+03     1.52359E+03     24.1678E-03     24.1678E-03    -397.838E-03    -397.838E-03
              97     1.52443E+03     1.52443E+03     25.8737E-03     25.8737E-03    -447.615E-03    -447.615E-03
              98     1.52537E+03     1.52537E+03     27.5465E-03     27.5465E-03    -501.395E-03    -501.395E-03
              99     1.52642E+03     1.52642E+03     29.1217E-03     29.1217E-03    -559.172E-03    -559.172E-03
             100     1.52759E+03     1.52759E+03     30.5202E-03     30.5202E-03    -620.816E-03    -620.816E-03
             101     1.52889E+03     1.52889E+03     31.6347E-03     31.6347E-03    -686.029E-03    -686.029E-03
             102     1.53032E+03     1.53032E+03     32.3403E-03     32.3403E-03    -754.304E-03    -754.304E-03
             103     1.53189E+03     1.53189E+03     32.4665E-03     32.4665E-03    -824.862E-03    -824.862E-03
             104     1.53360E+03     1.53360E+03     31.8254E-03     31.8254E-03    -896.585E-03    -896.585E-03
             105     1.53545E+03     1.53545E+03     30.1578E-03     30.1578E-03    -967.933E-03    -967.933E-03
             106     1.53744E+03     1.53744E+03     27.1981E-03     27.1981E-03        -1.03686        -1.03686
             107     1.53956E+03     1.53956E+03     22.5766E-03     22.5766E-03        -1.10069        -1.10069
             108     1.54180E+03     1.54180E+03     15.9501E-03     15.9501E-03        -1.15607        -1.15607
             109     1.54414E+03     1.54414E+03     6.84019E-03     6.84019E-03        -1.19878        -1.19878
             110     1.54654E+03     1.54654E+03    -5.13207E-03    -5.13207E-03        -1.22376        -1.22376
             111     1.54898E+03     1.54898E+03    -20.4827E-03    -20.4827E-03        -1.22500        -1.22500
             112     1.55138E+03     1.55138E+03    -39.4984E-03    -39.4984E-03        -1.19561        -1.19561
             113     1.55369E+03     1.55369E+03    -62.5173E-03    -62.5173E-03        -1.12800        -1.12800
             114     1.55581E+03     1.55581E+03    -89.4643E-03    -89.4643E-03        -1.01412        -1.01412
             115     1.55766E+03     1.55766E+03    -120.057E-03    -120.057E-03    -846.143E-03    -846.143E-03
             116     1.55911E+03     1.55911E+03    -153.419E-03    -153.419E-03    -617.072E-03    -617.072E-03
             117     1.56005E+03     1.56005E+03    -187.989E-03    -187.989E-03    -322.089E-03    -322.089E-03
             118     1.56033E+03     1.56033E+03    -221.572E-03    -221.572E-03     40.2782E-03     40.2782E-03
             119     1.55982E+03     1.55982E+03    -250.766E-03    -250.766E-03     466.281E-03     466.281E-03
             120     1.55842E+03     1.55842E+03    -271.843E-03    -271.843E-03     945.466E-03     945.466E-03
             121     1.55603E+03     1.55603E+03    -279.885E-03    -279.885E-03         1.45912         1.45912
             122     1.55261E+03     1.55261E+03    -270.492E-03    -270.492E-03         1.97947         1.97947
             123     1.54818E+03     1.54818E+03    -239.619E-03    -239.619E-03         2.47046         2.47046
             124     1.54286E+03     1.54286E+03    -184.506E-03    -184.506E-03         2.88661         2.88661
             125     1.53747E+03     1.53747E+03    -274.266E-03    -274.266E-03         5.86825         5.86825
             126     1.54037E+03     1.54037E+03    -804.654E-03    -804.654E-03         10.5526         10.5526
             127     1.54378E+03     1.54378E+03        -1.68097        -1.68097         14.0209         14.0209
             128     1.54765E+03     1.54765E+03        -2.95935        -2.95935         16.5545         16.5545
             129     1.55199E+03     1.55199E+03        -4.76907        -4.76907         18.3345         18.3345
             130     1.55687E+03     1.55687E+03        -7.30658        -7.30658         19.4166         19.4166
             131     1.56236E+03     1.56236E+03        -10.8352        -10.8352         19.7172         19.7172
             132     1.56850E+03     1.56850E+03        -15.6797        -15.6797         18.9825         18.9825
             133     1.57520E+03     1.57520E+03        -22.2030        -22.2030         16.7247         16.7247
             134     1.58209E+03     1.58209E+03        -30.7093        -30.7093         12.1657         12.1657
             135     1.58823E+03     1.58823E+03        -41.2536        -41.2536         4.20401         4.20401
             136     1.59172E+03     1.59172E+03        -53.2038        -53.2038        -8.31884        -8.31884
             137     1.56723E+03     1.56723E+03        -58.9707        -58.9707         37.6677         37.6677
             138     1.55011E+03     1.55011E+03        -49.7312        -49.7312         41.4381         41.4381
             139     1.53651E+03     1.53651E+03        -39.9913        -39.9913         41.7188         41.7188
             140     1.52633E+03     1.52633E+03        -31.0123        -31.0123         39.9028         39.9028
             141     1.51904E+03     1.51904E+03        -23.2402        -23.2402         37.0221         37.0221
             142     1.51401E+03     1.51401E+03        -16.7462        -16.7462         33.7511         33.7511
             143     1.51068E+03     1.51068E+03        -11.4174        -11.4174         30.4743         30.4743
             144     1.50859E+03     1.50859E+03        -7.09728        -7.09728         27.3909         27.3909
             145     1.50741E+03     1.50741E+03        -3.62344        -3.62344         24.5870         24.5870
             146     1.50686E+03     1.50686E+03    -853.909E-03    -853.909E-03         22.0854         22.0854
             147     1.50677E+03     1.50677E+03         1.33290         1.33290         19.8758         19.8758
             148     1.50700E+03     1.50700E+03         3.03728         3.03728         17.9318         17.9318
             149     1.50744E+03     1.50744E+03         4.34239         4.34239         16.2214         16.2214
             150     1.50803E+03     1.50803E+03         5.31692         5.31692         14.7120         14.7120
             151     1.50870E+03     1.50870E+03         6.01806         6.01806         13.3739         13.3739
             152     1.50942E+03     1.50942E+03         6.49372         6.49372         12.1805         12.1805
             153     1.51016E+03     1.51016E+03         6.78423         6.78423         11.1095         11.1095
             154     1.51090E+03     1.51090E+03         6.92375         6.92375         10.1421         10.1421
             155     1.51162E+03     1.51162E+03         6.94127         6.94127         9.26314         9.26314
             156     1.51231E+03     1.51231E+03         6.86147         6.86147         8.46020         8.46020
             157     1.51298E+03     1.51298E+03         6.70531         6.70531         7.72338         7.72338
             158     1.51360E+03     1.51360E+03         6.49060         6.49060         7.04476         7.04476
             159     1.51418E+03     1.51418E+03         6.23245         6.23245         6.41796         6.41796
             160     1.51472E+03     1.51472E+03         5.94359         5.94359         5.83784         5.83784
             161     1.51522E+03     1.51522E+03         5.63471         5.63471         5.30017         5.30017
             162     1.51568E+03     1.51568E+03         5.31477         5.31477         4.80143         4.80143
             163     1.51609E+03     1.51609E+03         4.99120         4.99120         4.33861         4.33861
             164     1.51647E+03     1.51647E+03         4.67011         4.67011         3.90904         3.90904
             165     1.51681E+03     1.51681E+03         4.35652         4.35652         3.51033         3.51033
             166     1.51712E+03     1.51712E+03         4.05449         4.05449         3.14024         3.14024
             167     1.51739E+03     1.51739E+03         3.76728         3.76728         2.79664         2.79664
             168     1.51763E+03     1.51763E+03         3.49747         3.49747         2.47746         2.47746
             169     1.51785E+03     1.51785E+03         3.24708         3.24708         2.18068         2.18068
             170     1.51803E+03     1.51803E+03         3.01769         3.01769         1.90427         1.90427
             171     1.51819E+03     1.51819E+03         2.81047         2.81047         1.64624         1.64624
             172     1.51833E+03     1.51833E+03         2.62632         2.62632         1.40455         1.40455
             173     1.51845E+03     1.51845E+03         2.46587         2.46587         1.17720         1.17720
             174     1.51855E+03     1.51855E+03         2.32959         2.32959     962.152E-03     962.152E-03
             175     1.51863E+03     1.51863E+03         2.21780         2.21780     757.370E-03     757.370E-03
             176     1.51869E+03     1.51869E+03         2.13070         2.13070     560.811E-03     560.811E-03
             177     1.51873E+03     1.51873E+03         2.06843         2.06843     370.428E-03     370.428E-03
             178     1.51875E+03     1.51875E+03         2.03099         2.03099     184.671E-03     184.671E-03
             179     1.51858E+03     1.51858E+03         2.22216         2.22216     81.2630E-03     81.2630E-03
             180     1.51841E+03     1.51841E+03         2.40595         2.40595     66.4065E-03     66.4065E-03
             181     1.51827E+03     1.51827E+03         2.54979         2.54979     49.2118E-03     49.2118E-03
             182     1.51817E+03     1.51817E+03         2.64859         2.64859     30.2831E-03     30.2831E-03
             183     1.51812E+03     1.51812E+03         2.69886         2.69886     10.2823E-03     10.2823E-03
             184     1.51812E+03     1.51812E+03         2.69882         2.69882    -10.0909E-03    -10.0909E-03
             185     1.51817E+03     1.51817E+03         2.64848         2.64848    -30.1198E-03    -30.1198E-03
             186     1.51827E+03     1.51827E+03         2.54964         2.54964    -49.1088E-03    -49.1088E-03
             187     1.51841E+03     1.51841E+03         2.40574         2.40574    -66.3694E-03    -66.3694E-03
             188     1.51858E+03     1.51858E+03         2.22189         2.22189    -81.2479E-03    -81.2479E-03
             189     1.25805E+03     1.25805E+03         17.6054         17.6054         82.7540         82.7540
             190     1.34779E+03     1.34779E+03        -23.1505        -23.1505         130.268         130.268
             191     1.44712E+03     1.44712E+03        -61.6657        -61.6657         132.950         132.950
             192     1.52421E+03     1.52421E+03        -82.2029        -82.2029         106.146         106.146
             193     1.57018E+03     1.57018E+03        -84.0716        -84.0716         70.0997         70.0997
             194     1.56178E+03     1.56178E+03        -83.9031        -83.9031        -77.2606        -77.2606
             195     1.49562E+03     1.49562E+03        -75.1282        -75.1282        -117.629        -117.629
             196     1.38929E+03     1.38929E+03        -39.6225        -39.6225        -133.232        -133.232
             197     1.27780E+03     1.27780E+03         8.52614         8.52614        -93.3085        -93.3085
             198     1.53209E+03     1.53209E+03    -334.897E-03    -334.897E-03        -4.89730        -4.89730
             199     1.53530E+03     1.53530E+03    -980.364E-03    -980.364E-03        -8.67048        -8.67048
             200     1.53915E+03     1.53915E+03        -2.03692        -2.03692        -11.3037        -11.3037
             201     1.54358E+03     1.54358E+03        -3.54932        -3.54932        -13.0996        -13.0996
             202     1.54856E+03     1.54856E+03        -5.63569        -5.63569        -14.2521        -14.2521
             203     1.55414E+03     1.55414E+03        -8.48162        -8.48162        -14.8264        -14.8264
             204     1.56037E+03     1.56037E+03        -12.3404        -12.3404        -14.7446        -14.7446
             205     1.56727E+03     1.56727E+03        -17.5269        -17.5269        -13.7559        -13.7559
             206     1.57473E+03     1.57473E+03        -24.3952        -24.3952        -11.3715        -11.3715
             207     1.58236E+03     1.58236E+03        -33.2413        -33.2413        -6.80850        -6.80850
             208     1.58920E+03     1.58920E+03        -44.1118        -44.1118         1.04285         1.04285
             209     1.59333E+03     1.59333E+03        -56.3752        -56.3752         13.3677         13.3677
             210     1.63257E+03     1.63257E+03        -67.3981        -67.3981         4.23770         4.23770
             211     1.65384E+03     1.65384E+03        -31.2428        -31.2428        -31.3142        -31.3142
             212     1.65406E+03     1.65406E+03         39.9707         39.9707        -56.9554        -56.9554
             213     1.63679E+03     1.63679E+03         121.475         121.475        -46.6243        -46.6243
             214     1.63640E+03     1.63640E+03         122.166         122.166         50.2393         50.2393
             215     1.65324E+03     1.65324E+03         41.3729         41.3729         60.6812         60.6812
             216     1.65258E+03     1.65258E+03        -29.1387        -29.1387         35.2517         35.2517
             217     1.63085E+03     1.63085E+03        -64.6398        -64.6398    -2.97236E-03    -2.97236E-03
             218     1.52780E+03     1.52780E+03     42.9121E-03     42.9121E-03         3.26642         3.26642
             219     1.51908E+03     1.51908E+03     203.086E-03     203.086E-03         3.00332         3.00332
             220     1.51165E+03     1.51165E+03     351.315E-03     351.315E-03         2.34122         2.34122
             221     1.50651E+03     1.50651E+03     455.994E-03     455.994E-03         1.35056         1.35056
             222     1.50439E+03     1.50439E+03     492.574E-03     492.574E-03     175.991E-03     175.991E-03
             223     1.50552E+03     1.50552E+03     451.673E-03     451.673E-03    -992.467E-03    -992.467E-03
             224     1.50964E+03     1.50964E+03     342.693E-03     342.693E-03        -1.96480        -1.96480
             225     1.51599E+03     1.51599E+03     190.266E-03     190.266E-03        -2.59639        -2.59639
             226     1.52352E+03     1.52352E+03     25.9260E-03     25.9260E-03        -2.81671        -2.81671
             227     1.59146E+03     1.59146E+03        -53.3128        -53.3128         8.49065         8.49065
             228     1.58805E+03     1.58805E+03        -41.3672        -41.3672        -4.07949        -4.07949
             229     1.58195E+03     1.58195E+03        -30.8310        -30.8310        -12.0586        -12.0586
             230     1.57510E+03     1.57510E+03        -22.3336        -22.3336        -16.6294        -16.6294
             231     1.56844E+03     1.56844E+03        -15.8140        -15.8140        -18.9013        -18.9013
             232     1.56234E+03     1.56234E+03        -10.9643        -10.9643        -19.6526        -19.6526
             233     1.55688E+03     1.55688E+03        -7.42115        -7.42115        -19.3687        -19.3687
             234     1.55203E+03     1.55203E+03        -4.86203        -4.86203        -18.3001        -18.3001
             235     1.54772E+03     1.54772E+03        -3.02745        -3.02745        -16.5296        -16.5296
             236     1.54390E+03     1.54390E+03        -1.72435        -1.72435        -14.0019        -14.0019
             237     1.54055E+03     1.54055E+03    -827.577E-03    -827.577E-03        -10.5384        -10.5384
             238     1.53773E+03     1.53773E+03    -283.421E-03    -283.421E-03        -5.86213        -5.86213
             239     1.54294E+03     1.54294E+03    -184.279E-03    -184.279E-03        -2.88335        -2.88335
             240     1.54826E+03     1.54826E+03    -239.842E-03    -239.842E-03        -2.46640        -2.46640
             241     1.55268E+03     1.55268E+03    -270.530E-03    -270.530E-03        -1.97532        -1.97532
             242     1.55609E+03     1.55609E+03    -279.975E-03    -279.975E-03        -1.45498        -1.45498
             243     1.55847E+03     1.55847E+03    -271.770E-03    -271.770E-03    -941.433E-03    -941.433E-03
             244     1.55987E+03     1.55987E+03    -250.681E-03    -250.681E-03    -462.511E-03    -462.511E-03
             245     1.56036E+03     1.56036E+03    -221.411E-03    -221.411E-03    -36.8380E-03    -36.8380E-03
             246     1.56008E+03     1.56008E+03    -187.815E-03    -187.815E-03     325.123E-03     325.123E-03
             247     1.55914E+03     1.55914E+03    -153.234E-03    -153.234E-03     619.694E-03     619.694E-03
             248     1.55768E+03     1.55768E+03    -119.874E-03    -119.874E-03     848.353E-03     848.353E-03
             249     1.55583E+03     1.55583E+03    -89.3052E-03    -89.3052E-03         1.01596         1.01596
             250     1.55370E+03     1.55370E+03    -62.3709E-03    -62.3709E-03         1.12950         1.12950
             251     1.55139E+03     1.55139E+03    -39.3840E-03    -39.3840E-03         1.19684         1.19684
             252     1.54899E+03     1.54899E+03    -20.3818E-03    -20.3818E-03         1.22600         1.22600
             253     1.54655E+03     1.54655E+03    -5.05815E-03    -5.05815E-03         1.22457         1.22457
             254     1.54414E+03     1.54414E+03     6.90477E-03     6.90477E-03         1.19945         1.19945
             255     1.54181E+03     1.54181E+03     15.9960E-03     15.9960E-03         1.15662         1.15662
             256     1.53956E+03     1.53956E+03     22.6175E-03     22.6175E-03         1.10116         1.10116
             257     1.53744E+03     1.53744E+03     27.2271E-03     27.2271E-03         1.03725         1.03725
             258     1.53545E+03     1.53545E+03     30.1846E-03     30.1846E-03     968.265E-03     968.265E-03
             259     1.53360E+03     1.53360E+03     31.8448E-03     31.8448E-03     896.869E-03     896.869E-03
             260     1.53189E+03     1.53189E+03     32.4851E-03     32.4851E-03     825.106E-03     825.106E-03
             261     1.53032E+03     1.53032E+03     32.3542E-03     32.3542E-03     754.516E-03     754.516E-03
             262     1.52889E+03     1.52889E+03     31.6483E-03     31.6483E-03     686.212E-03     686.212E-03
             263     1.52759E+03     1.52759E+03     30.5307E-03     30.5307E-03     620.975E-03     620.975E-03
             264     1.52642E+03     1.52642E+03     29.1320E-03     29.1320E-03     559.312E-03     559.312E-03
             265     1.52537E+03     1.52537E+03     27.5547E-03     27.5547E-03     501.517E-03     501.517E-03
             266     1.52443E+03     1.52443E+03     25.8816E-03     25.8816E-03     447.721E-03     447.721E-03
             267     1.52359E+03     1.52359E+03     24.1743E-03     24.1743E-03     397.929E-03     397.929E-03
             268     1.52284E+03     1.52284E+03     22.4833E-03     22.4833E-03     352.052E-03     352.052E-03
             269     1.52219E+03     1.52219E+03     20.8436E-03     20.8436E-03     309.928E-03     309.928E-03
             270     1.52161E+03     1.52161E+03     19.2853E-03     19.2853E-03     271.345E-03     271.345E-03
             271     1.52111E+03     1.52111E+03     17.8266E-03     17.8266E-03     236.058E-03     236.058E-03
             272     1.52067E+03     1.52067E+03     16.4851E-03     16.4851E-03     203.792E-03     203.792E-03
             273     1.52030E+03     1.52030E+03     15.2682E-03     15.2682E-03     174.259E-03     174.259E-03
             274     1.51998E+03     1.51998E+03     14.1877E-03     14.1877E-03     147.160E-03     147.160E-03
             275     1.51971E+03     1.51971E+03     13.2433E-03     13.2433E-03     122.191E-03     122.191E-03
             276     1.51949E+03     1.51949E+03     12.4448E-03     12.4448E-03     99.0462E-03     99.0462E-03
             277     1.51931E+03     1.51931E+03     11.7888E-03     11.7888E-03     77.4136E-03     77.4136E-03
             278     1.51918E+03     1.51918E+03     11.2791E-03     11.2791E-03     56.9917E-03     56.9917E-03
             279     1.51909E+03     1.51909E+03     10.9783E-03     10.9783E-03     37.4126E-03     37.4126E-03
             280     1.51903E+03     1.51903E+03     10.6784E-03     10.6784E-03     19.0969E-03     19.0969E-03
             281     1.51915E+03     1.51915E+03     29.7415E-03     29.7415E-03     19.4553E-03     19.4553E-03
             282     1.51938E+03     1.51938E+03     85.2911E-03     85.2911E-03     36.8729E-03     36.8729E-03
             283     1.51954E+03     1.51954E+03     173.650E-03     173.650E-03     53.0598E-03     53.0598E-03
             284     1.51964E+03     1.51964E+03     292.125E-03     292.125E-03     67.7188E-03     67.7188E-03
             285     1.51968E+03     1.51968E+03     437.294E-03     437.294E-03     80.4038E-03     80.4038E-03
             286     1.51967E+03     1.51967E+03     605.075E-03     605.075E-03     90.8847E-03     90.8847E-03
             287     1.51962E+03     1.51962E+03     790.943E-03     790.943E-03     98.9395E-03     98.9395E-03
             288     1.51952E+03     1.51952E+03     990.041E-03     990.041E-03     104.450E-03     104.450E-03
             289     1.51940E+03     1.51940E+03         1.19733         1.19733     107.346E-03     107.346E-03
             290     1.51926E+03     1.51926E+03         1.40769         1.40769     107.625E-03     107.625E-03
             291     1.51910E+03     1.51910E+03         1.61607         1.61607     105.339E-03     105.339E-03
             292     1.51894E+03     1.51894E+03         1.81753         1.81753     100.580E-03     100.580E-03
             293     1.43552E+03     1.43552E+03         416.376         416.376        -95.1433        -95.1433
             294     1.45051E+03     1.45051E+03         380.552         380.552        -94.5816        -94.5816
             295     1.46508E+03     1.46508E+03         344.691         344.691        -91.5194        -91.5194
             296     1.47886E+03     1.47886E+03         309.536         309.536        -86.9759        -86.9759
             297     1.49154E+03     1.49154E+03         275.655         275.655        -81.0684        -81.0684
             298     1.50289E+03     1.50289E+03         243.541         243.541        -74.0820        -74.0820
             299     1.51278E+03     1.51278E+03         213.558         213.558        -66.2879        -66.2879
             300     1.52110E+03     1.52110E+03         185.972         185.972        -58.0305        -58.0305
             301     1.52794E+03     1.52794E+03         160.894         160.894        -49.6101        -49.6101
             302     1.53332E+03     1.53332E+03         138.355         138.355        -41.2975        -41.2975
             303     1.53741E+03     1.53741E+03         118.283         118.283        -33.3183        -33.3183
             304     1.54033E+03     1.54033E+03         100.555         100.555        -25.8208        -25.8208
             305     1.54226E+03     1.54226E+03         85.0116         85.0116        -18.9237        -18.9237
             306     1.54334E+03     1.54334E+03         71.4643         71.4643        -12.6709        -12.6709
             307     1.54371E+03     1.54371E+03         59.7323         59.7323        -7.09321        -7.09321
             308     1.54350E+03     1.54350E+03         49.6218         49.6218        -2.16952        -2.16952
             309     1.54283E+03     1.54283E+03         40.9622         40.9622         2.12383         2.12383
             310     1.54177E+03     1.54177E+03         33.5788         33.5788         5.83943         5.83943
             311     1.54041E+03     1.54041E+03         27.3218         27.3218         9.02708         9.02708
             312     1.53882E+03     1.53882E+03         22.0420         22.0420         11.7500         11.7500
             313     1.53706E+03     1.53706E+03         17.6112         17.6112         14.0663         14.0663
             314     1.53516E+03     1.53516E+03         13.9034         13.9034         16.0390         16.0390
             315     1.53317E+03     1.53317E+03         10.8084         10.8084         17.7256         17.7256
             316     1.53113E+03     1.53113E+03         8.21881         8.21881         19.1848         19.1848
             317     1.52906E+03     1.52906E+03         6.03760         6.03760         20.4707         20.4707
             318     1.52700E+03     1.52700E+03         4.16973         4.16973         21.6372         21.6372
             319     1.52496E+03     1.52496E+03         2.52629         2.52629         22.7357         22.7357
             320     1.52300E+03     1.52300E+03         1.01839         1.01839         23.8177         23.8177
             321     1.52113E+03     1.52113E+03    -441.059E-03    -441.059E-03         24.9338         24.9338
             322     1.51941E+03     1.51941E+03        -1.94208        -1.94208         26.1354         26.1354
             323     1.51789E+03     1.51789E+03        -3.57791        -3.57791         27.4738         27.4738
             324     1.51665E+03     1.51665E+03        -5.44922        -5.44922         29.0001         29.0001
             325     1.51579E+03     1.51579E+03        -7.66656        -7.66656         30.7617         30.7617
             326     1.51545E+03     1.51545E+03        -10.3542        -10.3542         32.7984         32.7984
             327     1.51582E+03     1.51582E+03        -13.6540        -13.6540         35.1318         35.1318
             328     1.51714E+03     1.51714E+03        -17.7256        -17.7256         37.7484         37.7484
             329     1.51977E+03     1.51977E+03        -22.7462        -22.7462         40.5692         40.5692
             330     1.52415E+03     1.52415E+03        -28.8845        -28.8845         43.4014         43.4014
             331     1.53085E+03     1.53085E+03        -36.2637        -36.2637         45.8650         45.8650
             332     1.54047E+03     1.54047E+03        -44.8195        -44.8195         47.2886         47.2886
             333     1.55358E+03     1.55358E+03        -54.1113        -54.1113         46.6421         46.6421
             334     1.57023E+03     1.57023E+03        -62.8739        -62.8739         42.5325         42.5325
             335     1.53622E+03     1.53622E+03    -208.390E-03    -208.390E-03        -2.33658        -2.33658
             336     1.54040E+03     1.54040E+03    -266.196E-03    -266.196E-03        -1.86745        -1.86745
             337     1.54357E+03     1.54357E+03    -299.896E-03    -299.896E-03        -1.31706        -1.31706
             338     1.54561E+03     1.54561E+03    -311.794E-03    -311.794E-03    -730.946E-03    -730.946E-03
             339     1.54648E+03     1.54648E+03    -306.515E-03    -306.515E-03    -145.072E-03    -145.072E-03
             340     1.54622E+03     1.54622E+03    -287.705E-03    -287.705E-03     412.821E-03     412.821E-03
             341     1.54490E+03     1.54490E+03    -261.119E-03    -261.119E-03     923.990E-03     923.990E-03
             342     1.54261E+03     1.54261E+03    -229.369E-03    -229.369E-03         1.37794         1.37794
             343     1.53949E+03     1.53949E+03    -197.114E-03    -197.114E-03         1.77071         1.77071
             344     1.53564E+03     1.53564E+03    -164.783E-03    -164.783E-03         2.10354         2.10354
             345     1.53119E+03     1.53119E+03    -136.012E-03    -136.012E-03         2.38077         2.38077
             346     1.52623E+03     1.52623E+03    -108.749E-03    -108.749E-03         2.60883         2.60883
             347     1.52087E+03     1.52087E+03    -86.8105E-03    -86.8105E-03         2.79474         2.79474
             348     1.51517E+03     1.51517E+03    -65.3494E-03    -65.3494E-03         2.94551         2.94551
             349     1.50920E+03     1.50920E+03    -50.0778E-03    -50.0778E-03         3.06744         3.06744
             350     1.50301E+03     1.50301E+03    -32.3994E-03    -32.3994E-03         3.16579         3.16579
             351     1.49665E+03     1.49665E+03    -22.1379E-03    -22.1379E-03         3.24457         3.24457
             352     1.49014E+03     1.49014E+03    -4.87023E-03    -4.87023E-03         3.30641         3.30641
             353     1.48353E+03     1.48353E+03     2.24646E-03     2.24646E-03         3.35258         3.35258
             354     1.47684E+03     1.47684E+03     23.3246E-03     23.3246E-03         3.38285         3.38285
             355     1.47011E+03     1.47011E+03     28.6759E-03     28.6759E-03         3.39566         3.39566
             356     1.46337E+03     1.46337E+03     58.8830E-03     58.8830E-03         3.38772         3.38772
             357     1.45668E+03     1.45668E+03     62.9426E-03     62.9426E-03         3.35451         3.35451
             358     1.45008E+03     1.45008E+03     109.660E-03     109.660E-03         3.28913         3.28913
             359     1.44365E+03     1.44365E+03     111.565E-03     111.565E-03         3.18368         3.18368
             360     1.43747E+03     1.43747E+03     186.212E-03     186.212E-03         3.02603         3.02603
             361     1.43168E+03     1.43168E+03     183.037E-03     183.037E-03         2.80396         2.80396
             362     1.42640E+03     1.42640E+03     305.056E-03     305.056E-03         2.49621         2.49621
             363     1.42184E+03     1.42184E+03     290.304E-03     290.304E-03         2.08483         2.08483
             364     1.41824E+03     1.41824E+03     495.939E-03     495.939E-03         1.52950         1.52950
             365     1.41590E+03     1.41590E+03     455.888E-03     455.888E-03     805.374E-03     805.374E-03
             366     1.41524E+03     1.41524E+03     820.101E-03     820.101E-03    -173.901E-03    -173.901E-03
             367     1.41681E+03     1.41681E+03     723.384E-03     723.384E-03        -1.43689        -1.43689
             368     1.42135E+03     1.42135E+03         1.42303         1.42303        -3.19687        -3.19687
             369     1.42992E+03     1.42992E+03         1.18632         1.18632        -5.46126        -5.46126
             370     1.44402E+03     1.44402E+03         2.71519         2.71519        -8.84527        -8.84527
             371     1.46591E+03     1.46591E+03         2.07568         2.07568        -13.2159        -13.2159
             372     1.49940E+03     1.49940E+03         6.15817         6.15817        -20.7186        -20.7186
             373     1.55041E+03     1.55041E+03         4.12772         4.12772        -30.5388        -30.5388
             374     1.63288E+03     1.63288E+03         19.3921         19.3921        -52.9227        -52.9227
             375     1.76965E+03     1.76965E+03         11.3808         11.3808        -83.8757        -83.8757
             376     2.08711E+03     2.08711E+03         148.862         148.862        -235.635        -235.635
             377     2.03142E+03     2.03142E+03         389.758         389.758        -398.299        -398.299
             378     1.69689E+03     1.69689E+03         450.148         450.148        -372.705        -372.705
             379     1.60472E+03     1.60472E+03         442.258         442.258        -313.621        -313.621
             380     1.54168E+03     1.54168E+03         441.889         441.889        -281.942        -281.942
             381     1.50794E+03     1.50794E+03         438.849         438.849        -249.288        -249.288
             382     1.48327E+03     1.48327E+03         437.349         437.349        -224.608        -224.608
             383     1.46735E+03     1.46735E+03         436.115         436.115        -200.843        -200.843
             384     1.45521E+03     1.45521E+03         435.283         435.283        -180.477        -180.477
             385     1.44667E+03     1.44667E+03         434.806         434.806        -161.061        -161.061
             386     1.43999E+03     1.43999E+03         434.437         434.437        -143.435        -143.435
             387     1.43505E+03     1.43505E+03         434.289         434.289        -126.569        -126.569
             388     1.43112E+03     1.43112E+03         434.158         434.158        -110.765        -110.765
             389     1.59268E+03     1.59268E+03        -56.6257        -56.6257        -14.1768        -14.1768
             390     1.58882E+03     1.58882E+03        -44.5458        -44.5458        -1.80878        -1.80878
             391     1.58220E+03     1.58220E+03        -33.7762        -33.7762         6.17943         6.17943
             392     1.57472E+03     1.57472E+03        -24.9399        -24.9399         10.9108         10.9108
             393     1.56735E+03     1.56735E+03        -18.0173        -18.0173         13.4493         13.4493
             394     1.56048E+03     1.56048E+03        -12.7456        -12.7456         14.5579         14.5579
             395     1.55426E+03     1.55426E+03        -8.79577        -8.79577         14.7242         14.7242
             396     1.54867E+03     1.54867E+03        -5.86494        -5.86494         14.2060         14.2060
             397     1.54369E+03     1.54369E+03        -3.70515        -3.70515         13.0880         13.0880
             398     1.53927E+03     1.53927E+03        -2.13203        -2.13203         11.3106         11.3106
             399     1.53543E+03     1.53543E+03        -1.02800        -1.02800         8.68303         8.68303
             400     1.53226E+03     1.53226E+03    -351.081E-03    -351.081E-03         4.90474         4.90474
             401     1.52422E+03     1.52422E+03     8.62620E-03     8.62620E-03         2.84127         2.84127
             402     1.51721E+03     1.51721E+03     157.622E-03     157.622E-03         2.69804         2.69804
             403     1.51101E+03     1.51101E+03     303.799E-03     303.799E-03         2.20563         2.20563
             404     1.50646E+03     1.50646E+03     419.692E-03     419.692E-03         1.40228         1.40228
             405     1.50424E+03     1.50424E+03     491.493E-03     491.493E-03     376.134E-03     376.134E-03
             406     1.50473E+03     1.50473E+03     489.665E-03     489.665E-03    -730.780E-03    -730.780E-03
             407     1.50791E+03     1.50791E+03     424.362E-03     424.362E-03        -1.75589        -1.75589
             408     1.51342E+03     1.51342E+03     317.704E-03     317.704E-03        -2.57660        -2.57660
             409     1.52061E+03     1.52061E+03     174.609E-03     174.609E-03        -3.10239        -3.10239
             410     1.52870E+03     1.52870E+03     27.8451E-03     27.8451E-03        -3.28866        -3.28866
             411     1.63299E+03     1.63299E+03         135.902         135.902         42.2587         42.2587
             412     1.64995E+03     1.64995E+03         69.3083         69.3083         60.7349         60.7349
             413     1.65819E+03     1.65819E+03    -414.196E-03    -414.196E-03         48.4818         48.4818
             414     1.64976E+03     1.64976E+03        -48.8277        -48.8277         19.5637         19.5637
             415     1.62829E+03     1.62829E+03        -71.3715        -71.3715        -9.98345        -9.98345
             416     1.63063E+03     1.63063E+03        -64.8990        -64.8990     248.856E-03     248.856E-03
             417     1.65248E+03     1.65248E+03        -29.6345        -29.6345        -34.9940        -34.9940
             418     1.65334E+03     1.65334E+03         40.6024         40.6024        -60.5514        -60.5514
             419     1.63669E+03     1.63669E+03         121.233         121.233        -50.4471        -50.4471
             420     1.43552E+03     1.43552E+03         416.367         416.367         95.1164         95.1164
             421     1.45051E+03     1.45051E+03         380.551         380.551         94.5427         94.5427
             422     1.46507E+03     1.46507E+03         344.700         344.700         91.4671         91.4671
             423     1.47885E+03     1.47885E+03         309.557         309.557         86.9117         86.9117
             424     1.49153E+03     1.49153E+03         275.690         275.690         80.9946         80.9946
             425     1.50287E+03     1.50287E+03         243.591         243.591         74.0028         74.0028
             426     1.51275E+03     1.51275E+03         213.621         213.621         66.2066         66.2066
             427     1.52108E+03     1.52108E+03         186.047         186.047         57.9516         57.9516
             428     1.52791E+03     1.52791E+03         160.979         160.979         49.5364         49.5364
             429     1.53329E+03     1.53329E+03         138.448         138.448         41.2322         41.2322
             430     1.53739E+03     1.53739E+03         118.381         118.381         33.2632         33.2632
             431     1.54032E+03     1.54032E+03         100.655         100.655         25.7774         25.7774
             432     1.54226E+03     1.54226E+03         85.1112         85.1112         18.8928         18.8928
             433     1.54334E+03     1.54334E+03         71.5613         71.5613         12.6527         12.6527
             434     1.54373E+03     1.54373E+03         59.8252         59.8252         7.08780         7.08780
             435     1.54353E+03     1.54353E+03         49.7091         49.7091         2.17624         2.17624
             436     1.54285E+03     1.54285E+03         41.0433         41.0433        -2.10523        -2.10523
             437     1.54180E+03     1.54180E+03         33.6530         33.6530        -5.80987        -5.80987
             438     1.54045E+03     1.54045E+03         27.3892         27.3892        -8.98704        -8.98704
             439     1.53886E+03     1.53886E+03         22.1027         22.1027        -11.7004        -11.7004
             440     1.53710E+03     1.53710E+03         17.6658         17.6658        -14.0077        -14.0077
             441     1.53520E+03     1.53520E+03         13.9525         13.9525        -15.9721        -15.9721
             442     1.53321E+03     1.53321E+03         10.8533         10.8533        -17.6512        -17.6512
             443     1.53116E+03     1.53116E+03         8.26053         8.26053        -19.1033        -19.1033
             444     1.52908E+03     1.52908E+03         6.07777         6.07777        -20.3828        -20.3828
             445     1.52701E+03     1.52701E+03         4.21003         4.21003        -21.5436        -21.5436
             446     1.52496E+03     1.52496E+03         2.56895         2.56895        -22.6371        -22.6371
             447     1.52297E+03     1.52297E+03         1.06586         1.06586        -23.7149        -23.7149
             448     1.52108E+03     1.52108E+03    -385.675E-03    -385.675E-03        -24.8280        -24.8280
             449     1.51932E+03     1.51932E+03        -1.87523        -1.87523        -26.0284        -26.0284
             450     1.51777E+03     1.51777E+03        -3.49518        -3.49518        -27.3682        -27.3682
             451     1.51648E+03     1.51648E+03        -5.34565        -5.34565        -28.8997        -28.8997
             452     1.51556E+03     1.51556E+03        -7.53623        -7.53623        -30.6727        -30.6727
             453     1.51514E+03     1.51514E+03        -10.1910        -10.1910        -32.7305        -32.7305
             454     1.51541E+03     1.51541E+03        -13.4519        -13.4519        -35.0993        -35.0993
             455     1.51663E+03     1.51663E+03        -17.4812        -17.4812        -37.7734        -37.7734
             456     1.51913E+03     1.51913E+03        -22.4605        -22.4605        -40.6837        -40.6837
             457     1.52338E+03     1.52338E+03        -28.5719        -28.5719        -43.6503        -43.6503
             458     1.52996E+03     1.52996E+03        -35.9592        -35.9592        -46.3000        -46.3000
             459     1.53952E+03     1.53952E+03        -44.5845        -44.5845        -47.9553        -47.9553
             460     1.55265E+03     1.55265E+03        -54.0208        -54.0208        -47.5489        -47.5489
             461     1.56943E+03     1.56943E+03        -62.9855        -62.9855        -43.6392        -43.6392
             462     1.56514E+03     1.56514E+03        -87.6465        -87.6465        -80.9551        -80.9551
             463     1.49954E+03     1.49954E+03        -79.1512        -79.1512        -120.566        -120.566
             464     1.39356E+03     1.39356E+03        -43.8318        -43.8318        -135.289        -135.289
             465     1.28223E+03     1.28223E+03         4.22483         4.22483        -94.3577        -94.3577
             466     1.26256E+03     1.26256E+03         13.2584         13.2584         83.7234         83.7234
             467     1.35222E+03     1.35222E+03        -27.4527        -27.4527         132.079         132.079
             468     1.45133E+03     1.45133E+03        -65.8488        -65.8488         135.511         135.511
             469     1.52804E+03     1.52804E+03        -86.1865        -86.1865         109.379         109.379
             470     1.57350E+03     1.57350E+03        -87.7926        -87.7926         73.9307         73.9307
             471     1.42533E+03     1.42533E+03         434.163         434.163        -77.1355        -77.1355
             472     1.42327E+03     1.42327E+03         434.197         434.197        -59.3109        -59.3109
             473     1.42184E+03     1.42184E+03         434.230         434.230        -42.0444        -42.0444
             474     1.42095E+03     1.42095E+03         434.266         434.266        -25.1068        -25.1068
             475     1.42051E+03     1.42051E+03         434.277         434.277        -8.40396        -8.40396
             476     1.42052E+03     1.42052E+03         434.271         434.271         8.26124         8.26124
             477     1.42096E+03     1.42096E+03         434.247         434.247         24.9813         24.9813
             478     1.42185E+03     1.42185E+03         434.206         434.206         41.9448         41.9448
             479     1.42328E+03     1.42328E+03         434.173         434.173         59.2409         59.2409
             480     1.42535E+03     1.42535E+03         434.143         434.143         77.0934         77.0934
             481     1.43113E+03     1.43113E+03         434.151         434.151         110.752         110.752
             482     1.43505E+03     1.43505E+03         434.286         434.286         126.560         126.560
             483     1.43999E+03     1.43999E+03         434.435         434.435         143.428         143.428
             484     1.44667E+03     1.44667E+03         434.805         434.805         161.055         161.055
             485     1.45522E+03     1.45522E+03         435.283         435.283         180.473         180.473
             486     1.46735E+03     1.46735E+03         436.115         436.115         200.839         200.839
             487     1.48327E+03     1.48327E+03         437.349         437.349         224.605         224.605
             488     1.50795E+03     1.50795E+03         438.849         438.849         249.285         249.285
             489     1.54168E+03     1.54168E+03         441.890         441.890         281.940         281.940
             490     1.60472E+03     1.60472E+03         442.258         442.258         313.619         313.619
             491     1.69689E+03     1.69689E+03         450.148         450.148         372.704         372.704
             492     2.03142E+03     2.03142E+03         389.758         389.758         398.298         398.298
             493     2.08711E+03     2.08711E+03         148.862         148.862         235.634         235.634
             494     1.76965E+03     1.76965E+03         11.3807         11.3807         83.8751         83.8751
             495     1.63289E+03     1.63289E+03         19.3920         19.3920         52.9222         52.9222
             496     1.55041E+03     1.55041E+03         4.12766         4.12766         30.5384         30.5384
             497     1.49940E+03     1.49940E+03         6.15811         6.15811         20.7184         20.7184
             498     1.46591E+03     1.46591E+03         2.07563         2.07563         13.2157         13.2157
             499     1.44402E+03     1.44402E+03         2.71514         2.71514         8.84525         8.84525
             500     1.42992E+03     1.42992E+03         1.18628         1.18628         5.46133         5.46133
             501     1.42136E+03     1.42136E+03         1.42299         1.42299         3.19702         3.19702
             502     1.41681E+03     1.41681E+03     723.356E-03     723.356E-03         1.43709         1.43709
             503     1.41524E+03     1.41524E+03     820.079E-03     820.079E-03     174.149E-03     174.149E-03
             504     1.41590E+03     1.41590E+03     455.873E-03     455.873E-03    -805.094E-03    -805.094E-03
             505     1.41824E+03     1.41824E+03     495.928E-03     495.928E-03        -1.52919        -1.52919
             506     1.42184E+03     1.42184E+03     290.298E-03     290.298E-03        -2.08451        -2.08451
             507     1.42641E+03     1.42641E+03     305.053E-03     305.053E-03        -2.49588        -2.49588
             508     1.43168E+03     1.43168E+03     183.036E-03     183.036E-03        -2.80363        -2.80363
             509     1.43747E+03     1.43747E+03     186.213E-03     186.213E-03        -3.02570        -3.02570
             510     1.44364E+03     1.44364E+03     111.566E-03     111.566E-03        -3.18336        -3.18336
             511     1.45008E+03     1.45008E+03     109.664E-03     109.664E-03        -3.28881        -3.28881
             512     1.45667E+03     1.45667E+03     62.9448E-03     62.9448E-03        -3.35419        -3.35419
             513     1.46337E+03     1.46337E+03     58.8889E-03     58.8889E-03        -3.38740        -3.38740
             514     1.47011E+03     1.47011E+03     28.6771E-03     28.6771E-03        -3.39535        -3.39535
             515     1.47684E+03     1.47684E+03     23.3321E-03     23.3321E-03        -3.38254        -3.38254
             516     1.48352E+03     1.48352E+03     2.24606E-03     2.24606E-03        -3.35227        -3.35227
             517     1.49014E+03     1.49014E+03    -4.86076E-03    -4.86076E-03        -3.30610        -3.30610
             518     1.49664E+03     1.49664E+03    -22.1404E-03    -22.1404E-03        -3.24425        -3.24425
             519     1.50300E+03     1.50300E+03    -32.3871E-03    -32.3871E-03        -3.16546        -3.16546
             520     1.50919E+03     1.50919E+03    -50.0809E-03    -50.0809E-03        -3.06711        -3.06711
             521     1.51516E+03     1.51516E+03    -65.3305E-03    -65.3305E-03        -2.94518        -2.94518
             522     1.52086E+03     1.52086E+03    -86.8049E-03    -86.8049E-03        -2.79441        -2.79441
             523     1.52622E+03     1.52622E+03    -108.709E-03    -108.709E-03        -2.60852        -2.60852
             524     1.53118E+03     1.53118E+03    -135.967E-03    -135.967E-03        -2.38051        -2.38051
             525     1.53563E+03     1.53563E+03    -164.687E-03    -164.687E-03        -2.10337        -2.10337
             526     1.53948E+03     1.53948E+03    -196.969E-03    -196.969E-03        -1.77076        -1.77076
             527     1.54260E+03     1.54260E+03    -229.161E-03    -229.161E-03        -1.37828        -1.37828
             528     1.54489E+03     1.54489E+03    -260.808E-03    -260.808E-03    -924.808E-03    -924.808E-03
             529     1.54621E+03     1.54621E+03    -287.378E-03    -287.378E-03    -414.226E-03    -414.226E-03
             530     1.54648E+03     1.54648E+03    -306.101E-03    -306.101E-03     142.964E-03     142.964E-03
             531     1.54561E+03     1.54561E+03    -311.543E-03    -311.543E-03     728.197E-03     728.197E-03
             532     1.54358E+03     1.54358E+03    -299.761E-03    -299.761E-03         1.31393         1.31393
             533     1.54042E+03     1.54042E+03    -266.423E-03    -266.423E-03         1.86437         1.86437
             534     1.53624E+03     1.53624E+03    -209.204E-03    -209.204E-03         2.33533         2.33533
             535         24.7937         24.7937        -751.008        -751.008        -3.61981        -3.61981
             536         210.214         210.214        -276.502        -276.502        -9.57614        -9.57614
             537         506.085         506.085        -51.3977        -51.3977        -10.8458        -10.8458
             538         809.817         809.817         27.9747         27.9747        -9.41448        -9.41448
             539     1.06120E+03     1.06120E+03         40.5767         40.5767        -6.76735        -6.76735
             540     1.63942E+03     1.63942E+03        -117.670        -117.670        -62.3015        -62.3015
             541     1.69877E+03     1.69877E+03        -176.751        -176.751        -111.423        -111.423
             542     1.75469E+03     1.75469E+03        -230.663        -230.663        -190.520        -190.520
             543     1.74115E+03     1.74115E+03        -211.737        -211.737        -313.888        -313.888
             544     1.48321E+03     1.48321E+03         61.8020         61.8020        -505.452        -505.452
             545         749.558         749.558         62.7893         62.7893        -402.526        -402.526
             546         350.526         350.526        -274.415        -274.415        -188.228        -188.228
             547         114.510         114.510        -646.074        -646.074        -36.3166        -36.3166
             548         4.39915         4.39915        -941.534        -941.534         18.3121         18.3121
             549     1.69680E+03     1.69680E+03         245.621         245.621         1.57577         1.57577
             550     1.84275E+03     1.84275E+03         364.428         364.428         1.35054         1.35054
             551     2.11691E+03     2.11691E+03         472.787         472.787         1.17923         1.17923
             552     2.60280E+03     2.60280E+03         503.291         503.291     997.559E-03     997.559E-03
             553     3.38932E+03     3.38932E+03         364.889         364.889     658.119E-03     658.119E-03
             554     3.68658E+03     3.68658E+03         284.547         284.547        -430.508        -430.508
             555     3.19905E+03     3.19905E+03         381.466         381.466        -736.162        -736.162
             556     2.54056E+03     2.54056E+03         450.699         450.699        -853.745        -853.745
             557     1.86018E+03     1.86018E+03         422.843         422.843        -794.728        -794.728
             558     1.50029E+03     1.50029E+03         66.8050         66.8050         508.489         508.489
             559     1.75279E+03     1.75279E+03        -210.564        -210.564         310.194         310.194
             560     1.76125E+03     1.76125E+03        -230.005        -230.005         186.084         186.084
             561     1.70212E+03     1.70212E+03        -176.157        -176.157         107.993         107.993
             562     1.64102E+03     1.64102E+03        -117.141        -117.141         59.9971         59.9971
             563        -6.06058        -6.06058        -992.133        -992.133        -21.7793        -21.7793
             564         62.5114         62.5114        -769.836        -769.836         2.47835         2.47835
             565         207.999         207.999        -466.655        -466.655         96.4179         96.4179
             566         456.581         456.581        -152.458        -152.458         252.602         252.602
             567         820.779         820.779         114.249         114.249         439.332         439.332
             568     1.64363E+03     1.64363E+03        -119.972        -119.972         63.2243         63.2243
             569     1.70460E+03     1.70460E+03        -178.472        -178.472         110.217         110.217
             570     1.76365E+03     1.76365E+03        -231.881        -231.881         187.565         187.565
             571     1.75526E+03     1.75526E+03        -211.942        -211.942         311.198         311.198
             572     1.50270E+03     1.50270E+03         66.4511         66.4511         509.524         509.524
             573     1.86260E+03     1.86260E+03         422.226         422.226         795.970         795.970
             574     2.54323E+03     2.54323E+03         451.320         451.320         855.090         855.090
             575     3.20141E+03     3.20141E+03         382.028         382.028         737.390         737.390
             576     3.68799E+03     3.68799E+03         284.858         284.858         431.482         431.482
             577     1.46703E+03     1.46703E+03         56.0074         56.0074        -503.499        -503.499
             578     1.73410E+03     1.73410E+03        -218.396        -218.396        -317.867        -317.867
             579     1.75141E+03     1.75141E+03        -235.487        -235.487        -195.800        -195.800
             580     1.69767E+03     1.69767E+03        -180.444        -180.444        -116.507        -116.507
             581     1.63982E+03     1.63982E+03        -121.054        -121.054        -67.3546        -67.3546
             582     1.69631E+03     1.69631E+03         248.087         248.087        -4.93098        -4.93098
             583     1.84286E+03     1.84286E+03         366.999         366.999        -5.18138        -5.18138
             584     2.11830E+03     2.11830E+03         474.705         474.705        -3.52347        -3.52347
             585     2.60610E+03     2.60610E+03         503.940         503.940         1.50343         1.50343
             586     3.39528E+03     3.39528E+03         363.524         363.524         11.5974         11.5974
             587     3.75892E+03     3.75892E+03         268.264         268.264        -369.980        -369.980
             588     3.40207E+03     3.40207E+03         347.318         347.318        -662.709        -662.709
             589     2.88998E+03     2.88998E+03         428.222         428.222        -829.108        -829.108
             590     2.31258E+03     2.31258E+03         460.849         460.849        -860.350        -860.350
             591     1.75172E+03     1.75172E+03         415.036         415.036        -778.580        -778.580
             592     1.85952E+03     1.85952E+03         421.419         421.419         794.476         794.476
             593     2.53938E+03     2.53938E+03         450.533         450.533         853.491         853.491
             594     3.19695E+03     3.19695E+03         381.176         381.176         736.136         736.136
             595     3.68346E+03     3.68346E+03         284.910         284.910         430.437         430.437
             596     1.06452E+03     1.06452E+03         37.0276         37.0276        -6.72666        -6.72666
             597         811.935         811.935         25.1163         25.1163        -9.33296        -9.33296
             598         507.200         507.200        -53.9461        -53.9461        -10.7282        -10.7282
             599         210.524         210.524        -279.272        -279.272        -9.44649        -9.44649
             600         24.6892         24.6892        -754.817        -754.817        -3.51660        -3.51660
             601        -6.16267        -6.16267        -996.348        -996.348        -21.8960        -21.8960
             602         62.5721         62.5721        -773.186        -773.186         2.33959         2.33959
             603         208.393         208.393        -468.890        -468.890         96.4576         96.4576
             604         457.449         457.449        -153.603        -153.603         253.013         253.013
             605         822.333         822.333         114.036         114.036         440.129         440.129
             606         750.615         750.615         61.8208         61.8208        -402.673        -402.673
             607         350.840         350.840        -276.549        -276.549        -188.077        -188.077
             608         114.493         114.493        -649.412        -649.412        -35.9640        -35.9640
             609         4.24014         4.24014        -945.795        -945.795         18.6151         18.6151
             610     1.57534E+03     1.57534E+03        -51.9037        -51.9037        -20.0871        -20.0871
             611     1.56129E+03     1.56129E+03        -46.5949        -46.5949        -26.5296        -26.5296
             612     1.54893E+03     1.54893E+03        -39.6705        -39.6705        -29.9322        -29.9322
             613     1.53874E+03     1.53874E+03        -32.3769        -32.3769        -30.9958        -30.9958
             614     1.53073E+03     1.53073E+03        -25.4860        -25.4860        -30.5252        -30.5252
             615     1.52466E+03     1.52466E+03        -19.3496        -19.3496        -29.1524        -29.1524
             616     1.52020E+03     1.52020E+03        -14.0779        -14.0779        -27.3290        -27.3290
             617     1.51702E+03     1.51702E+03        -9.64797        -9.64797        -25.3361        -25.3361
             618     1.51482E+03     1.51482E+03        -5.98676        -5.98676        -23.3407        -23.3407
             619     1.51338E+03     1.51338E+03        -3.00094        -3.00094        -21.4321        -21.4321
             620     1.51250E+03     1.51250E+03    -598.176E-03    -598.176E-03        -19.6527        -19.6527
             621     1.51204E+03     1.51204E+03         1.30797         1.30797        -18.0164        -18.0164
             622     1.51189E+03     1.51189E+03         2.79402         2.79402        -16.5218        -16.5218
             623     1.51196E+03     1.51196E+03         3.92725         3.92725        -15.1595        -15.1595
             624     1.51218E+03     1.51218E+03         4.76571         4.76571        -13.9168        -13.9168
             625     1.51252E+03     1.51252E+03         5.35952         5.35952        -12.7803        -12.7803
             626     1.51292E+03     1.51292E+03         5.75164         5.75164        -11.7374        -11.7374
             627     1.51336E+03     1.51336E+03         5.97890         5.97890        -10.7771        -10.7771
             628     1.51382E+03     1.51382E+03         6.07276         6.07276        -9.88966        -9.88966
             629     1.51428E+03     1.51428E+03         6.06002         6.06002        -9.06727        -9.06727
             630     1.51474E+03     1.51474E+03         5.96344         5.96344        -8.30335        -8.30335
             631     1.51518E+03     1.51518E+03         5.80229         5.80229        -7.59254        -7.59254
             632     1.51559E+03     1.51559E+03         5.59279         5.59279        -6.93046        -6.93046
             633     1.51598E+03     1.51598E+03         5.34856         5.34856        -6.31346        -6.31346
             634     1.51635E+03     1.51635E+03         5.08096         5.08096        -5.73844        -5.73844
             635     1.51668E+03     1.51668E+03         4.79939         4.79939        -5.20272        -5.20272
             636     1.51699E+03     1.51699E+03         4.51161         4.51161        -4.70388        -4.70388
             637     1.51726E+03     1.51726E+03         4.22397         4.22397        -4.23968        -4.23968
             638     1.51751E+03     1.51751E+03         3.94162         3.94162        -3.80799        -3.80799
             639     1.51774E+03     1.51774E+03         3.66869         3.66869        -3.40675        -3.40675
             640     1.51794E+03     1.51794E+03         3.40848         3.40848        -3.03388        -3.03388
             641     1.51812E+03     1.51812E+03         3.16360         3.16360        -2.68733        -2.68733
             642     1.51827E+03     1.51827E+03         2.93605         2.93605        -2.36502        -2.36502
             643     1.51841E+03     1.51841E+03         2.72740         2.72740        -2.06483        -2.06483
             644     1.51853E+03     1.51853E+03         2.53880         2.53880        -1.78465        -1.78465
             645     1.51863E+03     1.51863E+03         2.37111         2.37111        -1.52231        -1.52231
             646     1.51871E+03     1.51871E+03         2.22497         2.22497        -1.27563        -1.27563
             647     1.51878E+03     1.51878E+03         2.10081         2.10081        -1.04240        -1.04240
             648     1.51884E+03     1.51884E+03         1.99893         1.99893    -820.409E-03    -820.409E-03
             649     1.51888E+03     1.51888E+03         1.91954         1.91954    -607.422E-03    -607.422E-03
             650     1.51891E+03     1.51891E+03         1.86276         1.86276    -401.203E-03    -401.203E-03
             651     1.51893E+03     1.51893E+03         1.82863         1.82863    -200.052E-03    -200.052E-03
             652     1.57671E+03     1.57671E+03        -43.5880        -43.5880        -7.23707        -7.23707
             653     1.56574E+03     1.56574E+03        -41.1632        -41.1632        -14.5786        -14.5786
             654     1.55547E+03     1.55547E+03        -36.7189        -36.7189        -19.4915        -19.4915
             655     1.54638E+03     1.54638E+03        -31.2749        -31.2749        -22.3721        -22.3721
             656     1.53873E+03     1.53873E+03        -25.6202        -25.6202        -23.6785        -23.6785
             657     1.53253E+03     1.53253E+03        -20.2370        -20.2370        -23.8881        -23.8881
             658     1.52766E+03     1.52766E+03        -15.3752        -15.3752        -23.3854        -23.3854
             659     1.52392E+03     1.52392E+03        -11.1342        -11.1342        -22.4589        -22.4589
             660     1.52113E+03     1.52113E+03        -7.52454        -7.52454        -21.3030        -21.3030
             661     1.51909E+03     1.51909E+03        -4.51234        -4.51234        -20.0452        -20.0452
             662     1.51765E+03     1.51765E+03        -2.04144        -2.04144        -18.7631        -18.7631
             663     1.51667E+03     1.51667E+03    -48.9122E-03    -48.9122E-03        -17.5022        -17.5022
             664     1.51605E+03     1.51605E+03         1.52883         1.52883        -16.2869        -16.2869
             665     1.51570E+03     1.51570E+03         2.75150         2.75150        -15.1290        -15.1290
             666     1.51555E+03     1.51555E+03         3.67380         3.67380        -14.0325        -14.0325
             667     1.51554E+03     1.51554E+03         4.34445         4.34445        -12.9974        -12.9974
             668     1.51564E+03     1.51564E+03         4.80642         4.80642        -12.0216        -12.0216
             669     1.51581E+03     1.51581E+03         5.09708         5.09708        -11.1022        -11.1022
             670     1.51602E+03     1.51602E+03         5.24873         5.24873        -10.2362        -10.2362
             671     1.51626E+03     1.51626E+03         5.28905         5.28905        -9.42057        -9.42057
             672     1.51652E+03     1.51652E+03         5.24157         5.24157        -8.65286        -8.65286
             673     1.51677E+03     1.51677E+03         5.12623         5.12623        -7.93075        -7.93075
             674     1.51702E+03     1.51702E+03         4.95978         4.95978        -7.25223        -7.25223
             675     1.51726E+03     1.51726E+03         4.75620         4.75620        -6.61546        -6.61546
             676     1.51749E+03     1.51749E+03         4.52711         4.52711        -6.01875        -6.01875
             677     1.51770E+03     1.51770E+03         4.28210         4.28210        -5.46044        -5.46044
             678     1.51789E+03     1.51789E+03         4.02901         4.02901        -4.93888        -4.93888
             679     1.51806E+03     1.51806E+03         3.77421         3.77421        -4.45237        -4.45237
             680     1.51822E+03     1.51822E+03         3.52286         3.52286        -3.99918        -3.99918
             681     1.51836E+03     1.51836E+03         3.27906         3.27906        -3.57746        -3.57746
             682     1.51849E+03     1.51849E+03         3.04606         3.04606        -3.18530        -3.18530
             683     1.51860E+03     1.51860E+03         2.82641         2.82641        -2.82073        -2.82073
             684     1.51870E+03     1.51870E+03         2.62208         2.62208        -2.48165        -2.48165
             685     1.51878E+03     1.51878E+03         2.43456         2.43456        -2.16594        -2.16594
             686     1.51885E+03     1.51885E+03         2.26497         2.26497        -1.87139        -1.87139
             687     1.51892E+03     1.51892E+03         2.11414         2.11414        -1.59576        -1.59576
             688     1.51897E+03     1.51897E+03         1.98267         1.98267        -1.33674        -1.33674
             689     1.51901E+03     1.51901E+03         1.87095         1.87095        -1.09202        -1.09202
             690     1.51904E+03     1.51904E+03         1.77928         1.77928    -859.241E-03    -859.241E-03
             691     1.51907E+03     1.51907E+03         1.70784         1.70784    -636.039E-03    -636.039E-03
             692     1.51909E+03     1.51909E+03         1.65676         1.65676    -420.033E-03    -420.033E-03
             693     1.51910E+03     1.51910E+03         1.62604         1.62604    -209.428E-03    -209.428E-03
             694     1.57473E+03     1.57473E+03        -35.1753        -35.1753         2.19049         2.19049
             695     1.56668E+03     1.56668E+03        -34.9499        -34.9499        -5.17270        -5.17270
             696     1.55857E+03     1.55857E+03        -32.4668        -32.4668        -10.7243        -10.7243
             697     1.55096E+03     1.55096E+03        -28.6900        -28.6900        -14.6350        -14.6350
             698     1.54417E+03     1.54417E+03        -24.3100        -24.3100        -17.1485        -17.1485
             699     1.53836E+03     1.53836E+03        -19.8355        -19.8355        -18.5571        -18.5571
             700     1.53355E+03     1.53355E+03        -15.5829        -15.5829        -19.1507        -19.1507
             701     1.52966E+03     1.52966E+03        -11.7279        -11.7279        -19.1702        -19.1702
             702     1.52659E+03     1.52659E+03        -8.34868        -8.34868        -18.8038        -18.8038
             703     1.52420E+03     1.52420E+03        -5.46200        -5.46200        -18.1874        -18.1874
             704     1.52239E+03     1.52239E+03        -3.04929        -3.04929        -17.4171        -17.4171
             705     1.52104E+03     1.52104E+03        -1.07246        -1.07246        -16.5580        -16.5580
             706     1.52006E+03     1.52006E+03     515.008E-03     515.008E-03        -15.6538        -15.6538
             707     1.51937E+03     1.51937E+03         1.76236         1.76236        -14.7330        -14.7330
             708     1.51889E+03     1.51889E+03         2.71750         2.71750        -13.8144        -13.8144
             709     1.51858E+03     1.51858E+03         3.42531         3.42531        -12.9103        -12.9103
             710     1.51840E+03     1.51840E+03         3.92643         3.92643        -12.0287        -12.0287
             711     1.51831E+03     1.51831E+03         4.25702         4.25702        -11.1749        -11.1749
             712     1.51829E+03     1.51829E+03         4.44871         4.44871        -10.3525        -10.3525
             713     1.51831E+03     1.51831E+03         4.52884         4.52884        -9.56386        -9.56386
             714     1.51836E+03     1.51836E+03         4.52077         4.52077        -8.81065        -8.81065
             715     1.51843E+03     1.51843E+03         4.44431         4.44431        -8.09390        -8.09390
             716     1.51851E+03     1.51851E+03         4.31612         4.31612        -7.41419        -7.41419
             717     1.51859E+03     1.51859E+03         4.15005         4.15005        -6.77170        -6.77170
             718     1.51867E+03     1.51867E+03         3.95760         3.95760        -6.16625        -6.16625
             719     1.51875E+03     1.51875E+03         3.74819         3.74819        -5.59736        -5.59736
             720     1.51883E+03     1.51883E+03         3.52952         3.52952        -5.06424        -5.06424
             721     1.51889E+03     1.51889E+03         3.30780         3.30780        -4.56581        -4.56581
             722     1.51895E+03     1.51895E+03         3.08801         3.08801        -4.10079        -4.10079
             723     1.51901E+03     1.51901E+03         2.87412         2.87412        -3.66765        -3.66765
             724     1.51905E+03     1.51905E+03         2.66925         2.66925        -3.26467        -3.26467
             725     1.51909E+03     1.51909E+03         2.47581         2.47581        -2.88998        -2.88998
             726     1.51913E+03     1.51913E+03         2.29568         2.29568        -2.54157        -2.54157
             727     1.51916E+03     1.51916E+03         2.13025         2.13025        -2.21730        -2.21730
             728     1.51918E+03     1.51918E+03         1.98059         1.98059        -1.91495        -1.91495
             729     1.51920E+03     1.51920E+03         1.84744         1.84744        -1.63222        -1.63222
             730     1.51922E+03     1.51922E+03         1.73136         1.73136        -1.36676        -1.36676
             731     1.51923E+03     1.51923E+03         1.63272         1.63272        -1.11615        -1.11615
             732     1.51924E+03     1.51924E+03         1.55179         1.55179    -877.962E-03    -877.962E-03
             733     1.51925E+03     1.51925E+03         1.48872         1.48872    -649.736E-03    -649.736E-03
             734     1.51925E+03     1.51925E+03         1.44361         1.44361    -428.997E-03    -428.997E-03
             735     1.51926E+03     1.51926E+03         1.41648         1.41648    -213.899E-03    -213.899E-03
             736     1.57088E+03     1.57088E+03        -27.4718        -27.4718         8.59527         8.59527
             737     1.56537E+03     1.56537E+03        -28.6550        -28.6550         1.85852         1.85852
             738     1.55931E+03     1.55931E+03        -27.6487        -27.6487        -3.74095        -3.74095
             739     1.55326E+03     1.55326E+03        -25.2235        -25.2235        -8.11373        -8.11373
             740     1.54758E+03     1.54758E+03        -22.0020        -22.0020        -11.3419        -11.3419
             741     1.54247E+03     1.54247E+03        -18.4456        -18.4456        -13.5761        -13.5761
             742     1.53804E+03     1.53804E+03        -14.8869        -14.8869        -14.9982        -14.9982
             743     1.53430E+03     1.53430E+03        -11.5356        -11.5356        -15.7882        -15.7882
             744     1.53121E+03     1.53121E+03        -8.51152        -8.51152        -16.1011        -16.1011
             745     1.52870E+03     1.52870E+03        -5.86911        -5.86911        -16.0637        -16.0637
             746     1.52669E+03     1.52669E+03        -3.62009        -3.62009        -15.7737        -15.7737
             747     1.52510E+03     1.52510E+03        -1.74981        -1.74981        -15.3052        -15.3052
             748     1.52386E+03     1.52386E+03    -228.393E-03    -228.393E-03        -14.7131        -14.7131
             749     1.52290E+03     1.52290E+03     981.296E-03     981.296E-03        -14.0382        -14.0382
             750     1.52215E+03     1.52215E+03         1.91900         1.91900        -13.3106        -13.3106
             751     1.52159E+03     1.52159E+03         2.62377         2.62377        -12.5528        -12.5528
             752     1.52115E+03     1.52115E+03         3.13237         3.13237        -11.7815        -11.7815
             753     1.52083E+03     1.52083E+03         3.47817         3.47817        -11.0096        -11.0096
             754     1.52058E+03     1.52058E+03         3.69086         3.69086        -10.2469        -10.2469
             755     1.52038E+03     1.52038E+03         3.79631         3.79631        -9.50095        -9.50095
             756     1.52023E+03     1.52023E+03         3.81681         3.81681        -8.77735        -8.77735
             757     1.52012E+03     1.52012E+03         3.77126         3.77126        -8.08045        -8.08045
             758     1.52003E+03     1.52003E+03         3.67558         3.67558        -7.41338        -7.41338
             759     1.51995E+03     1.51995E+03         3.54301         3.54301        -6.77833        -6.77833
             760     1.51989E+03     1.51989E+03         3.38449         3.38449        -6.17666        -6.17666
             761     1.51983E+03     1.51983E+03         3.20898         3.20898        -5.60903        -5.60903
             762     1.51978E+03     1.51978E+03         3.02376         3.02376        -5.07554        -5.07554
             763     1.51974E+03     1.51974E+03         2.83467         2.83467        -4.57577        -4.57577
             764     1.51969E+03     1.51969E+03         2.64639         2.64639        -4.10888        -4.10888
             765     1.51966E+03     1.51966E+03         2.46262         2.46262        -3.67369        -3.67369
             766     1.51962E+03     1.51962E+03         2.28624         2.28624        -3.26870        -3.26870
             767     1.51959E+03     1.51959E+03         2.11949         2.11949        -2.89218        -2.89218
             768     1.51956E+03     1.51956E+03         1.96407         1.96407        -2.54220        -2.54220
             769     1.51953E+03     1.51953E+03         1.82128         1.82128        -2.21669        -2.21669
             770     1.51950E+03     1.51950E+03         1.69204         1.69204        -1.91343        -1.91343
             771     1.51948E+03     1.51948E+03         1.57706         1.57706        -1.63011        -1.63011
             772     1.51946E+03     1.51946E+03         1.47681         1.47681        -1.36435        -1.36435
             773     1.51944E+03     1.51944E+03         1.39163         1.39163        -1.11372        -1.11372
             774     1.51943E+03     1.51943E+03         1.32174         1.32174    -875.735E-03    -875.735E-03
             775     1.51942E+03     1.51942E+03         1.26728         1.26728    -647.899E-03    -647.899E-03
             776     1.51941E+03     1.51941E+03         1.22833         1.22833    -427.694E-03    -427.694E-03
             777     1.51940E+03     1.51940E+03         1.20491         1.20491    -213.255E-03    -213.255E-03
             778     1.56630E+03     1.56630E+03        -20.8881        -20.8881         12.6131         12.6131
             779     1.56280E+03     1.56280E+03        -22.7754        -22.7754         6.78003         6.78003
             780     1.55856E+03     1.55856E+03        -22.7424        -22.7424         1.53302         1.53302
             781     1.55401E+03     1.55401E+03        -21.3455        -21.3455        -2.90409        -2.90409
             782     1.54949E+03     1.54949E+03        -19.0850        -19.0850        -6.46738        -6.46738
             783     1.54524E+03     1.54524E+03        -16.3700        -16.3700        -9.19866        -9.19866
             784     1.54139E+03     1.54139E+03        -13.5054        -13.5054        -11.1890        -11.1890
             785     1.53800E+03     1.53800E+03        -10.7071        -10.7071        -12.5522        -12.5522
             786     1.53508E+03     1.53508E+03        -8.11125        -8.11125        -13.4034        -13.4034
             787     1.53261E+03     1.53261E+03        -5.79430        -5.79430        -13.8468        -13.8468
             788     1.53055E+03     1.53055E+03        -3.78885        -3.78885        -13.9720        -13.9720
             789     1.52884E+03     1.52884E+03        -2.09820        -2.09820        -13.8528        -13.8528
             790     1.52743E+03     1.52743E+03    -707.124E-03    -707.124E-03        -13.5488        -13.5488
             791     1.52627E+03     1.52627E+03     410.278E-03     410.278E-03        -13.1075        -13.1075
             792     1.52532E+03     1.52532E+03         1.28501         1.28501        -12.5670        -12.5670
             793     1.52453E+03     1.52453E+03         1.94963         1.94963        -11.9572        -11.9572
             794     1.52387E+03     1.52387E+03         2.43583         2.43583        -11.3021        -11.3021
             795     1.52332E+03     1.52332E+03         2.77318         2.77318        -10.6207        -10.6207
             796     1.52286E+03     1.52286E+03         2.98834         2.98834        -9.92811        -9.92811
             797     1.52246E+03     1.52246E+03         3.10483         3.10483        -9.23621        -9.23621
             798     1.52211E+03     1.52211E+03         3.14297         3.14297        -8.55434        -8.55434
             799     1.52181E+03     1.52181E+03         3.12012         3.12012        -7.88972        -7.88972
             800     1.52155E+03     1.52155E+03         3.05085         3.05085        -7.24779        -7.24779
             801     1.52131E+03     1.52131E+03         2.94733         2.94733        -6.63253        -6.63253
             802     1.52110E+03     1.52110E+03         2.81957         2.81957        -6.04671        -6.04671
             803     1.52090E+03     1.52090E+03         2.67573         2.67573        -5.49205        -5.49205
             804     1.52073E+03     1.52073E+03         2.52243         2.52243        -4.96944        -4.96944
             805     1.52057E+03     1.52057E+03         2.36499         2.36499        -4.47907        -4.47907
             806     1.52042E+03     1.52042E+03         2.20761         2.20761        -4.02054        -4.02054
             807     1.52029E+03     1.52029E+03         2.05360         2.05360        -3.59296        -3.59296
             808     1.52017E+03     1.52017E+03         1.90556         1.90556        -3.19507        -3.19507
             809     1.52007E+03     1.52007E+03         1.76546         1.76546        -2.82531        -2.82531
             810     1.51997E+03     1.51997E+03         1.63480         1.63480        -2.48184        -2.48184
             811     1.51988E+03     1.51988E+03         1.51471         1.51471        -2.16267        -2.16267
             812     1.51981E+03     1.51981E+03         1.40602         1.40602        -1.86562        -1.86562
             813     1.51974E+03     1.51974E+03         1.30932         1.30932        -1.58843        -1.58843
             814     1.51968E+03     1.51968E+03         1.22501         1.22501        -1.32873        -1.32873
             815     1.51963E+03     1.51963E+03         1.15339         1.15339        -1.08411        -1.08411
             816     1.51959E+03     1.51959E+03         1.09462         1.09462    -852.096E-03    -852.096E-03
             817     1.51956E+03     1.51956E+03         1.04884         1.04884    -630.198E-03    -630.198E-03
             818     1.51954E+03     1.51954E+03         1.01609         1.01609    -415.905E-03    -415.905E-03
             819     1.51953E+03     1.51953E+03     996.414E-03     996.414E-03    -207.389E-03    -207.389E-03
             820     1.56164E+03     1.56164E+03        -15.4838        -15.4838         14.8435         14.8435
             821     1.55969E+03     1.55969E+03        -17.5654        -17.5654         9.96004         9.96004
             822     1.55697E+03     1.55697E+03        -18.0734        -18.0734         5.25852         5.25852
             823     1.55378E+03     1.55378E+03        -17.3845        -17.3845         1.02493         1.02493
             824     1.55041E+03     1.55041E+03        -15.8755        -15.8755        -2.59635        -2.59635
             825     1.54706E+03     1.54706E+03        -13.8772        -13.8772        -5.55904        -5.55904
             826     1.54389E+03     1.54389E+03        -11.6563        -11.6563        -7.88388        -7.88388
             827     1.54097E+03     1.54097E+03        -9.40916        -9.40916        -9.62720        -9.62720
             828     1.53836E+03     1.53836E+03        -7.27145        -7.27145        -10.8632        -10.8632
             829     1.53605E+03     1.53605E+03        -5.32619        -5.32619        -11.6704        -11.6704
             830     1.53404E+03     1.53404E+03        -3.61705        -3.61705        -12.1238        -12.1238
             831     1.53230E+03     1.53230E+03        -2.15885        -2.15885        -12.2912        -12.2912
             832     1.53079E+03     1.53079E+03    -947.178E-03    -947.178E-03        -12.2314        -12.2314
             833     1.52949E+03     1.52949E+03     34.3612E-03     34.3612E-03        -11.9948        -11.9948
             834     1.52837E+03     1.52837E+03     808.800E-03     808.800E-03        -11.6235        -11.6235
             835     1.52739E+03     1.52739E+03         1.40201         1.40201        -11.1525        -11.1525
             836     1.52653E+03     1.52653E+03         1.84024         1.84024        -10.6106        -10.6106
             837     1.52577E+03     1.52577E+03         2.14852         2.14852        -10.0215        -10.0215
             838     1.52510E+03     1.52510E+03         2.34979         2.34979        -9.40419        -9.40419
             839     1.52451E+03     1.52451E+03         2.46444         2.46444        -8.77415        -8.77415
             840     1.52397E+03     1.52397E+03         2.51026         2.51026        -8.14353        -8.14353
             841     1.52348E+03     1.52348E+03         2.50242         2.50242        -7.52186        -7.52186
             842     1.52304E+03     1.52304E+03         2.45371         2.45371        -6.91643        -6.91643
             843     1.52265E+03     1.52265E+03         2.37479         2.37479        -6.33267        -6.33267
             844     1.52228E+03     1.52228E+03         2.27440         2.27440        -5.77447        -5.77447
             845     1.52195E+03     1.52195E+03         2.15969         2.15969        -5.24440        -5.24440
             846     1.52165E+03     1.52165E+03         2.03640         2.03640        -4.74401        -4.74401
             847     1.52137E+03     1.52137E+03         1.90913         1.90913        -4.27396        -4.27396
             848     1.52112E+03     1.52112E+03         1.78152         1.78152        -3.83421        -3.83421
             849     1.52090E+03     1.52090E+03         1.65641         1.65641        -3.42415        -3.42415
             850     1.52069E+03     1.52069E+03         1.53600         1.53600        -3.04274        -3.04274
             851     1.52051E+03     1.52051E+03         1.42198         1.42198        -2.68854        -2.68854
             852     1.52035E+03     1.52035E+03         1.31562         1.31562        -2.35985        -2.35985
             853     1.52020E+03     1.52020E+03         1.21786         1.21786        -2.05477        -2.05477
             854     1.52008E+03     1.52008E+03         1.12938         1.12938        -1.77122        -1.77122
             855     1.51997E+03     1.51997E+03         1.05067         1.05067        -1.50699        -1.50699
             856     1.51987E+03     1.51987E+03     982.061E-03     982.061E-03        -1.25979        -1.25979
             857     1.51979E+03     1.51979E+03     923.786E-03     923.786E-03        -1.02727        -1.02727
             858     1.51973E+03     1.51973E+03     875.985E-03     875.985E-03    -807.026E-03    -807.026E-03
             859     1.51968E+03     1.51968E+03     838.746E-03     838.746E-03    -596.631E-03    -596.631E-03
             860     1.51965E+03     1.51965E+03     812.120E-03     812.120E-03    -393.641E-03    -393.641E-03
             861     1.51962E+03     1.51962E+03     796.121E-03     796.121E-03    -196.306E-03    -196.306E-03
             862     1.55723E+03     1.55723E+03        -11.1549        -11.1549         15.7358         15.7358
             863     1.55650E+03     1.55650E+03        -13.0964        -13.0964         11.7287         11.7287
             864     1.55504E+03     1.55504E+03        -13.8215        -13.8215         7.63963         7.63963
             865     1.55306E+03     1.55306E+03        -13.5701        -13.5701         3.76118         3.76118
             866     1.55076E+03     1.55076E+03        -12.6101        -12.6101     279.897E-03     279.897E-03
             867     1.54831E+03     1.54831E+03        -11.1948        -11.1948        -2.70704        -2.70704
             868     1.54585E+03     1.54585E+03        -9.53847        -9.53847        -5.16660        -5.16660
             869     1.54347E+03     1.54347E+03        -7.80888        -7.80888        -7.11114        -7.11114
             870     1.54123E+03     1.54123E+03        -6.12603        -6.12603        -8.57963        -8.57963
             871     1.53915E+03     1.53915E+03        -4.56922        -4.56922        -9.62562        -9.62562
             872     1.53726E+03     1.53726E+03        -3.18375        -3.18375        -10.3081        -10.3081
             873     1.53554E+03     1.53554E+03        -1.98989        -1.98989        -10.6856        -10.6856
             874     1.53399E+03     1.53399E+03    -989.889E-03    -989.889E-03        -10.8131        -10.8131
             875     1.53258E+03     1.53258E+03    -174.411E-03    -174.411E-03        -10.7400        -10.7400
             876     1.53131E+03     1.53131E+03     472.821E-03     472.821E-03        -10.5098        -10.5098
             877     1.53016E+03     1.53016E+03     971.506E-03     971.506E-03        -10.1598        -10.1598
             878     1.52912E+03     1.52912E+03         1.34238         1.34238        -9.72155        -9.72155
             879     1.52817E+03     1.52817E+03         1.60567         1.60567        -9.22140        -9.22140
             880     1.52730E+03     1.52730E+03         1.78014         1.78014        -8.68101        -8.68101
             881     1.52650E+03     1.52650E+03         1.88266         1.88266        -8.11796        -8.11796
             882     1.52577E+03     1.52577E+03         1.92793         1.92793        -7.54632        -7.54632
             883     1.52511E+03     1.52511E+03         1.92858         1.92858        -6.97713        -6.97713
             884     1.52449E+03     1.52449E+03         1.89526         1.89526        -6.41891        -6.41891
             885     1.52393E+03     1.52393E+03         1.83681         1.83681        -5.87804        -5.87804
             886     1.52342E+03     1.52342E+03         1.76048         1.76048        -5.35914        -5.35914
             887     1.52295E+03     1.52295E+03         1.67219         1.67219        -4.86536        -4.86536
             888     1.52252E+03     1.52252E+03         1.57666         1.57666        -4.39867        -4.39867
             889     1.52213E+03     1.52213E+03         1.47768         1.47768        -3.96007        -3.96007
             890     1.52178E+03     1.52178E+03         1.37822         1.37822        -3.54977        -3.54977
             891     1.52146E+03     1.52146E+03         1.28058         1.28058        -3.16736        -3.16736
             892     1.52117E+03     1.52117E+03         1.18656         1.18656        -2.81195        -2.81195
             893     1.52091E+03     1.52091E+03         1.09751         1.09751        -2.48228        -2.48228
             894     1.52068E+03     1.52068E+03         1.01444         1.01444        -2.17676        -2.17676
             895     1.52048E+03     1.52048E+03     938.100E-03     938.100E-03        -1.89361        -1.89361
             896     1.52030E+03     1.52030E+03     869.027E-03     869.027E-03        -1.63085        -1.63085
             897     1.52015E+03     1.52015E+03     807.602E-03     807.602E-03        -1.38641        -1.38641
             898     1.52002E+03     1.52002E+03     754.080E-03     754.080E-03        -1.15812        -1.15812
             899     1.51991E+03     1.51991E+03     708.631E-03     708.631E-03    -943.738E-03    -943.738E-03
             900     1.51983E+03     1.51983E+03     671.360E-03     671.360E-03    -740.987E-03    -740.987E-03
             901     1.51976E+03     1.51976E+03     642.328E-03     642.328E-03    -547.564E-03    -547.564E-03
             902     1.51971E+03     1.51971E+03     621.573E-03     621.573E-03    -361.150E-03    -361.150E-03
             903     1.51968E+03     1.51968E+03     609.108E-03     609.108E-03    -180.136E-03    -180.136E-03
             904     1.55323E+03     1.55323E+03        -7.73441        -7.73441         15.5753         15.5753
             905     1.55352E+03     1.55352E+03        -9.34609        -9.34609         12.3310         12.3310
             906     1.55315E+03     1.55315E+03        -10.0686        -10.0686         8.85293         8.85293
             907     1.55224E+03     1.55224E+03        -10.0491        -10.0491         5.41365         5.41365
             908     1.55092E+03     1.55092E+03        -9.46809        -9.46809         2.20836         2.20836
             909     1.54933E+03     1.54933E+03        -8.50752        -8.50752    -638.705E-03    -638.705E-03
             910     1.54757E+03     1.54757E+03        -7.32926        -7.32926        -3.06362        -3.06362
             911     1.54574E+03     1.54574E+03        -6.06419        -6.06419        -5.04707        -5.04707
             912     1.54389E+03     1.54389E+03        -4.81045        -4.81045        -6.60193        -6.60193
             913     1.54208E+03     1.54208E+03        -3.63470        -3.63470        -7.76095        -7.76095
             914     1.54033E+03     1.54033E+03        -2.57782        -2.57782        -8.56820        -8.56820
             915     1.53865E+03     1.53865E+03        -1.65998        -1.65998        -9.07242        -9.07242
             916     1.53707E+03     1.53707E+03    -886.573E-03    -886.573E-03        -9.32250        -9.32250
             917     1.53558E+03     1.53558E+03    -252.822E-03    -252.822E-03        -9.36480        -9.36480
             918     1.53417E+03     1.53417E+03     252.220E-03     252.220E-03        -9.24147        -9.24147
             919     1.53286E+03     1.53286E+03     642.837E-03     642.837E-03        -8.98973        -8.98973
             920     1.53163E+03     1.53163E+03     934.563E-03     934.563E-03        -8.64167        -8.64167
             921     1.53048E+03     1.53048E+03         1.14282         1.14282        -8.22444        -8.22444
             922     1.52942E+03     1.52942E+03         1.28209         1.28209        -7.76055        -7.76055
             923     1.52843E+03     1.52843E+03         1.36543         1.36543        -7.26842        -7.26842
             924     1.52750E+03     1.52750E+03         1.40430         1.40430        -6.76280        -6.76280
             925     1.52665E+03     1.52665E+03         1.40854         1.40854        -6.25536        -6.25536
             926     1.52587E+03     1.52587E+03         1.38644         1.38644        -5.75505        -5.75505
             927     1.52514E+03     1.52514E+03         1.34486         1.34486        -5.26863        -5.26863
             928     1.52448E+03     1.52448E+03         1.28945         1.28945        -4.80099        -4.80099
             929     1.52387E+03     1.52387E+03         1.22476         1.22476        -4.35550        -4.35550
             930     1.52332E+03     1.52332E+03         1.15446         1.15446        -3.93431        -3.93431
             931     1.52281E+03     1.52281E+03         1.08145         1.08145        -3.53856        -3.53856
             932     1.52236E+03     1.52236E+03         1.00799         1.00799        -3.16859        -3.16859
             933     1.52195E+03     1.52195E+03     935.839E-03     935.839E-03        -2.82413        -2.82413
             934     1.52158E+03     1.52158E+03     866.355E-03     866.355E-03        -2.50442        -2.50442
             935     1.52125E+03     1.52125E+03     800.554E-03     800.554E-03        -2.20830        -2.20830
             936     1.52096E+03     1.52096E+03     739.195E-03     739.195E-03        -1.93434        -1.93434
             937     1.52070E+03     1.52070E+03     682.829E-03     682.829E-03        -1.68090        -1.68090
             938     1.52048E+03     1.52048E+03     631.854E-03     631.854E-03        -1.44618        -1.44618
             939     1.52028E+03     1.52028E+03     586.542E-03     586.542E-03        -1.22825        -1.22825
             940     1.52012E+03     1.52012E+03     547.079E-03     547.079E-03        -1.02511        -1.02511
             941     1.51998E+03     1.51998E+03     513.581E-03     513.581E-03    -834.710E-03    -834.710E-03
             942     1.51987E+03     1.51987E+03     486.118E-03     486.118E-03    -654.961E-03    -654.961E-03
             943     1.51979E+03     1.51979E+03     464.730E-03     464.730E-03    -483.745E-03    -483.745E-03
             944     1.51973E+03     1.51973E+03     449.437E-03     449.437E-03    -318.943E-03    -318.943E-03
             945     1.51970E+03     1.51970E+03     440.258E-03     440.258E-03    -159.133E-03    -159.133E-03
             946     1.54974E+03     1.54974E+03        -5.05955        -5.05955         14.4987         14.4987
             947     1.55096E+03     1.55096E+03        -6.25596        -6.25596         11.9108         11.9108
             948     1.55159E+03     1.55159E+03        -6.84738        -6.84738         9.02361         9.02361
             949     1.55166E+03     1.55166E+03        -6.91921        -6.91921         6.07594         6.07594
             950     1.55125E+03     1.55125E+03        -6.58663        -6.58663         3.25225         3.25225
             951     1.55045E+03     1.55045E+03        -5.97135        -5.97135     681.219E-03     681.219E-03
             952     1.54936E+03     1.54936E+03        -5.18566        -5.18566        -1.55890        -1.55890
             953     1.54804E+03     1.54804E+03        -4.32345        -4.32345        -3.43223        -3.43223
             954     1.54656E+03     1.54656E+03        -3.45648        -3.45648        -4.93435        -4.93435
             955     1.54500E+03     1.54500E+03        -2.63538        -2.63538        -6.08330        -6.08330
             956     1.54338E+03     1.54338E+03        -1.89180        -1.89180        -6.91092        -6.91092
             957     1.54174E+03     1.54174E+03        -1.24261        -1.24261        -7.45660        -7.45660
             958     1.54011E+03     1.54011E+03    -693.347E-03    -693.347E-03        -7.76239        -7.76239
             959     1.53852E+03     1.53852E+03    -241.932E-03    -241.932E-03        -7.86971        -7.86971
             960     1.53697E+03     1.53697E+03     118.664E-03     118.664E-03        -7.81727        -7.81727
             961     1.53549E+03     1.53549E+03     398.134E-03     398.134E-03        -7.63989        -7.63989
             962     1.53406E+03     1.53406E+03     607.308E-03     607.308E-03        -7.36798        -7.36798
             963     1.53272E+03     1.53272E+03     757.078E-03     757.078E-03        -7.02745        -7.02745
             964     1.53144E+03     1.53144E+03     857.733E-03     857.733E-03        -6.63995        -6.63995
             965     1.53025E+03     1.53025E+03     918.600E-03     918.600E-03        -6.22318        -6.22318
             966     1.52913E+03     1.52913E+03     947.867E-03     947.867E-03        -5.79136        -5.79136
             967     1.52810E+03     1.52810E+03     952.561E-03     952.561E-03        -5.35568        -5.35568
             968     1.52714E+03     1.52714E+03     938.594E-03     938.594E-03        -4.92478        -4.92478
             969     1.52625E+03     1.52625E+03     910.865E-03     910.865E-03        -4.50512        -4.50512
             970     1.52544E+03     1.52544E+03     873.377E-03     873.377E-03        -4.10137        -4.10137
             971     1.52470E+03     1.52470E+03     829.362E-03     829.362E-03        -3.71676        -3.71676
             972     1.52402E+03     1.52402E+03     781.397E-03     781.397E-03        -3.35333        -3.35333
             973     1.52341E+03     1.52341E+03     731.520E-03     731.520E-03        -3.01220        -3.01220
             974     1.52285E+03     1.52285E+03     681.318E-03     681.318E-03        -2.69372        -2.69372
             975     1.52235E+03     1.52235E+03     632.019E-03     632.019E-03        -2.39766        -2.39766
             976     1.52191E+03     1.52191E+03     584.554E-03     584.554E-03        -2.12337        -2.12337
             977     1.52151E+03     1.52151E+03     539.627E-03     539.627E-03        -1.86981        -1.86981
             978     1.52116E+03     1.52116E+03     497.755E-03     497.755E-03        -1.63572        -1.63572
             979     1.52085E+03     1.52085E+03     459.313E-03     459.313E-03        -1.41963        -1.41963
             980     1.52058E+03     1.52058E+03     424.567E-03     424.567E-03        -1.21996        -1.21996
             981     1.52035E+03     1.52035E+03     393.699E-03     393.699E-03        -1.03498        -1.03498
             982     1.52016E+03     1.52016E+03     366.829E-03     366.829E-03    -862.953E-03    -862.953E-03
             983     1.52000E+03     1.52000E+03     344.034E-03     344.034E-03    -702.059E-03    -702.059E-03
             984     1.51987E+03     1.51987E+03     325.351E-03     325.351E-03    -550.475E-03    -550.475E-03
             985     1.51977E+03     1.51977E+03     310.796E-03     310.796E-03    -406.341E-03    -406.341E-03
             986     1.51970E+03     1.51970E+03     300.388E-03     300.388E-03    -267.797E-03    -267.797E-03
             987     1.51966E+03     1.51966E+03     294.142E-03     294.142E-03    -133.699E-03    -133.699E-03
             988     1.54682E+03     1.54682E+03        -3.00167        -3.00167         12.5152         12.5152
             989     1.54901E+03     1.54901E+03        -3.77619        -3.77619         10.5133         10.5133
             990     1.55061E+03     1.55061E+03        -4.18052        -4.18052         8.21419         8.21419
             991     1.55162E+03     1.55162E+03        -4.26131        -4.26131         5.81485         5.81485
             992     1.55207E+03     1.55207E+03        -4.08545        -4.08545         3.47422         3.47422
             993     1.55201E+03     1.55201E+03        -3.72645        -3.72645         1.30954         1.30954
             994     1.55150E+03     1.55150E+03        -3.25383        -3.25383    -603.077E-03    -603.077E-03
             995     1.55063E+03     1.55063E+03        -2.72682        -2.72682        -2.22305        -2.22305
             996     1.54947E+03     1.54947E+03        -2.19174        -2.19174        -3.53850        -3.53850
             997     1.54809E+03     1.54809E+03        -1.68151        -1.68151        -4.55824        -4.55824
             998     1.54655E+03     1.54655E+03        -1.21738        -1.21738        -5.30513        -5.30513
             999     1.54490E+03     1.54490E+03    -810.818E-03    -810.818E-03        -5.81003        -5.81003
            1000     1.54319E+03     1.54319E+03    -466.103E-03    -466.103E-03        -6.10745        -6.10745
            1001     1.54146E+03     1.54146E+03    -182.349E-03    -182.349E-03        -6.23229        -6.23229
            1002     1.53974E+03     1.53974E+03     44.5462E-03     44.5462E-03        -6.21766        -6.21766
            1003     1.53805E+03     1.53805E+03     220.547E-03     220.547E-03        -6.09368        -6.09368
            1004     1.53641E+03     1.53641E+03     352.401E-03     352.401E-03        -5.88681        -5.88681
            1005     1.53484E+03     1.53484E+03     446.949E-03     446.949E-03        -5.61967        -5.61967
            1006     1.53335E+03     1.53335E+03     510.678E-03     510.678E-03        -5.31113        -5.31113
            1007     1.53195E+03     1.53195E+03     549.470E-03     549.470E-03        -4.97666        -4.97666
            1008     1.53063E+03     1.53063E+03     568.491E-03     568.491E-03        -4.62861        -4.62861
            1009     1.52941E+03     1.52941E+03     572.166E-03     572.166E-03        -4.27669        -4.27669
            1010     1.52827E+03     1.52827E+03     564.214E-03     564.214E-03        -3.92834        -3.92834
            1011     1.52723E+03     1.52723E+03     547.707E-03     547.707E-03        -3.58911        -3.58911
            1012     1.52627E+03     1.52627E+03     525.147E-03     525.147E-03        -3.26298        -3.26298
            1013     1.52539E+03     1.52539E+03     498.549E-03     498.549E-03        -2.95269        -2.95269
            1014     1.52460E+03     1.52460E+03     469.514E-03     469.514E-03        -2.65993        -2.65993
            1015     1.52388E+03     1.52388E+03     439.302E-03     439.302E-03        -2.38562        -2.38562
            1016     1.52323E+03     1.52323E+03     408.891E-03     408.891E-03        -2.13002        -2.13002
            1017     1.52265E+03     1.52265E+03     379.034E-03     379.034E-03        -1.89293        -1.89293
            1018     1.52214E+03     1.52214E+03     350.301E-03     350.301E-03        -1.67376        -1.67376
            1019     1.52168E+03     1.52168E+03     323.117E-03     323.117E-03        -1.47164        -1.47164
            1020     1.52127E+03     1.52127E+03     297.796E-03     297.796E-03        -1.28550        -1.28550
            1021     1.52092E+03     1.52092E+03     274.563E-03     274.563E-03        -1.11410        -1.11410
            1022     1.52061E+03     1.52061E+03     253.574E-03     253.574E-03    -956.125E-03    -956.125E-03
            1023     1.52035E+03     1.52035E+03     234.937E-03     234.937E-03    -810.158E-03    -810.158E-03
            1024     1.52013E+03     1.52013E+03     218.722E-03     218.722E-03    -674.747E-03    -674.747E-03
            1025     1.51994E+03     1.51994E+03     204.972E-03     204.972E-03    -548.406E-03    -548.406E-03
            1026     1.51980E+03     1.51980E+03     193.716E-03     193.716E-03    -429.635E-03    -429.635E-03
            1027     1.51968E+03     1.51968E+03     184.945E-03     184.945E-03    -316.943E-03    -316.943E-03
            1028     1.51961E+03     1.51961E+03     178.643E-03     178.643E-03    -208.802E-03    -208.802E-03
            1029     1.51956E+03     1.51956E+03     174.861E-03     174.861E-03    -104.360E-03    -104.360E-03
            1030     1.54460E+03     1.54460E+03        -1.48861        -1.48861         9.51810         9.51810
            1031     1.54788E+03     1.54788E+03        -1.89635        -1.89635         8.09262         8.09262
            1032     1.55052E+03     1.55052E+03        -2.11605        -2.11605         6.42701         6.42701
            1033     1.55247E+03     1.55247E+03        -2.16971        -2.16971         4.66792         4.66792
            1034     1.55373E+03     1.55373E+03        -2.09024        -2.09024         2.93584         2.93584
            1035     1.55432E+03     1.55432E+03        -1.91451        -1.91451         1.32176         1.32176
            1036     1.55432E+03     1.55432E+03        -1.67807        -1.67807    -113.267E-03    -113.267E-03
            1037     1.55380E+03     1.55380E+03        -1.41166        -1.41166        -1.33523        -1.33523
            1038     1.55284E+03     1.55284E+03        -1.13939        -1.13939        -2.33209        -2.33209
            1039     1.55154E+03     1.55154E+03    -878.759E-03    -878.759E-03        -3.10848        -3.10848
            1040     1.54998E+03     1.54998E+03    -640.983E-03    -640.983E-03        -3.68017        -3.68017
            1041     1.54823E+03     1.54823E+03    -432.341E-03    -432.341E-03        -4.06975        -4.06975
            1042     1.54636E+03     1.54636E+03    -255.194E-03    -255.194E-03        -4.30293        -4.30293
            1043     1.54443E+03     1.54443E+03    -109.254E-03    -109.254E-03        -4.40602        -4.40602
            1044     1.54247E+03     1.54247E+03     7.54067E-03     7.54067E-03        -4.40409        -4.40409
            1045     1.54054E+03     1.54054E+03     98.2151E-03     98.2151E-03        -4.32004        -4.32004
            1046     1.53866E+03     1.53866E+03     166.235E-03     166.235E-03        -4.17392        -4.17392
            1047     1.53684E+03     1.53684E+03     215.121E-03     215.121E-03        -3.98289        -3.98289
            1048     1.53512E+03     1.53512E+03     248.213E-03     248.213E-03        -3.76121        -3.76121
            1049     1.53349E+03     1.53349E+03     268.542E-03     268.542E-03        -3.52050        -3.52050
            1050     1.53196E+03     1.53196E+03     278.764E-03     278.764E-03        -3.27000        -3.27000
            1051     1.53055E+03     1.53055E+03     281.152E-03     281.152E-03        -3.01695        -3.01695
            1052     1.52924E+03     1.52924E+03     277.611E-03     277.611E-03        -2.76682        -2.76682
            1053     1.52803E+03     1.52803E+03     269.711E-03     269.711E-03        -2.52367        -2.52367
            1054     1.52694E+03     1.52694E+03     258.729E-03     258.729E-03        -2.29039        -2.29039
            1055     1.52594E+03     1.52594E+03     245.691E-03     245.691E-03        -2.06893        -2.06893
            1056     1.52503E+03     1.52503E+03     231.407E-03     231.407E-03        -1.86047        -1.86047
            1057     1.52422E+03     1.52422E+03     216.515E-03     216.515E-03        -1.66562        -1.66562
            1058     1.52348E+03     1.52348E+03     201.511E-03     201.511E-03        -1.48451        -1.48451
            1059     1.52283E+03     1.52283E+03     186.771E-03     186.771E-03        -1.31695        -1.31695
            1060     1.52225E+03     1.52225E+03     172.582E-03     172.582E-03        -1.16246        -1.16246
            1061     1.52174E+03     1.52174E+03     159.158E-03     159.158E-03        -1.02038        -1.02038
            1062     1.52129E+03     1.52129E+03     146.653E-03     146.653E-03    -889.874E-03    -889.874E-03
            1063     1.52089E+03     1.52089E+03     135.180E-03     135.180E-03    -770.045E-03    -770.045E-03
            1064     1.52056E+03     1.52056E+03     124.817E-03     124.817E-03    -659.903E-03    -659.903E-03
            1065     1.52027E+03     1.52027E+03     115.617E-03     115.617E-03    -558.416E-03    -558.416E-03
            1066     1.52002E+03     1.52002E+03     107.614E-03     107.614E-03    -464.521E-03    -464.521E-03
            1067     1.51982E+03     1.51982E+03     100.829E-03     100.829E-03    -377.144E-03    -377.144E-03
            1068     1.51966E+03     1.51966E+03     95.2764E-03     95.2764E-03    -295.192E-03    -295.192E-03
            1069     1.51953E+03     1.51953E+03     90.9759E-03     90.9759E-03    -217.586E-03    -217.586E-03
            1070     1.51945E+03     1.51945E+03     87.8664E-03     87.8664E-03    -143.292E-03    -143.292E-03
            1071     1.51940E+03     1.51940E+03     85.9320E-03     85.9320E-03    -71.8556E-03    -71.8556E-03
            1072     1.54327E+03     1.54327E+03    -523.904E-03    -523.904E-03         5.31622         5.31622
            1073     1.54786E+03     1.54786E+03    -674.092E-03    -674.092E-03         4.54283         4.54283
            1074     1.55167E+03     1.55167E+03    -756.698E-03    -756.698E-03         3.63260         3.63260
            1075     1.55459E+03     1.55459E+03    -779.501E-03    -779.501E-03         2.66758         2.66758
            1076     1.55661E+03     1.55661E+03    -753.886E-03    -753.886E-03         1.71485         1.71485
            1077     1.55777E+03     1.55777E+03    -692.942E-03    -692.942E-03     825.466E-03     825.466E-03
            1078     1.55813E+03     1.55813E+03    -609.542E-03    -609.542E-03     33.9395E-03     33.9395E-03
            1079     1.55780E+03     1.55780E+03    -514.759E-03    -514.759E-03    -640.240E-03    -640.240E-03
            1080     1.55689E+03     1.55689E+03    -417.468E-03    -417.468E-03        -1.19013        -1.19013
            1081     1.55552E+03     1.55552E+03    -324.005E-03    -324.005E-03        -1.61805        -1.61805
            1082     1.55380E+03     1.55380E+03    -238.565E-03    -238.565E-03        -1.93284        -1.93284
            1083     1.55182E+03     1.55182E+03    -163.443E-03    -163.443E-03        -2.14704        -2.14704
            1084     1.54968E+03     1.54968E+03    -99.5632E-03    -99.5632E-03        -2.27509        -2.27509
            1085     1.54745E+03     1.54745E+03    -46.8445E-03    -46.8445E-03        -2.33167        -2.33167
            1086     1.54519E+03     1.54519E+03    -4.57043E-03    -4.57043E-03        -2.33079        -2.33079
            1087     1.54296E+03     1.54296E+03     28.3345E-03     28.3345E-03        -2.28518        -2.28518
            1088     1.54078E+03     1.54078E+03     53.1131E-03     53.1131E-03        -2.20597        -2.20597
            1089     1.53868E+03     1.53868E+03     71.0236E-03     71.0236E-03        -2.10262        -2.10262
            1090     1.53670E+03     1.53670E+03     83.2676E-03     83.2676E-03        -1.98297        -1.98297
            1091     1.53483E+03     1.53483E+03     90.9287E-03     90.9287E-03        -1.85338        -1.85338
            1092     1.53309E+03     1.53309E+03     94.9610E-03     94.9610E-03        -1.71885        -1.71885
            1093     1.53148E+03     1.53148E+03     96.1769E-03     96.1769E-03        -1.58330        -1.58330
            1094     1.53000E+03     1.53000E+03     95.2589E-03     95.2589E-03        -1.44965        -1.44965
            1095     1.52864E+03     1.52864E+03     92.7675E-03     92.7675E-03        -1.32006        -1.32006
            1096     1.52741E+03     1.52741E+03     89.1590E-03     89.1590E-03        -1.19603        -1.19603
            1097     1.52629E+03     1.52629E+03     84.7986E-03     84.7986E-03        -1.07857        -1.07857
            1098     1.52529E+03     1.52529E+03     79.9764E-03     79.9764E-03    -968.282E-03    -968.282E-03
            1099     1.52439E+03     1.52439E+03     74.9192E-03     74.9192E-03    -865.440E-03    -865.440E-03
            1100     1.52358E+03     1.52358E+03     69.8034E-03     69.8034E-03    -770.084E-03    -770.084E-03
            1101     1.52287E+03     1.52287E+03     64.7637E-03     64.7637E-03    -682.072E-03    -682.072E-03
            1102     1.52223E+03     1.52223E+03     59.9023E-03     59.9023E-03    -601.121E-03    -601.121E-03
            1103     1.52168E+03     1.52168E+03     55.2956E-03     55.2956E-03    -526.849E-03    -526.849E-03
            1104     1.52119E+03     1.52119E+03     50.9990E-03     50.9990E-03    -458.801E-03    -458.801E-03
            1105     1.52076E+03     1.52076E+03     47.0533E-03     47.0533E-03    -396.473E-03    -396.473E-03
            1106     1.52040E+03     1.52040E+03     43.4860E-03     43.4860E-03    -339.325E-03    -339.325E-03
            1107     1.52009E+03     1.52009E+03     40.3179E-03     40.3179E-03    -286.798E-03    -286.798E-03
            1108     1.51983E+03     1.51983E+03     37.5588E-03     37.5588E-03    -238.318E-03    -238.318E-03
            1109     1.51961E+03     1.51961E+03     35.2224E-03     35.2224E-03    -193.304E-03    -193.304E-03
            1110     1.51944E+03     1.51944E+03     33.3052E-03     33.3052E-03    -151.177E-03    -151.177E-03
            1111     1.51931E+03     1.51931E+03     31.8321E-03     31.8321E-03    -111.342E-03    -111.342E-03
            1112     1.51922E+03     1.51922E+03     30.8083E-03     30.8083E-03    -73.2436E-03    -73.2436E-03
            1113     1.51917E+03     1.51917E+03     30.0669E-03     30.0669E-03    -37.0091E-03    -37.0091E-03
            1114     1.54762E+03     1.54762E+03        -62.3012        -62.3012         60.4461         60.4461
            1115     1.52894E+03     1.52894E+03        -48.4186        -48.4186         58.5971         58.5971
            1116     1.51614E+03     1.51614E+03        -36.2231        -36.2231         53.8768         53.8768
            1117     1.50788E+03     1.50788E+03        -26.2132        -26.2132         48.1137         48.1137
            1118     1.50287E+03     1.50287E+03        -18.2680        -18.2680         42.3183         42.3183
            1119     1.50008E+03     1.50008E+03        -12.0269        -12.0269         36.9656         36.9656
            1120     1.49878E+03     1.49878E+03        -7.14400        -7.14400         32.2318         32.2318
            1121     1.49845E+03     1.49845E+03        -3.32299        -3.32299         28.1412         28.1412
            1122     1.49876E+03     1.49876E+03    -337.056E-03    -337.056E-03         24.6489         24.6489
            1123     1.49946E+03     1.49946E+03         1.98923         1.98923         21.6835         21.6835
            1124     1.50042E+03     1.50042E+03         3.78781         3.78781         19.1677         19.1677
            1125     1.50152E+03     1.50152E+03         5.16062         5.16062         17.0287         17.0287
            1126     1.50269E+03     1.50269E+03         6.18644         6.18644         15.2017         15.2017
            1127     1.50388E+03     1.50388E+03         6.92790         6.92790         13.6314         13.6314
            1128     1.50506E+03     1.50506E+03         7.43532         7.43532         12.2716         12.2716
            1129     1.50622E+03     1.50622E+03         7.75009         7.75009         11.0845         11.0845
            1130     1.50733E+03     1.50733E+03         7.90661         7.90661         10.0393         10.0393
            1131     1.50839E+03     1.50839E+03         7.93393         7.93393         9.11134         9.11134
            1132     1.50939E+03     1.50939E+03         7.85671         7.85671         8.28088         8.28088
            1133     1.51033E+03     1.51033E+03         7.69608         7.69608         7.53231         7.53231
            1134     1.51121E+03     1.51121E+03         7.47012         7.47012         6.85327         6.85327
            1135     1.51202E+03     1.51202E+03         7.19437         7.19437         6.23400         6.23400
            1136     1.51277E+03     1.51277E+03         6.88214         6.88214         5.66676         5.66676
            1137     1.51347E+03     1.51347E+03         6.54480         6.54480         5.14538         5.14538
            1138     1.51410E+03     1.51410E+03         6.19200         6.19200         4.66491         4.66491
            1139     1.51468E+03     1.51468E+03         5.83193         5.83193         4.22129         4.22129
            1140     1.51520E+03     1.51520E+03         5.47144         5.47144         3.81114         3.81114
            1141     1.51568E+03     1.51568E+03         5.11627         5.11627         3.43159         3.43159
            1142     1.51611E+03     1.51611E+03         4.77115         4.77115         3.08011         3.08011
            1143     1.51649E+03     1.51649E+03         4.43996         4.43996         2.75443         2.75443
            1144     1.51684E+03     1.51684E+03         4.12583         4.12583         2.45246         2.45246
            1145     1.51714E+03     1.51714E+03         3.83128         3.83128         2.17221         2.17221
            1146     1.51741E+03     1.51741E+03         3.55830         3.55830         1.91179         1.91179
            1147     1.51765E+03     1.51765E+03         3.30844         3.30844         1.66936         1.66936
            1148     1.51786E+03     1.51786E+03         3.08288         3.08288         1.44309         1.44309
            1149     1.51803E+03     1.51803E+03         2.88252         2.88252         1.23118         1.23118
            1150     1.51818E+03     1.51818E+03         2.70802         2.70802         1.03185         1.03185
            1151     1.51831E+03     1.51831E+03         2.55985         2.55985     843.307E-03     843.307E-03
            1152     1.51840E+03     1.51840E+03         2.43834         2.43834     663.769E-03     663.769E-03
            1153     1.51848E+03     1.51848E+03         2.34373         2.34373     491.452E-03     491.452E-03
            1154     1.51853E+03     1.51853E+03         2.27616         2.27616     324.575E-03     324.575E-03
            1155     1.51857E+03     1.51857E+03         2.23566         2.23566     161.769E-03     161.769E-03
            1156     1.51022E+03     1.51022E+03        -56.8576        -56.8576         84.1773         84.1773
            1157     1.49511E+03     1.49511E+03        -39.8022        -39.8022         73.4919         73.4919
            1158     1.48725E+03     1.48725E+03        -26.9606        -26.9606         62.5421         62.5421
            1159     1.48388E+03     1.48388E+03        -17.5331        -17.5331         52.6432         52.6432
            1160     1.48316E+03     1.48316E+03        -10.6061        -10.6061         44.2111         44.2111
            1161     1.48394E+03     1.48394E+03        -5.47395        -5.47395         37.2166         37.2166
            1162     1.48554E+03     1.48554E+03        -1.62303        -1.62303         31.4831         31.4831
            1163     1.48754E+03     1.48754E+03         1.29286         1.29286         26.8018         26.8018
            1164     1.48971E+03     1.48971E+03         3.51454         3.51454         22.9790         22.9790
            1165     1.49191E+03     1.49191E+03         5.20637         5.20637         19.8473         19.8473
            1166     1.49406E+03     1.49406E+03         6.48517         6.48517         17.2692         17.2692
            1167     1.49612E+03     1.49612E+03         7.43456         7.43456         15.1330         15.1330
            1168     1.49808E+03     1.49808E+03         8.11705         8.11705         13.3494         13.3494
            1169     1.49991E+03     1.49991E+03         8.58035         8.58035         11.8474         11.8474
            1170     1.50163E+03     1.50163E+03         8.86237         8.86237         10.5706         10.5706
            1171     1.50323E+03     1.50323E+03         8.99398         8.99398         9.47471         9.47471
            1172     1.50471E+03     1.50471E+03         9.00104         9.00104         8.52471         8.52471
            1173     1.50609E+03     1.50609E+03         8.90556         8.90556         7.69312         7.69312
            1174     1.50736E+03     1.50736E+03         8.72662         8.72662         6.95841         6.95841
            1175     1.50853E+03     1.50853E+03         8.48082         8.48082         6.30370         6.30370
            1176     1.50961E+03     1.50961E+03         8.18271         8.18271         5.71580         5.71580
            1177     1.51060E+03     1.51060E+03         7.84504         7.84504         5.18437         5.18437
            1178     1.51150E+03     1.51150E+03         7.47895         7.47895         4.70129         4.70129
            1179     1.51233E+03     1.51233E+03         7.09416         7.09416         4.26016         4.26016
            1180     1.51309E+03     1.51309E+03         6.69905         6.69905         3.85587         3.85587
            1181     1.51378E+03     1.51378E+03         6.30087         6.30087         3.48431         3.48431
            1182     1.51440E+03     1.51440E+03         5.90577         5.90577         3.14209         3.14209
            1183     1.51497E+03     1.51497E+03         5.51898         5.51898         2.82640         2.82640
            1184     1.51547E+03     1.51547E+03         5.14485         5.14485         2.53481         2.53481
            1185     1.51593E+03     1.51593E+03         4.78702         4.78702         2.26519         2.26519
            1186     1.51634E+03     1.51634E+03         4.44845         4.44845         2.01563         2.01563
            1187     1.51670E+03     1.51670E+03         4.13155         4.13155         1.78434         1.78434
            1188     1.51702E+03     1.51702E+03         3.83822         3.83822         1.56967         1.56967
            1189     1.51730E+03     1.51730E+03         3.56998         3.56998         1.37000         1.37000
            1190     1.51755E+03     1.51755E+03         3.32799         3.32799         1.18380         1.18380
            1191     1.51776E+03     1.51776E+03         3.11313         3.11313         1.00955         1.00955
            1192     1.51793E+03     1.51793E+03         2.92607         2.92607     845.745E-03     845.745E-03
            1193     1.51808E+03     1.51808E+03         2.76729         2.76729     690.908E-03     690.908E-03
            1194     1.51820E+03     1.51820E+03         2.63713         2.63713     543.568E-03     543.568E-03
            1195     1.51829E+03     1.51829E+03         2.53582         2.53582     402.263E-03     402.263E-03
            1196     1.51835E+03     1.51835E+03         2.46354         2.46354     265.535E-03     265.535E-03
            1197     1.51839E+03     1.51839E+03         2.42031         2.42031     132.270E-03     132.270E-03
            1198     1.45342E+03     1.45342E+03        -38.7941        -38.7941         98.7973         98.7973
            1199     1.45042E+03     1.45042E+03        -23.0721        -23.0721         78.9401         78.9401
            1200     1.45269E+03     1.45269E+03        -12.8081        -12.8081         62.9223         62.9223
            1201     1.45721E+03     1.45721E+03        -6.00538        -6.00538         50.4310         50.4310
            1202     1.46246E+03     1.46246E+03        -1.35946        -1.35946         40.7773         40.7773
            1203     1.46773E+03     1.46773E+03         1.91792         1.91792         33.3069         33.3069
            1204     1.47270E+03     1.47270E+03         4.28967         4.28967         27.4899         27.4899
            1205     1.47726E+03     1.47726E+03         6.04171         6.04171         22.9270         22.9270
            1206     1.48139E+03     1.48139E+03         7.34863         7.34863         19.3171         19.3171
            1207     1.48511E+03     1.48511E+03         8.32281         8.32281         16.4364         16.4364
            1208     1.48844E+03     1.48844E+03         9.03722         9.03722         14.1164         14.1164
            1209     1.49143E+03     1.49143E+03         9.54215         9.54215         12.2303         12.2303
            1210     1.49413E+03     1.49413E+03         9.87347         9.87347         10.6818         10.6818
            1211     1.49656E+03     1.49656E+03         10.0585         10.0585         9.39726         9.39726
            1212     1.49875E+03     1.49875E+03         10.1192         10.1192         8.32038         8.32038
            1213     1.50075E+03     1.50075E+03         10.0738         10.0738         7.40777         7.40777
            1214     1.50255E+03     1.50255E+03         9.93858         9.93858         6.62591         6.62591
            1215     1.50420E+03     1.50420E+03         9.72787         9.72787         5.94893         5.94893
            1216     1.50570E+03     1.50570E+03         9.45476         9.45476         5.35677         5.35677
            1217     1.50707E+03     1.50707E+03         9.13123         9.13123         4.83388         4.83388
            1218     1.50832E+03     1.50832E+03         8.76819         8.76819         4.36820         4.36820
            1219     1.50945E+03     1.50945E+03         8.37559         8.37559         3.95033         3.95033
            1220     1.51049E+03     1.51049E+03         7.96240         7.96240         3.57296         3.57296
            1221     1.51143E+03     1.51143E+03         7.53668         7.53668         3.23032         3.23032
            1222     1.51229E+03     1.51229E+03         7.10556         7.10556         2.91787         2.91787
            1223     1.51306E+03     1.51306E+03         6.67534         6.67534         2.63195         2.63195
            1224     1.51377E+03     1.51377E+03         6.25145         6.25145         2.36962         2.36962
            1225     1.51440E+03     1.51440E+03         5.83861         5.83861         2.12841         2.12841
            1226     1.51497E+03     1.51497E+03         5.44080         5.44080         1.90625         1.90625
            1227     1.51548E+03     1.51548E+03         5.06137         5.06137         1.70136         1.70136
            1228     1.51594E+03     1.51594E+03         4.70310         4.70310         1.51213         1.51213
            1229     1.51635E+03     1.51635E+03         4.36825         4.36825         1.33711         1.33711
            1230     1.51671E+03     1.51671E+03         4.05866         4.05866         1.17497         1.17497
            1231     1.51703E+03     1.51703E+03         3.77577         3.77577         1.02443         1.02443
            1232     1.51730E+03     1.51730E+03         3.52071         3.52071     884.271E-03     884.271E-03
            1233     1.51754E+03     1.51754E+03         3.29435         3.29435     753.323E-03     753.323E-03
            1234     1.51774E+03     1.51774E+03         3.09733         3.09733     630.433E-03     630.433E-03
            1235     1.51790E+03     1.51790E+03         2.93013         2.93013     514.471E-03     514.471E-03
            1236     1.51804E+03     1.51804E+03         2.79308         2.79308     404.324E-03     404.324E-03
            1237     1.51814E+03     1.51814E+03         2.68644         2.68644     298.893E-03     298.893E-03
            1238     1.51821E+03     1.51821E+03         2.61037         2.61037     197.090E-03     197.090E-03
            1239     1.51825E+03     1.51825E+03         2.56489         2.56489     98.0863E-03     98.0863E-03
            1240     1.38558E+03     1.38558E+03        -10.5374        -10.5374         91.9499         91.9499
            1241     1.40266E+03     1.40266E+03        -1.72121        -1.72121         68.2554         68.2554
            1242     1.41860E+03     1.41860E+03         3.07449         3.07449         51.6420         51.6420
            1243     1.43238E+03     1.43238E+03         5.85577         5.85577         39.8373         39.8373
            1244     1.44401E+03     1.44401E+03         7.59113         7.59113         31.2802         31.2802
            1245     1.45376E+03     1.45376E+03         8.74611         8.74611         24.9558         24.9558
            1246     1.46194E+03     1.46194E+03         9.55940         9.55940         20.2043         20.2043
            1247     1.46885E+03     1.46885E+03         10.1525         10.1525         16.5785         16.5785
            1248     1.47472E+03     1.47472E+03         10.5897         10.5897         13.7746         13.7746
            1249     1.47974E+03     1.47974E+03         10.9044         10.9044         11.5782         11.5782
            1250     1.48407E+03     1.48407E+03         11.1148         11.1148         9.83743         9.83743
            1251     1.48783E+03     1.48783E+03         11.2314         11.2314         8.44149         8.44149
            1252     1.49113E+03     1.49113E+03         11.2617         11.2617         7.30939         7.30939
            1253     1.49403E+03     1.49403E+03         11.2119         11.2119         6.38063         6.38063
            1254     1.49661E+03     1.49661E+03         11.0881         11.0881         5.60992         5.60992
            1255     1.49891E+03     1.49891E+03         10.8971         10.8971         4.96293         4.96293
            1256     1.50097E+03     1.50097E+03         10.6460         10.6460         4.41355         4.41355
            1257     1.50283E+03     1.50283E+03         10.3423         10.3423         3.94182         3.94182
            1258     1.50450E+03     1.50450E+03         9.99403         9.99403         3.53243         3.53243
            1259     1.50602E+03     1.50602E+03         9.60902         9.60902         3.17359         3.17359
            1260     1.50739E+03     1.50739E+03         9.19512         9.19512         2.85621         2.85621
            1261     1.50863E+03     1.50863E+03         8.75991         8.75991         2.57325         2.57325
            1262     1.50976E+03     1.50976E+03         8.31055         8.31055         2.31923         2.31923
            1263     1.51079E+03     1.51079E+03         7.85370         7.85370         2.08988         2.08988
            1264     1.51172E+03     1.51172E+03         7.39546         7.39546         1.88180         1.88180
            1265     1.51256E+03     1.51256E+03         6.94131         6.94131         1.69231         1.69231
            1266     1.51332E+03     1.51332E+03         6.49611         6.49611         1.51923         1.51923
            1267     1.51400E+03     1.51400E+03         6.06413         6.06413         1.36076         1.36076
            1268     1.51462E+03     1.51462E+03         5.64903         5.64903         1.21541         1.21541
            1269     1.51517E+03     1.51517E+03         5.25393         5.25393         1.08186         1.08186
            1270     1.51566E+03     1.51566E+03         4.88143         4.88143     958.991E-03     958.991E-03
            1271     1.51610E+03     1.51610E+03         4.53369         4.53369     845.774E-03     845.774E-03
            1272     1.51649E+03     1.51649E+03         4.21244         4.21244     741.273E-03     741.273E-03
            1273     1.51683E+03     1.51683E+03         3.91909         3.91909     644.612E-03     644.612E-03
            1274     1.51713E+03     1.51713E+03         3.65471         3.65471     554.964E-03     554.964E-03
            1275     1.51738E+03     1.51738E+03         3.42015         3.42015     471.537E-03     471.537E-03
            1276     1.51760E+03     1.51760E+03         3.21603         3.21603     393.567E-03     393.567E-03
            1277     1.51778E+03     1.51778E+03         3.04282         3.04282     320.314E-03     320.314E-03
            1278     1.51792E+03     1.51792E+03         2.90085         2.90085     251.055E-03     251.055E-03
            1279     1.51803E+03     1.51803E+03         2.79035         2.79035     185.089E-03     185.089E-03
            1280     1.51811E+03     1.51811E+03         2.71149         2.71149     121.728E-03     121.728E-03
            1281     1.51816E+03     1.51816E+03         2.66429         2.66429     60.4493E-03     60.4493E-03
            1282     1.32754E+03     1.32754E+03         16.9180         16.9180         56.1375         56.1375
            1283     1.36532E+03     1.36532E+03         16.5367         16.5367         39.3185         39.3185
            1284     1.39347E+03     1.39347E+03         15.5996         15.5996         28.6181         28.6181
            1285     1.41484E+03     1.41484E+03         14.7095         14.7095         21.4460         21.4460
            1286     1.43139E+03     1.43139E+03         14.0029         14.0029         16.4489         16.4489
            1287     1.44445E+03     1.44445E+03         13.4857         13.4857         12.8687         12.8687
            1288     1.45492E+03     1.45492E+03         13.1246         13.1246         10.2405         10.2405
            1289     1.46346E+03     1.46346E+03         12.8758         12.8758         8.27496         8.27496
            1290     1.47050E+03     1.47050E+03         12.6986         12.6986         6.77900         6.77900
            1291     1.47639E+03     1.47639E+03         12.5582         12.5582         5.62397         5.62397
            1292     1.48138E+03     1.48138E+03         12.4272         12.4272         4.71955         4.71955
            1293     1.48564E+03     1.48564E+03         12.2852         12.2852         4.00245         4.00245
            1294     1.48932E+03     1.48932E+03         12.1176         12.1176         3.42665         3.42665
            1295     1.49252E+03     1.49252E+03         11.9152         11.9152         2.95875         2.95875
            1296     1.49534E+03     1.49534E+03         11.6729         11.6729         2.57389         2.57389
            1297     1.49783E+03     1.49783E+03         11.3890         11.3890         2.25359         2.25359
            1298     1.50005E+03     1.50005E+03         11.0646         11.0646         1.98388         1.98388
            1299     1.50203E+03     1.50203E+03         10.7027         10.7027         1.75422         1.75422
            1300     1.50381E+03     1.50381E+03         10.3076         10.3076         1.55658         1.55658
            1301     1.50542E+03     1.50542E+03         9.88451         9.88451         1.38483         1.38483
            1302     1.50686E+03     1.50686E+03         9.43938         9.43938         1.23424         1.23424
            1303     1.50817E+03     1.50817E+03         8.97818         8.97818         1.10118         1.10118
            1304     1.50936E+03     1.50936E+03         8.50691         8.50691     982.824E-03     982.824E-03
            1305     1.51043E+03     1.51043E+03         8.03135         8.03135     876.972E-03     876.972E-03
            1306     1.51140E+03     1.51140E+03         7.55690         7.55690     781.878E-03     781.878E-03
            1307     1.51228E+03     1.51228E+03         7.08856         7.08856     696.149E-03     696.149E-03
            1308     1.51307E+03     1.51307E+03         6.63081         6.63081     618.655E-03     618.655E-03
            1309     1.51378E+03     1.51378E+03         6.18762         6.18762     548.466E-03     548.466E-03
            1310     1.51443E+03     1.51443E+03         5.76246         5.76246     484.797E-03     484.797E-03
            1311     1.51500E+03     1.51500E+03         5.35829         5.35829     426.978E-03     426.978E-03
            1312     1.51551E+03     1.51551E+03         4.97761         4.97761     374.421E-03     374.421E-03
            1313     1.51597E+03     1.51597E+03         4.62247         4.62247     326.603E-03     326.603E-03
            1314     1.51637E+03     1.51637E+03         4.29458         4.29458     283.053E-03     283.053E-03
            1315     1.51673E+03     1.51673E+03         3.99527         3.99527     243.337E-03     243.337E-03
            1316     1.51704E+03     1.51704E+03         3.72560         3.72560     207.054E-03     207.054E-03
            1317     1.51730E+03     1.51730E+03         3.48639         3.48639     173.830E-03     173.830E-03
            1318     1.51753E+03     1.51753E+03         3.27823         3.27823     143.317E-03     143.317E-03
            1319     1.51771E+03     1.51771E+03         3.10159         3.10159     115.185E-03     115.185E-03
            1320     1.51786E+03     1.51786E+03         2.95677         2.95677     89.1267E-03     89.1267E-03
            1321     1.51798E+03     1.51798E+03         2.84399         2.84399     64.8548E-03     64.8548E-03
            1322     1.51806E+03     1.51806E+03         2.76340         2.76340     42.1032E-03     42.1032E-03
            1323     1.51811E+03     1.51811E+03         2.71502         2.71502     20.6789E-03     20.6789E-03
            1324     1.30733E+03     1.30733E+03         26.9929         26.9929        -3.81991        -3.81991
            1325     1.35340E+03     1.35340E+03         22.5909         22.5909        -3.33175        -3.33175
            1326     1.38586E+03     1.38586E+03         19.5038         19.5038        -2.83027        -2.83027
            1327     1.40974E+03     1.40974E+03         17.3431         17.3431        -2.41400        -2.41400
            1328     1.42785E+03     1.42785E+03         15.8334         15.8334        -2.07346        -2.07346
            1329     1.44192E+03     1.44192E+03         14.7920         14.7920        -1.79777        -1.79777
            1330     1.45308E+03     1.45308E+03         14.0742         14.0742        -1.57204        -1.57204
            1331     1.46208E+03     1.46208E+03         13.5786         13.5786        -1.38695        -1.38695
            1332     1.46946E+03     1.46946E+03         13.2257         13.2257        -1.23363        -1.23363
            1333     1.47559E+03     1.47559E+03         12.9590         12.9590        -1.10609        -1.10609
            1334     1.48075E+03     1.48075E+03         12.7354         12.7354    -999.100E-03    -999.100E-03
            1335     1.48514E+03     1.48514E+03         12.5249         12.5249    -908.826E-03    -908.826E-03
            1336     1.48892E+03     1.48892E+03         12.3061         12.3061    -832.007E-03    -832.007E-03
            1337     1.49221E+03     1.49221E+03         12.0650         12.0650    -766.110E-03    -766.110E-03
            1338     1.49508E+03     1.49508E+03         11.7932         11.7932    -709.005E-03    -709.005E-03
            1339     1.49762E+03     1.49762E+03         11.4868         11.4868    -658.992E-03    -658.992E-03
            1340     1.49987E+03     1.49987E+03         11.1449         11.1449    -614.660E-03    -614.660E-03
            1341     1.50189E+03     1.50189E+03         10.7692         10.7692    -574.872E-03    -574.872E-03
            1342     1.50369E+03     1.50369E+03         10.3633         10.3633    -538.704E-03    -538.704E-03
            1343     1.50531E+03     1.50531E+03         9.93154         9.93154    -505.421E-03    -505.421E-03
            1344     1.50678E+03     1.50678E+03         9.47938         9.47938    -474.436E-03    -474.436E-03
            1345     1.50810E+03     1.50810E+03         9.01241         9.01241    -445.296E-03    -445.296E-03
            1346     1.50930E+03     1.50930E+03         8.53635         8.53635    -417.652E-03    -417.652E-03
            1347     1.51038E+03     1.51038E+03         8.05674         8.05674    -391.239E-03    -391.239E-03
            1348     1.51136E+03     1.51136E+03         7.57885         7.57885    -365.863E-03    -365.863E-03
            1349     1.51224E+03     1.51224E+03         7.10754         7.10754    -341.384E-03    -341.384E-03
            1350     1.51304E+03     1.51304E+03         6.64722         6.64722    -317.701E-03    -317.701E-03
            1351     1.51376E+03     1.51376E+03         6.20178         6.20178    -294.741E-03    -294.741E-03
            1352     1.51441E+03     1.51441E+03         5.77465         5.77465    -272.453E-03    -272.453E-03
            1353     1.51498E+03     1.51498E+03         5.36875         5.36875    -250.795E-03    -250.795E-03
            1354     1.51550E+03     1.51550E+03         4.98653         4.98653    -229.733E-03    -229.733E-03
            1355     1.51596E+03     1.51596E+03         4.63006         4.63006    -209.229E-03    -209.229E-03
            1356     1.51637E+03     1.51637E+03         4.30098         4.30098    -189.241E-03    -189.241E-03
            1357     1.51672E+03     1.51672E+03         4.00063         4.00063    -169.719E-03    -169.719E-03
            1358     1.51703E+03     1.51703E+03         3.73004         3.73004    -150.603E-03    -150.603E-03
            1359     1.51730E+03     1.51730E+03         3.49002         3.49002    -131.817E-03    -131.817E-03
            1360     1.51752E+03     1.51752E+03         3.28116         3.28116    -113.272E-03    -113.272E-03
            1361     1.51771E+03     1.51771E+03         3.10388         3.10388    -94.8616E-03    -94.8616E-03
            1362     1.51786E+03     1.51786E+03         2.95849         2.95849    -76.4630E-03    -76.4630E-03
            1363     1.51797E+03     1.51797E+03         2.84519         2.84519    -57.9328E-03    -57.9328E-03
            1364     1.51806E+03     1.51806E+03         2.76411         2.76411    -39.1074E-03    -39.1074E-03
            1365     1.51810E+03     1.51810E+03         2.71523         2.71523    -19.8449E-03    -19.8449E-03
            1366     1.34148E+03     1.34148E+03         10.2924         10.2924        -64.5810        -64.5810
            1367     1.37517E+03     1.37517E+03         11.7269         11.7269        -46.7649        -46.7649
            1368     1.40057E+03     1.40057E+03         12.0629         12.0629        -35.0521        -35.0521
            1369     1.42009E+03     1.42009E+03         12.0590         12.0590        -26.9697        -26.9697
            1370     1.43537E+03     1.43537E+03         11.9799         11.9799        -21.2053        -21.2053
            1371     1.44753E+03     1.44753E+03         11.9148         11.9148        -16.9839        -16.9839
            1372     1.45736E+03     1.45736E+03         11.8871         11.8871        -13.8271        -13.8271
            1373     1.46541E+03     1.46541E+03         11.8875         11.8875        -11.4232        -11.4232
            1374     1.47209E+03     1.47209E+03         11.8999         11.8999        -9.56442        -9.56442
            1375     1.47771E+03     1.47771E+03         11.9054         11.9054        -8.10681        -8.10681
            1376     1.48247E+03     1.48247E+03         11.8881         11.8881        -6.94930        -6.94930
            1377     1.48657E+03     1.48657E+03         11.8351         11.8351        -6.01883        -6.01883
            1378     1.49011E+03     1.49011E+03         11.7381         11.7381        -5.26204        -5.26204
            1379     1.49321E+03     1.49321E+03         11.5917         11.5917        -4.63918        -4.63918
            1380     1.49594E+03     1.49594E+03         11.3942         11.3942        -4.12044        -4.12044
            1381     1.49836E+03     1.49836E+03         11.1464         11.1464        -3.68319        -3.68319
            1382     1.50052E+03     1.50052E+03         10.8512         10.8512        -3.31017        -3.31017
            1383     1.50245E+03     1.50245E+03         10.5129         10.5129        -2.98815        -2.98815
            1384     1.50418E+03     1.50418E+03         10.1371         10.1371        -2.70694        -2.70694
            1385     1.50575E+03     1.50575E+03         9.73007         9.73007        -2.45867        -2.45867
            1386     1.50717E+03     1.50717E+03         9.29827         9.29827        -2.23730        -2.23730
            1387     1.50845E+03     1.50845E+03         8.84832         8.84832        -2.03813        -2.03813
            1388     1.50960E+03     1.50960E+03         8.38667         8.38667        -1.85752        -1.85752
            1389     1.51065E+03     1.51065E+03         7.91945         7.91945        -1.69265        -1.69265
            1390     1.51160E+03     1.51160E+03         7.45234         7.45234        -1.54131        -1.54131
            1391     1.51246E+03     1.51246E+03         6.99054         6.99054        -1.40177        -1.40177
            1392     1.51324E+03     1.51324E+03         6.53870         6.53870        -1.27264        -1.27264
            1393     1.51394E+03     1.51394E+03         6.10090         6.10090        -1.15280        -1.15280
            1394     1.51456E+03     1.51456E+03         5.68070         5.68070        -1.04131        -1.04131
            1395     1.51513E+03     1.51513E+03         5.28109         5.28109    -937.384E-03    -937.384E-03
            1396     1.51563E+03     1.51563E+03         4.90463         4.90463    -840.321E-03    -840.321E-03
            1397     1.51607E+03     1.51607E+03         4.55339         4.55339    -749.490E-03    -749.490E-03
            1398     1.51647E+03     1.51647E+03         4.22907         4.22907    -664.302E-03    -664.302E-03
            1399     1.51681E+03     1.51681E+03         3.93301         3.93301    -584.195E-03    -584.195E-03
            1400     1.51711E+03     1.51711E+03         3.66625         3.66625    -508.616E-03    -508.616E-03
            1401     1.51737E+03     1.51737E+03         3.42960         3.42960    -437.020E-03    -437.020E-03
            1402     1.51759E+03     1.51759E+03         3.22363         3.22363    -368.856E-03    -368.856E-03
            1403     1.51777E+03     1.51777E+03         3.04878         3.04878    -303.567E-03    -303.567E-03
            1404     1.51792E+03     1.51792E+03         2.90533         2.90533    -240.584E-03    -240.584E-03
            1405     1.51803E+03     1.51803E+03         2.79347         2.79347    -179.325E-03    -179.325E-03
            1406     1.51811E+03     1.51811E+03         2.71332         2.71332    -119.194E-03    -119.194E-03
            1407     1.51816E+03     1.51816E+03         2.66483         2.66483    -59.7272E-03    -59.7272E-03
            1408     1.41430E+03     1.41430E+03        -22.6402        -22.6402        -95.9279        -95.9279
            1409     1.42345E+03     1.42345E+03        -11.0211        -11.0211        -73.4615        -73.4615
            1410     1.43395E+03     1.43395E+03        -4.05960        -4.05960        -57.0452        -57.0452
            1411     1.44392E+03     1.44392E+03     356.172E-03     356.172E-03        -44.9895        -44.9895
            1412     1.45285E+03     1.45285E+03         3.31075         3.31075        -36.0059        -36.0059
            1413     1.46065E+03     1.46065E+03         5.38299         5.38299        -29.2188        -29.2188
            1414     1.46740E+03     1.46740E+03         6.88854         6.88854        -24.0212        -24.0212
            1415     1.47323E+03     1.47323E+03         8.01091         8.01091        -19.9914        -19.9914
            1416     1.47829E+03     1.47829E+03         8.85539         8.85539        -16.8304        -16.8304
            1417     1.48268E+03     1.48268E+03         9.48669         9.48669        -14.3236        -14.3236
            1418     1.48652E+03     1.48652E+03         9.94467         9.94467        -12.3142        -12.3142
            1419     1.48990E+03     1.48990E+03         10.2564         10.2564        -10.6865        -10.6865
            1420     1.49289E+03     1.49289E+03         10.4411         10.4411        -9.35368        -9.35368
            1421     1.49555E+03     1.49555E+03         10.5141         10.5141        -8.25037        -8.25037
            1422     1.49793E+03     1.49793E+03         10.4885         10.4885        -7.32675        -7.32675
            1423     1.50006E+03     1.50006E+03         10.3764         10.3764        -6.54472        -6.54472
            1424     1.50199E+03     1.50199E+03         10.1889         10.1889        -5.87494        -5.87494
            1425     1.50373E+03     1.50373E+03         9.93694         9.93694        -5.29484        -5.29484
            1426     1.50530E+03     1.50530E+03         9.63096         9.63096        -4.78696        -4.78696
            1427     1.50674E+03     1.50674E+03         9.28090         9.28090        -4.33778        -4.33778
            1428     1.50803E+03     1.50803E+03         8.89618         8.89618        -3.93686        -3.93686
            1429     1.50922E+03     1.50922E+03         8.48564         8.48564        -3.57608        -3.57608
            1430     1.51029E+03     1.51029E+03         8.05741         8.05741        -3.24913        -3.24913
            1431     1.51126E+03     1.51126E+03         7.61892         7.61892        -2.95110        -2.95110
            1432     1.51214E+03     1.51214E+03         7.17685         7.17685        -2.67811        -2.67811
            1433     1.51294E+03     1.51294E+03         6.73713         6.73713        -2.42709        -2.42709
            1434     1.51367E+03     1.51367E+03         6.30496         6.30496        -2.19557        -2.19557
            1435     1.51432E+03     1.51432E+03         5.88485         5.88485        -1.98151        -1.98151
            1436     1.51490E+03     1.51490E+03         5.48064         5.48064        -1.78321        -1.78321
            1437     1.51543E+03     1.51543E+03         5.09557         5.09557        -1.59920        -1.59920
            1438     1.51590E+03     1.51590E+03         4.73231         4.73231        -1.42818        -1.42818
            1439     1.51631E+03     1.51631E+03         4.39306         4.39306        -1.26898        -1.26898
            1440     1.51668E+03     1.51668E+03         4.07959         4.07959        -1.12048        -1.12048
            1441     1.51700E+03     1.51700E+03         3.79329         3.79329    -981.632E-03    -981.632E-03
            1442     1.51728E+03     1.51728E+03         3.53523         3.53523    -851.415E-03    -851.415E-03
            1443     1.51752E+03     1.51752E+03         3.30622         3.30622    -728.822E-03    -728.822E-03
            1444     1.51773E+03     1.51773E+03         3.10687         3.10687    -612.855E-03    -612.855E-03
            1445     1.51789E+03     1.51789E+03         2.93759         2.93759    -502.516E-03    -502.516E-03
            1446     1.51803E+03     1.51803E+03         2.79868         2.79868    -396.804E-03    -396.804E-03
            1447     1.51813E+03     1.51813E+03         2.69033         2.69033    -294.709E-03    -294.709E-03
            1448     1.51821E+03     1.51821E+03         2.61263         2.61263    -195.218E-03    -195.218E-03
            1449     1.51825E+03     1.51825E+03         2.56555         2.56555    -97.5523E-03    -97.5523E-03
            1450     1.48904E+03     1.48904E+03        -50.3673        -50.3673        -90.6159        -90.6159
            1451     1.47843E+03     1.47843E+03        -33.6059        -33.6059        -76.0955        -76.0955
            1452     1.47455E+03     1.47455E+03        -21.7346        -21.7346        -63.0000        -63.0000
            1453     1.47431E+03     1.47431E+03        -13.3639        -13.3639        -52.0346        -52.0346
            1454     1.47594E+03     1.47594E+03        -7.34973        -7.34973        -43.1297        -43.1297
            1455     1.47845E+03     1.47845E+03        -2.94714        -2.94714        -35.9701        -35.9701
            1456     1.48132E+03     1.48132E+03     335.844E-03     335.844E-03        -30.2264        -30.2264
            1457     1.48427E+03     1.48427E+03         2.81570         2.81570        -25.6090        -25.6090
            1458     1.48714E+03     1.48714E+03         4.70356         4.70356        -21.8813        -21.8813
            1459     1.48988E+03     1.48988E+03         6.14011         6.14011        -18.8543        -18.8543
            1460     1.49244E+03     1.49244E+03         7.22330         7.22330        -16.3795        -16.3795
            1461     1.49481E+03     1.49481E+03         8.02248         8.02248        -14.3401        -14.3401
            1462     1.49701E+03     1.49701E+03         8.58919         8.58919        -12.6450        -12.6450
            1463     1.49904E+03     1.49904E+03         8.96289         8.96289        -11.2228        -11.2228
            1464     1.50091E+03     1.50091E+03         9.17522         9.17522        -10.0176        -10.0176
            1465     1.50263E+03     1.50263E+03         9.25229         9.25229        -8.98563        -8.98563
            1466     1.50421E+03     1.50421E+03         9.21632         9.21632        -8.09276        -8.09276
            1467     1.50567E+03     1.50567E+03         9.08662         9.08662        -7.31225        -7.31225
            1468     1.50700E+03     1.50700E+03         8.88015         8.88015        -6.62326        -6.62326
            1469     1.50823E+03     1.50823E+03         8.61196         8.61196        -6.00950        -6.00950
            1470     1.50935E+03     1.50935E+03         8.29541         8.29541        -5.45829        -5.45829
            1471     1.51038E+03     1.51038E+03         7.94236         7.94236        -4.95974        -4.95974
            1472     1.51132E+03     1.51132E+03         7.56327         7.56327        -4.50610        -4.50610
            1473     1.51218E+03     1.51218E+03         7.16736         7.16736        -4.09128        -4.09128
            1474     1.51296E+03     1.51296E+03         6.76266         6.76266        -3.71047        -3.71047
            1475     1.51367E+03     1.51367E+03         6.35611         6.35611        -3.35981        -3.35981
            1476     1.51431E+03     1.51431E+03         5.95368         5.95368        -3.03615        -3.03615
            1477     1.51489E+03     1.51489E+03         5.56043         5.56043        -2.73687        -2.73687
            1478     1.51541E+03     1.51541E+03         5.18059         5.18059        -2.45974        -2.45974
            1479     1.51588E+03     1.51588E+03         4.81771         4.81771        -2.20281        -2.20281
            1480     1.51630E+03     1.51630E+03         4.47467         4.47467        -1.96433        -1.96433
            1481     1.51667E+03     1.51667E+03         4.15381         4.15381        -1.74267        -1.74267
            1482     1.51699E+03     1.51699E+03         3.85699         3.85699        -1.53631        -1.53631
            1483     1.51728E+03     1.51728E+03         3.58568         3.58568        -1.34377        -1.34377
            1484     1.51753E+03     1.51753E+03         3.34098         3.34098        -1.16362        -1.16362
            1485     1.51774E+03     1.51774E+03         3.12374         3.12374    -994.458E-03    -994.458E-03
            1486     1.51793E+03     1.51793E+03         2.93458         2.93458    -834.869E-03    -834.869E-03
            1487     1.51807E+03     1.51807E+03         2.77392         2.77392    -683.458E-03    -683.458E-03
            1488     1.51820E+03     1.51820E+03         2.64208         2.64208    -538.826E-03    -538.826E-03
            1489     1.51829E+03     1.51829E+03         2.53923         2.53923    -399.572E-03    -399.572E-03
            1490     1.51835E+03     1.51835E+03         2.46549         2.46549    -264.295E-03    -264.295E-03
            1491     1.51839E+03     1.51839E+03         2.42082         2.42082    -131.923E-03    -131.923E-03
            1492     1.54065E+03     1.54065E+03        -61.3447        -61.3447        -65.2644        -65.2644
            1493     1.52253E+03     1.52253E+03        -46.7525        -46.7525        -61.6556        -61.6556
            1494     1.51068E+03     1.51068E+03        -34.3926        -34.3926        -55.6261        -55.6261
            1495     1.50343E+03     1.50343E+03        -24.5144        -24.5144        -48.9839        -48.9839
            1496     1.49932E+03     1.49932E+03        -16.8106        -16.8106        -42.6475        -42.6475
            1497     1.49727E+03     1.49727E+03        -10.8249        -10.8249        -36.9788        -36.9788
            1498     1.49656E+03     1.49656E+03        -6.17102        -6.17102        -32.0686        -32.0686
            1499     1.49669E+03     1.49669E+03        -2.54314        -2.54314        -27.8861        -27.8861
            1500     1.49735E+03     1.49735E+03     286.003E-03     286.003E-03        -24.3524        -24.3524
            1501     1.49834E+03     1.49834E+03         2.48702         2.48702        -21.3749        -21.3749
            1502     1.49951E+03     1.49951E+03         4.18672         4.18672        -18.8641        -18.8641
            1503     1.50078E+03     1.50078E+03         5.48179         5.48179        -16.7393        -16.7393
            1504     1.50208E+03     1.50208E+03         6.44669         6.44669        -14.9314        -14.9314
            1505     1.50338E+03     1.50338E+03         7.14036         7.14036        -13.3823        -13.3823
            1506     1.50465E+03     1.50465E+03         7.61023         7.61023        -12.0444        -12.0444
            1507     1.50587E+03     1.50587E+03         7.89535         7.89535        -10.8787        -10.8787
            1508     1.50704E+03     1.50704E+03         8.02832         8.02832        -9.85405        -9.85405
            1509     1.50815E+03     1.50815E+03         8.03677         8.03677        -8.94549        -8.94549
            1510     1.50919E+03     1.50919E+03         7.94429         7.94429        -8.13315        -8.13315
            1511     1.51016E+03     1.51016E+03         7.77117         7.77117        -7.40136        -7.40136
            1512     1.51106E+03     1.51106E+03         7.53486         7.53486        -6.73776        -6.73776
            1513     1.51190E+03     1.51190E+03         7.25043         7.25043        -6.13260        -6.13260
            1514     1.51267E+03     1.51267E+03         6.93083         6.93083        -5.57820        -5.57820
            1515     1.51338E+03     1.51338E+03         6.58714         6.58714        -5.06845        -5.06845
            1516     1.51403E+03     1.51403E+03         6.22885         6.22885        -4.59846        -4.59846
            1517     1.51462E+03     1.51462E+03         5.86396         5.86396        -4.16424        -4.16424
            1518     1.51515E+03     1.51515E+03         5.49924         5.49924        -3.76249        -3.76249
            1519     1.51564E+03     1.51564E+03         5.14032         5.14032        -3.39039        -3.39039
            1520     1.51607E+03     1.51607E+03         4.79188         4.79188        -3.04550        -3.04550
            1521     1.51646E+03     1.51646E+03         4.45774         4.45774        -2.72562        -2.72562
            1522     1.51681E+03     1.51681E+03         4.14101         4.14101        -2.42871        -2.42871
            1523     1.51712E+03     1.51712E+03         3.84415         3.84415        -2.15287        -2.15287
            1524     1.51740E+03     1.51740E+03         3.56913         3.56913        -1.89626        -1.89626
            1525     1.51764E+03     1.51764E+03         3.31747         3.31747        -1.65709        -1.65709
            1526     1.51785E+03     1.51785E+03         3.09033         3.09033        -1.43360        -1.43360
            1527     1.51803E+03     1.51803E+03         2.88857         2.88857        -1.22402        -1.22402
            1528     1.51818E+03     1.51818E+03         2.71283         2.71283        -1.02663        -1.02663
            1529     1.51830E+03     1.51830E+03         2.56356         2.56356    -839.661E-03    -839.661E-03
            1530     1.51840E+03     1.51840E+03         2.44106         2.44106    -661.376E-03    -661.376E-03
            1531     1.51848E+03     1.51848E+03         2.34554         2.34554    -490.023E-03    -490.023E-03
            1532     1.51853E+03     1.51853E+03         2.27712         2.27712    -323.852E-03    -323.852E-03
            1533     1.51857E+03     1.51857E+03         2.23579         2.23579    -161.546E-03    -161.546E-03
            1534     1.52601E+03     1.52601E+03     51.1016E-03     51.1016E-03        -5.15387        -5.15387
            1535     1.53100E+03     1.53100E+03     85.2431E-03     85.2431E-03        -9.18325        -9.18325
            1536     1.53604E+03     1.53604E+03     45.6760E-03     45.6760E-03        -12.1377        -12.1377
            1537     1.54125E+03     1.54125E+03    -173.748E-03    -173.748E-03        -14.3990        -14.3990
            1538     1.54679E+03     1.54679E+03    -728.621E-03    -728.621E-03        -16.2398        -16.2398
            1539     1.55285E+03     1.55285E+03        -1.83545        -1.83545        -17.8147        -17.8147
            1540     1.55967E+03     1.55967E+03        -3.79509        -3.79509        -19.1593        -19.1593
            1541     1.56751E+03     1.56751E+03        -7.02858        -7.02858        -20.1588        -20.1588
            1542     1.57662E+03     1.57662E+03        -12.1191        -12.1191        -20.4731        -20.4731
            1543     1.58717E+03     1.58717E+03        -19.8413        -19.8413        -19.3862        -19.3862
            1544     1.59893E+03     1.59893E+03        -31.0804        -31.0804        -15.5816        -15.5816
            1545     1.61055E+03     1.61055E+03        -46.4586        -46.4586        -6.88534        -6.88534
            1546     1.51958E+03     1.51958E+03     505.938E-03     505.938E-03        -4.75577        -4.75577
            1547     1.52636E+03     1.52636E+03         1.34754         1.34754        -8.50758        -8.50758
            1548     1.53248E+03     1.53248E+03         2.53260         2.53260        -11.3529        -11.3529
            1549     1.53828E+03     1.53828E+03         3.91107         3.91107        -13.7013        -13.7013
            1550     1.54406E+03     1.54406E+03         5.33240         5.33240        -15.8680        -15.8680
            1551     1.55017E+03     1.55017E+03         6.62278         6.62278        -18.0833        -18.0833
            1552     1.55695E+03     1.55695E+03         7.54861         7.54861        -20.5098        -20.5098
            1553     1.56486E+03     1.56486E+03         7.76038         7.76038        -23.2375        -23.2375
            1554     1.57446E+03     1.57446E+03         6.70094         6.70094        -26.2398        -26.2398
            1555     1.58646E+03     1.58646E+03         3.45518         3.45518        -29.2556        -29.2556
            1556     1.60169E+03     1.60169E+03        -3.47226        -3.47226        -31.4740        -31.4740
            1557     1.62076E+03     1.62076E+03        -16.3335        -16.3335        -30.8846        -30.8846
            1558     1.51416E+03     1.51416E+03     929.214E-03     929.214E-03        -3.59754        -3.59754
            1559     1.52239E+03     1.52239E+03         2.52728         2.52728        -6.44248        -6.44248
            1560     1.52931E+03     1.52931E+03         4.87227         4.87227        -8.63936        -8.63936
            1561     1.53542E+03     1.53542E+03         7.79520         7.79520        -10.5394        -10.5394
            1562     1.54116E+03     1.54116E+03         11.1902         11.1902        -12.4274        -12.4274
            1563     1.54691E+03     1.54691E+03         14.9905         14.9905        -14.5415        -14.5415
            1564     1.55310E+03     1.55310E+03         19.1413         19.1413        -17.1044        -17.1044
            1565     1.56020E+03     1.56020E+03         23.5619         23.5619        -20.3460        -20.3460
            1566     1.56886E+03     1.56886E+03         28.0826         28.0826        -24.5193        -24.5193
            1567     1.58002E+03     1.58002E+03         32.3155         32.3155        -29.8951        -29.8951
            1568     1.59515E+03     1.59515E+03         35.3537         35.3537        -36.6757        -36.6757
            1569     1.61661E+03     1.61661E+03         35.0482         35.0482        -44.6336        -44.6336
            1570     1.51065E+03     1.51065E+03         1.23231         1.23231        -1.80809        -1.80809
            1571     1.51984E+03     1.51984E+03         3.37421         3.37421        -3.21796        -3.21796
            1572     1.52723E+03     1.52723E+03         6.55920         6.55920        -4.29843        -4.29843
            1573     1.53346E+03     1.53346E+03         10.6153         10.6153        -5.25691        -5.25691
            1574     1.53901E+03     1.53901E+03         15.4882         15.4882        -6.26625        -6.26625
            1575     1.54432E+03     1.54432E+03         21.2225         21.2225        -7.48142        -7.48142
            1576     1.54978E+03     1.54978E+03         27.9550         27.9550        -9.06353        -9.06353
            1577     1.55583E+03     1.55583E+03         35.9187         35.9187        -11.2065        -11.2065
            1578     1.56303E+03     1.56303E+03         45.4592         45.4592        -14.1719        -14.1719
            1579     1.57221E+03     1.57221E+03         57.0606         57.0606        -18.3426        -18.3426
            1580     1.58469E+03     1.58469E+03         71.3613         71.3613        -24.3369        -24.3369
            1581     1.60296E+03     1.60296E+03         89.0484         89.0484        -33.2142        -33.2142
            1582     1.50973E+03     1.50973E+03         1.34623         1.34623     344.805E-03     344.805E-03
            1583     1.51923E+03     1.51923E+03         3.69321         3.69321     676.048E-03     676.048E-03
            1584     1.52676E+03     1.52676E+03         7.19619         7.19619     988.276E-03     988.276E-03
            1585     1.53297E+03     1.53297E+03         11.6835         11.6835         1.27129         1.27129
            1586     1.53841E+03     1.53841E+03         17.1224         17.1224         1.51790         1.51790
            1587     1.54348E+03     1.54348E+03         23.6044         23.6044         1.72254         1.72254
            1588     1.54859E+03     1.54859E+03         31.3479         31.3479         1.88106         1.88106
            1589     1.55413E+03     1.55413E+03         40.7244         40.7244         1.99087         1.99087
            1590     1.56060E+03     1.56060E+03         52.3193         52.3193         2.05049         2.05049
            1591     1.56871E+03     1.56871E+03         67.0466         67.0466         2.05998         2.05998
            1592     1.57958E+03     1.57958E+03         86.3974         86.3974         2.02116         2.02116
            1593     1.59525E+03     1.59525E+03         113.051         113.051         1.93471         1.93471
            1594     1.51163E+03     1.51163E+03         1.24486         1.24486         2.50936         2.50936
            1595     1.52077E+03     1.52077E+03         3.41044         3.41044         4.59204         4.59204
            1596     1.52808E+03     1.52808E+03         6.63249         6.63249         6.30577         6.30577
            1597     1.53421E+03     1.53421E+03         10.7369         10.7369         7.83748         7.83748
            1598     1.53966E+03     1.53966E+03         15.6670         15.6670         9.34578         9.34578
            1599     1.54484E+03     1.54484E+03         21.4657         21.4657         10.9745         10.9745
            1600     1.55016E+03     1.55016E+03         28.2675         28.2675         12.8766         12.8766
            1601     1.55607E+03     1.55607E+03         36.3038         36.3038         15.2408         15.2408
            1602     1.56313E+03     1.56313E+03         45.9188         45.9188         18.3263         18.3263
            1603     1.57216E+03     1.57216E+03         57.5950         57.5950         22.5157         22.5157
            1604     1.58451E+03     1.58451E+03         71.9682         71.9682         28.4291         28.4291
            1605     1.60265E+03     1.60265E+03         89.7257         89.7257         37.1338         37.1338
            1606     1.51613E+03     1.51613E+03     954.233E-03     954.233E-03         4.33377         4.33377
            1607     1.52427E+03     1.52427E+03         2.59955         2.59955         7.88252         7.88252
            1608     1.53104E+03     1.53104E+03         5.01853         5.01853         10.7390         10.7390
            1609     1.53696E+03     1.53696E+03         8.03778         8.03778         13.2339         13.2339
            1610     1.54246E+03     1.54246E+03         11.5471         11.5471         15.6378         15.6378
            1611     1.54796E+03     1.54796E+03         15.4756         15.4756         18.1782         18.1782
            1612     1.55387E+03     1.55387E+03         19.7645         19.7645         21.0698         21.0698
            1613     1.56068E+03     1.56068E+03         24.3296         24.3296         24.5377         24.5377
            1614     1.56905E+03     1.56905E+03         28.9980         28.9980         28.8329         28.8329
            1615     1.57992E+03     1.57992E+03         33.3790         33.3790         34.2266         34.2266
            1616     1.59478E+03     1.59478E+03         36.5647         36.5647         40.9228         40.9228
            1617     1.61599E+03     1.61599E+03         36.3989         36.3989         48.6975         48.6975
            1618     1.52262E+03     1.52262E+03     543.274E-03     543.274E-03         5.55021         5.55021
            1619     1.52924E+03     1.52924E+03         1.45553         1.45553         10.0574         10.0574
            1620     1.53513E+03     1.53513E+03         2.75123         2.75123         13.6060         13.6060
            1621     1.54062E+03     1.54062E+03         4.27364         4.27364         16.5851         16.5851
            1622     1.54605E+03     1.54605E+03         5.86566         5.86566         19.2960         19.2960
            1623     1.55176E+03     1.55176E+03         7.34715         7.34715         21.9584         21.9584
            1624     1.55812E+03     1.55812E+03         8.47863         8.47863         24.7277         24.7277
            1625     1.56560E+03     1.56560E+03         8.90506         8.90506         27.6896         27.6896
            1626     1.57475E+03     1.57475E+03         8.06438         8.06438         30.8164         30.8164
            1627     1.58631E+03     1.58631E+03         5.03766         5.03766         33.8485         33.8485
            1628     1.60112E+03     1.60112E+03        -1.67367        -1.67367         35.9791         35.9791
            1629     1.61979E+03     1.61979E+03        -14.3204        -14.3204         35.1974         35.1974
            1630     1.53021E+03     1.53021E+03     100.593E-03     100.593E-03         6.02980         6.02980
            1631     1.53497E+03     1.53497E+03     228.545E-03     228.545E-03         10.8866         10.8866
            1632     1.53967E+03     1.53967E+03     335.876E-03     335.876E-03         14.6053         14.6053
            1633     1.54446E+03     1.54446E+03     307.424E-03     307.424E-03         17.5470         17.5470
            1634     1.54950E+03     1.54950E+03    -21.3435E-03    -21.3435E-03         19.9708         19.9708
            1635     1.55502E+03     1.55502E+03    -875.454E-03    -875.454E-03         22.0213         22.0213
            1636     1.56126E+03     1.56126E+03        -2.56389        -2.56389         23.7275         23.7275
            1637     1.56849E+03     1.56849E+03        -5.51521        -5.51521         24.9711         24.9711
            1638     1.57701E+03     1.57701E+03        -10.3194        -10.3194         25.4120         25.4120
            1639     1.58697E+03     1.58697E+03        -17.7574        -17.7574         24.3370         24.3370
            1640     1.59816E+03     1.59816E+03        -28.7177        -28.7177         20.4376         20.4376
            1641     1.60924E+03     1.60924E+03        -43.8223        -43.8223         11.5477         11.5477
            1642     1.51893E+03     1.51893E+03         1.82897         1.82897     200.048E-03     200.048E-03
            1643     1.51891E+03     1.51891E+03         1.86314         1.86314     401.243E-03     401.243E-03
            1644     1.51888E+03     1.51888E+03         1.91994         1.91994     607.519E-03     607.519E-03
            1645     1.51884E+03     1.51884E+03         1.99934         1.99934     820.554E-03     820.554E-03
            1646     1.51878E+03     1.51878E+03         2.10123         2.10123         1.04259         1.04259
            1647     1.51871E+03     1.51871E+03         2.22541         2.22541         1.27585         1.27585
            1648     1.51863E+03     1.51863E+03         2.37158         2.37158         1.52258         1.52258
            1649     1.51853E+03     1.51853E+03         2.53930         2.53930         1.78496         1.78496
            1650     1.51841E+03     1.51841E+03         2.72794         2.72794         2.06518         2.06518
            1651     1.51827E+03     1.51827E+03         2.93665         2.93665         2.36541         2.36541
            1652     1.51812E+03     1.51812E+03         3.16426         3.16426         2.68777         2.68777
            1653     1.51794E+03     1.51794E+03         3.40921         3.40921         3.03438         3.03438
            1654     1.51774E+03     1.51774E+03         3.66950         3.66950         3.40732         3.40732
            1655     1.51751E+03     1.51751E+03         3.94252         3.94252         3.80864         3.80864
            1656     1.51726E+03     1.51726E+03         4.22498         4.22498         4.24041         4.24041
            1657     1.51698E+03     1.51698E+03         4.51272         4.51272         4.70470         4.70470
            1658     1.51668E+03     1.51668E+03         4.80061         4.80061         5.20364         5.20364
            1659     1.51634E+03     1.51634E+03         5.08230         5.08230         5.73947         5.73947
            1660     1.51598E+03     1.51598E+03         5.35002         5.35002         6.31461         6.31461
            1661     1.51559E+03     1.51559E+03         5.59435         5.59435         6.93174         6.93174
            1662     1.51517E+03     1.51517E+03         5.80393         5.80393         7.59395         7.59395
            1663     1.51474E+03     1.51474E+03         5.96514         5.96514         8.30488         8.30488
            1664     1.51428E+03     1.51428E+03         6.06173         6.06173         9.06891         9.06891
            1665     1.51382E+03     1.51382E+03         6.07441         6.07441         9.89135         9.89135
            1666     1.51336E+03     1.51336E+03         5.98039         5.98039         10.7787         10.7787
            1667     1.51292E+03     1.51292E+03         5.75283         5.75283         11.7389         11.7389
            1668     1.51251E+03     1.51251E+03         5.36023         5.36023         12.7814         12.7814
            1669     1.51218E+03     1.51218E+03         4.76570         4.76570         13.9173         13.9173
            1670     1.51195E+03     1.51195E+03         3.92626         3.92626         15.1588         15.1588
            1671     1.51188E+03     1.51188E+03         2.79172         2.79172         16.5192         16.5192
            1672     1.51203E+03     1.51203E+03         1.30408         1.30408         18.0108         18.0108
            1673     1.51249E+03     1.51249E+03    -603.872E-03    -603.872E-03         19.6425         19.6425
            1674     1.51337E+03     1.51337E+03        -3.00828        -3.00828         21.4151         21.4151
            1675     1.51482E+03     1.51482E+03        -5.99506        -5.99506         23.3138         23.3138
            1676     1.51701E+03     1.51701E+03        -9.65514        -9.65514         25.2954         25.2954
            1677     1.52018E+03     1.52018E+03        -14.0799        -14.0799         27.2703         27.2703
            1678     1.52462E+03     1.52462E+03        -19.3393        -19.3393         29.0725         29.0725
            1679     1.53065E+03     1.53065E+03        -25.4524        -25.4524         30.4260         30.4260
            1680     1.53859E+03     1.53859E+03        -32.3104        -32.3104         30.8926         30.8926
            1681     1.54869E+03     1.54869E+03        -39.5748        -39.5748         29.8573         29.8573
            1682     1.56097E+03     1.56097E+03        -46.5063        -46.5063         26.5315         26.5315
            1683     1.57503E+03     1.57503E+03        -51.9017        -51.9017         20.1812         20.1812
            1684     1.51910E+03     1.51910E+03         1.62635         1.62635     209.455E-03     209.455E-03
            1685     1.51909E+03     1.51909E+03         1.65709         1.65709     420.093E-03     420.093E-03
            1686     1.51907E+03     1.51907E+03         1.70820         1.70820     636.143E-03     636.143E-03
            1687     1.51904E+03     1.51904E+03         1.77965         1.77965     859.392E-03     859.392E-03
            1688     1.51901E+03     1.51901E+03         1.87133         1.87133         1.09221         1.09221
            1689     1.51897E+03     1.51897E+03         1.98307         1.98307         1.33698         1.33698
            1690     1.51891E+03     1.51891E+03         2.11457         2.11457         1.59603         1.59603
            1691     1.51885E+03     1.51885E+03         2.26543         2.26543         1.87171         1.87171
            1692     1.51878E+03     1.51878E+03         2.43506         2.43506         2.16631         2.16631
            1693     1.51870E+03     1.51870E+03         2.62263         2.62263         2.48207         2.48207
            1694     1.51860E+03     1.51860E+03         2.82702         2.82702         2.82120         2.82120
            1695     1.51849E+03     1.51849E+03         3.04673         3.04673         3.18583         3.18583
            1696     1.51836E+03     1.51836E+03         3.27980         3.27980         3.57805         3.57805
            1697     1.51822E+03     1.51822E+03         3.52369         3.52369         3.99984         3.99984
            1698     1.51806E+03     1.51806E+03         3.77513         3.77513         4.45312         4.45312
            1699     1.51789E+03     1.51789E+03         4.03003         4.03003         4.93971         4.93971
            1700     1.51769E+03     1.51769E+03         4.28322         4.28322         5.46136         5.46136
            1701     1.51748E+03     1.51748E+03         4.52834         4.52834         6.01977         6.01977
            1702     1.51726E+03     1.51726E+03         4.75754         4.75754         6.61658         6.61658
            1703     1.51702E+03     1.51702E+03         4.96122         4.96122         7.25344         7.25344
            1704     1.51677E+03     1.51677E+03         5.12777         5.12777         7.93206         7.93206
            1705     1.51651E+03     1.51651E+03         5.24319         5.24319         8.65424         8.65424
            1706     1.51626E+03     1.51626E+03         5.29071         5.29071         9.42199         9.42199
            1707     1.51602E+03     1.51602E+03         5.25040         5.25040         10.2376         10.2376
            1708     1.51581E+03     1.51581E+03         5.09869         5.09869         11.1035         11.1035
            1709     1.51564E+03     1.51564E+03         4.80789         4.80789         12.0226         12.0226
            1710     1.51554E+03     1.51554E+03         4.34570         4.34570         12.9979         12.9979
            1711     1.51555E+03     1.51555E+03         3.67473         3.67473         14.0322         14.0322
            1712     1.51570E+03     1.51570E+03         2.75201         2.75201         15.1274         15.1274
            1713     1.51605E+03     1.51605E+03         1.52886         1.52886         16.2833         16.2833
            1714     1.51667E+03     1.51667E+03    -49.3226E-03    -49.3226E-03         17.4957         17.4957
            1715     1.51764E+03     1.51764E+03        -2.04202        -2.04202         18.7525         18.7525
            1716     1.51908E+03     1.51908E+03        -4.51249        -4.51249         20.0291         20.0291
            1717     1.52111E+03     1.52111E+03        -7.52298        -7.52298         21.2795         21.2795
            1718     1.52390E+03     1.52390E+03        -11.1288        -11.1288         22.4263         22.4263
            1719     1.52762E+03     1.52762E+03        -15.3625        -15.3625         23.3432         23.3432
            1720     1.53247E+03     1.53247E+03        -20.2128        -20.2128         23.8380         23.8380
            1721     1.53863E+03     1.53863E+03        -25.5810        -25.5810         23.6278         23.6278
            1722     1.54624E+03     1.54624E+03        -31.2230        -31.2230         22.3344         22.3344
            1723     1.55529E+03     1.55529E+03        -36.6685        -36.6685         19.4861         19.4861
            1724     1.56554E+03     1.56554E+03        -41.1451        -41.1451         14.6138         14.6138
            1725     1.57654E+03     1.57654E+03        -43.6219        -43.6219         7.29126         7.29126
            1726     1.51926E+03     1.51926E+03         1.41677         1.41677     213.934E-03     213.934E-03
            1727     1.51925E+03     1.51925E+03         1.44390         1.44390     429.070E-03     429.070E-03
            1728     1.51925E+03     1.51925E+03         1.48902         1.48902     649.850E-03     649.850E-03
            1729     1.51924E+03     1.51924E+03         1.55211         1.55211     878.120E-03     878.120E-03
            1730     1.51923E+03     1.51923E+03         1.63306         1.63306         1.11635         1.11635
            1731     1.51922E+03     1.51922E+03         1.73172         1.73172         1.36701         1.36701
            1732     1.51920E+03     1.51920E+03         1.84782         1.84782         1.63252         1.63252
            1733     1.51918E+03     1.51918E+03         1.98100         1.98100         1.91530         1.91530
            1734     1.51916E+03     1.51916E+03         2.13070         2.13070         2.21770         2.21770
            1735     1.51913E+03     1.51913E+03         2.29617         2.29617         2.54203         2.54203
            1736     1.51909E+03     1.51909E+03         2.47636         2.47636         2.89050         2.89050
            1737     1.51905E+03     1.51905E+03         2.66985         2.66985         3.26525         3.26525
            1738     1.51901E+03     1.51901E+03         2.87479         2.87479         3.66831         3.66831
            1739     1.51895E+03     1.51895E+03         3.08876         3.08876         4.10153         4.10153
            1740     1.51889E+03     1.51889E+03         3.30863         3.30863         4.56665         4.56665
            1741     1.51882E+03     1.51882E+03         3.53045         3.53045         5.06517         5.06517
            1742     1.51875E+03     1.51875E+03         3.74922         3.74922         5.59840         5.59840
            1743     1.51867E+03     1.51867E+03         3.95873         3.95873         6.16740         6.16740
            1744     1.51859E+03     1.51859E+03         4.15129         4.15129         6.77296         6.77296
            1745     1.51851E+03     1.51851E+03         4.31746         4.31746         7.41556         7.41556
            1746     1.51843E+03     1.51843E+03         4.44576         4.44576         8.09538         8.09538
            1747     1.51836E+03     1.51836E+03         4.52232         4.52232         8.81222         8.81222
            1748     1.51831E+03     1.51831E+03         4.53048         4.53048         9.56550         9.56550
            1749     1.51828E+03     1.51828E+03         4.45043         4.45043         10.3541         10.3541
            1750     1.51831E+03     1.51831E+03         4.25880         4.25880         11.1765         11.1765
            1751     1.51840E+03     1.51840E+03         3.92824         3.92824         12.0301         12.0301
            1752     1.51858E+03     1.51858E+03         3.42715         3.42715         12.9112         12.9112
            1753     1.51889E+03     1.51889E+03         2.71936         2.71936         13.8146         13.8146
            1754     1.51936E+03     1.51936E+03         1.76430         1.76430         14.7321         14.7321
            1755     1.52005E+03     1.52005E+03     517.138E-03     517.138E-03         15.6512         15.6512
            1756     1.52104E+03     1.52104E+03        -1.06988        -1.06988         16.5533         16.5533
            1757     1.52238E+03     1.52238E+03        -3.04583        -3.04583         17.4093         17.4093
            1758     1.52419E+03     1.52419E+03        -5.45687        -5.45687         18.1758         18.1758
            1759     1.52656E+03     1.52656E+03        -8.34074        -8.34074         18.7877         18.7877
            1760     1.52963E+03     1.52963E+03        -11.7155        -11.7155         19.1496         19.1496
            1761     1.53350E+03     1.53350E+03        -15.5643        -15.5643         19.1268         19.1268
            1762     1.53829E+03     1.53829E+03        -19.8095        -19.8095         18.5332         18.5332
            1763     1.54408E+03     1.54408E+03        -24.2779        -24.2779         17.1306         17.1306
            1764     1.55084E+03     1.55084E+03        -28.6578        -28.6578         14.6313         14.6313
            1765     1.55844E+03     1.55844E+03        -32.4472        -32.4472         10.7394         10.7394
            1766     1.56654E+03     1.56654E+03        -34.9537        -34.9537         5.20103         5.20103
            1767     1.57461E+03     1.57461E+03        -35.2030        -35.2030        -2.16224        -2.16224
            1768     1.51940E+03     1.51940E+03         1.20516         1.20516     213.294E-03     213.294E-03
            1769     1.51941E+03     1.51941E+03         1.22858         1.22858     427.772E-03     427.772E-03
            1770     1.51942E+03     1.51942E+03         1.26754         1.26754     648.019E-03     648.019E-03
            1771     1.51943E+03     1.51943E+03         1.32202         1.32202     875.899E-03     875.899E-03
            1772     1.51944E+03     1.51944E+03         1.39192         1.39192         1.11393         1.11393
            1773     1.51946E+03     1.51946E+03         1.47712         1.47712         1.36461         1.36461
            1774     1.51948E+03     1.51948E+03         1.57739         1.57739         1.63042         1.63042
            1775     1.51950E+03     1.51950E+03         1.69240         1.69240         1.91379         1.91379
            1776     1.51953E+03     1.51953E+03         1.82167         1.82167         2.21711         2.21711
            1777     1.51956E+03     1.51956E+03         1.96451         1.96451         2.54268         2.54268
            1778     1.51959E+03     1.51959E+03         2.11997         2.11997         2.89272         2.89272
            1779     1.51962E+03     1.51962E+03         2.28677         2.28677         3.26932         3.26932
            1780     1.51966E+03     1.51966E+03         2.46321         2.46321         3.67439         3.67439
            1781     1.51969E+03     1.51969E+03         2.64705         2.64705         4.10968         4.10968
            1782     1.51973E+03     1.51973E+03         2.83540         2.83540         4.57666         4.57666
            1783     1.51978E+03     1.51978E+03         3.02458         3.02458         5.07654         5.07654
            1784     1.51983E+03     1.51983E+03         3.20989         3.20989         5.61015         5.61015
            1785     1.51988E+03     1.51988E+03         3.38550         3.38550         6.17790         6.17790
            1786     1.51995E+03     1.51995E+03         3.54412         3.54412         6.77971         6.77971
            1787     1.52002E+03     1.52002E+03         3.67680         3.67680         7.41489         7.41489
            1788     1.52012E+03     1.52012E+03         3.77260         3.77260         8.08208         8.08208
            1789     1.52023E+03     1.52023E+03         3.81827         3.81827         8.77910         8.77910
            1790     1.52038E+03     1.52038E+03         3.79790         3.79790         9.50279         9.50279
            1791     1.52057E+03     1.52057E+03         3.69259         3.69259         10.2488         10.2488
            1792     1.52082E+03     1.52082E+03         3.48005         3.48005         11.0115         11.0115
            1793     1.52115E+03     1.52115E+03         3.13443         3.13443         11.7832         11.7832
            1794     1.52158E+03     1.52158E+03         2.62606         2.62606         12.5542         12.5542
            1795     1.52215E+03     1.52215E+03         1.92160         1.92160         13.3116         13.3116
            1796     1.52289E+03     1.52289E+03     984.333E-03     984.333E-03         14.0385         14.0385
            1797     1.52385E+03     1.52385E+03    -224.701E-03    -224.701E-03         14.7123         14.7123
            1798     1.52509E+03     1.52509E+03        -1.74515        -1.74515         15.3030         15.3030
            1799     1.52667E+03     1.52667E+03        -3.61397        -3.61397         15.7697         15.7697
            1800     1.52868E+03     1.52868E+03        -5.86089        -5.86089         16.0577         16.0577
            1801     1.53118E+03     1.53118E+03        -8.50038        -8.50038         16.0932         16.0932
            1802     1.53426E+03     1.53426E+03        -11.5208        -11.5208         15.7792         15.7792
            1803     1.53799E+03     1.53799E+03        -14.8679        -14.8679         14.9897         14.9897
            1804     1.54241E+03     1.54241E+03        -18.4233        -18.4233         13.5709         13.5709
            1805     1.54750E+03     1.54750E+03        -21.9789        -21.9789         11.3437         11.3437
            1806     1.55318E+03     1.55318E+03        -25.2055        -25.2055         8.12520         8.12520
            1807     1.55922E+03     1.55922E+03        -27.6416        -27.6416         3.76112         3.76112
            1808     1.56527E+03     1.56527E+03        -28.6624        -28.6624        -1.83474        -1.83474
            1809     1.57079E+03     1.57079E+03        -27.4901        -27.4901        -8.57471        -8.57471
            1810     1.51953E+03     1.51953E+03     996.620E-03     996.620E-03     207.428E-03     207.428E-03
            1811     1.51954E+03     1.51954E+03         1.01631         1.01631     415.985E-03     415.985E-03
            1812     1.51956E+03     1.51956E+03         1.04905         1.04905     630.318E-03     630.318E-03
            1813     1.51959E+03     1.51959E+03         1.09485         1.09485     852.260E-03     852.260E-03
            1814     1.51963E+03     1.51963E+03         1.15363         1.15363         1.08432         1.08432
            1815     1.51968E+03     1.51968E+03         1.22527         1.22527         1.32899         1.32899
            1816     1.51974E+03     1.51974E+03         1.30960         1.30960         1.58874         1.58874
            1817     1.51980E+03     1.51980E+03         1.40633         1.40633         1.86599         1.86599
            1818     1.51988E+03     1.51988E+03         1.51505         1.51505         2.16309         2.16309
            1819     1.51997E+03     1.51997E+03         1.63517         1.63517         2.48233         2.48233
            1820     1.52006E+03     1.52006E+03         1.76586         1.76586         2.82586         2.82586
            1821     1.52017E+03     1.52017E+03         1.90601         1.90601         3.19571         3.19571
            1822     1.52029E+03     1.52029E+03         2.05411         2.05411         3.59368         3.59368
            1823     1.52042E+03     1.52042E+03         2.20817         2.20817         4.02135         4.02135
            1824     1.52057E+03     1.52057E+03         2.36562         2.36562         4.47999         4.47999
            1825     1.52073E+03     1.52073E+03         2.52314         2.52314         4.97048         4.97048
            1826     1.52090E+03     1.52090E+03         2.67651         2.67651         5.49321         5.49321
            1827     1.52109E+03     1.52109E+03         2.82044         2.82044         6.04800         6.04800
            1828     1.52131E+03     1.52131E+03         2.94831         2.94831         6.63397         6.63397
            1829     1.52154E+03     1.52154E+03         3.05194         3.05194         7.24938         7.24938
            1830     1.52181E+03     1.52181E+03         3.12132         3.12132         7.89147         7.89147
            1831     1.52211E+03     1.52211E+03         3.14431         3.14431         8.55624         8.55624
            1832     1.52246E+03     1.52246E+03         3.10632         3.10632         9.23824         9.23824
            1833     1.52285E+03     1.52285E+03         2.99002         2.99002         9.93025         9.93025
            1834     1.52332E+03     1.52332E+03         2.77508         2.77508         10.6229         10.6229
            1835     1.52387E+03     1.52387E+03         2.43800         2.43800         11.3043         11.3043
            1836     1.52452E+03     1.52452E+03         1.95217         1.95217         11.9593         11.9593
            1837     1.52531E+03     1.52531E+03         1.28804         1.28804         12.5689         12.5689
            1838     1.52627E+03     1.52627E+03     413.964E-03     413.964E-03         13.1091         13.1091
            1839     1.52742E+03     1.52742E+03    -702.550E-03    -702.550E-03         13.5499         13.5499
            1840     1.52883E+03     1.52883E+03        -2.09241        -2.09241         13.8534         13.8534
            1841     1.53054E+03     1.53054E+03        -3.78147        -3.78147         13.9720         13.9720
            1842     1.53259E+03     1.53259E+03        -5.78489        -5.78489         13.8463         13.8463
            1843     1.53506E+03     1.53506E+03        -8.09942        -8.09942         13.4029         13.4029
            1844     1.53797E+03     1.53797E+03        -10.6927        -10.6927         12.5527         12.5527
            1845     1.54135E+03     1.54135E+03        -13.4888        -13.4888         11.1918         11.1918
            1846     1.54519E+03     1.54519E+03        -16.3526        -16.3526         9.20560         9.20560
            1847     1.54944E+03     1.54944E+03        -19.0694        -19.0694         6.47996         6.47996
            1848     1.55394E+03     1.55394E+03        -21.3350        -21.3350         2.92247         2.92247
            1849     1.55849E+03     1.55849E+03        -22.7400        -22.7400        -1.51066        -1.51066
            1850     1.56273E+03     1.56273E+03        -22.7814        -22.7814        -6.75744        -6.75744
            1851     1.56623E+03     1.56623E+03        -20.9003        -20.9003        -12.5932        -12.5932
            1852     1.51962E+03     1.51962E+03     796.287E-03     796.287E-03     196.345E-03     196.345E-03
            1853     1.51964E+03     1.51964E+03     812.290E-03     812.290E-03     393.718E-03     393.718E-03
            1854     1.51968E+03     1.51968E+03     838.923E-03     838.923E-03     596.748E-03     596.748E-03
            1855     1.51973E+03     1.51973E+03     876.170E-03     876.170E-03     807.185E-03     807.185E-03
            1856     1.51979E+03     1.51979E+03     923.983E-03     923.983E-03         1.02747         1.02747
            1857     1.51987E+03     1.51987E+03     982.271E-03     982.271E-03         1.26004         1.26004
            1858     1.51996E+03     1.51996E+03         1.05089         1.05089         1.50729         1.50729
            1859     1.52007E+03     1.52007E+03         1.12962         1.12962         1.77157         1.77157
            1860     1.52020E+03     1.52020E+03         1.21813         1.21813         2.05519         2.05519
            1861     1.52035E+03     1.52035E+03         1.31592         1.31592         2.36033         2.36033
            1862     1.52051E+03     1.52051E+03         1.42232         1.42232         2.68908         2.68908
            1863     1.52069E+03     1.52069E+03         1.53638         1.53638         3.04336         3.04336
            1864     1.52090E+03     1.52090E+03         1.65683         1.65683         3.42487         3.42487
            1865     1.52112E+03     1.52112E+03         1.78199         1.78199         3.83502         3.83502
            1866     1.52137E+03     1.52137E+03         1.90966         1.90966         4.27487         4.27487
            1867     1.52165E+03     1.52165E+03         2.03699         2.03699         4.74504         4.74504
            1868     1.52195E+03     1.52195E+03         2.16034         2.16034         5.24556         5.24556
            1869     1.52228E+03     1.52228E+03         2.27514         2.27514         5.77577         5.77577
            1870     1.52264E+03     1.52264E+03         2.37561         2.37561         6.33414         6.33414
            1871     1.52304E+03     1.52304E+03         2.45464         2.45464         6.91806         6.91806
            1872     1.52348E+03     1.52348E+03         2.50346         2.50346         7.52366         7.52366
            1873     1.52397E+03     1.52397E+03         2.51144         2.51144         8.14552         8.14552
            1874     1.52450E+03     1.52450E+03         2.46579         2.46579         8.77632         8.77632
            1875     1.52510E+03     1.52510E+03         2.35133         2.35133         9.40653         9.40653
            1876     1.52577E+03     1.52577E+03         2.15032         2.15032         10.0240         10.0240
            1877     1.52653E+03     1.52653E+03         1.84237         1.84237         10.6132         10.6132
            1878     1.52738E+03     1.52738E+03         1.40457         1.40457         11.1552         11.1552
            1879     1.52836E+03     1.52836E+03     811.924E-03     811.924E-03         11.6264         11.6264
            1880     1.52949E+03     1.52949E+03     38.2172E-03     38.2172E-03         11.9978         11.9978
            1881     1.53079E+03     1.53079E+03    -942.368E-03    -942.368E-03         12.2345         12.2345
            1882     1.53229E+03     1.53229E+03        -2.15284        -2.15284         12.2944         12.2944
            1883     1.53403E+03     1.53403E+03        -3.60957        -3.60957         12.1273         12.1273
            1884     1.53604E+03     1.53604E+03        -5.31701        -5.31701         11.6746         11.6746
            1885     1.53834E+03     1.53834E+03        -7.26049        -7.26049         10.8685         10.8685
            1886     1.54095E+03     1.54095E+03        -9.39666        -9.39666         9.63452         9.63452
            1887     1.54386E+03     1.54386E+03        -11.6429        -11.6429         7.89417         7.89417
            1888     1.54703E+03     1.54703E+03        -13.8643        -13.8643         5.57317         5.57317
            1889     1.55037E+03     1.55037E+03        -15.8649        -15.8649         2.61468         2.61468
            1890     1.55374E+03     1.55374E+03        -17.3781        -17.3781        -1.00299        -1.00299
            1891     1.55692E+03     1.55692E+03        -18.0722        -18.0722        -5.23479        -5.23479
            1892     1.55965E+03     1.55965E+03        -17.5695        -17.5695        -9.93684        -9.93684
            1893     1.56159E+03     1.56159E+03        -15.4919        -15.4919        -14.8227        -14.8227
            1894     1.51968E+03     1.51968E+03     609.237E-03     609.237E-03     180.172E-03     180.172E-03
            1895     1.51971E+03     1.51971E+03     621.705E-03     621.705E-03     361.222E-03     361.222E-03
            1896     1.51976E+03     1.51976E+03     642.465E-03     642.465E-03     547.674E-03     547.674E-03
            1897     1.51982E+03     1.51982E+03     671.503E-03     671.503E-03     741.136E-03     741.136E-03
            1898     1.51991E+03     1.51991E+03     708.783E-03     708.783E-03     943.929E-03     943.929E-03
            1899     1.52002E+03     1.52002E+03     754.243E-03     754.243E-03         1.15836         1.15836
            1900     1.52015E+03     1.52015E+03     807.778E-03     807.778E-03         1.38670         1.38670
            1901     1.52030E+03     1.52030E+03     869.220E-03     869.220E-03         1.63118         1.63118
            1902     1.52048E+03     1.52048E+03     938.312E-03     938.312E-03         1.89399         1.89399
            1903     1.52068E+03     1.52068E+03         1.01467         1.01467         2.17721         2.17721
            1904     1.52091E+03     1.52091E+03         1.09777         1.09777         2.48280         2.48280
            1905     1.52117E+03     1.52117E+03         1.18685         1.18685         2.81255         2.81255
            1906     1.52146E+03     1.52146E+03         1.28091         1.28091         3.16804         3.16804
            1907     1.52177E+03     1.52177E+03         1.37859         1.37859         3.55054         3.55054
            1908     1.52213E+03     1.52213E+03         1.47810         1.47810         3.96095         3.96095
            1909     1.52252E+03     1.52252E+03         1.57713         1.57713         4.39967         4.39967
            1910     1.52295E+03     1.52295E+03         1.67271         1.67271         4.86649         4.86649
            1911     1.52342E+03     1.52342E+03         1.76107         1.76107         5.36041         5.36041
            1912     1.52393E+03     1.52393E+03         1.83747         1.83747         5.87947         5.87947
            1913     1.52449E+03     1.52449E+03         1.89601         1.89601         6.42051         6.42051
            1914     1.52511E+03     1.52511E+03         1.92944         1.92944         6.97892         6.97892
            1915     1.52577E+03     1.52577E+03         1.92891         1.92891         7.54831         7.54831
            1916     1.52650E+03     1.52650E+03         1.88380         1.88380         8.12018         8.12018
            1917     1.52730E+03     1.52730E+03         1.78149         1.78149         8.68346         8.68346
            1918     1.52817E+03     1.52817E+03         1.60727         1.60727         9.22411         9.22411
            1919     1.52912E+03     1.52912E+03         1.34431         1.34431         9.72453         9.72453
            1920     1.53016E+03     1.53016E+03     973.862E-03     973.862E-03         10.1631         10.1631
            1921     1.53131E+03     1.53131E+03     475.727E-03     475.727E-03         10.5135         10.5135
            1922     1.53258E+03     1.53258E+03    -170.798E-03    -170.798E-03         10.7441         10.7441
            1923     1.53398E+03     1.53398E+03    -985.402E-03    -985.402E-03         10.8177         10.8177
            1924     1.53553E+03     1.53553E+03        -1.98434        -1.98434         10.6909         10.6909
            1925     1.53725E+03     1.53725E+03        -3.17700        -3.17700         10.3143         10.3143
            1926     1.53914E+03     1.53914E+03        -4.56119        -4.56119         9.63315         9.63315
            1927     1.54121E+03     1.54121E+03        -6.11682        -6.11682         8.58897         8.58897
            1928     1.54345E+03     1.54345E+03        -7.79885        -7.79885         7.12288         7.12288
            1929     1.54583E+03     1.54583E+03        -9.52834        -9.52834         5.18129         5.18129
            1930     1.54829E+03     1.54829E+03        -11.1856        -11.1856         2.72501         2.72501
            1931     1.55073E+03     1.55073E+03        -12.6030        -12.6030    -258.747E-03    -258.747E-03
            1932     1.55304E+03     1.55304E+03        -13.5659        -13.5659        -3.73763        -3.73763
            1933     1.55502E+03     1.55502E+03        -13.8207        -13.8207        -7.61499        -7.61499
            1934     1.55648E+03     1.55648E+03        -13.0984        -13.0984        -11.7048        -11.7048
            1935     1.55720E+03     1.55720E+03        -11.1599        -11.1599        -15.7140        -15.7140
            1936     1.51969E+03     1.51969E+03     440.352E-03     440.352E-03     159.166E-03     159.166E-03
            1937     1.51973E+03     1.51973E+03     449.534E-03     449.534E-03     319.008E-03     319.008E-03
            1938     1.51979E+03     1.51979E+03     464.830E-03     464.830E-03     483.843E-03     483.843E-03
            1939     1.51987E+03     1.51987E+03     486.223E-03     486.223E-03     655.094E-03     655.094E-03
            1940     1.51998E+03     1.51998E+03     513.693E-03     513.693E-03     834.881E-03     834.881E-03
            1941     1.52012E+03     1.52012E+03     547.199E-03     547.199E-03         1.02532         1.02532
            1942     1.52028E+03     1.52028E+03     586.671E-03     586.671E-03         1.22850         1.22850
            1943     1.52048E+03     1.52048E+03     631.995E-03     631.995E-03         1.44648         1.44648
            1944     1.52070E+03     1.52070E+03     682.985E-03     682.985E-03         1.68125         1.68125
            1945     1.52096E+03     1.52096E+03     739.368E-03     739.368E-03         1.93475         1.93475
            1946     1.52125E+03     1.52125E+03     800.747E-03     800.747E-03         2.20877         2.20877
            1947     1.52158E+03     1.52158E+03     866.571E-03     866.571E-03         2.50496         2.50496
            1948     1.52195E+03     1.52195E+03     936.080E-03     936.080E-03         2.82475         2.82475
            1949     1.52236E+03     1.52236E+03         1.00826         1.00826         3.16930         3.16930
            1950     1.52281E+03     1.52281E+03         1.08175         1.08175         3.53936         3.53936
            1951     1.52332E+03     1.52332E+03         1.15481         1.15481         3.93523         3.93523
            1952     1.52387E+03     1.52387E+03         1.22515         1.22515         4.35654         4.35654
            1953     1.52448E+03     1.52448E+03         1.28989         1.28989         4.80216         4.80216
            1954     1.52514E+03     1.52514E+03         1.34536         1.34536         5.26996         5.26996
            1955     1.52587E+03     1.52587E+03         1.38701         1.38701         5.75655         5.75655
            1956     1.52665E+03     1.52665E+03         1.40921         1.40921         6.25705         6.25705
            1957     1.52750E+03     1.52750E+03         1.40507         1.40507         6.76472         6.76472
            1958     1.52843E+03     1.52843E+03         1.36633         1.36633         7.27057         7.27057
            1959     1.52942E+03     1.52942E+03         1.28317         1.28317         7.76298         7.76298
            1960     1.53049E+03     1.53049E+03         1.14413         1.14413         8.22718         8.22718
            1961     1.53163E+03     1.53163E+03     936.159E-03     936.159E-03         8.64479         8.64479
            1962     1.53286E+03     1.53286E+03     644.808E-03     644.808E-03         8.99328         8.99328
            1963     1.53417E+03     1.53417E+03     254.672E-03     254.672E-03         9.24554         9.24554
            1964     1.53558E+03     1.53558E+03    -249.774E-03    -249.774E-03         9.36952         9.36952
            1965     1.53707E+03     1.53707E+03    -882.799E-03    -882.799E-03         9.32803         9.32803
            1966     1.53865E+03     1.53865E+03        -1.65537        -1.65537         9.07897         9.07897
            1967     1.54032E+03     1.54032E+03        -2.57231        -2.57231         8.57607         8.57607
            1968     1.54207E+03     1.54207E+03        -3.62830        -3.62830         7.77047         7.77047
            1969     1.54388E+03     1.54388E+03        -4.80332        -4.80332         6.61349         6.61349
            1970     1.54573E+03     1.54573E+03        -6.05673        -6.05673         5.06105         5.06105
            1971     1.54756E+03     1.54756E+03        -7.32198        -7.32198         3.08028         3.08028
            1972     1.54932E+03     1.54932E+03        -8.50119        -8.50119     658.104E-03     658.104E-03
            1973     1.55092E+03     1.55092E+03        -9.46334        -9.46334        -2.18652        -2.18652
            1974     1.55223E+03     1.55223E+03        -10.0464        -10.0464        -5.38996        -5.38996
            1975     1.55315E+03     1.55315E+03        -10.0679        -10.0679        -8.82838        -8.82838
            1976     1.55352E+03     1.55352E+03        -9.34679        -9.34679        -12.3068        -12.3068
            1977     1.55323E+03     1.55323E+03        -7.73617        -7.73617        -15.5534        -15.5534
            1978     1.51965E+03     1.51965E+03     294.206E-03     294.206E-03     133.726E-03     133.726E-03
            1979     1.51970E+03     1.51970E+03     300.453E-03     300.453E-03     267.852E-03     267.852E-03
            1980     1.51977E+03     1.51977E+03     310.864E-03     310.864E-03     406.425E-03     406.425E-03
            1981     1.51987E+03     1.51987E+03     325.422E-03     325.422E-03     550.589E-03     550.589E-03
            1982     1.52000E+03     1.52000E+03     344.109E-03     344.109E-03     702.205E-03     702.205E-03
            1983     1.52016E+03     1.52016E+03     366.910E-03     366.910E-03     863.132E-03     863.132E-03
            1984     1.52035E+03     1.52035E+03     393.787E-03     393.787E-03         1.03520         1.03520
            1985     1.52058E+03     1.52058E+03     424.663E-03     424.663E-03         1.22021         1.22021
            1986     1.52085E+03     1.52085E+03     459.419E-03     459.419E-03         1.41994         1.41994
            1987     1.52116E+03     1.52116E+03     497.872E-03     497.872E-03         1.63607         1.63607
            1988     1.52151E+03     1.52151E+03     539.758E-03     539.758E-03         1.87021         1.87021
            1989     1.52191E+03     1.52191E+03     584.701E-03     584.701E-03         2.12383         2.12383
            1990     1.52235E+03     1.52235E+03     632.183E-03     632.183E-03         2.39820         2.39820
            1991     1.52285E+03     1.52285E+03     681.504E-03     681.504E-03         2.69433         2.69433
            1992     1.52341E+03     1.52341E+03     731.730E-03     731.730E-03         3.01290         3.01290
            1993     1.52402E+03     1.52402E+03     781.634E-03     781.634E-03         3.35413         3.35413
            1994     1.52470E+03     1.52470E+03     829.630E-03     829.630E-03         3.71766         3.71766
            1995     1.52544E+03     1.52544E+03     873.683E-03     873.683E-03         4.10240         4.10240
            1996     1.52625E+03     1.52625E+03     911.215E-03     911.215E-03         4.50629         4.50629
            1997     1.52714E+03     1.52714E+03     938.996E-03     938.996E-03         4.92611         4.92611
            1998     1.52810E+03     1.52810E+03     953.028E-03     953.028E-03         5.35720         5.35720
            1999     1.52913E+03     1.52913E+03     948.415E-03     948.415E-03         5.79308         5.79308
            2000     1.53025E+03     1.53025E+03     919.253E-03     919.253E-03         6.22515         6.22515
            2001     1.53144E+03     1.53144E+03     858.519E-03     858.519E-03         6.64220         6.64220
            2002     1.53272E+03     1.53272E+03     758.039E-03     758.039E-03         7.03004         7.03004
            2003     1.53407E+03     1.53407E+03     608.495E-03     608.495E-03         7.37097         7.37097
            2004     1.53549E+03     1.53549E+03     399.613E-03     399.613E-03         7.64338         7.64338
            2005     1.53698E+03     1.53698E+03     120.509E-03     120.509E-03         7.82137         7.82137
            2006     1.53852E+03     1.53852E+03    -239.634E-03    -239.634E-03         7.87457         7.87457
            2007     1.54012E+03     1.54012E+03    -690.517E-03    -690.517E-03         7.76819         7.76819
            2008     1.54174E+03     1.54174E+03        -1.23918        -1.23918         7.46356         7.46356
            2009     1.54338E+03     1.54338E+03        -1.88775        -1.88775         6.91931         6.91931
            2010     1.54500E+03     1.54500E+03        -2.63077        -2.63077         6.09341         6.09341
            2011     1.54657E+03     1.54657E+03        -3.45148        -3.45148         4.94646         4.94646
            2012     1.54804E+03     1.54804E+03        -4.31832        -4.31832         3.44654         3.44654
            2013     1.54936E+03     1.54936E+03        -5.18084        -5.18084         1.57553         1.57553
            2014     1.55046E+03     1.55046E+03        -5.96727        -5.96727    -662.373E-03    -662.373E-03
            2015     1.55126E+03     1.55126E+03        -6.58373        -6.58373        -3.23147        -3.23147
            2016     1.55167E+03     1.55167E+03        -6.91764        -6.91764        -6.05375        -6.05375
            2017     1.55160E+03     1.55160E+03        -6.84697        -6.84697        -9.00050        -9.00050
            2018     1.55098E+03     1.55098E+03        -6.25576        -6.25576        -11.8875        -11.8875
            2019     1.54975E+03     1.54975E+03        -5.05855        -5.05855        -14.4771        -14.4771
            2020     1.51956E+03     1.51956E+03     174.899E-03     174.899E-03     104.382E-03     104.382E-03
            2021     1.51960E+03     1.51960E+03     178.682E-03     178.682E-03     208.845E-03     208.845E-03
            2022     1.51968E+03     1.51968E+03     184.986E-03     184.986E-03     317.009E-03     317.009E-03
            2023     1.51980E+03     1.51980E+03     193.758E-03     193.758E-03     429.725E-03     429.725E-03
            2024     1.51994E+03     1.51994E+03     205.017E-03     205.017E-03     548.521E-03     548.521E-03
            2025     1.52013E+03     1.52013E+03     218.771E-03     218.771E-03     674.888E-03     674.888E-03
            2026     1.52035E+03     1.52035E+03     234.990E-03     234.990E-03     810.329E-03     810.329E-03
            2027     1.52061E+03     1.52061E+03     253.632E-03     253.632E-03     956.328E-03     956.328E-03
            2028     1.52092E+03     1.52092E+03     274.626E-03     274.626E-03         1.11434         1.11434
            2029     1.52127E+03     1.52127E+03     297.867E-03     297.867E-03         1.28577         1.28577
            2030     1.52168E+03     1.52168E+03     323.197E-03     323.197E-03         1.47196         1.47196
            2031     1.52214E+03     1.52214E+03     350.389E-03     350.389E-03         1.67413         1.67413
            2032     1.52265E+03     1.52265E+03     379.134E-03     379.134E-03         1.89335         1.89335
            2033     1.52323E+03     1.52323E+03     409.003E-03     409.003E-03         2.13051         2.13051
            2034     1.52388E+03     1.52388E+03     439.429E-03     439.429E-03         2.38617         2.38617
            2035     1.52460E+03     1.52460E+03     469.658E-03     469.658E-03         2.66057         2.66057
            2036     1.52539E+03     1.52539E+03     498.712E-03     498.712E-03         2.95342         2.95342
            2037     1.52627E+03     1.52627E+03     525.334E-03     525.334E-03         3.26382         3.26382
            2038     1.52723E+03     1.52723E+03     547.921E-03     547.921E-03         3.59006         3.59006
            2039     1.52827E+03     1.52827E+03     564.462E-03     564.462E-03         3.92943         3.92943
            2040     1.52941E+03     1.52941E+03     572.455E-03     572.455E-03         4.27793         4.27793
            2041     1.53063E+03     1.53063E+03     568.833E-03     568.833E-03         4.63003         4.63003
            2042     1.53195E+03     1.53195E+03     549.880E-03     549.880E-03         4.97830         4.97830
            2043     1.53336E+03     1.53336E+03     511.177E-03     511.177E-03         5.31304         5.31304
            2044     1.53485E+03     1.53485E+03     447.564E-03     447.564E-03         5.62188         5.62188
            2045     1.53641E+03     1.53641E+03     353.167E-03     353.167E-03         5.88941         5.88941
            2046     1.53805E+03     1.53805E+03     221.505E-03     221.505E-03         6.09676         6.09676
            2047     1.53974E+03     1.53974E+03     45.7467E-03     45.7467E-03         6.22133         6.22133
            2048     1.54146E+03     1.54146E+03    -180.856E-03    -180.856E-03         6.23669         6.23669
            2049     1.54319E+03     1.54319E+03    -464.265E-03    -464.265E-03         6.11278         6.11278
            2050     1.54490E+03     1.54490E+03    -808.609E-03    -808.609E-03         5.81647         5.81647
            2051     1.54655E+03     1.54655E+03        -1.21480        -1.21480         5.31291         5.31291
            2052     1.54810E+03     1.54810E+03        -1.67861        -1.67861         4.56758         4.56758
            2053     1.54948E+03     1.54948E+03        -2.18863        -2.18863         3.54959         3.54959
            2054     1.55065E+03     1.55065E+03        -2.72371        -2.72371         2.23602         2.23602
            2055     1.55152E+03     1.55152E+03        -3.25096        -3.25096     617.911E-03     617.911E-03
            2056     1.55202E+03     1.55202E+03        -3.72413        -3.72413        -1.29298        -1.29298
            2057     1.55209E+03     1.55209E+03        -4.08388        -4.08388        -3.45622        -3.45622
            2058     1.55165E+03     1.55165E+03        -4.26062        -4.26062        -5.79579        -5.79579
            2059     1.55064E+03     1.55064E+03        -4.18051        -4.18051        -8.19445        -8.19445
            2060     1.54904E+03     1.54904E+03        -3.77603        -3.77603        -10.4929        -10.4929
            2061     1.54686E+03     1.54686E+03        -2.99924        -2.99924        -12.4953        -12.4953
            2062     1.51939E+03     1.51939E+03     85.9512E-03     85.9512E-03     71.8707E-03     71.8707E-03
            2063     1.51945E+03     1.51945E+03     87.8861E-03     87.8861E-03     143.322E-03     143.322E-03
            2064     1.51953E+03     1.51953E+03     90.9963E-03     90.9963E-03     217.632E-03     217.632E-03
            2065     1.51966E+03     1.51966E+03     95.2977E-03     95.2977E-03     295.254E-03     295.254E-03
            2066     1.51982E+03     1.51982E+03     100.852E-03     100.852E-03     377.223E-03     377.223E-03
            2067     1.52002E+03     1.52002E+03     107.638E-03     107.638E-03     464.619E-03     464.619E-03
            2068     1.52026E+03     1.52026E+03     115.643E-03     115.643E-03     558.534E-03     558.534E-03
            2069     1.52055E+03     1.52055E+03     124.846E-03     124.846E-03     660.043E-03     660.043E-03
            2070     1.52089E+03     1.52089E+03     135.212E-03     135.212E-03     770.211E-03     770.211E-03
            2071     1.52129E+03     1.52129E+03     146.688E-03     146.688E-03     890.067E-03     890.067E-03
            2072     1.52174E+03     1.52174E+03     159.197E-03     159.197E-03         1.02060         1.02060
            2073     1.52225E+03     1.52225E+03     172.626E-03     172.626E-03         1.16272         1.16272
            2074     1.52283E+03     1.52283E+03     186.820E-03     186.820E-03         1.31725         1.31725
            2075     1.52348E+03     1.52348E+03     201.566E-03     201.566E-03         1.48486         1.48486
            2076     1.52421E+03     1.52421E+03     216.578E-03     216.578E-03         1.66601         1.66601
            2077     1.52503E+03     1.52503E+03     231.478E-03     231.478E-03         1.86092         1.86092
            2078     1.52594E+03     1.52594E+03     245.772E-03     245.772E-03         2.06944         2.06944
            2079     1.52694E+03     1.52694E+03     258.822E-03     258.822E-03         2.29098         2.29098
            2080     1.52803E+03     1.52803E+03     269.818E-03     269.818E-03         2.52434         2.52434
            2081     1.52924E+03     1.52924E+03     277.734E-03     277.734E-03         2.76759         2.76759
            2082     1.53055E+03     1.53055E+03     281.297E-03     281.297E-03         3.01784         3.01784
            2083     1.53196E+03     1.53196E+03     278.936E-03     278.936E-03         3.27103         3.27103
            2084     1.53349E+03     1.53349E+03     268.750E-03     268.750E-03         3.52169         3.52169
            2085     1.53512E+03     1.53512E+03     248.467E-03     248.467E-03         3.76260         3.76260
            2086     1.53685E+03     1.53685E+03     215.436E-03     215.436E-03         3.98453         3.98453
            2087     1.53866E+03     1.53866E+03     166.629E-03     166.629E-03         4.17586         4.17586
            2088     1.54055E+03     1.54055E+03     98.7121E-03     98.7121E-03         4.32236         4.32236
            2089     1.54248E+03     1.54248E+03     8.16442E-03     8.16442E-03         4.40689         4.40689
            2090     1.54443E+03     1.54443E+03    -108.475E-03    -108.475E-03         4.40941         4.40941
            2091     1.54637E+03     1.54637E+03    -254.240E-03    -254.240E-03         4.30706         4.30706
            2092     1.54824E+03     1.54824E+03    -431.194E-03    -431.194E-03         4.07477         4.07477
            2093     1.54999E+03     1.54999E+03    -639.654E-03    -639.654E-03         3.68625         3.68625
            2094     1.55156E+03     1.55156E+03    -877.274E-03    -877.274E-03         3.11578         3.11578
            2095     1.55286E+03     1.55286E+03        -1.13783        -1.13783         2.34074         2.34074
            2096     1.55382E+03     1.55382E+03        -1.41011        -1.41011         1.34527         1.34527
            2097     1.55434E+03     1.55434E+03        -1.67669        -1.67669     124.668E-03     124.668E-03
            2098     1.55435E+03     1.55435E+03        -1.91342        -1.91342        -1.30915        -1.30915
            2099     1.55376E+03     1.55376E+03        -2.08960        -2.08960        -2.92227        -2.92227
            2100     1.55251E+03     1.55251E+03        -2.16952        -2.16952        -4.65370        -4.65370
            2101     1.55057E+03     1.55057E+03        -2.11629        -2.11629        -6.41242        -6.41242
            2102     1.54793E+03     1.54793E+03        -1.89657        -1.89657        -8.07770        -8.07770
            2103     1.54466E+03     1.54466E+03        -1.48671        -1.48671        -9.50287        -9.50287
            2104     1.51916E+03     1.51916E+03     30.0738E-03     30.0738E-03     37.0170E-03     37.0170E-03
            2105     1.51922E+03     1.51922E+03     30.8154E-03     30.8154E-03     73.2590E-03     73.2590E-03
            2106     1.51931E+03     1.51931E+03     31.8394E-03     31.8394E-03     111.365E-03     111.365E-03
            2107     1.51944E+03     1.51944E+03     33.3129E-03     33.3129E-03     151.209E-03     151.209E-03
            2108     1.51961E+03     1.51961E+03     35.2305E-03     35.2305E-03     193.345E-03     193.345E-03
            2109     1.51983E+03     1.51983E+03     37.5675E-03     37.5675E-03     238.368E-03     238.368E-03
            2110     1.52009E+03     1.52009E+03     40.3272E-03     40.3272E-03     286.859E-03     286.859E-03
            2111     1.52040E+03     1.52040E+03     43.4962E-03     43.4962E-03     339.398E-03     339.398E-03
            2112     1.52076E+03     1.52076E+03     47.0645E-03     47.0645E-03     396.558E-03     396.558E-03
            2113     1.52119E+03     1.52119E+03     51.0113E-03     51.0113E-03     458.901E-03     458.901E-03
            2114     1.52167E+03     1.52167E+03     55.3093E-03     55.3093E-03     526.965E-03     526.965E-03
            2115     1.52223E+03     1.52223E+03     59.9177E-03     59.9177E-03     601.255E-03     601.255E-03
            2116     1.52286E+03     1.52286E+03     64.7810E-03     64.7810E-03     682.226E-03     682.226E-03
            2117     1.52358E+03     1.52358E+03     69.8228E-03     69.8228E-03     770.262E-03     770.262E-03
            2118     1.52439E+03     1.52439E+03     74.9411E-03     74.9411E-03     865.644E-03     865.644E-03
            2119     1.52529E+03     1.52529E+03     80.0011E-03     80.0011E-03     968.517E-03     968.517E-03
            2120     1.52629E+03     1.52629E+03     84.8268E-03     84.8268E-03         1.07884         1.07884
            2121     1.52741E+03     1.52741E+03     89.1911E-03     89.1911E-03         1.19634         1.19634
            2122     1.52864E+03     1.52864E+03     92.8045E-03     92.8045E-03         1.32041         1.32041
            2123     1.53000E+03     1.53000E+03     95.3018E-03     95.3018E-03         1.45006         1.45006
            2124     1.53148E+03     1.53148E+03     96.2275E-03     96.2275E-03         1.58377         1.58377
            2125     1.53309E+03     1.53309E+03     95.0212E-03     95.0212E-03         1.71940         1.71940
            2126     1.53483E+03     1.53483E+03     91.0015E-03     91.0015E-03         1.85401         1.85401
            2127     1.53670E+03     1.53670E+03     83.3571E-03     83.3571E-03         1.98372         1.98372
            2128     1.53869E+03     1.53869E+03     71.1350E-03     71.1350E-03         2.10350         2.10350
            2129     1.54078E+03     1.54078E+03     53.2531E-03     53.2531E-03         2.20702         2.20702
            2130     1.54296E+03     1.54296E+03     28.5110E-03     28.5110E-03         2.28644         2.28644
            2131     1.54520E+03     1.54520E+03    -4.34797E-03    -4.34797E-03         2.33232         2.33232
            2132     1.54746E+03     1.54746E+03    -46.5671E-03    -46.5671E-03         2.33354         2.33354
            2133     1.54969E+03     1.54969E+03    -99.2224E-03    -99.2224E-03         2.27738         2.27738
            2134     1.55183E+03     1.55183E+03    -163.036E-03    -163.036E-03         2.14984         2.14984
            2135     1.55381E+03     1.55381E+03    -238.093E-03    -238.093E-03         1.93624         1.93624
            2136     1.55554E+03     1.55554E+03    -323.485E-03    -323.485E-03         1.62215         1.62215
            2137     1.55692E+03     1.55692E+03    -416.921E-03    -416.921E-03         1.19497         1.19497
            2138     1.55783E+03     1.55783E+03    -514.232E-03    -514.232E-03     645.858E-03     645.858E-03
            2139     1.55816E+03     1.55816E+03    -609.075E-03    -609.075E-03    -27.5882E-03    -27.5882E-03
            2140     1.55781E+03     1.55781E+03    -692.605E-03    -692.605E-03    -818.461E-03    -818.461E-03
            2141     1.55666E+03     1.55666E+03    -753.697E-03    -753.697E-03        -1.70737        -1.70737
            2142     1.55465E+03     1.55465E+03    -779.540E-03    -779.540E-03        -2.65980        -2.65980
            2143     1.55173E+03     1.55173E+03    -756.856E-03    -756.856E-03        -3.62475        -3.62475
            2144     1.54793E+03     1.54793E+03    -674.380E-03    -674.380E-03        -4.53501        -4.53501
            2145     1.54334E+03     1.54334E+03    -523.231E-03    -523.231E-03        -5.30873        -5.30873
            2146     1.43901E+03     1.43901E+03         415.517         415.517        -111.381        -111.381
            2147     1.45460E+03     1.45460E+03         377.915         377.915        -110.604        -110.604
            2148     1.46973E+03     1.46973E+03         340.219         340.219        -106.806        -106.806
            2149     1.48387E+03     1.48387E+03         303.365         303.365        -101.104        -101.104
            2150     1.49667E+03     1.49667E+03         268.052         268.052        -93.7798        -93.7798
            2151     1.50790E+03     1.50790E+03         234.846         234.846        -85.1365        -85.1365
            2152     1.51738E+03     1.51738E+03         204.185         204.185        -75.6190        -75.6190
            2153     1.52515E+03     1.52515E+03         176.289         176.289        -65.6390        -65.6390
            2154     1.53122E+03     1.53122E+03         151.262         151.262        -55.5904        -55.5904
            2155     1.53580E+03     1.53580E+03         129.047         129.047        -45.8083        -45.8083
            2156     1.53904E+03     1.53904E+03         109.508         109.508        -36.5257        -36.5257
            2157     1.54116E+03     1.54116E+03         92.4548         92.4548        -27.9278        -27.9278
            2158     1.54235E+03     1.54235E+03         77.6568         77.6568        -20.0970        -20.0970
            2159     1.54279E+03     1.54279E+03         64.8920         64.8920        -13.0889        -13.0889
            2160     1.54262E+03     1.54262E+03         53.9262         53.9262        -6.89148        -6.89148
            2161     1.54200E+03     1.54200E+03         44.5559         44.5559        -1.48123        -1.48123
            2162     1.54101E+03     1.54101E+03         36.5775         36.5775         3.19942         3.19942
            2163     1.53976E+03     1.53976E+03         29.8196         29.8196         7.21032         7.21032
            2164     1.53831E+03     1.53831E+03         24.1155         24.1155         10.6244         10.6244
            2165     1.53673E+03     1.53673E+03         19.3236         19.3236         13.5121         13.5121
            2166     1.53505E+03     1.53505E+03         15.3087         15.3087         15.9460         15.9460
            2167     1.53332E+03     1.53332E+03         11.9532         11.9532         17.9941         17.9941
            2168     1.53157E+03     1.53157E+03         9.14506         9.14506         19.7221         19.7221
            2169     1.52983E+03     1.52983E+03         6.78385         6.78385         21.1910         21.1910
            2170     1.52813E+03     1.52813E+03         4.77286         4.77286         22.4579         22.4579
            2171     1.52649E+03     1.52649E+03         3.02214         3.02214         23.5760         23.5760
            2172     1.52494E+03     1.52494E+03         1.44333         1.44333         24.5949         24.5949
            2173     1.52352E+03     1.52352E+03    -49.2627E-03    -49.2627E-03         25.5610         25.5610
            2174     1.52227E+03     1.52227E+03        -1.54219        -1.54219         26.5175         26.5175
            2175     1.52123E+03     1.52123E+03        -3.12309        -3.12309         27.5044         27.5044
            2176     1.52049E+03     1.52049E+03        -4.88307        -4.88307         28.5568         28.5568
            2177     1.52011E+03     1.52011E+03        -6.91777        -6.91777         29.7035         29.7035
            2178     1.52021E+03     1.52021E+03        -9.32822        -9.32822         30.9620         30.9620
            2179     1.52094E+03     1.52094E+03        -12.2216        -12.2216         32.3315         32.3315
            2180     1.52248E+03     1.52248E+03        -15.7072        -15.7072         33.7804         33.7804
            2181     1.52505E+03     1.52505E+03        -19.8919        -19.8919         35.2291         35.2291
            2182     1.52893E+03     1.52893E+03        -24.8587        -24.8587         36.5192         36.5192
            2183     1.53446E+03     1.53446E+03        -30.6377        -30.6377         37.3812         37.3812
            2184     1.54194E+03     1.54194E+03        -37.1284        -37.1284         37.3817         37.3817
            2185     1.55162E+03     1.55162E+03        -43.9988        -43.9988         35.9096         35.9096
            2186     1.56352E+03     1.56352E+03        -50.5128        -50.5128         32.1793         32.1793
            2187     1.57722E+03     1.57722E+03        -55.4657        -55.4657         25.4616         25.4616
            2188     1.44324E+03     1.44324E+03         414.588         414.588        -127.329        -127.329
            2189     1.45962E+03     1.45962E+03         374.810         374.810        -126.328        -126.328
            2190     1.47532E+03     1.47532E+03         334.945         334.945        -121.620        -121.620
            2191     1.48982E+03     1.48982E+03         296.103         296.103        -114.632        -114.632
            2192     1.50267E+03     1.50267E+03         259.148         259.148        -105.630        -105.630
            2193     1.51359E+03     1.51359E+03         224.794         224.794        -95.1624        -95.1624
            2194     1.52251E+03     1.52251E+03         193.456         193.456        -83.7508        -83.7508
            2195     1.52941E+03     1.52941E+03         165.383         165.383        -71.9621        -71.9621
            2196     1.53455E+03     1.53455E+03         140.558         140.558        -60.2831        -60.2831
            2197     1.53808E+03     1.53808E+03         118.853         118.853        -49.0689        -49.0689
            2198     1.54032E+03     1.54032E+03         100.035         100.035        -38.6090        -38.6090
            2199     1.54150E+03     1.54150E+03         83.8153         83.8153        -29.0361        -29.0361
            2200     1.54186E+03     1.54186E+03         69.9161         69.9161        -20.4496        -20.4496
            2201     1.54160E+03     1.54160E+03         58.0411         58.0411        -12.8441        -12.8441
            2202     1.54088E+03     1.54088E+03         47.9441         47.9441        -6.20310        -6.20310
            2203     1.53984E+03     1.53984E+03         39.3772         39.3772    -458.131E-03    -458.131E-03
            2204     1.53857E+03     1.53857E+03         32.1415         32.1415         4.45944         4.45944
            2205     1.53715E+03     1.53715E+03         26.0438         26.0438         8.63744         8.63744
            2206     1.53565E+03     1.53565E+03         20.9272         20.9272         12.1589         12.1589
            2207     1.53411E+03     1.53411E+03         16.6422         16.6422         15.1102         15.1102
            2208     1.53256E+03     1.53256E+03         13.0638         13.0638         17.5706         17.5706
            2209     1.53104E+03     1.53104E+03         10.0736         10.0736         19.6162         19.6162
            2210     1.52956E+03     1.52956E+03         7.56858         7.56858         21.3160         21.3160
            2211     1.52816E+03     1.52816E+03         5.45023         5.45023         22.7332         22.7332
            2212     1.52684E+03     1.52684E+03         3.62917         3.62917         23.9250         23.9250
            2213     1.52564E+03     1.52564E+03         2.01839         2.01839         24.9424         24.9424
            2214     1.52457E+03     1.52457E+03     535.276E-03     535.276E-03         25.8310         25.8310
            2215     1.52368E+03     1.52368E+03    -902.508E-03    -902.508E-03         26.6308         26.6308
            2216     1.52300E+03     1.52300E+03        -2.37632        -2.37632         27.3759         27.3759
            2217     1.52259E+03     1.52259E+03        -3.96882        -3.96882         28.0940         28.0940
            2218     1.52251E+03     1.52251E+03        -5.76372        -5.76372         28.8045         28.8045
            2219     1.52284E+03     1.52284E+03        -7.84602        -7.84602         29.5158         29.5158
            2220     1.52370E+03     1.52370E+03        -10.3008        -10.3008         30.2202         30.2202
            2221     1.52520E+03     1.52520E+03        -13.2092        -13.2092         30.8864         30.8864
            2222     1.52751E+03     1.52751E+03        -16.6426        -16.6426         31.4487         31.4487
            2223     1.53080E+03     1.53080E+03        -20.6472        -20.6472         31.7905         31.7905
            2224     1.53526E+03     1.53526E+03        -25.2231        -25.2231         31.7281         31.7281
            2225     1.54107E+03     1.54107E+03        -30.2811        -30.2811         30.9846         30.9846
            2226     1.54836E+03     1.54836E+03        -35.5844        -35.5844         29.1875         29.1875
            2227     1.55713E+03     1.55713E+03        -40.6683        -40.6683         25.8691         25.8691
            2228     1.56712E+03     1.56712E+03        -44.7639        -44.7639         20.5655         20.5655
            2229     1.57788E+03     1.57788E+03        -46.8442        -46.8442         12.8574         12.8574
            2230     1.44878E+03     1.44878E+03         413.455         413.455        -144.154        -144.154
            2231     1.46597E+03     1.46597E+03         371.011         371.011        -142.767        -142.767
            2232     1.48239E+03     1.48239E+03         328.414         328.414        -136.988        -136.988
            2233     1.49720E+03     1.49720E+03         287.135         287.135        -128.282        -128.282
            2234     1.50992E+03     1.50992E+03         248.296         248.296        -117.276        -117.276
            2235     1.52033E+03     1.52033E+03         212.662         212.662        -104.574        -104.574
            2236     1.52827E+03     1.52827E+03         180.757         180.757        -90.9857        -90.9857
            2237     1.53404E+03     1.53404E+03         152.668         152.668        -77.2109        -77.2109
            2238     1.53783E+03     1.53783E+03         128.307         128.307        -63.7967        -63.7967
            2239     1.54007E+03     1.54007E+03         107.387         107.387        -51.1943        -51.1943
            2240     1.54105E+03     1.54105E+03         89.5358         89.5358        -39.6115        -39.6115
            2241     1.54114E+03     1.54114E+03         74.3939         74.3939        -29.2149        -29.2149
            2242     1.54056E+03     1.54056E+03         61.5706         61.5706        -20.0051        -20.0051
            2243     1.53955E+03     1.53955E+03         50.7578         50.7578        -11.9742        -11.9742
            2244     1.53826E+03     1.53826E+03         41.6418         41.6418        -5.03616        -5.03616
            2245     1.53681E+03     1.53681E+03         33.9865         33.9865     890.659E-03     890.659E-03
            2246     1.53528E+03     1.53528E+03         27.5603         27.5603         5.91519         5.91519
            2247     1.53375E+03     1.53375E+03         22.1866         22.1866         10.1378         10.1378
            2248     1.53225E+03     1.53225E+03         17.6965         17.6965         13.6627         13.6627
            2249     1.53081E+03     1.53081E+03         13.9559         13.9559         16.5843         16.5843
            2250     1.52945E+03     1.52945E+03         10.8382         10.8382         18.9921         18.9921
            2251     1.52819E+03     1.52819E+03         8.23782         8.23782         20.9658         20.9658
            2252     1.52704E+03     1.52704E+03         6.05446         6.05446         22.5776         22.5776
            2253     1.52602E+03     1.52602E+03         4.20006         4.20006         23.8910         23.8910
            2254     1.52513E+03     1.52513E+03         2.58970         2.58970         24.9615         24.9615
            2255     1.52440E+03     1.52440E+03         1.14474         1.14474         25.8367         25.8367
            2256     1.52383E+03     1.52383E+03    -212.277E-03    -212.277E-03         26.5568         26.5568
            2257     1.52347E+03     1.52347E+03        -1.55622        -1.55622         27.1545         27.1545
            2258     1.52335E+03     1.52335E+03        -2.96203        -2.96203         27.6543         27.6543
            2259     1.52352E+03     1.52352E+03        -4.50372        -4.50372         28.0721         28.0721
            2260     1.52403E+03     1.52403E+03        -6.25475        -6.25475         28.4128         28.4128
            2261     1.52496E+03     1.52496E+03        -8.28608        -8.28608         28.6681         28.6681
            2262     1.52640E+03     1.52640E+03        -10.6630        -10.6630         28.8112         28.8112
            2263     1.52845E+03     1.52845E+03        -13.4393        -13.4393         28.7917         28.7917
            2264     1.53123E+03     1.53123E+03        -16.6470        -16.6470         28.5257         28.5257
            2265     1.53486E+03     1.53486E+03        -20.2810        -20.2810         27.8884         27.8884
            2266     1.53945E+03     1.53945E+03        -24.2735        -24.2735         26.7016         26.7016
            2267     1.54505E+03     1.54505E+03        -28.4590        -28.4590         24.7337         24.7337
            2268     1.55166E+03     1.55166E+03        -32.5326        -32.5326         21.7021         21.7021
            2269     1.55912E+03     1.55912E+03        -35.9972        -35.9972         17.3162         17.3162
            2270     1.56711E+03     1.56711E+03        -38.1653        -38.1653         11.3270         11.3270
            2271     1.57507E+03     1.57507E+03        -38.0703        -38.0703         3.56226         3.56226
            2272     1.45585E+03     1.45585E+03         412.160         412.160        -161.980        -161.980
            2273     1.47424E+03     1.47424E+03         366.248         366.248        -160.161        -160.161
            2274     1.49133E+03     1.49133E+03         320.247         320.247        -152.804        -152.804
            2275     1.50637E+03     1.50637E+03         276.033         276.033        -142.009        -142.009
            2276     1.51874E+03     1.51874E+03         234.978         234.978        -128.360        -128.360
            2277     1.52808E+03     1.52808E+03         198.127         198.127        -112.997        -112.997
            2278     1.53469E+03     1.53469E+03         165.800         165.800        -96.9006        -96.9006
            2279     1.53871E+03     1.53871E+03         138.050         138.050        -80.9367        -80.9367
            2280     1.54081E+03     1.54081E+03         114.519         114.519        -65.8179        -65.8179
            2281     1.54136E+03     1.54136E+03         94.7243         94.7243        -51.8706        -51.8706
            2282     1.54088E+03     1.54088E+03         78.1772         78.1772        -39.3704        -39.3704
            2283     1.53971E+03     1.53971E+03         64.3418         64.3418        -28.3178        -28.3178
            2284     1.53813E+03     1.53813E+03         52.8204         52.8204        -18.7160        -18.7160
            2285     1.53635E+03     1.53635E+03         43.2010         43.2010        -10.4482        -10.4482
            2286     1.53451E+03     1.53451E+03         35.1965         35.1965        -3.41177        -3.41177
            2287     1.53270E+03     1.53270E+03         28.5213         28.5213         2.53329         2.53329
            2288     1.53098E+03     1.53098E+03         22.9729         22.9729         7.51189         7.51189
            2289     1.52941E+03     1.52941E+03         18.3563         18.3563         11.6524         11.6524
            2290     1.52798E+03     1.52798E+03         14.5264         14.5264         15.0694         15.0694
            2291     1.52673E+03     1.52673E+03         11.3457         11.3457         17.8692         17.8692
            2292     1.52564E+03     1.52564E+03         8.70598         8.70598         20.1459         20.1459
            2293     1.52472E+03     1.52472E+03         6.50467         6.50467         21.9831         21.9831
            2294     1.52397E+03     1.52397E+03         4.65557         4.65557         23.4531         23.4531
            2295     1.52338E+03     1.52338E+03         3.07626         3.07626         24.6183         24.6183
            2296     1.52297E+03     1.52297E+03         1.69285         1.69285         25.5311         25.5311
            2297     1.52274E+03     1.52274E+03     433.242E-03     433.242E-03         26.2346         26.2346
            2298     1.52270E+03     1.52270E+03    -770.599E-03    -770.599E-03         26.7628         26.7628
            2299     1.52287E+03     1.52287E+03        -1.98612        -1.98612         27.1406         27.1406
            2300     1.52329E+03     1.52329E+03        -3.27873        -3.27873         27.3835         27.3835
            2301     1.52399E+03     1.52399E+03        -4.71274        -4.71274         27.4965         27.4965
            2302     1.52502E+03     1.52502E+03        -6.34923        -6.34923         27.4729         27.4729
            2303     1.52644E+03     1.52644E+03        -8.24395        -8.24395         27.2918         27.2918
            2304     1.52832E+03     1.52832E+03        -10.4425        -10.4425         26.9149         26.9149
            2305     1.53073E+03     1.53073E+03        -12.9731        -12.9731         26.2821         26.2821
            2306     1.53375E+03     1.53375E+03        -15.8357        -15.8357         25.3078         25.3078
            2307     1.53744E+03     1.53744E+03        -18.9859        -18.9859         23.8754         23.8754
            2308     1.54184E+03     1.54184E+03        -22.3134        -22.3134         21.8387         21.8387
            2309     1.54694E+03     1.54694E+03        -25.6171        -25.6171         19.0249         19.0249
            2310     1.55262E+03     1.55262E+03        -28.5730        -28.5730         15.2562         15.2562
            2311     1.55869E+03     1.55869E+03        -30.7249        -30.7249         10.3830         10.3830
            2312     1.56478E+03     1.56478E+03        -31.4525        -31.4525         4.32375         4.32375
            2313     1.57034E+03     1.57034E+03        -29.9857        -29.9857        -2.83282        -2.83282
            2314     1.46543E+03     1.46543E+03         410.501         410.501        -181.168        -181.168
            2315     1.48489E+03     1.48489E+03         360.236         360.236        -178.467        -178.467
            2316     1.50284E+03     1.50284E+03         309.889         309.889        -169.205        -169.205
            2317     1.51787E+03     1.51787E+03         262.048         262.048        -155.359        -155.359
            2318     1.52921E+03     1.52921E+03         218.685         218.685        -138.460        -138.460
            2319     1.53702E+03     1.53702E+03         180.662         180.662        -119.816        -119.816
            2320     1.54133E+03     1.54133E+03         148.405         148.405        -100.839        -100.839
            2321     1.54312E+03     1.54312E+03         121.488         121.488        -82.6811        -82.6811
            2322     1.54290E+03     1.54290E+03         99.2831         99.2831        -65.8729        -65.8729
            2323     1.54148E+03     1.54148E+03         81.0964         81.0964        -50.8779        -50.8779
            2324     1.53930E+03     1.53930E+03         66.1568         66.1568        -37.6808        -37.6808
            2325     1.53679E+03     1.53679E+03         53.9351         53.9351        -26.2966        -26.2966
            2326     1.53419E+03     1.53419E+03         43.8701         43.8701        -16.5532        -16.5532
            2327     1.53167E+03     1.53167E+03         35.6055         35.6055        -8.31253        -8.31253
            2328     1.52936E+03     1.52936E+03         28.7799         28.7799        -1.38751        -1.38751
            2329     1.52729E+03     1.52729E+03         23.1579         23.1579         4.38280         4.38280
            2330     1.52550E+03     1.52550E+03         18.5099         18.5099         9.15972         9.15972
            2331     1.52399E+03     1.52399E+03         14.6777         14.6777         13.0844         13.0844
            2332     1.52276E+03     1.52276E+03         11.5104         11.5104         16.2851         16.2851
            2333     1.52179E+03     1.52179E+03         8.89659         8.89659         18.8738         18.8738
            2334     1.52107E+03     1.52107E+03         6.73115         6.73115         20.9479         20.9479
            2335     1.52058E+03     1.52058E+03         4.93011         4.93011         22.5913         22.5913
            2336     1.52030E+03     1.52030E+03         3.41388         3.41388         23.8749         23.8749
            2337     1.52022E+03     1.52022E+03         2.11392         2.11392         24.8582         24.8582
            2338     1.52034E+03     1.52034E+03     963.984E-03     963.984E-03         25.5889         25.5889
            2339     1.52066E+03     1.52066E+03    -96.7106E-03    -96.7106E-03         26.1049         26.1049
            2340     1.52116E+03     1.52116E+03        -1.12799        -1.12799         26.4335         26.4335
            2341     1.52188E+03     1.52188E+03        -2.18695        -2.18695         26.5922         26.5922
            2342     1.52283E+03     1.52283E+03        -3.32957        -3.32957         26.5879         26.5879
            2343     1.52403E+03     1.52403E+03        -4.60883        -4.60883         26.4171         26.4171
            2344     1.52552E+03     1.52552E+03        -6.07360        -6.07360         26.0639         26.0639
            2345     1.52734E+03     1.52734E+03        -7.76486        -7.76486         25.4995         25.4995
            2346     1.52954E+03     1.52954E+03        -9.71098        -9.71098         24.6800         24.6800
            2347     1.53217E+03     1.53217E+03        -11.9198        -11.9198         23.5448         23.5448
            2348     1.53525E+03     1.53525E+03        -14.3685        -14.3685         22.0154         22.0154
            2349     1.53881E+03     1.53881E+03        -16.9890        -16.9890         19.9967         19.9967
            2350     1.54285E+03     1.54285E+03        -19.6530        -19.6530         17.3810         17.3810
            2351     1.54729E+03     1.54729E+03        -22.1514        -22.1514         14.0599         14.0599
            2352     1.55199E+03     1.55199E+03        -24.1847        -24.1847         9.94576         9.94576
            2353     1.55673E+03     1.55673E+03        -25.3475        -25.3475         4.99882         4.99882
            2354     1.56116E+03     1.56116E+03        -25.1416        -25.1416    -716.245E-03    -716.245E-03
            2355     1.56486E+03     1.56486E+03        -23.0103        -23.0103        -6.97481        -6.97481
            2356     1.47795E+03     1.47795E+03         408.551         408.551        -201.819        -201.819
            2357     1.49926E+03     1.49926E+03         352.331         352.331        -198.146        -198.146
            2358     1.51776E+03     1.51776E+03         296.376         296.376        -185.643        -185.643
            2359     1.53209E+03     1.53209E+03         244.388         244.388        -167.969        -167.969
            2360     1.54181E+03     1.54181E+03         198.453         198.453        -146.644        -146.644
            2361     1.54658E+03     1.54658E+03         159.935         159.935        -124.052        -124.052
            2362     1.54789E+03     1.54789E+03         128.408         128.408        -102.089        -102.089
            2363     1.54641E+03     1.54641E+03         103.090         103.090        -81.6824        -81.6824
            2364     1.54344E+03     1.54344E+03         82.9365         82.9365        -63.6483        -63.6483
            2365     1.53968E+03     1.53968E+03         66.7725         66.7725        -47.9114        -47.9114
            2366     1.53570E+03     1.53570E+03         53.8734         53.8734        -34.4944        -34.4944
            2367     1.53184E+03     1.53184E+03         43.4449         43.4449        -23.1237        -23.1237
            2368     1.52830E+03     1.52830E+03         35.0397         35.0397        -13.5988        -13.5988
            2369     1.52518E+03     1.52518E+03         28.1891         28.1891        -5.66042        -5.66042
            2370     1.52254E+03     1.52254E+03         22.6187         22.6187     906.821E-03     906.821E-03
            2371     1.52038E+03     1.52038E+03         18.0544         18.0544         6.30879         6.30879
            2372     1.51867E+03     1.51867E+03         14.3232         14.3232         10.7230         10.7230
            2373     1.51738E+03     1.51738E+03         11.2587         11.2587         14.3042         14.3042
            2374     1.51649E+03     1.51649E+03         8.74651         8.74651         17.1871         17.1871
            2375     1.51594E+03     1.51594E+03         6.67863         6.67863         19.4849         19.4849
            2376     1.51570E+03     1.51570E+03         4.97406         4.97406         21.2954         21.2954
            2377     1.51575E+03     1.51575E+03         3.55642         3.55642         22.6993         22.6993
            2378     1.51603E+03     1.51603E+03         2.36314         2.36314         23.7642         23.7642
            2379     1.51654E+03     1.51654E+03         1.33429         1.33429         24.5441         24.5441
            2380     1.51726E+03     1.51726E+03     416.776E-03     416.776E-03         25.0821         25.0821
            2381     1.51817E+03     1.51817E+03    -441.330E-03    -441.330E-03         25.4092         25.4092
            2382     1.51926E+03     1.51926E+03        -1.28861        -1.28861         25.5466         25.5466
            2383     1.52054E+03     1.52054E+03        -2.17281        -2.17281         25.5044         25.5044
            2384     1.52202E+03     1.52202E+03        -3.13904        -3.13904         25.2826         25.2826
            2385     1.52370E+03     1.52370E+03        -4.22975        -4.22975         24.8706         24.8706
            2386     1.52561E+03     1.52561E+03        -5.48189        -5.48189         24.2465         24.2465
            2387     1.52777E+03     1.52777E+03        -6.92403        -6.92403         23.3773         23.3773
            2388     1.53021E+03     1.53021E+03        -8.57085        -8.57085         22.2183         22.2183
            2389     1.53295E+03     1.53295E+03        -10.4165        -10.4165         20.7136         20.7136
            2390     1.53598E+03     1.53598E+03        -12.4251        -12.4251         18.7979         18.7979
            2391     1.53931E+03     1.53931E+03        -14.5204        -14.5204         16.4007         16.4007
            2392     1.54288E+03     1.54288E+03        -16.5725        -16.5725         13.4537         13.4537
            2393     1.54662E+03     1.54662E+03        -18.3902        -18.3902         9.90530         9.90530
            2394     1.55037E+03     1.55037E+03        -19.7105        -19.7105         5.73767         5.73767
            2395     1.55392E+03     1.55392E+03        -20.2053        -20.2053     999.010E-03     999.010E-03
            2396     1.55700E+03     1.55700E+03        -19.4991        -19.4991        -4.16506        -4.16506
            2397     1.55929E+03     1.55929E+03        -17.2158        -17.2158        -9.46744        -9.46744
            2398     1.49594E+03     1.49594E+03         405.693         405.693        -224.769        -224.769
            2399     1.51846E+03     1.51846E+03         341.612         341.612        -218.633        -218.633
            2400     1.53731E+03     1.53731E+03         278.493         278.493        -202.122        -202.122
            2401     1.55018E+03     1.55018E+03         221.314         221.314        -178.381        -178.381
            2402     1.55588E+03     1.55588E+03         173.666         173.666        -151.473        -151.473
            2403     1.55656E+03     1.55656E+03         135.474         135.474        -124.526        -124.526
            2404     1.55299E+03     1.55299E+03         105.953         105.953        -99.3489        -99.3489
            2405     1.54755E+03     1.54755E+03         83.3944         83.3944        -77.4855        -77.4855
            2406     1.54131E+03     1.54131E+03         65.8689         65.8689        -58.6803        -58.6803
            2407     1.53508E+03     1.53508E+03         52.3599         52.3599        -42.9381        -42.9381
            2408     1.52934E+03     1.52934E+03         41.6980         41.6980        -29.7983        -29.7983
            2409     1.52428E+03     1.52428E+03         33.3206         33.3206        -18.9444        -18.9444
            2410     1.52001E+03     1.52001E+03         26.6098         26.6098        -10.0076        -10.0076
            2411     1.51653E+03     1.51653E+03         21.2474         21.2474        -2.68823        -2.68823
            2412     1.51380E+03     1.51380E+03         16.9053         16.9053         3.27869         3.27869
            2413     1.51176E+03     1.51176E+03         13.3962         13.3962         8.11983         8.11983
            2414     1.51035E+03     1.51035E+03         10.5371         10.5371         12.0217         12.0217
            2415     1.50949E+03     1.50949E+03         8.21188         8.21188         15.1461         15.1461
            2416     1.50910E+03     1.50910E+03         6.31073         6.31073         17.6238         17.6238
            2417     1.50914E+03     1.50914E+03         4.75656         4.75656         19.5676         19.5676
            2418     1.50952E+03     1.50952E+03         3.47710         3.47710         21.0683         21.0683
            2419     1.51022E+03     1.51022E+03         2.41641         2.41641         22.2024         22.2024
            2420     1.51118E+03     1.51118E+03         1.52143         1.52143         23.0303         23.0303
            2421     1.51237E+03     1.51237E+03     747.100E-03     747.100E-03         23.6005         23.6005
            2422     1.51375E+03     1.51375E+03     49.7303E-03     49.7303E-03         23.9488         23.9488
            2423     1.51531E+03     1.51531E+03    -610.559E-03    -610.559E-03         24.1005         24.1005
            2424     1.51703E+03     1.51703E+03        -1.27301        -1.27301         24.0698         24.0698
            2425     1.51891E+03     1.51891E+03        -1.97455        -1.97455         23.8611         23.8611
            2426     1.52093E+03     1.52093E+03        -2.75068        -2.75068         23.4682         23.4682
            2427     1.52309E+03     1.52309E+03        -3.63338        -3.63338         22.8756         22.8756
            2428     1.52541E+03     1.52541E+03        -4.64970        -4.64970         22.0579         22.0579
            2429     1.52788E+03     1.52788E+03        -5.81801        -5.81801         20.9807         20.9807
            2430     1.53051E+03     1.53051E+03        -7.14400        -7.14400         19.6013         19.6013
            2431     1.53330E+03     1.53330E+03        -8.61412        -8.61412         17.8716         17.8716
            2432     1.53623E+03     1.53623E+03        -10.1890        -10.1890         15.7407         15.7407
            2433     1.53927E+03     1.53927E+03        -11.7943        -11.7943         13.1616         13.1616
            2434     1.54236E+03     1.54236E+03        -13.3145        -13.3145         10.1005         10.1005
            2435     1.54540E+03     1.54540E+03        -14.5852        -14.5852         6.54859         6.54859
            2436     1.54828E+03     1.54828E+03        -15.3949        -15.3949         2.54143         2.54143
            2437     1.55080E+03     1.55080E+03        -15.4921        -15.4921        -1.82210        -1.82210
            2438     1.55277E+03     1.55277E+03        -14.6098        -14.6098        -6.35423        -6.35423
            2439     1.55399E+03     1.55399E+03        -12.5087        -12.5087        -10.7615        -10.7615
            2440     1.52038E+03     1.52038E+03         401.943         401.943        -249.729        -249.729
            2441     1.54571E+03     1.54571E+03         326.306         326.306        -240.933        -240.933
            2442     1.56374E+03     1.56374E+03         253.286         253.286        -216.312        -216.312
            2443     1.57153E+03     1.57153E+03         191.633         191.633        -184.652        -184.652
            2444     1.57164E+03     1.57164E+03         143.018         143.018        -150.816        -150.816
            2445     1.56456E+03     1.56456E+03         107.505         107.505        -118.837        -118.837
            2446     1.55498E+03     1.55498E+03         82.0019         82.0019        -91.9514        -91.9514
            2447     1.54480E+03     1.54480E+03         63.0002         63.0002        -69.3762        -69.3762
            2448     1.53514E+03     1.53514E+03         49.0563         49.0563        -50.9954        -50.9954
            2449     1.52663E+03     1.52663E+03         38.3817         38.3817        -36.0005        -36.0005
            2450     1.51940E+03     1.51940E+03         30.2781         30.2781        -23.8543        -23.8543
            2451     1.51353E+03     1.51353E+03         23.9274         23.9274        -14.0248        -14.0248
            2452     1.50889E+03     1.50889E+03         18.9682         18.9682        -6.08178        -6.08178
            2453     1.50540E+03     1.50540E+03         15.0129         15.0129     314.290E-03     314.290E-03
            2454     1.50291E+03     1.50291E+03         11.8636         11.8636         5.45578         5.45578
            2455     1.50131E+03     1.50131E+03         9.32333         9.32333         9.56385         9.56385
            2456     1.50046E+03     1.50046E+03         7.27726         7.27726         12.8320         12.8320
            2457     1.50025E+03     1.50025E+03         5.61657         5.61657         15.4075         15.4075
            2458     1.50058E+03     1.50058E+03         4.26979         4.26979         17.4189         17.4189
            2459     1.50137E+03     1.50137E+03         3.17056         3.17056         18.9654         18.9654
            2460     1.50254E+03     1.50254E+03         2.27038         2.27038         20.1316         20.1316
            2461     1.50403E+03     1.50403E+03         1.52381         1.52381         20.9830         20.9830
            2462     1.50577E+03     1.50577E+03     894.138E-03     894.138E-03         21.5732         21.5732
            2463     1.50773E+03     1.50773E+03     346.092E-03     346.092E-03         21.9421         21.9421
            2464     1.50987E+03     1.50987E+03    -151.453E-03    -151.453E-03         22.1190         22.1190
            2465     1.51215E+03     1.51215E+03    -629.093E-03    -629.093E-03         22.1222         22.1222
            2466     1.51456E+03     1.51456E+03        -1.11533        -1.11533         21.9605         21.9605
            2467     1.51707E+03     1.51707E+03        -1.63805        -1.63805         21.6327         21.6327
            2468     1.51966E+03     1.51966E+03        -2.22298        -2.22298         21.1289         21.1289
            2469     1.52233E+03     1.52233E+03        -2.89344        -2.89344         20.4299         20.4299
            2470     1.52506E+03     1.52506E+03        -3.66786        -3.66786         19.5089         19.5089
            2471     1.52784E+03     1.52784E+03        -4.55763        -4.55763         18.3322         18.3322
            2472     1.53065E+03     1.53065E+03        -5.56289        -5.56289         16.8611         16.8611
            2473     1.53348E+03     1.53348E+03        -6.66837        -6.66837         15.0553         15.0553
            2474     1.53629E+03     1.53629E+03        -7.83731        -7.83731         12.8774         12.8774
            2475     1.53904E+03     1.53904E+03        -9.00665        -9.00665         10.2999         10.2999
            2476     1.54166E+03     1.54166E+03        -10.0812        -10.0812         7.31369         7.31369
            2477     1.54406E+03     1.54406E+03        -10.9325        -10.9325         3.94106         3.94106
            2478     1.54614E+03     1.54614E+03        -11.4005        -11.4005     247.838E-03     247.838E-03
            2479     1.54777E+03     1.54777E+03        -11.3045        -11.3045        -3.64037        -3.64037
            2480     1.54881E+03     1.54881E+03        -10.4645        -10.4645        -7.52751        -7.52751
            2481     1.54915E+03     1.54915E+03        -8.73386        -8.73386        -11.1402        -11.1402
            2482     1.55947E+03     1.55947E+03         394.969         394.969        -279.321        -279.321
            2483     1.58470E+03     1.58470E+03         302.320         302.320        -261.439        -261.439
            2484     1.59760E+03     1.59760E+03         218.303         218.303        -226.393        -226.393
            2485     1.59801E+03     1.59801E+03         151.652         151.652        -182.443        -182.443
            2486     1.58447E+03     1.58447E+03         106.946         106.946        -139.785        -139.785
            2487     1.56754E+03     1.56754E+03         77.9948         77.9948        -106.025        -106.025
            2488     1.55094E+03     1.55094E+03         57.5380         57.5380        -78.8243        -78.8243
            2489     1.53597E+03     1.53597E+03         43.5631         43.5631        -57.5620        -57.5620
            2490     1.52343E+03     1.52343E+03         33.2586         33.2586        -40.8041        -40.8041
            2491     1.51317E+03     1.51317E+03         25.7889         25.7889        -27.5800        -27.5800
            2492     1.50514E+03     1.50514E+03         20.0923         20.0923        -17.1346        -17.1346
            2493     1.49901E+03     1.49901E+03         15.7723         15.7723        -8.83719        -8.83719
            2494     1.49457E+03     1.49457E+03         12.3924         12.3924        -2.26546        -2.26546
            2495     1.49155E+03     1.49155E+03         9.74995         9.74995         2.95677         2.95677
            2496     1.48974E+03     1.48974E+03         7.64569         7.64569         7.08215         7.08215
            2497     1.48893E+03     1.48893E+03         5.96975         5.96975         10.3379         10.3379
            2498     1.48895E+03     1.48895E+03         4.62097         4.62097         12.8833         12.8833
            2499     1.48967E+03     1.48967E+03         3.53569         3.53569         14.8600         14.8600
            2500     1.49095E+03     1.49095E+03         2.65658         2.65658         16.3716         16.3716
            2501     1.49269E+03     1.49269E+03         1.94344         1.94344         17.5082         17.5082
            2502     1.49480E+03     1.49480E+03         1.35967         1.35967         18.3373         18.3373
            2503     1.49722E+03     1.49722E+03     876.925E-03     876.925E-03         18.9156         18.9156
            2504     1.49987E+03     1.49987E+03     468.532E-03     468.532E-03         19.2848         19.2848
            2505     1.50271E+03     1.50271E+03     111.793E-03     111.793E-03         19.4774         19.4774
            2506     1.50569E+03     1.50569E+03    -215.436E-03    -215.436E-03         19.5145         19.5145
            2507     1.50877E+03     1.50877E+03    -533.398E-03    -533.398E-03         19.4090         19.4090
            2508     1.51193E+03     1.51193E+03    -862.139E-03    -862.139E-03         19.1643         19.1643
            2509     1.51513E+03     1.51513E+03        -1.22038        -1.22038         18.7758         18.7758
            2510     1.51834E+03     1.51834E+03        -1.62596        -1.62596         18.2304         18.2304
            2511     1.52155E+03     1.52155E+03        -2.09427        -2.09427         17.5082         17.5082
            2512     1.52473E+03     1.52473E+03        -2.63745        -2.63745         16.5825         16.5825
            2513     1.52784E+03     1.52784E+03        -3.26179        -3.26179         15.4218         15.4218
            2514     1.53087E+03     1.53087E+03        -3.96550        -3.96550         13.9920         13.9920
            2515     1.53376E+03     1.53376E+03        -4.73486        -4.73486         12.2603         12.2603
            2516     1.53648E+03     1.53648E+03        -5.54096        -5.54096         10.1999         10.1999
            2517     1.53896E+03     1.53896E+03        -6.33547        -6.33547         7.79656         7.79656
            2518     1.54115E+03     1.54115E+03        -7.04859        -7.04859         5.05760         5.05760
            2519     1.54297E+03     1.54297E+03        -7.58789        -7.58789         2.02090         2.02090
            2520     1.54433E+03     1.54433E+03        -7.84227        -7.84227        -1.23390        -1.23390
            2521     1.54514E+03     1.54514E+03        -7.69073        -7.69073        -4.57725        -4.57725
            2522     1.54534E+03     1.54534E+03        -7.01855        -7.01855        -7.82404        -7.82404
            2523     1.54488E+03     1.54488E+03        -5.74048        -5.74048        -10.7351        -10.7351
            2524     1.61664E+03     1.61664E+03         382.896         382.896        -309.193        -309.193
            2525     1.64244E+03     1.64244E+03         264.248         264.248        -281.618        -281.618
            2526     1.64613E+03     1.64613E+03         162.873         162.873        -222.038        -222.038
            2527     1.61910E+03     1.61910E+03         102.439         102.439        -160.688        -160.688
            2528     1.58792E+03     1.58792E+03         70.1288         70.1288        -117.199        -117.199
            2529     1.56044E+03     1.56044E+03         48.6716         48.6716        -84.6908        -84.6908
            2530     1.53719E+03     1.53719E+03         35.4953         35.4953        -60.6797        -60.6797
            2531     1.51886E+03     1.51886E+03         26.2096         26.2096        -42.7235        -42.7235
            2532     1.50452E+03     1.50452E+03         19.8714         19.8714        -29.0098        -29.0098
            2533     1.49375E+03     1.49375E+03         15.2026         15.2026        -18.5382        -18.5382
            2534     1.48585E+03     1.48585E+03         11.7827         11.7827        -10.3880        -10.3880
            2535     1.48037E+03     1.48037E+03         9.17425         9.17425        -4.07265        -4.07265
            2536     1.47683E+03     1.47683E+03         7.17548         7.17548     879.072E-03     879.072E-03
            2537     1.47488E+03     1.47488E+03         5.61118         5.61118         4.73434         4.73434
            2538     1.47423E+03     1.47423E+03         4.37951         4.37951         7.74891         7.74891
            2539     1.47463E+03     1.47463E+03         3.39912         3.39912         10.0821         10.0821
            2540     1.47588E+03     1.47588E+03         2.61561         2.61561         11.8818         11.8818
            2541     1.47780E+03     1.47780E+03         1.98572         1.98572         13.2480         13.2480
            2542     1.48027E+03     1.48027E+03         1.47802         1.47802         14.2707         14.2707
            2543     1.48317E+03     1.48317E+03         1.06634         1.06634         15.0140         15.0140
            2544     1.48640E+03     1.48640E+03     730.423E-03     730.423E-03         15.5335         15.5335
            2545     1.48989E+03     1.48989E+03     452.195E-03     452.195E-03         15.8694         15.8694
            2546     1.49357E+03     1.49357E+03     216.644E-03     216.644E-03         16.0543         16.0543
            2547     1.49739E+03     1.49739E+03     9.45640E-03     9.45640E-03         16.1103         16.1103
            2548     1.50130E+03     1.50130E+03    -182.138E-03    -182.138E-03         16.0527         16.0527
            2549     1.50527E+03     1.50527E+03    -370.837E-03    -370.837E-03         15.8882         15.8882
            2550     1.50924E+03     1.50924E+03    -568.475E-03    -568.475E-03         15.6172         15.6172
            2551     1.51320E+03     1.51320E+03    -786.735E-03    -786.735E-03         15.2324         15.2324
            2552     1.51710E+03     1.51710E+03        -1.03623        -1.03623         14.7207         14.7207
            2553     1.52092E+03     1.52092E+03        -1.32643        -1.32643         14.0625         14.0625
            2554     1.52460E+03     1.52460E+03        -1.66429        -1.66429         13.2337         13.2337
            2555     1.52811E+03     1.52811E+03        -2.05326        -2.05326         12.2065         12.2065
            2556     1.53140E+03     1.53140E+03        -2.49117        -2.49117         10.9521         10.9521
            2557     1.53442E+03     1.53442E+03        -2.96845        -2.96845         9.44426         9.44426
            2558     1.53711E+03     1.53711E+03        -3.46540        -3.46540         7.66361         7.66361
            2559     1.53940E+03     1.53940E+03        -3.95050        -3.95050         5.60394         5.60394
            2560     1.54122E+03     1.54122E+03        -4.37848        -4.37848         3.27901         3.27901
            2561     1.54250E+03     1.54250E+03        -4.69102        -4.69102     730.667E-03     730.667E-03
            2562     1.54319E+03     1.54319E+03        -4.81920        -4.81920        -1.96419        -1.96419
            2563     1.54322E+03     1.54322E+03        -4.68996        -4.68996        -4.68782        -4.68782
            2564     1.54258E+03     1.54258E+03        -4.23663        -4.23663        -7.28101        -7.28101
            2565     1.54129E+03     1.54129E+03        -3.41264        -3.41264        -9.54672        -9.54672
            2566     1.73126E+03     1.73126E+03         352.767         352.767        -352.476        -352.476
            2567     1.74124E+03     1.74124E+03         182.375         182.375        -272.056        -272.056
            2568     1.68062E+03     1.68062E+03         90.1680         90.1680        -176.076        -176.076
            2569     1.61908E+03     1.61908E+03         56.6183         56.6183        -119.060        -119.060
            2570     1.57280E+03     1.57280E+03         35.7796         35.7796        -82.2813        -82.2813
            2571     1.53692E+03     1.53692E+03         24.8036         24.8036        -56.9144        -56.9144
            2572     1.51066E+03     1.51066E+03         17.5436         17.5436        -39.4498        -39.4498
            2573     1.49124E+03     1.49124E+03         12.9025         12.9025        -26.5773        -26.5773
            2574     1.47736E+03     1.47736E+03         9.67037         9.67037        -17.2080        -17.2080
            2575     1.46765E+03     1.46765E+03         7.36699         7.36699        -10.0692        -10.0692
            2576     1.46126E+03     1.46126E+03         5.68590         5.68590        -4.69515        -4.69515
            2577     1.45743E+03     1.45743E+03         4.41194         4.41194    -539.115E-03    -539.115E-03
            2578     1.45563E+03     1.45563E+03         3.44517         3.44517         2.63841         2.63841
            2579     1.45542E+03     1.45542E+03         2.68703         2.68703         5.09956         5.09956
            2580     1.45648E+03     1.45648E+03         2.09505         2.09505         6.98135         6.98135
            2581     1.45853E+03     1.45853E+03         1.62241         1.62241         8.42260         8.42260
            2582     1.46135E+03     1.46135E+03         1.24658         1.24658         9.50700         9.50700
            2583     1.46478E+03     1.46478E+03     943.850E-03     943.850E-03         10.3142         10.3142
            2584     1.46868E+03     1.46868E+03     700.295E-03     700.295E-03         10.8972         10.8972
            2585     1.47293E+03     1.47293E+03     502.612E-03     502.612E-03         11.3039         11.3039
            2586     1.47745E+03     1.47745E+03     341.099E-03     341.099E-03         11.5677         11.5677
            2587     1.48215E+03     1.48215E+03     207.097E-03     207.097E-03         11.7172         11.7172
            2588     1.48698E+03     1.48698E+03     93.0293E-03     93.0293E-03         11.7718         11.7718
            2589     1.49188E+03     1.49188E+03    -7.82746E-03    -7.82746E-03         11.7464         11.7464
            2590     1.49682E+03     1.49682E+03    -102.073E-03    -102.073E-03         11.6491         11.6491
            2591     1.50174E+03     1.50174E+03    -195.737E-03    -195.737E-03         11.4833         11.4833
            2592     1.50662E+03     1.50662E+03    -294.968E-03    -294.968E-03         11.2469         11.2469
            2593     1.51141E+03     1.51141E+03    -405.413E-03    -405.413E-03         10.9330         10.9330
            2594     1.51608E+03     1.51608E+03    -532.567E-03    -532.567E-03         10.5300         10.5300
            2595     1.52058E+03     1.52058E+03    -681.011E-03    -681.011E-03         10.0218         10.0218
            2596     1.52485E+03     1.52485E+03    -854.289E-03    -854.289E-03         9.38902         9.38902
            2597     1.52885E+03     1.52885E+03        -1.05385        -1.05385         8.60991         8.60991
            2598     1.53251E+03     1.53251E+03        -1.27842        -1.27842         7.66231         7.66231
            2599     1.53576E+03     1.53576E+03        -1.52259        -1.52259         6.52643         6.52643
            2600     1.53852E+03     1.53852E+03        -1.77594        -1.77594         5.18858         5.18858
            2601     1.54070E+03     1.54070E+03        -2.02160        -2.02160         3.64564         3.64564
            2602     1.54224E+03     1.54224E+03        -2.23602        -2.23602         1.91070         1.91070
            2603     1.54306E+03     1.54306E+03        -2.38884        -2.38884     18.3664E-03     18.3664E-03
            2604     1.54310E+03     1.54310E+03        -2.44484        -2.44484        -1.96991        -1.96991
            2605     1.54234E+03     1.54234E+03        -2.36733        -2.36733        -3.96303        -3.96303
            2606     1.54079E+03     1.54079E+03        -2.12351        -2.12351        -5.84045        -5.84045
            2607     1.53852E+03     1.53852E+03        -1.69143        -1.69143        -7.45552        -7.45552
            2608     1.95084E+03     1.95084E+03         239.207         239.207        -309.248        -309.248
            2609     1.78717E+03     1.78717E+03         67.5719         67.5719        -167.243        -167.243
            2610     1.65904E+03     1.65904E+03         36.1617         36.1617        -95.8919        -95.8919
            2611     1.58189E+03     1.58189E+03         20.2891         20.2891        -62.7333        -62.7333
            2612     1.52888E+03     1.52888E+03         12.7520         12.7520        -40.8692        -40.8692
            2613     1.49333E+03     1.49333E+03         8.74097         8.74097        -27.8441        -27.8441
            2614     1.46881E+03     1.46881E+03         6.04343         6.04343        -18.4370        -18.4370
            2615     1.45230E+03     1.45230E+03         4.50513         4.50513        -12.0786        -12.0786
            2616     1.44146E+03     1.44146E+03         3.30880         3.30880        -7.29695        -7.29695
            2617     1.43486E+03     1.43486E+03         2.56250         2.56250        -3.83940        -3.83940
            2618     1.43142E+03     1.43142E+03         1.95142         1.95142        -1.18999        -1.18999
            2619     1.43039E+03     1.43039E+03         1.53536         1.53536     790.119E-03     790.119E-03
            2620     1.43121E+03     1.43121E+03         1.19062         1.19062         2.31415         2.31415
            2621     1.43343E+03     1.43343E+03     938.869E-03     938.869E-03         3.46414         3.46414
            2622     1.43673E+03     1.43673E+03     730.694E-03     730.694E-03         4.34133         4.34133
            2623     1.44086E+03     1.44086E+03     571.099E-03     571.099E-03         4.99623         4.99623
            2624     1.44561E+03     1.44561E+03     439.861E-03     439.861E-03         5.48277         5.48277
            2625     1.45083E+03     1.45083E+03     336.110E-03     336.110E-03         5.83295         5.83295
            2626     1.45638E+03     1.45638E+03     251.113E-03     251.113E-03         6.07793         6.07793
            2627     1.46217E+03     1.46217E+03     182.403E-03     182.403E-03         6.23811         6.23811
            2628     1.46811E+03     1.46811E+03     125.727E-03     125.727E-03         6.33204         6.33204
            2629     1.47415E+03     1.47415E+03     78.4356E-03     78.4356E-03         6.37215         6.37215
            2630     1.48023E+03     1.48023E+03     37.9436E-03     37.9436E-03         6.36875         6.36875
            2631     1.48631E+03     1.48631E+03     1.74501E-03     1.74501E-03         6.32805         6.32805
            2632     1.49235E+03     1.49235E+03    -32.2092E-03    -32.2092E-03         6.25401         6.25401
            2633     1.49832E+03     1.49832E+03    -66.2819E-03    -66.2819E-03         6.14731         6.14731
            2634     1.50417E+03     1.50417E+03    -102.394E-03    -102.394E-03         6.00623         6.00623
            2635     1.50988E+03     1.50988E+03    -142.742E-03    -142.742E-03         5.82615         5.82615
            2636     1.51540E+03     1.51540E+03    -189.089E-03    -189.089E-03         5.60007         5.60007
            2637     1.52068E+03     1.52068E+03    -243.192E-03    -243.192E-03         5.31855         5.31855
            2638     1.52567E+03     1.52567E+03    -306.161E-03    -306.161E-03         4.97029         4.97029
            2639     1.53028E+03     1.53028E+03    -378.575E-03    -378.575E-03         4.54272         4.54272
            2640     1.53444E+03     1.53444E+03    -459.811E-03    -459.811E-03         4.02311         4.02311
            2641     1.53806E+03     1.53806E+03    -547.938E-03    -547.938E-03         3.40016         3.40016
            2642     1.54103E+03     1.54103E+03    -638.990E-03    -638.990E-03         2.66597         2.66597
            2643     1.54326E+03     1.54326E+03    -726.896E-03    -726.896E-03         1.81888         1.81888
            2644     1.54463E+03     1.54463E+03    -802.925E-03    -802.925E-03     866.228E-03     866.228E-03
            2645     1.54506E+03     1.54506E+03    -856.194E-03    -856.194E-03    -172.267E-03    -172.267E-03
            2646     1.54449E+03     1.54449E+03    -873.886E-03    -873.886E-03        -1.26201        -1.26201
            2647     1.54288E+03     1.54288E+03    -843.033E-03    -843.033E-03        -2.35196        -2.35196
            2648     1.54028E+03     1.54028E+03    -752.237E-03    -752.237E-03        -3.37508        -3.37508
            2649     1.53679E+03     1.53679E+03    -593.768E-03    -593.768E-03        -4.24939        -4.24939
            2650     1.60833E+03     1.60833E+03        -50.1438        -50.1438         2.78591         2.78591
            2651     1.59817E+03     1.59817E+03        -34.8637        -34.8637         12.6563         12.6563
            2652     1.58718E+03     1.58718E+03        -23.2161        -23.2161         17.4991         17.4991
            2653     1.57696E+03     1.57696E+03        -14.8879        -14.8879         19.3594         19.3594
            2654     1.56795E+03     1.56795E+03        -9.18060        -9.18060         19.5626         19.5626
            2655     1.56011E+03     1.56011E+03        -5.40277        -5.40277         18.8886         18.8886
            2656     1.55326E+03     1.55326E+03        -2.99276        -2.99276         17.7393         17.7393
            2657     1.54717E+03     1.54717E+03        -1.52547        -1.52547         16.2745         16.2745
            2658     1.54163E+03     1.54163E+03    -688.657E-03    -688.657E-03         14.4876         14.4876
            2659     1.53644E+03     1.53644E+03    -254.838E-03    -254.838E-03         12.2417         12.2417
            2660     1.53148E+03     1.53148E+03    -60.9330E-03    -60.9330E-03         9.27426         9.27426
            2661     1.52662E+03     1.52662E+03     747.578E-06     747.578E-06         5.20521         5.20521
            2662     1.61971E+03     1.61971E+03        -29.8720        -29.8720         23.6617         23.6617
            2663     1.60261E+03     1.60261E+03        -14.5715        -14.5715         27.5793         27.5793
            2664     1.58796E+03     1.58796E+03        -5.05457        -5.05457         27.4723         27.4723
            2665     1.57595E+03     1.57595E+03     404.504E-03     404.504E-03         25.6760         25.6760
            2666     1.56615E+03     1.56615E+03         3.19889         3.19889         23.3307         23.3307
            2667     1.55802E+03     1.55802E+03         4.30456         4.30456         20.9344         20.9344
            2668     1.55105E+03     1.55105E+03         4.36996         4.36996         18.6517         18.6517
            2669     1.54482E+03     1.54482E+03         3.82301         3.82301         16.4704         16.4704
            2670     1.53898E+03     1.53898E+03         2.95616         2.95616         14.2700         14.2700
            2671     1.53321E+03     1.53321E+03         1.98434         1.98434         11.8406         11.8406
            2672     1.52721E+03     1.52721E+03         1.08311         1.08311         8.87304         8.87304
            2673     1.52066E+03     1.52066E+03     414.100E-03     414.100E-03         4.95359         4.95359
            2674     1.62137E+03     1.62137E+03         7.30087         7.30087         41.4029         41.4029
            2675     1.59985E+03     1.59985E+03         16.0673         16.0673         37.1811         37.1811
            2676     1.58382E+03     1.58382E+03         19.0773         19.0773         31.9257         31.9257
            2677     1.57175E+03     1.57175E+03         18.9890         18.9890         27.0185         27.0185
            2678     1.56235E+03     1.56235E+03         17.3049         17.3049         22.8600         22.8600
            2679     1.55470E+03     1.55470E+03         14.8559         14.8559         19.4431         19.4431
            2680     1.54813E+03     1.54813E+03         12.0976         12.0976         16.6307         16.6307
            2681     1.54213E+03     1.54213E+03         9.29371         9.29371         14.2393         14.2393
            2682     1.53628E+03     1.53628E+03         6.61580         6.61580         12.0602         12.0602
            2683     1.53017E+03     1.53017E+03         4.20340         4.20340         9.85064         9.85064
            2684     1.52337E+03     1.52337E+03         2.20688         2.20688         7.30976         7.30976
            2685     1.51537E+03     1.51537E+03     818.509E-03     818.509E-03         4.05985         4.05985
            2686     1.61255E+03     1.61255E+03         56.0427         56.0427         45.6469         45.6469
            2687     1.59129E+03     1.59129E+03         51.0912         51.0912         35.4817         35.4817
            2688     1.57666E+03     1.57666E+03         44.1781         44.1781         27.6065         27.6065
            2689     1.56607E+03     1.56607E+03         37.0488         37.0488         21.7281         21.7281
            2690     1.55791E+03     1.55791E+03         30.3470         30.3470         17.3636         17.3636
            2691     1.55122E+03     1.55122E+03         24.2494         24.2494         14.0999         14.0999
            2692     1.54534E+03     1.54534E+03         18.7804         18.7804         11.6129         11.6129
            2693     1.53977E+03     1.53977E+03         13.9201         13.9201         9.64625         9.64625
            2694     1.53408E+03     1.53408E+03         9.65868         9.65868         7.97999         7.97999
            2695     1.52783E+03     1.52783E+03         6.02647         6.02647         6.40536         6.40536
            2696     1.52051E+03     1.52051E+03         3.12210         3.12210         4.69690         4.69690
            2697     1.51149E+03     1.51149E+03         1.14454         1.14454         2.59077         2.59077
            2698     1.59984E+03     1.59984E+03         99.5892         99.5892         29.0199         29.0199
            2699     1.58218E+03     1.58218E+03         79.1325         79.1325         19.9918         19.9918
            2700     1.57024E+03     1.57024E+03         62.8057         62.8057         14.1094         14.1094
            2701     1.56150E+03     1.56150E+03         49.7507         49.7507         10.1692         10.1692
            2702     1.55464E+03     1.55464E+03         39.1393         39.1393         7.46133         7.46133
            2703     1.54885E+03     1.54885E+03         30.3678         30.3678         5.56954         5.56954
            2704     1.54358E+03     1.54358E+03         23.0083         23.0083         4.22851         4.22851
            2705     1.53839E+03     1.53839E+03         16.7746         16.7746         3.25611         3.25611
            2706     1.53289E+03     1.53289E+03         11.4961         11.4961         2.51986         2.51986
            2707     1.52664E+03     1.52664E+03         7.10925         7.10925         1.91253         1.91253
            2708     1.51910E+03     1.51910E+03         3.66259         3.66259         1.33979         1.33979
            2709     1.50959E+03     1.50959E+03         1.33967         1.33967     713.403E-03     713.403E-03
            2710     1.59477E+03     1.59477E+03         114.523         114.523        -4.97061        -4.97061
            2711     1.57924E+03     1.57924E+03         87.3992         87.3992        -5.36315        -5.36315
            2712     1.56848E+03     1.56848E+03         67.6999         67.6999        -5.36104        -5.36104
            2713     1.56046E+03     1.56046E+03         52.7402         52.7402        -5.21699        -5.21699
            2714     1.55405E+03     1.55405E+03         40.9870         40.9870        -4.99521        -4.99521
            2715     1.54857E+03     1.54857E+03         31.5018         31.5018        -4.72353        -4.72353
            2716     1.54351E+03     1.54351E+03         23.6844         23.6844        -4.40730        -4.40730
            2717     1.53848E+03     1.53848E+03         17.1535         17.1535        -4.03857        -4.03857
            2718     1.53309E+03     1.53309E+03         11.6852         11.6852        -3.59725        -3.59725
            2719     1.52691E+03     1.52691E+03         7.18438         7.18438        -3.04590        -3.04590
            2720     1.51944E+03     1.51944E+03         3.68050         3.68050        -2.32073        -2.32073
            2721     1.51002E+03     1.51002E+03         1.33956         1.33956        -1.31773        -1.31773
            2722     1.60316E+03     1.60316E+03         88.1664         88.1664        -37.9779        -37.9779
            2723     1.58514E+03     1.58514E+03         70.0848         70.0848        -29.8222        -29.8222
            2724     1.57280E+03     1.57280E+03         55.8127         55.8127        -24.1912        -24.1912
            2725     1.56373E+03     1.56373E+03         44.3370         44.3370        -20.1248        -20.1248
            2726     1.55662E+03     1.55662E+03         34.9438         34.9438        -17.0828        -17.0828
            2727     1.55067E+03     1.55067E+03         27.1254         27.1254        -14.7168        -14.7168
            2728     1.54533E+03     1.54533E+03         20.5304         20.5304        -12.7840        -12.7840
            2729     1.54015E+03     1.54015E+03         14.9283         14.9283        -11.0965        -11.0965
            2730     1.53474E+03     1.53474E+03         10.1859         10.1859        -9.48886        -9.48886
            2731     1.52871E+03     1.52871E+03         6.25997         6.25997        -7.78905        -7.78905
            2732     1.52158E+03     1.52158E+03         3.20106         3.20106        -5.78740        -5.78740
            2733     1.51280E+03     1.51280E+03         1.16262         1.16262        -3.21867        -3.21867
            2734     1.61626E+03     1.61626E+03         34.9718         34.9718        -48.6681        -48.6681
            2735     1.59525E+03     1.59525E+03         34.6037         34.6037        -41.0894        -41.0894
            2736     1.58050E+03     1.58050E+03         31.3289         31.3289        -34.6502        -34.6502
            2737     1.56966E+03     1.56966E+03         27.0808         27.0808        -29.4685        -29.4685
            2738     1.56128E+03     1.56128E+03         22.6305         22.6305        -25.3218        -25.3218
            2739     1.55444E+03     1.55444E+03         18.3137         18.3137        -21.9527        -21.9527
            2740     1.54852E+03     1.54852E+03         14.2803         14.2803        -19.1182        -19.1182
            2741     1.54304E+03     1.54304E+03         10.6048         10.6048        -16.5969        -16.5969
            2742     1.53759E+03     1.53759E+03         7.34204         7.34204        -14.1694        -14.1694
            2743     1.53181E+03     1.53181E+03         4.55791         4.55791        -11.5941        -11.5941
            2744     1.52529E+03     1.52529E+03         2.34988         2.34988        -8.57391        -8.57391
            2745     1.51761E+03     1.51761E+03     861.105E-03     861.105E-03        -4.74375        -4.74375
            2746     1.61974E+03     1.61974E+03        -15.1539        -15.1539        -34.8569        -34.8569
            2747     1.60116E+03     1.60116E+03        -2.84631        -2.84631        -35.6226        -35.6226
            2748     1.58648E+03     1.58648E+03         3.70075         3.70075        -33.6034        -33.6034
            2749     1.57501E+03     1.57501E+03         6.71450         6.71450        -30.7265        -30.7265
            2750     1.56592E+03     1.56592E+03         7.64494         7.64494        -27.7486        -27.7486
            2751     1.55849E+03     1.55849E+03         7.36399         7.36399        -24.9076        -24.9076
            2752     1.55215E+03     1.55215E+03         6.40749         6.40749        -22.2283        -22.2283
            2753     1.54649E+03     1.54649E+03         5.11522         5.11522        -19.6234        -19.6234
            2754     1.54113E+03     1.54113E+03         3.71670         3.71670        -16.9362        -16.9362
            2755     1.53577E+03     1.53577E+03         2.38254         2.38254        -13.9418        -13.9418
            2756     1.53012E+03     1.53012E+03         1.25513         1.25513        -10.3332        -10.3332
            2757     1.52390E+03     1.52390E+03     467.271E-03     467.271E-03        -5.71666        -5.71666
            2758     1.60903E+03     1.60903E+03        -44.1509        -44.1509        -11.2595        -11.2595
            2759     1.59797E+03     1.59797E+03        -29.1582        -29.1582        -20.1275        -20.1275
            2760     1.58686E+03     1.58686E+03        -18.2930        -18.2930        -24.0494        -24.0494
            2761     1.57698E+03     1.57698E+03        -10.9034        -10.9034        -25.1808        -25.1808
            2762     1.56854E+03     1.56854E+03        -6.09805        -6.09805        -24.8120        -24.8120
            2763     1.56136E+03     1.56136E+03        -3.10384        -3.10384        -23.6398        -23.6398
            2764     1.55517E+03     1.55517E+03        -1.34474        -1.34474        -21.9935        -21.9935
            2765     1.54970E+03     1.54970E+03    -402.813E-03    -402.813E-03        -19.9878        -19.9878
            2766     1.54472E+03     1.54472E+03     22.1215E-03     22.1215E-03        -17.5913        -17.5913
            2767     1.54004E+03     1.54004E+03     146.371E-03     146.371E-03        -14.6591        -14.6591
            2768     1.53548E+03     1.53548E+03     124.880E-03     124.880E-03        -10.9339        -10.9339
            2769     1.53096E+03     1.53096E+03     60.7958E-03     60.7958E-03        -6.06112        -6.06112
            2770     1.43258E+03     1.43258E+03         417.145         417.145         77.5253         77.5253
            2771     1.44695E+03     1.44695E+03         382.930         382.930         77.0653         77.0653
            2772     1.46102E+03     1.46102E+03         348.692         348.692         74.6740         74.6740
            2773     1.47443E+03     1.47443E+03         315.080         315.080         71.1257         71.1257
            2774     1.48692E+03     1.48692E+03         282.544         282.544         66.5486         66.5486
            2775     1.49830E+03     1.49830E+03         251.489         251.489         61.0969         61.0969
            2776     1.50841E+03     1.50841E+03         222.251         222.251         54.9959         54.9959
            2777     1.51718E+03     1.51718E+03         195.065         195.065         48.4708         48.4708
            2778     1.52457E+03     1.52457E+03         170.084         170.084         41.7568         41.7568
            2779     1.53065E+03     1.53065E+03         147.368         147.368         35.0633         35.0633
            2780     1.53546E+03     1.53546E+03         126.909         126.909         28.5648         28.5648
            2781     1.53912E+03     1.53912E+03         108.638         108.638         22.4024         22.4024
            2782     1.54174E+03     1.54174E+03         92.4474         92.4474         16.6684         16.6684
            2783     1.54345E+03     1.54345E+03         78.2037         78.2037         11.4281         11.4281
            2784     1.54436E+03     1.54436E+03         65.7547         65.7547         6.70506         6.70506
            2785     1.54460E+03     1.54460E+03         54.9459         54.9459         2.50640         2.50640
            2786     1.54425E+03     1.54425E+03         45.6181         45.6181        -1.18794        -1.18794
            2787     1.54343E+03     1.54343E+03         37.6205         37.6205        -4.40585        -4.40585
            2788     1.54220E+03     1.54220E+03         30.8047         30.8047        -7.18972        -7.18972
            2789     1.54065E+03     1.54065E+03         25.0334         25.0334        -9.58392        -9.58392
            2790     1.53882E+03     1.53882E+03         20.1753         20.1753        -11.6392        -11.6392
            2791     1.53678E+03     1.53678E+03         16.1097         16.1097        -13.4052        -13.4052
            2792     1.53456E+03     1.53456E+03         12.7221         12.7221        -14.9338        -14.9338
            2793     1.53221E+03     1.53221E+03         9.90715         9.90715        -16.2752        -16.2752
            2794     1.52976E+03     1.52976E+03         7.56494         7.56494        -17.4801        -17.4801
            2795     1.52722E+03     1.52722E+03         5.60215         5.60215        -18.5988        -18.5988
            2796     1.52464E+03     1.52464E+03         3.92939         3.92939        -19.6827        -19.6827
            2797     1.52202E+03     1.52202E+03         2.46104         2.46104        -20.7843        -20.7843
            2798     1.51940E+03     1.51940E+03         1.11274         1.11274        -21.9598        -21.9598
            2799     1.51679E+03     1.51679E+03    -199.895E-03    -199.895E-03        -23.2693        -23.2693
            2800     1.51424E+03     1.51424E+03        -1.56434        -1.56434        -24.7796        -24.7796
            2801     1.51179E+03     1.51179E+03        -3.07440        -3.07440        -26.5646        -26.5646
            2802     1.50950E+03     1.50950E+03        -4.83504        -4.83504        -28.7074        -28.7074
            2803     1.50745E+03     1.50745E+03        -6.96927        -6.96927        -31.3003        -31.3003
            2804     1.50580E+03     1.50580E+03        -9.62670        -9.62670        -34.4428        -34.4428
            2805     1.50474E+03     1.50474E+03        -12.9974        -12.9974        -38.2356        -38.2356
            2806     1.50459E+03     1.50459E+03        -17.3252        -17.3252        -42.7646        -42.7646
            2807     1.50583E+03     1.50583E+03        -22.9300        -22.9300        -48.0659        -48.0659
            2808     1.50919E+03     1.50919E+03        -30.2098        -30.2098        -54.0527        -54.0527
            2809     1.51576E+03     1.51576E+03        -39.6306        -39.6306        -60.3655        -60.3655
            2810     1.52697E+03     1.52697E+03        -51.5096        -51.5096        -66.0865        -66.0865
            2811     1.54451E+03     1.54451E+03        -65.6066        -65.6066        -69.4084        -69.4084
            2812     1.43025E+03     1.43025E+03         417.788         417.788         59.5628         59.5628
            2813     1.44416E+03     1.44416E+03         384.851         384.851         59.1918         59.1918
            2814     1.45780E+03     1.45780E+03         351.921         351.921         57.3836         57.3836
            2815     1.47088E+03     1.47088E+03         319.543         319.543         54.7470         54.7470
            2816     1.48318E+03     1.48318E+03         288.099         288.099         51.3483         51.3483
            2817     1.49453E+03     1.49453E+03         257.934         257.934         47.3110         47.3110
            2818     1.50478E+03     1.50478E+03         229.339         229.339         42.7696         42.7696
            2819     1.51383E+03     1.51383E+03         202.543         202.543         37.8918         37.8918
            2820     1.52164E+03     1.52164E+03         177.702         177.702         32.8364         32.8364
            2821     1.52821E+03     1.52821E+03         154.908         154.908         27.7577         27.7577
            2822     1.53359E+03     1.53359E+03         134.187         134.187         22.7890         22.7890
            2823     1.53782E+03     1.53782E+03         115.516         115.516         18.0359         18.0359
            2824     1.54100E+03     1.54100E+03         98.8285         98.8285         13.5815         13.5815
            2825     1.54323E+03     1.54323E+03         84.0286         84.0286         9.47605         9.47605
            2826     1.54460E+03     1.54460E+03         71.0001         71.0001         5.75265         5.75265
            2827     1.54521E+03     1.54521E+03         59.6111         59.6111         2.41766         2.41766
            2828     1.54517E+03     1.54517E+03         49.7266         49.7266    -532.860E-03    -532.860E-03
            2829     1.54456E+03     1.54456E+03         41.2069         41.2069        -3.12010        -3.12010
            2830     1.54346E+03     1.54346E+03         33.9166         33.9166        -5.36993        -5.36993
            2831     1.54195E+03     1.54195E+03         27.7225         27.7225        -7.31756        -7.31756
            2832     1.54009E+03     1.54009E+03         22.4991         22.4991        -8.99932        -8.99932
            2833     1.53793E+03     1.53793E+03         18.1259         18.1259        -10.4559        -10.4559
            2834     1.53553E+03     1.53553E+03         14.4909         14.4909        -11.7275        -11.7275
            2835     1.53291E+03     1.53291E+03         11.4881         11.4881        -12.8566        -12.8566
            2836     1.53012E+03     1.53012E+03         9.01943         9.01943        -13.8854        -13.8854
            2837     1.52716E+03     1.52716E+03         6.99252         6.99252        -14.8578        -14.8578
            2838     1.52407E+03     1.52407E+03         5.32133         5.32133        -15.8196        -15.8196
            2839     1.52085E+03     1.52085E+03         3.92449         3.92449        -16.8199        -16.8199
            2840     1.51750E+03     1.51750E+03         2.72472         2.72472        -17.9128        -17.9128
            2841     1.51404E+03     1.51404E+03         1.64700         1.64700        -19.1593        -19.1593
            2842     1.51046E+03     1.51046E+03     616.686E-03     616.686E-03        -20.6305        -20.6305
            2843     1.50675E+03     1.50675E+03    -443.521E-03    -443.521E-03        -22.4109        -22.4109
            2844     1.50292E+03     1.50292E+03        -1.61812        -1.61812        -24.6029        -24.6029
            2845     1.49899E+03     1.49899E+03        -3.00513        -3.00513        -27.3327        -27.3327
            2846     1.49498E+03     1.49498E+03        -4.72725        -4.72725        -30.7571        -30.7571
            2847     1.49097E+03     1.49097E+03        -6.94649        -6.94649        -35.0718        -35.0718
            2848     1.48710E+03     1.48710E+03        -9.89214        -9.89214        -40.5192        -40.5192
            2849     1.48365E+03     1.48365E+03        -13.8963        -13.8963        -47.3934        -47.3934
            2850     1.48116E+03     1.48116E+03        -19.4640        -19.4640        -56.0275        -56.0275
            2851     1.48058E+03     1.48058E+03        -27.3523        -27.3523        -66.7397        -66.7397
            2852     1.48370E+03     1.48370E+03        -38.7157        -38.7157        -79.6017        -79.6017
            2853     1.49361E+03     1.49361E+03        -54.9519        -54.9519        -93.9072        -93.9072
            2854     1.42865E+03     1.42865E+03         418.265         418.265         42.1306         42.1306
            2855     1.44222E+03     1.44222E+03         386.230         386.230         41.8166         41.8166
            2856     1.45555E+03     1.45555E+03         354.214         354.214         40.5196         40.5196
            2857     1.46839E+03     1.46839E+03         322.710         322.710         38.6587         38.6587
            2858     1.48054E+03     1.48054E+03         292.046         292.046         36.2918         36.2918
            2859     1.49184E+03     1.49184E+03         262.525         262.525         33.4838         33.4838
            2860     1.50214E+03     1.50214E+03         234.415         234.415         30.3353         30.3353
            2861     1.51136E+03     1.51136E+03         207.928         207.928         26.9455         26.9455
            2862     1.51943E+03     1.51943E+03         183.227         183.227         23.4261         23.4261
            2863     1.52633E+03     1.52633E+03         160.414         160.414         19.8780         19.8780
            2864     1.53207E+03     1.53207E+03         139.541         139.541         16.3924         16.3924
            2865     1.53670E+03     1.53670E+03         120.611         120.611         13.0461         13.0461
            2866     1.54028E+03     1.54028E+03         103.588         103.588         9.89510         9.89510
            2867     1.54287E+03     1.54287E+03         88.4029         88.4029         6.98207         6.98207
            2868     1.54457E+03     1.54457E+03         74.9619         74.9619         4.32829         4.32829
            2869     1.54547E+03     1.54547E+03         63.1563         63.1563         1.94577         1.94577
            2870     1.54566E+03     1.54566E+03         52.8647         52.8647    -169.934E-03    -169.934E-03
            2871     1.54521E+03     1.54521E+03         43.9618         43.9618        -2.02834        -2.02834
            2872     1.54422E+03     1.54422E+03         36.3192         36.3192        -3.64929        -3.64929
            2873     1.54275E+03     1.54275E+03         29.8114         29.8114        -5.05462        -5.05462
            2874     1.54087E+03     1.54087E+03         24.3153         24.3153        -6.27168        -6.27168
            2875     1.53864E+03     1.53864E+03         19.7143         19.7143        -7.32811        -7.32811
            2876     1.53610E+03     1.53610E+03         15.8971         15.8971        -8.25435        -8.25435
            2877     1.53328E+03     1.53328E+03         12.7600         12.7600        -9.08071        -9.08071
            2878     1.53022E+03     1.53022E+03         10.2060         10.2060        -9.83944        -9.83944
            2879     1.52694E+03     1.52694E+03         8.14575         8.14575        -10.5635        -10.5635
            2880     1.52345E+03     1.52345E+03         6.49676         6.49676        -11.2887        -11.2887
            2881     1.51974E+03     1.51974E+03         5.18357         5.18357        -12.0534        -12.0534
            2882     1.51580E+03     1.51580E+03         4.13700         4.13700        -12.9015        -12.9015
            2883     1.51161E+03     1.51161E+03         3.29373         3.29373        -13.8836        -13.8836
            2884     1.50714E+03     1.50714E+03         2.59522         2.59522        -15.0606        -15.0606
            2885     1.50233E+03     1.50233E+03         1.98618         1.98618        -16.5071        -16.5071
            2886     1.49711E+03     1.49711E+03         1.41239         1.41239        -18.3182        -18.3182
            2887     1.49142E+03     1.49142E+03     816.468E-03     816.468E-03        -20.6163        -20.6163
            2888     1.48513E+03     1.48513E+03     132.194E-03     132.194E-03        -23.5643        -23.5643
            2889     1.47813E+03     1.47813E+03    -727.728E-03    -727.728E-03        -27.3815        -27.3815
            2890     1.47028E+03     1.47028E+03        -1.88802        -1.88802        -32.3712        -32.3712
            2891     1.46145E+03     1.46145E+03        -3.54868        -3.54868        -38.9584        -38.9584
            2892     1.45155E+03     1.45155E+03        -6.03969        -6.03969        -47.7533        -47.7533
            2893     1.44067E+03     1.44067E+03        -9.95219        -9.95219        -59.6338        -59.6338
            2894     1.42932E+03     1.42932E+03        -16.3818        -16.3818        -75.8912        -75.8912
            2895     1.41937E+03     1.41937E+03        -27.4518        -27.4518        -98.2153        -98.2153
            2896     1.42764E+03     1.42764E+03         418.585         418.585         25.0571         25.0571
            2897     1.44100E+03     1.44100E+03         387.121         387.121         24.7893         24.7893
            2898     1.45413E+03     1.45413E+03         355.684         355.684         23.9462         23.9462
            2899     1.46681E+03     1.46681E+03         324.731         324.731         22.7910         22.7910
            2900     1.47886E+03     1.47886E+03         294.562         294.562         21.3469         21.3469
            2901     1.49011E+03     1.49011E+03         265.455         265.455         19.6631         19.6631
            2902     1.50045E+03     1.50045E+03         237.657         237.657         17.7872         17.7872
            2903     1.50975E+03     1.50975E+03         211.377         211.377         15.7841         15.7841
            2904     1.51797E+03     1.51797E+03         186.774         186.774         13.7115         13.7115
            2905     1.52507E+03     1.52507E+03         163.962         163.962         11.6299         11.6299
            2906     1.53104E+03     1.53104E+03         143.003         143.003         9.59076         9.59076
            2907     1.53591E+03     1.53591E+03         123.917         123.917         7.63663         7.63663
            2908     1.53973E+03     1.53973E+03         106.686         106.686         5.80217         5.80217
            2909     1.54256E+03     1.54256E+03         91.2574         91.2574         4.10859         4.10859
            2910     1.54447E+03     1.54447E+03         77.5550         77.5550         2.57159         2.57159
            2911     1.54555E+03     1.54555E+03         65.4817         65.4817         1.19440         1.19440
            2912     1.54589E+03     1.54589E+03         54.9283         54.9283    -22.6790E-03    -22.6790E-03
            2913     1.54555E+03     1.54555E+03         45.7768         45.7768        -1.08834        -1.08834
            2914     1.54463E+03     1.54463E+03         37.9061         37.9061        -2.01221        -2.01221
            2915     1.54319E+03     1.54319E+03         31.1940         31.1940        -2.80939        -2.80939
            2916     1.54131E+03     1.54131E+03         25.5214         25.5214        -3.49470        -3.49470
            2917     1.53902E+03     1.53902E+03         20.7727         20.7727        -4.08591        -4.08591
            2918     1.53639E+03     1.53639E+03         16.8389         16.8389        -4.60015        -4.60015
            2919     1.53345E+03     1.53345E+03         13.6171         13.6171        -5.05617        -5.05617
            2920     1.53022E+03     1.53022E+03         11.0120         11.0120        -5.47241        -5.47241
            2921     1.52672E+03     1.52672E+03         8.93633         8.93633        -5.86877        -5.86877
            2922     1.52296E+03     1.52296E+03         7.31072         7.31072        -6.26581        -6.26581
            2923     1.51891E+03     1.51891E+03         6.06422         6.06422        -6.68645        -6.68645
            2924     1.51457E+03     1.51457E+03         5.13441         5.13441        -7.15615        -7.15615
            2925     1.50989E+03     1.50989E+03         4.46740         4.46740        -7.70495        -7.70495
            2926     1.50479E+03     1.50479E+03         4.01803         4.01803        -8.36887        -8.36887
            2927     1.49921E+03     1.49921E+03         3.75001         3.75001        -9.19309        -9.19309
            2928     1.49300E+03     1.49300E+03         3.63572         3.63572        -10.2355        -10.2355
            2929     1.48602E+03     1.48602E+03         3.65636         3.65636        -11.5731        -11.5731
            2930     1.47804E+03     1.47804E+03         3.80047         3.80047        -13.3101        -13.3101
            2931     1.46876E+03     1.46876E+03         4.06352         4.06352        -15.5931        -15.5931
            2932     1.45777E+03     1.45777E+03         4.44153         4.44153        -18.6320        -18.6320
            2933     1.44451E+03     1.44451E+03         4.92636         4.92636        -22.7406        -22.7406
            2934     1.42820E+03     1.42820E+03         5.48035         5.48035        -28.3986        -28.3986
            2935     1.40771E+03     1.40771E+03         6.00137         6.00137        -36.3828        -36.3828
            2936     1.38140E+03     1.38140E+03         6.21422         6.21422        -48.0070        -48.0070
            2937     1.34683E+03     1.34683E+03         5.34901         5.34901        -65.7468        -65.7468
            2938     1.42716E+03     1.42716E+03         418.740         418.740         8.21228         8.21228
            2939     1.44041E+03     1.44041E+03         387.547         387.547         7.99455         7.99455
            2940     1.45345E+03     1.45345E+03         356.383         356.383         7.60183         7.60183
            2941     1.46606E+03     1.46606E+03         325.689         325.689         7.11668         7.11668
            2942     1.47806E+03     1.47806E+03         295.750         295.750         6.55919         6.55919
            2943     1.48929E+03     1.48929E+03         266.833         266.833         5.93989         5.93989
            2944     1.49964E+03     1.49964E+03         239.178         239.178         5.28379         5.28379
            2945     1.50899E+03     1.50899E+03         212.990         212.990         4.60668         4.60668
            2946     1.51728E+03     1.51728E+03         188.429         188.429         3.93140         3.93140
            2947     1.52446E+03     1.52446E+03         165.611         165.611         3.27377         3.27377
            2948     1.53054E+03     1.53054E+03         144.607         144.607         2.64916         2.64916
            2949     1.53552E+03     1.53552E+03         125.444         125.444         2.06937         2.06937
            2950     1.53945E+03     1.53945E+03         108.113         108.113         1.54108         1.54108
            2951     1.54239E+03     1.54239E+03         92.5681         92.5681         1.07040         1.07040
            2952     1.54440E+03     1.54440E+03         78.7412         78.7412     656.998E-03     656.998E-03
            2953     1.54556E+03     1.54556E+03         66.5418         66.5418     301.828E-03     301.828E-03
            2954     1.54596E+03     1.54596E+03         55.8654         55.8654     352.364E-06     352.364E-06
            2955     1.54567E+03     1.54567E+03         46.5981         46.5981    -250.007E-03    -250.007E-03
            2956     1.54478E+03     1.54478E+03         38.6213         38.6213    -455.549E-03    -455.549E-03
            2957     1.54336E+03     1.54336E+03         31.8152         31.8152    -620.612E-03    -620.612E-03
            2958     1.54147E+03     1.54147E+03         26.0614         26.0614    -751.665E-03    -751.665E-03
            2959     1.53916E+03     1.53916E+03         21.2456         21.2456    -853.513E-03    -853.513E-03
            2960     1.53649E+03     1.53649E+03         17.2589         17.2589    -931.996E-03    -931.996E-03
            2961     1.53349E+03     1.53349E+03         13.9989         13.9989    -991.667E-03    -991.667E-03
            2962     1.53019E+03     1.53019E+03         11.3711         11.3711        -1.03750        -1.03750
            2963     1.52659E+03     1.52659E+03         9.28845         9.28845        -1.07356        -1.07356
            2964     1.52271E+03     1.52271E+03         7.67319         7.67319        -1.10406        -1.10406
            2965     1.51853E+03     1.51853E+03         6.45603         6.45603        -1.13261        -1.13261
            2966     1.51402E+03     1.51402E+03         5.57739         5.57739        -1.16294        -1.16294
            2967     1.50912E+03     1.50912E+03         4.98726         4.98726        -1.19850        -1.19850
            2968     1.50377E+03     1.50377E+03         4.64643         4.64643        -1.24294        -1.24294
            2969     1.49785E+03     1.49785E+03         4.52660         4.52660        -1.29992        -1.29992
            2970     1.49123E+03     1.49123E+03         4.61244         4.61244        -1.37365        -1.37365
            2971     1.48370E+03     1.48370E+03         4.90185         4.90185        -1.46858        -1.46858
            2972     1.47500E+03     1.47500E+03         5.41008         5.41008        -1.59046        -1.59046
            2973     1.46474E+03     1.46474E+03         6.16972         6.16972        -1.74549        -1.74549
            2974     1.45240E+03     1.45240E+03         7.23988         7.23988        -1.94277        -1.94277
            2975     1.43721E+03     1.43721E+03         8.70439         8.70439        -2.19153        -2.19153
            2976     1.41804E+03     1.41804E+03         10.6931         10.6931        -2.50662        -2.50662
            2977     1.39316E+03     1.39316E+03         13.3762         13.3762        -2.89857        -2.89857
            2978     1.35976E+03     1.35976E+03         17.0182         17.0182        -3.37647        -3.37647
            2979     1.31279E+03     1.31279E+03         21.9984         21.9984        -3.84075        -3.84075
            2980     1.42715E+03     1.42715E+03         418.740         418.740        -8.53333        -8.53333
            2981     1.44041E+03     1.44041E+03         387.535         387.535        -8.66116        -8.66116
            2982     1.45347E+03     1.45347E+03         356.357         356.357        -8.58590        -8.58590
            2983     1.46608E+03     1.46608E+03         325.646         325.646        -8.37874        -8.37874
            2984     1.47809E+03     1.47809E+03         295.686         295.686        -8.04919        -8.04919
            2985     1.48934E+03     1.48934E+03         266.746         266.746        -7.59903        -7.59903
            2986     1.49969E+03     1.49969E+03         239.069         239.069        -7.04761        -7.04761
            2987     1.50904E+03     1.50904E+03         212.858         212.858        -6.40822        -6.40822
            2988     1.51733E+03     1.51733E+03         188.278         188.278        -5.70490        -5.70490
            2989     1.52452E+03     1.52452E+03         165.444         165.444        -4.95752        -4.95752
            2990     1.53059E+03     1.53059E+03         144.428         144.428        -4.18815        -4.18815
            2991     1.53556E+03     1.53556E+03         125.258         125.258        -3.41688        -3.41688
            2992     1.53948E+03     1.53948E+03         107.924         107.924        -2.65953        -2.65953
            2993     1.54240E+03     1.54240E+03         92.3807         92.3807        -1.93161        -1.93161
            2994     1.54440E+03     1.54440E+03         78.5588         78.5588        -1.24157        -1.24157
            2995     1.54555E+03     1.54555E+03         66.3674         66.3674    -598.372E-03    -598.372E-03
            2996     1.54594E+03     1.54594E+03         55.7009         55.7009    -4.09696E-03    -4.09696E-03
            2997     1.54564E+03     1.54564E+03         46.4450         46.4450     538.450E-03     538.450E-03
            2998     1.54474E+03     1.54474E+03         38.4802         38.4802         1.03180         1.03180
            2999     1.54331E+03     1.54331E+03         31.6859         31.6859         1.47786         1.47786
            3000     1.54142E+03     1.54142E+03         25.9432         25.9432         1.88219         1.88219
            3001     1.53912E+03     1.53912E+03         21.1371         21.1371         2.25001         2.25001
            3002     1.53645E+03     1.53645E+03         17.1581         17.1581         2.58897         2.58897
            3003     1.53347E+03     1.53347E+03         13.9033         13.9033         2.90683         2.90683
            3004     1.53018E+03     1.53018E+03         11.2771         11.2771         3.21325         3.21325
            3005     1.52662E+03     1.52662E+03         9.19233         9.19233         3.51869         3.51869
            3006     1.52277E+03     1.52277E+03         7.56969         7.56969         3.83575         3.83575
            3007     1.51863E+03     1.51863E+03         6.33888         6.33888         4.17898         4.17898
            3008     1.51418E+03     1.51418E+03         5.43840         5.43840         4.56631         4.56631
            3009     1.50936E+03     1.50936E+03         4.81608         4.81608         5.01969         5.01969
            3010     1.50411E+03     1.50411E+03         4.42919         4.42919         5.56728         5.56728
            3011     1.49833E+03     1.49833E+03         4.24508         4.24508         6.24537         6.24537
            3012     1.49190E+03     1.49190E+03         4.24132         4.24132         7.10266         7.10266
            3013     1.48462E+03     1.48462E+03         4.40652         4.40652         8.20481         8.20481
            3014     1.47625E+03     1.47625E+03         4.74023         4.74023         9.64430         9.64430
            3015     1.46647E+03     1.46647E+03         5.25335         5.25335         11.5518         11.5518
            3016     1.45481E+03     1.45481E+03         5.96616         5.96616         14.1220         14.1220
            3017     1.44065E+03     1.44065E+03         6.90491         6.90491         17.6461         17.6461
            3018     1.42305E+03     1.42305E+03         8.08822         8.08822         22.5906         22.5906
            3019     1.40070E+03     1.40070E+03         9.49707         9.49707         29.7153         29.7153
            3020     1.37162E+03     1.37162E+03         10.9841         10.9841         40.3761         40.3761
            3021     1.33296E+03     1.33296E+03         11.9341         11.9341         57.1674         57.1674
            3022     1.42764E+03     1.42764E+03         418.590         418.590        -25.3311        -25.3311
            3023     1.44102E+03     1.44102E+03         387.097         387.097        -25.3531        -25.3531
            3024     1.45418E+03     1.45418E+03         355.623         355.623        -24.7782        -24.7782
            3025     1.46688E+03     1.46688E+03         324.624         324.624        -23.8571        -23.8571
            3026     1.47895E+03     1.47895E+03         294.400         294.400        -22.6033        -22.6033
            3027     1.49023E+03     1.49023E+03         265.234         265.234        -21.0590        -21.0590
            3028     1.50058E+03     1.50058E+03         237.376         237.376        -19.2669        -19.2669
            3029     1.50990E+03     1.50990E+03         211.038         211.038        -17.2903        -17.2903
            3030     1.51812E+03     1.51812E+03         186.384         186.384        -15.1885        -15.1885
            3031     1.52521E+03     1.52521E+03         163.530         163.530        -13.0260        -13.0260
            3032     1.53117E+03     1.53117E+03         142.540         142.540        -10.8604        -10.8604
            3033     1.53601E+03     1.53601E+03         123.435         123.435        -8.74156        -8.74156
            3034     1.53980E+03     1.53980E+03         106.197         106.197        -6.71232        -6.71232
            3035     1.54260E+03     1.54260E+03         90.7727         90.7727        -4.80177        -4.80177
            3036     1.54448E+03     1.54448E+03         77.0835         77.0835        -3.03313        -3.03313
            3037     1.54552E+03     1.54552E+03         65.0308         65.0308        -1.41611        -1.41611
            3038     1.54582E+03     1.54582E+03         54.5035         54.5035     43.4169E-03     43.4169E-03
            3039     1.54546E+03     1.54546E+03         45.3815         45.3815         1.34996         1.34996
            3040     1.54452E+03     1.54452E+03         37.5418         37.5418         2.51006         2.51006
            3041     1.54307E+03     1.54307E+03         30.8604         30.8604         3.53696         3.53696
            3042     1.54118E+03     1.54118E+03         25.2164         25.2164         4.44476         4.44476
            3043     1.53890E+03     1.53890E+03         20.4930         20.4930         5.25160         5.25160
            3044     1.53629E+03     1.53629E+03         16.5793         16.5793         5.97604         5.97604
            3045     1.53338E+03     1.53338E+03         13.3709         13.3709         6.63927         6.63927
            3046     1.53020E+03     1.53020E+03         10.7711         10.7711         7.26336         7.26336
            3047     1.52677E+03     1.52677E+03         8.69028         8.69028         7.87297         7.87297
            3048     1.52310E+03     1.52310E+03         7.04681         7.04681         8.49493         8.49493
            3049     1.51918E+03     1.51918E+03         5.76647         5.76647         9.16014         9.16014
            3050     1.51499E+03     1.51499E+03         4.78263         4.78263         9.90431         9.90431
            3051     1.51050E+03     1.51050E+03         4.03562         4.03562         10.7706         10.7706
            3052     1.50567E+03     1.50567E+03         3.47238         3.47238         11.8120         11.8120
            3053     1.50043E+03     1.50043E+03         3.04542         3.04542         13.0959         13.0959
            3054     1.49468E+03     1.49468E+03         2.71131         2.71131         14.7092         14.7092
            3055     1.48831E+03     1.48831E+03         2.42806         2.42806         16.7681         16.7681
            3056     1.48117E+03     1.48117E+03         2.15021         2.15021         19.4289         19.4289
            3057     1.47305E+03     1.47305E+03         1.82109         1.82109         22.9100         22.9100
            3058     1.46373E+03     1.46373E+03         1.35621         1.35621         27.5188         27.5188
            3059     1.45291E+03     1.45291E+03     617.078E-03     617.078E-03         33.7055         33.7055
            3060     1.44028E+03     1.44028E+03    -649.876E-03    -649.876E-03         42.1326         42.1326
            3061     1.42555E+03     1.42555E+03        -2.92264        -2.92264         53.8179         53.8179
            3062     1.40873E+03     1.40873E+03        -7.18195        -7.18195         70.3247         70.3247
            3063     1.39084E+03     1.39084E+03        -15.4464        -15.4464         93.9265         93.9265
            3064     1.42865E+03     1.42865E+03         418.276         418.276        -42.3418        -42.3418
            3065     1.44224E+03     1.44224E+03         386.207         386.207        -42.2459        -42.2459
            3066     1.45561E+03     1.45561E+03         354.143         354.143        -41.1502        -41.1502
            3067     1.46848E+03     1.46848E+03         322.577         322.577        -39.4639        -39.4639
            3068     1.48066E+03     1.48066E+03         291.842         291.842        -37.2371        -37.2371
            3069     1.49199E+03     1.49199E+03         262.244         262.244        -34.5287        -34.5287
            3070     1.50231E+03     1.50231E+03         234.055         234.055        -31.4362        -31.4362
            3071     1.51154E+03     1.51154E+03         207.493         207.493        -28.0580        -28.0580
            3072     1.51962E+03     1.51962E+03         182.726         182.726        -24.5079        -24.5079
            3073     1.52651E+03     1.52651E+03         159.861         159.861        -20.8908        -20.8908
            3074     1.53223E+03     1.53223E+03         138.950         138.950        -17.3035        -17.3035
            3075     1.53683E+03     1.53683E+03         119.998         119.998        -13.8288        -13.8288
            3076     1.54036E+03     1.54036E+03         102.967         102.967        -10.5292        -10.5292
            3077     1.54291E+03     1.54291E+03         87.7887         87.7887        -7.45352        -7.45352
            3078     1.54457E+03     1.54457E+03         74.3659         74.3659        -4.62852        -4.62852
            3079     1.54542E+03     1.54542E+03         62.5878         62.5878        -2.07100        -2.07100
            3080     1.54557E+03     1.54557E+03         52.3302         52.3302     219.766E-03     219.766E-03
            3081     1.54509E+03     1.54509E+03         43.4655         43.4655         2.25033         2.25033
            3082     1.54407E+03     1.54407E+03         35.8628         35.8628         4.03863         4.03863
            3083     1.54258E+03     1.54258E+03         29.3943         29.3943         5.60525         5.60525
            3084     1.54070E+03     1.54070E+03         23.9351         23.9351         6.97719         6.97719
            3085     1.53847E+03     1.53847E+03         19.3665         19.3665         8.18234         8.18234
            3086     1.53596E+03     1.53596E+03         15.5754         15.5754         9.25205         9.25205
            3087     1.53318E+03     1.53318E+03         12.4565         12.4565         10.2182         10.2182
            3088     1.53019E+03     1.53019E+03         9.91055         9.91055         11.1150         11.1150
            3089     1.52699E+03     1.52699E+03         7.84606         7.84606         11.9785         11.9785
            3090     1.52361E+03     1.52361E+03         6.17763         6.17763         12.8475         12.8475
            3091     1.52004E+03     1.52004E+03         4.82624         4.82624         13.7651         13.7651
            3092     1.51629E+03     1.51629E+03         3.71795         3.71795         14.7802         14.7802
            3093     1.51234E+03     1.51234E+03         2.78315         2.78315         15.9497         15.9497
            3094     1.50818E+03     1.50818E+03         1.95467         1.95467         17.3420         17.3420
            3095     1.50377E+03     1.50377E+03         1.16542         1.16542         19.0411         19.0411
            3096     1.49909E+03     1.49909E+03     344.775E-03     344.775E-03         21.1526         21.1526
            3097     1.49410E+03     1.49410E+03    -587.772E-03    -587.772E-03         23.8109         23.8109
            3098     1.48876E+03     1.48876E+03        -1.73130        -1.73130         27.1915         27.1915
            3099     1.48306E+03     1.48306E+03        -3.22075        -3.22075         31.5239         31.5239
            3100     1.47701E+03     1.47701E+03        -5.24989        -5.24989         37.1141         37.1141
            3101     1.47075E+03     1.47075E+03        -8.12124        -8.12124         44.3657         44.3657
            3102     1.46457E+03     1.46457E+03        -12.3116        -12.3116         53.8119         53.8119
            3103     1.45917E+03     1.45917E+03        -18.6216        -18.6216         66.1099         66.1099
            3104     1.45609E+03     1.45609E+03        -28.3661        -28.3661         81.9498         81.9498
            3105     1.45834E+03     1.45834E+03        -43.5526        -43.5526         101.642         101.642
            3106     1.43025E+03     1.43025E+03         417.801         417.801        -59.7098        -59.7098
            3107     1.44419E+03     1.44419E+03         384.831         384.831        -59.4856        -59.4856
            3108     1.45785E+03     1.45785E+03         351.853         351.853        -57.8102        -57.8102
            3109     1.47097E+03     1.47097E+03         319.416         319.416        -55.2885        -55.2885
            3110     1.48330E+03     1.48330E+03         287.904         287.904        -51.9800        -51.9800
            3111     1.49467E+03     1.49467E+03         257.665         257.665        -48.0038        -48.0038
            3112     1.50494E+03     1.50494E+03         228.995         228.995        -43.4926        -43.4926
            3113     1.51400E+03     1.51400E+03         202.130         202.130        -38.6143        -38.6143
            3114     1.52181E+03     1.52181E+03         177.229         177.229        -33.5300        -33.5300
            3115     1.52837E+03     1.52837E+03         154.387         154.387        -28.3975        -28.3975
            3116     1.53372E+03     1.53372E+03         133.634         133.634        -23.3548        -23.3548
            3117     1.53792E+03     1.53792E+03         114.945         114.945        -18.5119        -18.5119
            3118     1.54107E+03     1.54107E+03         98.2542         98.2542        -13.9569        -13.9569
            3119     1.54325E+03     1.54325E+03         83.4633         83.4633        -9.74380        -9.74380
            3120     1.54457E+03     1.54457E+03         70.4542         70.4542        -5.90951        -5.90951
            3121     1.54515E+03     1.54515E+03         59.0928         59.0928        -2.46312        -2.46312
            3122     1.54506E+03     1.54506E+03         49.2416         49.2416     596.997E-03     596.997E-03
            3123     1.54442E+03     1.54442E+03         40.7585         40.7585         3.29054         3.29054
            3124     1.54330E+03     1.54330E+03         33.5061         33.5061         5.64225         5.64225
            3125     1.54177E+03     1.54177E+03         27.3491         27.3491         7.68686         7.68686
            3126     1.53991E+03     1.53991E+03         22.1604         22.1604         9.46049         9.46049
            3127     1.53776E+03     1.53776E+03         17.8178         17.8178         11.0040         11.0040
            3128     1.53538E+03     1.53538E+03         14.2078         14.2078         12.3583         12.3583
            3129     1.53280E+03     1.53280E+03         11.2231         11.2231         13.5663         13.5663
            3130     1.53006E+03     1.53006E+03         8.76386         8.76386         14.6712         14.6712
            3131     1.52718E+03     1.52718E+03         6.73590         6.73590         15.7182         15.7182
            3132     1.52418E+03     1.52418E+03         5.05105         5.05105         16.7542         16.7542
            3133     1.52109E+03     1.52109E+03         3.62513         3.62513         17.8298         17.8298
            3134     1.51790E+03     1.51790E+03         2.37735         2.37735         19.0005         19.0005
            3135     1.51464E+03     1.51464E+03         1.22801         1.22801         20.3287         20.3287
            3136     1.51131E+03     1.51131E+03     96.3757E-03     96.3757E-03         21.8866         21.8866
            3137     1.50794E+03     1.50794E+03        -1.10295        -1.10295         23.7588         23.7588
            3138     1.50454E+03     1.50454E+03        -2.46524        -2.46524         26.0466         26.0466
            3139     1.50117E+03     1.50117E+03        -4.10262        -4.10262         28.8717         28.8717
            3140     1.49789E+03     1.49789E+03        -6.15656        -6.15656         32.3803         32.3803
            3141     1.49485E+03     1.49485E+03        -8.81252        -8.81252         36.7470         36.7470
            3142     1.49228E+03     1.49228E+03        -12.3295        -12.3295         42.1717         42.1717
            3143     1.49059E+03     1.49059E+03        -17.0689        -17.0689         48.8682         48.8682
            3144     1.49047E+03     1.49047E+03        -23.5577        -23.5577         57.0169         57.0169
            3145     1.49306E+03     1.49306E+03        -32.5118        -32.5118         66.6496         66.6496
            3146     1.50020E+03     1.50020E+03        -44.8538        -44.8538         77.3509         77.3509
            3147     1.51465E+03     1.51465E+03        -61.3892        -61.3892         87.8021         87.8021
            3148     1.43257E+03     1.43257E+03         417.153         417.153        -77.6044        -77.6044
            3149     1.44697E+03     1.44697E+03         382.914         382.914        -77.2152        -77.2152
            3150     1.46105E+03     1.46105E+03         348.646         348.646        -74.8882        -74.8882
            3151     1.47448E+03     1.47448E+03         314.995         314.995        -71.3954        -71.3954
            3152     1.48699E+03     1.48699E+03         282.415         282.415        -66.8611        -66.8611
            3153     1.49838E+03     1.49838E+03         251.314         251.314        -61.4367        -61.4367
            3154     1.50850E+03     1.50850E+03         222.030         222.030        -55.3469        -55.3469
            3155     1.51728E+03     1.51728E+03         194.801         194.801        -48.8170        -48.8170
            3156     1.52467E+03     1.52467E+03         169.785         169.785        -42.0844        -42.0844
            3157     1.53074E+03     1.53074E+03         147.042         147.042        -35.3602        -35.3602
            3158     1.53553E+03     1.53553E+03         126.564         126.564        -28.8219        -28.8219
            3159     1.53917E+03     1.53917E+03         108.285         108.285        -22.6131        -22.6131
            3160     1.54176E+03     1.54176E+03         92.0946         92.0946        -16.8286        -16.8286
            3161     1.54345E+03     1.54345E+03         77.8586         77.8586        -11.5355        -11.5355
            3162     1.54433E+03     1.54433E+03         65.4233         65.4233        -6.75925        -6.75925
            3163     1.54454E+03     1.54454E+03         54.6330         54.6330        -2.50818        -2.50818
            3164     1.54417E+03     1.54417E+03         45.3268         45.3268         1.23697         1.23697
            3165     1.54333E+03     1.54333E+03         37.3526         37.3526         4.50333         4.50333
            3166     1.54208E+03     1.54208E+03         30.5606         30.5606         7.33306         7.33306
            3167     1.54052E+03     1.54052E+03         24.8126         24.8126         9.77026         9.77026
            3168     1.53869E+03     1.53869E+03         19.9761         19.9761         11.8657         11.8657
            3169     1.53666E+03     1.53666E+03         15.9297         15.9297         13.6692         13.6692
            3170     1.53445E+03     1.53445E+03         12.5579         12.5579         15.2327         15.2327
            3171     1.53212E+03     1.53212E+03         9.75460         9.75460         16.6068         16.6068
            3172     1.52970E+03     1.52970E+03         7.41903         7.41903         17.8424         17.8424
            3173     1.52721E+03     1.52721E+03         5.45694         5.45694         18.9898         18.9898
            3174     1.52468E+03     1.52468E+03         3.77776         3.77776         20.1008         20.1008
            3175     1.52214E+03     1.52214E+03         2.29447         2.29447         21.2279         21.2279
            3176     1.51960E+03     1.51960E+03     920.935E-03     920.935E-03         22.4271         22.4271
            3177     1.51712E+03     1.51712E+03    -429.476E-03    -429.476E-03         23.7580         23.7580
            3178     1.51471E+03     1.51471E+03        -1.84706        -1.84706         25.2858         25.2858
            3179     1.51244E+03     1.51244E+03        -3.42921        -3.42921         27.0823         27.0823
            3180     1.51037E+03     1.51037E+03        -5.28510        -5.28510         29.2263         29.2263
            3181     1.50862E+03     1.50862E+03        -7.54293        -7.54293         31.8027         31.8027
            3182     1.50734E+03     1.50734E+03        -10.3573        -10.3573         34.8987         34.8987
            3183     1.50676E+03     1.50676E+03        -13.9231        -13.9231         38.5944         38.5944
            3184     1.50721E+03     1.50721E+03        -18.4837        -18.4837         42.9414         42.9414
            3185     1.50922E+03     1.50922E+03        -24.3493        -24.3493         47.9212         47.9212
            3186     1.51351E+03     1.51351E+03        -31.8773        -31.8773         53.3615         53.3615
            3187     1.52109E+03     1.52109E+03        -41.4376        -41.4376         58.7903         58.7903
            3188     1.53327E+03     1.53327E+03        -53.1567        -53.1567         63.1980         63.1980
            3189     1.55138E+03     1.55138E+03        -66.5391        -66.5391         64.7524         64.7524
            3190     1.57747E+03     1.57747E+03        -55.3516        -55.3516        -25.3178        -25.3178
            3191     1.56380E+03     1.56380E+03        -50.5350        -50.5350        -32.1513        -32.1513
            3192     1.55183E+03     1.55183E+03        -44.0450        -44.0450        -35.9698        -35.9698
            3193     1.54206E+03     1.54206E+03        -37.1550        -37.1550        -37.4752        -37.4752
            3194     1.53451E+03     1.53451E+03        -30.6379        -30.6379        -37.4731        -37.4731
            3195     1.52895E+03     1.52895E+03        -24.8407        -24.8407        -36.5935        -36.5935
            3196     1.52505E+03     1.52505E+03        -19.8656        -19.8656        -35.2833        -35.2833
            3197     1.52247E+03     1.52247E+03        -15.6793        -15.6793        -33.8177        -33.8177
            3198     1.52093E+03     1.52093E+03        -12.1956        -12.1956        -32.3557        -32.3557
            3199     1.52021E+03     1.52021E+03        -9.30580        -9.30580        -30.9770        -30.9770
            3200     1.52010E+03     1.52010E+03        -6.89926        -6.89926        -29.7122        -29.7122
            3201     1.52048E+03     1.52048E+03        -4.86832        -4.86832        -28.5613        -28.5613
            3202     1.52123E+03     1.52123E+03        -3.11159        -3.11159        -27.5061        -27.5061
            3203     1.52227E+03     1.52227E+03        -1.53341        -1.53341        -26.5176        -26.5176
            3204     1.52352E+03     1.52352E+03    -42.6268E-03    -42.6268E-03        -25.5600        -25.5600
            3205     1.52494E+03     1.52494E+03         1.44829         1.44829        -24.5933        -24.5933
            3206     1.52649E+03     1.52649E+03         3.02585         3.02585        -23.5740        -23.5740
            3207     1.52813E+03     1.52813E+03         4.77565         4.77565        -22.4557        -22.4557
            3208     1.52983E+03     1.52983E+03         6.78601         6.78601        -21.1887        -21.1887
            3209     1.53157E+03     1.53157E+03         9.14678         9.14678        -19.7197        -19.7197
            3210     1.53332E+03     1.53332E+03         11.9546         11.9546        -17.9916        -17.9916
            3211     1.53505E+03     1.53505E+03         15.3099         15.3099        -15.9434        -15.9434
            3212     1.53673E+03     1.53673E+03         19.3248         19.3248        -13.5094        -13.5094
            3213     1.53831E+03     1.53831E+03         24.1166         24.1166        -10.6216        -10.6216
            3214     1.53976E+03     1.53976E+03         29.8207         29.8207        -7.20736        -7.20736
            3215     1.54101E+03     1.54101E+03         36.5785         36.5785        -3.19626        -3.19626
            3216     1.54200E+03     1.54200E+03         44.5567         44.5567         1.48455         1.48455
            3217     1.54262E+03     1.54262E+03         53.9269         53.9269         6.89501         6.89501
            3218     1.54279E+03     1.54279E+03         64.8925         64.8925         13.0926         13.0926
            3219     1.54235E+03     1.54235E+03         77.6569         77.6569         20.1009         20.1009
            3220     1.54116E+03     1.54116E+03         92.4545         92.4545         27.9318         27.9318
            3221     1.53904E+03     1.53904E+03         109.507         109.507         36.5299         36.5299
            3222     1.53580E+03     1.53580E+03         129.045         129.045         45.8126         45.8126
            3223     1.53122E+03     1.53122E+03         151.260         151.260         55.5946         55.5946
            3224     1.52514E+03     1.52514E+03         176.286         176.286         65.6433         65.6433
            3225     1.51738E+03     1.51738E+03         204.180         204.180         75.6231         75.6231
            3226     1.50790E+03     1.50790E+03         234.840         234.840         85.1402         85.1402
            3227     1.49668E+03     1.49668E+03         268.044         268.044         93.7829         93.7829
            3228     1.48387E+03     1.48387E+03         303.355         303.355         101.106         101.106
            3229     1.46974E+03     1.46974E+03         340.207         340.207         106.806         106.806
            3230     1.45461E+03     1.45461E+03         377.902         377.902         110.600         110.600
            3231     1.43902E+03     1.43902E+03         415.507         415.507         111.372         111.372
            3232     1.57795E+03     1.57795E+03        -46.6698        -46.6698        -12.7986        -12.7986
            3233     1.56726E+03     1.56726E+03        -44.7022        -44.7022        -20.5171        -20.5171
            3234     1.55727E+03     1.55727E+03        -40.6642        -40.6642        -25.8681        -25.8681
            3235     1.54847E+03     1.54847E+03        -35.5939        -35.5939        -29.2215        -29.2215
            3236     1.54114E+03     1.54114E+03        -30.2854        -30.2854        -31.0334        -31.0334
            3237     1.53530E+03     1.53530E+03        -25.2180        -25.2180        -31.7772        -31.7772
            3238     1.53082E+03     1.53082E+03        -20.6348        -20.6348        -31.8325        -31.8325
            3239     1.52752E+03     1.52752E+03        -16.6266        -16.6266        -31.4815        -31.4815
            3240     1.52520E+03     1.52520E+03        -13.1925        -13.1925        -30.9106        -30.9106
            3241     1.52370E+03     1.52370E+03        -10.2851        -10.2851        -30.2374        -30.2374
            3242     1.52284E+03     1.52284E+03        -7.83231        -7.83231        -29.5276        -29.5276
            3243     1.52251E+03     1.52251E+03        -5.75223        -5.75223        -28.8123        -28.8123
            3244     1.52259E+03     1.52259E+03        -3.95953        -3.95953        -28.0990        -28.0990
            3245     1.52300E+03     1.52300E+03        -2.36896        -2.36896        -27.3789        -27.3789
            3246     1.52368E+03     1.52368E+03    -896.805E-03    -896.805E-03        -26.6325        -26.6325
            3247     1.52458E+03     1.52458E+03     539.656E-03     539.656E-03        -25.8318        -25.8318
            3248     1.52564E+03     1.52564E+03         2.02173         2.02173        -24.9426        -24.9426
            3249     1.52684E+03     1.52684E+03         3.63173         3.63173        -23.9248        -23.9248
            3250     1.52816E+03     1.52816E+03         5.45221         5.45221        -22.7327        -22.7327
            3251     1.52957E+03     1.52957E+03         7.57018         7.57018        -21.3153        -21.3153
            3252     1.53104E+03     1.53104E+03         10.0750         10.0750        -19.6153        -19.6153
            3253     1.53256E+03     1.53256E+03         13.0650         13.0650        -17.5696        -17.5696
            3254     1.53411E+03     1.53411E+03         16.6432         16.6432        -15.1090        -15.1090
            3255     1.53565E+03     1.53565E+03         20.9281         20.9281        -12.1576        -12.1576
            3256     1.53715E+03     1.53715E+03         26.0447         26.0447        -8.63590        -8.63590
            3257     1.53857E+03     1.53857E+03         32.1423         32.1423        -4.45771        -4.45771
            3258     1.53984E+03     1.53984E+03         39.3779         39.3779     460.076E-03     460.076E-03
            3259     1.54088E+03     1.54088E+03         47.9446         47.9446         6.20525         6.20525
            3260     1.54160E+03     1.54160E+03         58.0414         58.0414         12.8465         12.8465
            3261     1.54186E+03     1.54186E+03         69.9160         69.9160         20.4522         20.4522
            3262     1.54150E+03     1.54150E+03         83.8149         83.8149         29.0389         29.0389
            3263     1.54032E+03     1.54032E+03         100.034         100.034         38.6120         38.6120
            3264     1.53808E+03     1.53808E+03         118.852         118.852         49.0721         49.0721
            3265     1.53455E+03     1.53455E+03         140.555         140.555         60.2863         60.2863
            3266     1.52941E+03     1.52941E+03         165.379         165.379         71.9653         71.9653
            3267     1.52251E+03     1.52251E+03         193.452         193.452         83.7539         83.7539
            3268     1.51359E+03     1.51359E+03         224.788         224.788         95.1650         95.1650
            3269     1.50267E+03     1.50267E+03         259.141         259.141         105.632         105.632
            3270     1.48982E+03     1.48982E+03         296.094         296.094         114.633         114.633
            3271     1.47532E+03     1.47532E+03         334.936         334.936         121.619         121.619
            3272     1.45963E+03     1.45963E+03         374.801         374.801         126.324         126.324
            3273     1.44325E+03     1.44325E+03         414.583         414.583         127.321         127.321
            3274     1.57507E+03     1.57507E+03        -37.9332        -37.9332        -3.58706        -3.58706
            3275     1.56716E+03     1.56716E+03        -38.0829        -38.0829        -11.3127        -11.3127
            3276     1.55920E+03     1.55920E+03        -35.9619        -35.9619        -17.3075        -17.3075
            3277     1.55174E+03     1.55174E+03        -32.5219        -32.5219        -21.7107        -21.7107
            3278     1.54511E+03     1.54511E+03        -28.4559        -28.4559        -24.7557        -24.7557
            3279     1.53949E+03     1.53949E+03        -24.2697        -24.2697        -26.7295        -26.7295
            3280     1.53489E+03     1.53489E+03        -20.2743        -20.2743        -27.9162        -27.9162
            3281     1.53125E+03     1.53125E+03        -16.6378        -16.6378        -28.5500        -28.5500
            3282     1.52846E+03     1.52846E+03        -13.4289        -13.4289        -28.8113        -28.8113
            3283     1.52640E+03     1.52640E+03        -10.6525        -10.6525        -28.8262        -28.8262
            3284     1.52496E+03     1.52496E+03        -8.27644        -8.27644        -28.6790        -28.6790
            3285     1.52403E+03     1.52403E+03        -6.24633        -6.24633        -28.4205        -28.4205
            3286     1.52352E+03     1.52352E+03        -4.49663        -4.49663        -28.0773        -28.0773
            3287     1.52335E+03     1.52335E+03        -2.95626        -2.95626        -27.6576        -27.6576
            3288     1.52348E+03     1.52348E+03        -1.55162        -1.55162        -27.1564        -27.1564
            3289     1.52384E+03     1.52384E+03    -208.668E-03    -208.668E-03        -26.5578        -26.5578
            3290     1.52440E+03     1.52440E+03         1.14755         1.14755        -25.8369        -25.8369
            3291     1.52513E+03     1.52513E+03         2.59188         2.59188        -24.9612        -24.9612
            3292     1.52602E+03     1.52602E+03         4.20178         4.20178        -23.8904        -23.8904
            3293     1.52705E+03     1.52705E+03         6.05584         6.05584        -22.5768        -22.5768
            3294     1.52819E+03     1.52819E+03         8.23897         8.23897        -20.9647        -20.9647
            3295     1.52945E+03     1.52945E+03         10.8392         10.8392        -18.9908        -18.9908
            3296     1.53081E+03     1.53081E+03         13.9568         13.9568        -16.5829        -16.5829
            3297     1.53225E+03     1.53225E+03         17.6972         17.6972        -13.6610        -13.6610
            3298     1.53375E+03     1.53375E+03         22.1873         22.1873        -10.1360        -10.1360
            3299     1.53528E+03     1.53528E+03         27.5609         27.5609        -5.91323        -5.91323
            3300     1.53681E+03     1.53681E+03         33.9870         33.9870    -888.526E-03    -888.526E-03
            3301     1.53826E+03     1.53826E+03         41.6422         41.6422         5.03847         5.03847
            3302     1.53955E+03     1.53955E+03         50.7579         50.7579         11.9766         11.9766
            3303     1.54056E+03     1.54056E+03         61.5704         61.5704         20.0077         20.0077
            3304     1.54114E+03     1.54114E+03         74.3933         74.3933         29.2177         29.2177
            3305     1.54105E+03     1.54105E+03         89.5347         89.5347         39.6144         39.6144
            3306     1.54007E+03     1.54007E+03         107.385         107.385         51.1973         51.1973
            3307     1.53783E+03     1.53783E+03         128.305         128.305         63.7996         63.7996
            3308     1.53404E+03     1.53404E+03         152.664         152.664         77.2137         77.2137
            3309     1.52827E+03     1.52827E+03         180.753         180.753         90.9881         90.9881
            3310     1.52033E+03     1.52033E+03         212.657         212.657         104.576         104.576
            3311     1.50993E+03     1.50993E+03         248.290         248.290         117.277         117.277
            3312     1.49721E+03     1.49721E+03         287.128         287.128         128.282         128.282
            3313     1.48239E+03     1.48239E+03         328.407         328.407         136.986         136.986
            3314     1.46597E+03     1.46597E+03         371.005         371.005         142.763         142.763
            3315     1.44879E+03     1.44879E+03         413.451         413.451         144.148         144.148
            3316     1.57034E+03     1.57034E+03        -29.9111        -29.9111         2.76820         2.76820
            3317     1.56480E+03     1.56480E+03        -31.3868        -31.3868        -4.34088        -4.34088
            3318     1.55873E+03     1.55873E+03        -30.6829        -30.6829        -10.3850        -10.3850
            3319     1.55267E+03     1.55267E+03        -28.5509        -28.5509        -15.2594        -15.2594
            3320     1.54698E+03     1.54698E+03        -25.6061        -25.6061        -19.0343        -19.0343
            3321     1.54188E+03     1.54188E+03        -22.3068        -22.3068        -21.8533        -21.8533
            3322     1.53747E+03     1.53747E+03        -18.9801        -18.9801        -23.8921        -23.8921
            3323     1.53377E+03     1.53377E+03        -15.8294        -15.8294        -25.3241        -25.3241
            3324     1.53074E+03     1.53074E+03        -12.9663        -12.9663        -26.2964        -26.2964
            3325     1.52833E+03     1.52833E+03        -10.4356        -10.4356        -26.9266        -26.9266
            3326     1.52645E+03     1.52645E+03        -8.23740        -8.23740        -27.3008        -27.3008
            3327     1.52502E+03     1.52502E+03        -6.34332        -6.34332        -27.4796        -27.4796
            3328     1.52399E+03     1.52399E+03        -4.70763        -4.70763        -27.5011        -27.5011
            3329     1.52329E+03     1.52329E+03        -3.27445        -3.27445        -27.3865        -27.3865
            3330     1.52287E+03     1.52287E+03        -1.98262        -1.98262        -27.1424        -27.1424
            3331     1.52270E+03     1.52270E+03    -767.793E-03    -767.793E-03        -26.7636        -26.7636
            3332     1.52274E+03     1.52274E+03     435.462E-03     435.462E-03        -26.2347        -26.2347
            3333     1.52297E+03     1.52297E+03         1.69460         1.69460        -25.5308        -25.5308
            3334     1.52338E+03     1.52338E+03         3.07766         3.07766        -24.6176        -24.6176
            3335     1.52397E+03     1.52397E+03         4.65671         4.65671        -23.4521        -23.4521
            3336     1.52472E+03     1.52472E+03         6.50561         6.50561        -21.9818        -21.9818
            3337     1.52564E+03     1.52564E+03         8.70679         8.70679        -20.1445        -20.1445
            3338     1.52673E+03     1.52673E+03         11.3465         11.3465        -17.8675        -17.8675
            3339     1.52798E+03     1.52798E+03         14.5270         14.5270        -15.0675        -15.0675
            3340     1.52941E+03     1.52941E+03         18.3569         18.3569        -11.6505        -11.6505
            3341     1.53098E+03     1.53098E+03         22.9734         22.9734        -7.50976        -7.50976
            3342     1.53270E+03     1.53270E+03         28.5216         28.5216        -2.53102        -2.53102
            3343     1.53451E+03     1.53451E+03         35.1967         35.1967         3.41418         3.41418
            3344     1.53635E+03     1.53635E+03         43.2010         43.2010         10.4507         10.4507
            3345     1.53813E+03     1.53813E+03         52.8200         52.8200         18.7186         18.7186
            3346     1.53971E+03     1.53971E+03         64.3411         64.3411         28.3205         28.3205
            3347     1.54088E+03     1.54088E+03         78.1760         78.1760         39.3731         39.3731
            3348     1.54136E+03     1.54136E+03         94.7226         94.7226         51.8733         51.8733
            3349     1.54081E+03     1.54081E+03         114.517         114.517         65.8205         65.8205
            3350     1.53871E+03     1.53871E+03         138.047         138.047         80.9390         80.9390
            3351     1.53469E+03     1.53469E+03         165.796         165.796         96.9025         96.9025
            3352     1.52809E+03     1.52809E+03         198.122         198.122         112.998         112.998
            3353     1.51874E+03     1.51874E+03         234.973         234.973         128.361         128.361
            3354     1.50637E+03     1.50637E+03         276.027         276.027         142.008         142.008
            3355     1.49134E+03     1.49134E+03         320.241         320.241         152.802         152.802
            3356     1.47424E+03     1.47424E+03         366.244         366.244         160.157         160.157
            3357     1.45586E+03     1.45586E+03         412.158         412.158         161.975         161.975
            3358     1.56487E+03     1.56487E+03        -22.9894        -22.9894         6.90503         6.90503
            3359     1.56118E+03     1.56118E+03        -25.1030        -25.1030     683.520E-03     683.520E-03
            3360     1.55675E+03     1.55675E+03        -25.3134        -25.3134        -5.01170        -5.01170
            3361     1.55202E+03     1.55202E+03        -24.1607        -24.1607        -9.95161        -9.95161
            3362     1.54732E+03     1.54732E+03        -22.1363        -22.1363        -14.0657        -14.0657
            3363     1.54288E+03     1.54288E+03        -19.6435        -19.6435        -17.3889        -17.3889
            3364     1.53884E+03     1.53884E+03        -16.9823        -16.9823        -20.0065        -20.0065
            3365     1.53527E+03     1.53527E+03        -14.3630        -14.3630        -22.0257        -22.0257
            3366     1.53218E+03     1.53218E+03        -11.9148        -11.9148        -23.5545        -23.5545
            3367     1.52955E+03     1.52955E+03        -9.70623        -9.70623        -24.6883        -24.6883
            3368     1.52735E+03     1.52735E+03        -7.76042        -7.76042        -25.5063        -25.5063
            3369     1.52553E+03     1.52553E+03        -6.06957        -6.06957        -26.0690        -26.0690
            3370     1.52403E+03     1.52403E+03        -4.60530        -4.60530        -26.4207        -26.4207
            3371     1.52283E+03     1.52283E+03        -3.32656        -3.32656        -26.5903        -26.5903
            3372     1.52188E+03     1.52188E+03        -2.18444        -2.18444        -26.5935        -26.5935
            3373     1.52117E+03     1.52117E+03        -1.12595        -1.12595        -26.4341        -26.4341
            3374     1.52066E+03     1.52066E+03    -95.0601E-03    -95.0601E-03        -26.1048        -26.1048
            3375     1.52034E+03     1.52034E+03     965.307E-03     965.307E-03        -25.5883        -25.5883
            3376     1.52023E+03     1.52023E+03         2.11499         2.11499        -24.8572        -24.8572
            3377     1.52030E+03     1.52030E+03         3.41476         3.41476        -23.8737        -23.8737
            3378     1.52058E+03     1.52058E+03         4.93084         4.93084        -22.5898        -22.5898
            3379     1.52107E+03     1.52107E+03         6.73178         6.73178        -20.9462        -20.9462
            3380     1.52179E+03     1.52179E+03         8.89714         8.89714        -18.8720        -18.8720
            3381     1.52276E+03     1.52276E+03         11.5109         11.5109        -16.2831        -16.2831
            3382     1.52399E+03     1.52399E+03         14.6781         14.6781        -13.0823        -13.0823
            3383     1.52550E+03     1.52550E+03         18.5103         18.5103        -9.15749        -9.15749
            3384     1.52729E+03     1.52729E+03         23.1581         23.1581        -4.38046        -4.38046
            3385     1.52936E+03     1.52936E+03         28.7799         28.7799         1.38996         1.38996
            3386     1.53167E+03     1.53167E+03         35.6054         35.6054         8.31504         8.31504
            3387     1.53419E+03     1.53419E+03         43.8697         43.8697         16.5558         16.5558
            3388     1.53679E+03     1.53679E+03         53.9343         53.9343         26.2992         26.2992
            3389     1.53930E+03     1.53930E+03         66.1556         66.1556         37.6833         37.6833
            3390     1.54148E+03     1.54148E+03         81.0948         81.0948         50.8803         50.8803
            3391     1.54290E+03     1.54290E+03         99.2810         99.2810         65.8751         65.8751
            3392     1.54312E+03     1.54312E+03         121.485         121.485         82.6829         82.6829
            3393     1.54133E+03     1.54133E+03         148.401         148.401         100.841         100.841
            3394     1.53702E+03     1.53702E+03         180.658         180.658         119.817         119.817
            3395     1.52921E+03     1.52921E+03         218.681         218.681         138.460         138.460
            3396     1.51787E+03     1.51787E+03         262.044         262.044         155.358         155.358
            3397     1.50284E+03     1.50284E+03         309.885         309.885         169.202         169.202
            3398     1.48489E+03     1.48489E+03         360.233         360.233         178.463         178.463
            3399     1.46544E+03     1.46544E+03         410.499         410.499         181.163         181.163
            3400     1.55931E+03     1.55931E+03        -17.2278        -17.2278         9.41131         9.41131
            3401     1.55701E+03     1.55701E+03        -19.4847        -19.4847         4.13035         4.13035
            3402     1.55393E+03     1.55393E+03        -20.1833        -20.1833        -1.01731        -1.01731
            3403     1.55039E+03     1.55039E+03        -19.6904        -19.6904        -5.74711        -5.74711
            3404     1.54664E+03     1.54664E+03        -18.3748        -18.3748        -9.91131        -9.91131
            3405     1.54290E+03     1.54290E+03        -16.5618        -16.5618        -13.4593        -13.4593
            3406     1.53933E+03     1.53933E+03        -14.5129        -14.5129        -16.4067        -16.4067
            3407     1.53600E+03     1.53600E+03        -12.4197        -12.4197        -18.8043        -18.8043
            3408     1.53296E+03     1.53296E+03        -10.4123        -10.4123        -20.7198        -20.7198
            3409     1.53022E+03     1.53022E+03        -8.56730        -8.56730        -22.2239        -22.2239
            3410     1.52778E+03     1.52778E+03        -6.92095        -6.92095        -23.3819        -23.3819
            3411     1.52562E+03     1.52562E+03        -5.47919        -5.47919        -24.2500        -24.2500
            3412     1.52370E+03     1.52370E+03        -4.22740        -4.22740        -24.8730        -24.8730
            3413     1.52202E+03     1.52202E+03        -3.13703        -3.13703        -25.2842        -25.2842
            3414     1.52054E+03     1.52054E+03        -2.17113        -2.17113        -25.5051        -25.5051
            3415     1.51926E+03     1.51926E+03        -1.28721        -1.28721        -25.5467        -25.5467
            3416     1.51817E+03     1.51817E+03    -440.187E-03    -440.187E-03        -25.4088        -25.4088
            3417     1.51726E+03     1.51726E+03     417.708E-03     417.708E-03        -25.0813        -25.0813
            3418     1.51655E+03     1.51655E+03         1.33506         1.33506        -24.5430        -24.5430
            3419     1.51603E+03     1.51603E+03         2.36378         2.36378        -23.7628        -23.7628
            3420     1.51575E+03     1.51575E+03         3.55696         3.55696        -22.6977        -22.6977
            3421     1.51570E+03     1.51570E+03         4.97452         4.97452        -21.2937        -21.2937
            3422     1.51594E+03     1.51594E+03         6.67904         6.67904        -19.4830        -19.4830
            3423     1.51649E+03     1.51649E+03         8.74686         8.74686        -17.1850        -17.1850
            3424     1.51738E+03     1.51738E+03         11.2590         11.2590        -14.3021        -14.3021
            3425     1.51867E+03     1.51867E+03         14.3234         14.3234        -10.7207        -10.7207
            3426     1.52038E+03     1.52038E+03         18.0545         18.0545        -6.30645        -6.30645
            3427     1.52254E+03     1.52254E+03         22.6187         22.6187    -904.421E-03    -904.421E-03
            3428     1.52518E+03     1.52518E+03         28.1890         28.1890         5.66285         5.66285
            3429     1.52830E+03     1.52830E+03         35.0393         35.0393         13.6012         13.6012
            3430     1.53184E+03     1.53184E+03         43.4442         43.4442         23.1261         23.1261
            3431     1.53570E+03     1.53570E+03         53.8724         53.8724         34.4967         34.4967
            3432     1.53968E+03     1.53968E+03         66.7711         66.7711         47.9136         47.9136
            3433     1.54344E+03     1.54344E+03         82.9347         82.9347         63.6502         63.6502
            3434     1.54641E+03     1.54641E+03         103.088         103.088         81.6839         81.6839
            3435     1.54789E+03     1.54789E+03         128.405         128.405         102.090         102.090
            3436     1.54658E+03     1.54658E+03         159.931         159.931         124.053         124.053
            3437     1.54181E+03     1.54181E+03         198.450         198.450         146.644         146.644
            3438     1.53209E+03     1.53209E+03         244.385         244.385         167.968         167.968
            3439     1.51776E+03     1.51776E+03         296.373         296.373         185.641         185.641
            3440     1.49926E+03     1.49926E+03         352.329         352.329         198.143         198.143
            3441     1.47795E+03     1.47795E+03         408.550         408.550         201.815         201.815
            3442     1.55402E+03     1.55402E+03        -12.5359        -12.5359         10.7238         10.7238
            3443     1.55279E+03     1.55279E+03        -14.6110        -14.6110         6.32556         6.32556
            3444     1.55081E+03     1.55081E+03        -15.4809        -15.4809         1.80336         1.80336
            3445     1.54829E+03     1.54829E+03        -15.3803        -15.3803        -2.55276        -2.55276
            3446     1.54542E+03     1.54542E+03        -14.5720        -14.5720        -6.55574        -6.55574
            3447     1.54237E+03     1.54237E+03        -13.3041        -13.3041        -10.1057        -10.1057
            3448     1.53928E+03     1.53928E+03        -11.7868        -11.7868        -13.1661        -13.1661
            3449     1.53624E+03     1.53624E+03        -10.1837        -10.1837        -15.7448        -15.7448
            3450     1.53331E+03     1.53331E+03        -8.61032        -8.61032        -17.8754        -17.8754
            3451     1.53052E+03     1.53052E+03        -7.14116        -7.14116        -19.6047        -19.6047
            3452     1.52789E+03     1.52789E+03        -5.81580        -5.81580        -20.9834        -20.9834
            3453     1.52541E+03     1.52541E+03        -4.64789        -4.64789        -22.0600        -22.0600
            3454     1.52309E+03     1.52309E+03        -3.63188        -3.63188        -22.8770        -22.8770
            3455     1.52093E+03     1.52093E+03        -2.74942        -2.74942        -23.4689        -23.4689
            3456     1.51891E+03     1.51891E+03        -1.97349        -1.97349        -23.8612        -23.8612
            3457     1.51703E+03     1.51703E+03        -1.27212        -1.27212        -24.0695        -24.0695
            3458     1.51531E+03     1.51531E+03    -609.827E-03    -609.827E-03        -24.0998        -24.0998
            3459     1.51375E+03     1.51375E+03     50.3357E-03     50.3357E-03        -23.9478        -23.9478
            3460     1.51237E+03     1.51237E+03     747.605E-03     747.605E-03        -23.5992        -23.5992
            3461     1.51118E+03     1.51118E+03         1.52185         1.52185        -23.0287        -23.0287
            3462     1.51022E+03     1.51022E+03         2.41678         2.41678        -22.2007        -22.2007
            3463     1.50952E+03     1.50952E+03         3.47742         3.47742        -21.0664        -21.0664
            3464     1.50913E+03     1.50913E+03         4.75683         4.75683        -19.5657        -19.5657
            3465     1.50910E+03     1.50910E+03         6.31097         6.31097        -17.6217        -17.6217
            3466     1.50949E+03     1.50949E+03         8.21207         8.21207        -15.1440        -15.1440
            3467     1.51035E+03     1.51035E+03         10.5372         10.5372        -12.0195        -12.0195
            3468     1.51176E+03     1.51176E+03         13.3962         13.3962        -8.11757        -8.11757
            3469     1.51380E+03     1.51380E+03         16.9052         16.9052        -3.27639        -3.27639
            3470     1.51653E+03     1.51653E+03         21.2472         21.2472         2.69053         2.69053
            3471     1.52001E+03     1.52001E+03         26.6094         26.6094         10.0099         10.0099
            3472     1.52428E+03     1.52428E+03         33.3200         33.3200         18.9466         18.9466
            3473     1.52934E+03     1.52934E+03         41.6971         41.6971         29.8003         29.8003
            3474     1.53508E+03     1.53508E+03         52.3588         52.3588         42.9400         42.9400
            3475     1.54131E+03     1.54131E+03         65.8674         65.8674         58.6818         58.6818
            3476     1.54755E+03     1.54755E+03         83.3926         83.3926         77.4866         77.4866
            3477     1.55300E+03     1.55300E+03         105.951         105.951         99.3496         99.3496
            3478     1.55656E+03     1.55656E+03         135.472         135.472         124.526         124.526
            3479     1.55588E+03     1.55588E+03         173.664         173.664         151.473         151.473
            3480     1.55019E+03     1.55019E+03         221.311         221.311         178.379         178.379
            3481     1.53731E+03     1.53731E+03         278.491         278.491         202.119         202.119
            3482     1.51846E+03     1.51846E+03         341.611         341.611         218.630         218.630
            3483     1.49594E+03     1.49594E+03         405.692         405.692         224.766         224.766
            3484     1.54918E+03     1.54918E+03        -8.76437        -8.76437         11.1194         11.1194
            3485     1.54882E+03     1.54882E+03        -10.4730        -10.4730         7.50704         7.50704
            3486     1.54778E+03     1.54778E+03        -11.3003        -11.3003         3.62417         3.62417
            3487     1.54615E+03     1.54615E+03        -11.3910        -11.3910    -259.476E-03    -259.476E-03
            3488     1.54407E+03     1.54407E+03        -10.9222        -10.9222        -3.94898        -3.94898
            3489     1.54166E+03     1.54166E+03        -10.0724        -10.0724        -7.31917        -7.31917
            3490     1.53905E+03     1.53905E+03        -8.99990        -8.99990        -10.3038        -10.3038
            3491     1.53630E+03     1.53630E+03        -7.83252        -7.83252        -12.8805        -12.8805
            3492     1.53349E+03     1.53349E+03        -6.66505        -6.66505        -15.0577        -15.0577
            3493     1.53066E+03     1.53066E+03        -5.56061        -5.56061        -16.8630        -16.8630
            3494     1.52784E+03     1.52784E+03        -4.55601        -4.55601        -18.3336        -18.3336
            3495     1.52506E+03     1.52506E+03        -3.66667        -3.66667        -19.5098        -19.5098
            3496     1.52233E+03     1.52233E+03        -2.89252        -2.89252        -20.4303        -20.4303
            3497     1.51966E+03     1.51966E+03        -2.22225        -2.22225        -21.1288        -21.1288
            3498     1.51707E+03     1.51707E+03        -1.63744        -1.63744        -21.6323        -21.6323
            3499     1.51456E+03     1.51456E+03        -1.11482        -1.11482        -21.9598        -21.9598
            3500     1.51215E+03     1.51215E+03    -628.670E-03    -628.670E-03        -22.1212        -22.1212
            3501     1.50987E+03     1.50987E+03    -151.096E-03    -151.096E-03        -22.1178        -22.1178
            3502     1.50773E+03     1.50773E+03     346.395E-03     346.395E-03        -21.9407        -21.9407
            3503     1.50577E+03     1.50577E+03     894.399E-03     894.399E-03        -21.5717        -21.5717
            3504     1.50403E+03     1.50403E+03         1.52404         1.52404        -20.9813        -20.9813
            3505     1.50254E+03     1.50254E+03         2.27058         2.27058        -20.1298        -20.1298
            3506     1.50137E+03     1.50137E+03         3.17074         3.17074        -18.9635        -18.9635
            3507     1.50058E+03     1.50058E+03         4.26995         4.26995        -17.4170        -17.4170
            3508     1.50025E+03     1.50025E+03         5.61669         5.61669        -15.4055        -15.4055
            3509     1.50046E+03     1.50046E+03         7.27734         7.27734        -12.8299        -12.8299
            3510     1.50131E+03     1.50131E+03         9.32335         9.32335        -9.56174        -9.56174
            3511     1.50291E+03     1.50291E+03         11.8635         11.8635        -5.45366        -5.45366
            3512     1.50540E+03     1.50540E+03         15.0127         15.0127    -312.186E-03    -312.186E-03
            3513     1.50889E+03     1.50889E+03         18.9678         18.9678         6.08383         6.08383
            3514     1.51353E+03     1.51353E+03         23.9269         23.9269         14.0268         14.0268
            3515     1.51940E+03     1.51940E+03         30.2774         30.2774         23.8561         23.8561
            3516     1.52664E+03     1.52664E+03         38.3808         38.3808         36.0020         36.0020
            3517     1.53514E+03     1.53514E+03         49.0552         49.0552         50.9966         50.9966
            3518     1.54480E+03     1.54480E+03         62.9988         62.9988         69.3770         69.3770
            3519     1.55498E+03     1.55498E+03         82.0002         82.0002         91.9517         91.9517
            3520     1.56456E+03     1.56456E+03         107.503         107.503         118.837         118.837
            3521     1.57164E+03     1.57164E+03         143.017         143.017         150.816         150.816
            3522     1.57153E+03     1.57153E+03         191.632         191.632         184.651         184.651
            3523     1.56374E+03     1.56374E+03         253.284         253.284         216.310         216.310
            3524     1.54571E+03     1.54571E+03         326.305         326.305         240.930         240.930
            3525     1.52038E+03     1.52038E+03         401.943         401.943         249.726         249.726
            3526     1.54490E+03     1.54490E+03        -5.76724        -5.76724         10.7267         10.7267
            3527     1.54535E+03     1.54535E+03        -7.02814        -7.02814         7.81080         7.81080
            3528     1.54515E+03     1.54515E+03        -7.68980        -7.68980         4.56410         4.56410
            3529     1.54433E+03     1.54433E+03        -7.83629        -7.83629         1.22297         1.22297
            3530     1.54297E+03     1.54297E+03        -7.58056        -7.58056        -2.02906        -2.02906
            3531     1.54116E+03     1.54116E+03        -7.04183        -7.04183        -5.06325        -5.06325
            3532     1.53897E+03     1.53897E+03        -6.33013        -6.33013        -7.80034        -7.80034
            3533     1.53648E+03     1.53648E+03        -5.53707        -5.53707        -10.2023        -10.2023
            3534     1.53376E+03     1.53376E+03        -4.73223        -4.73223        -12.2619        -12.2619
            3535     1.53087E+03     1.53087E+03        -3.96376        -3.96376        -13.9929        -13.9929
            3536     1.52784E+03     1.52784E+03        -3.26066        -3.26066        -15.4222        -15.4222
            3537     1.52473E+03     1.52473E+03        -2.63669        -2.63669        -16.5825        -16.5825
            3538     1.52155E+03     1.52155E+03        -2.09375        -2.09375        -17.5080        -17.5080
            3539     1.51834E+03     1.51834E+03        -1.62556        -1.62556        -18.2299        -18.2299
            3540     1.51513E+03     1.51513E+03        -1.22008        -1.22008        -18.7750        -18.7750
            3541     1.51193E+03     1.51193E+03    -861.885E-03    -861.885E-03        -19.1633        -19.1633
            3542     1.50877E+03     1.50877E+03    -533.183E-03    -533.183E-03        -19.4079        -19.4079
            3543     1.50569E+03     1.50569E+03    -215.251E-03    -215.251E-03        -19.5132        -19.5132
            3544     1.50271E+03     1.50271E+03     111.955E-03     111.955E-03        -19.4760        -19.4760
            3545     1.49987E+03     1.49987E+03     468.676E-03     468.676E-03        -19.2833        -19.2833
            3546     1.49722E+03     1.49722E+03     877.056E-03     877.056E-03        -18.9140        -18.9140
            3547     1.49480E+03     1.49480E+03         1.35979         1.35979        -18.3356        -18.3356
            3548     1.49269E+03     1.49269E+03         1.94354         1.94354        -17.5065        -17.5065
            3549     1.49095E+03     1.49095E+03         2.65667         2.65667        -16.3698        -16.3698
            3550     1.48967E+03     1.48967E+03         3.53576         3.53576        -14.8582        -14.8582
            3551     1.48895E+03     1.48895E+03         4.62102         4.62102        -12.8815        -12.8815
            3552     1.48893E+03     1.48893E+03         5.96975         5.96975        -10.3360        -10.3360
            3553     1.48974E+03     1.48974E+03         7.64564         7.64564        -7.08028        -7.08028
            3554     1.49155E+03     1.49155E+03         9.74982         9.74982        -2.95493        -2.95493
            3555     1.49458E+03     1.49458E+03         12.3922         12.3922         2.26724         2.26724
            3556     1.49901E+03     1.49901E+03         15.7720         15.7720         8.83886         8.83886
            3557     1.50514E+03     1.50514E+03         20.0918         20.0918         17.1362         17.1362
            3558     1.51317E+03     1.51317E+03         25.7883         25.7883         27.5813         27.5813
            3559     1.52343E+03     1.52343E+03         33.2578         33.2578         40.8051         40.8051
            3560     1.53597E+03     1.53597E+03         43.5621         43.5621         57.5626         57.5626
            3561     1.55094E+03     1.55094E+03         57.5368         57.5368         78.8245         78.8245
            3562     1.56755E+03     1.56755E+03         77.9935         77.9935         106.025         106.025
            3563     1.58447E+03     1.58447E+03         106.945         106.945         139.784         139.784
            3564     1.59802E+03     1.59802E+03         151.651         151.651         182.441         182.441
            3565     1.59760E+03     1.59760E+03         218.302         218.302         226.391         226.391
            3566     1.58470E+03     1.58470E+03         302.319         302.319         261.437         261.437
            3567     1.55947E+03     1.55947E+03         394.969         394.969         279.319         279.319
            3568     1.54130E+03     1.54130E+03        -3.43181        -3.43181         9.54540         9.54540
            3569     1.54259E+03     1.54259E+03        -4.24363        -4.24363         7.27227         7.27227
            3570     1.54323E+03     1.54323E+03        -4.68982        -4.68982         4.67710         4.67710
            3571     1.54319E+03     1.54319E+03        -4.81560        -4.81560         1.95439         1.95439
            3572     1.54251E+03     1.54251E+03        -4.68625        -4.68625    -738.323E-03    -738.323E-03
            3573     1.54122E+03     1.54122E+03        -4.37395        -4.37395        -3.28440        -3.28440
            3574     1.53940E+03     1.53940E+03        -3.94680        -3.94680        -5.60738        -5.60738
            3575     1.53711E+03     1.53711E+03        -3.46271        -3.46271        -7.66559        -7.66559
            3576     1.53442E+03     1.53442E+03        -2.96662        -2.96662        -9.44520        -9.44520
            3577     1.53140E+03     1.53140E+03        -2.49001        -2.49001        -10.9524        -10.9524
            3578     1.52811E+03     1.52811E+03        -2.05254        -2.05254        -12.2063        -12.2063
            3579     1.52460E+03     1.52460E+03        -1.66386        -1.66386        -13.2332        -13.2332
            3580     1.52091E+03     1.52091E+03        -1.32616        -1.32616        -14.0618        -14.0618
            3581     1.51710E+03     1.51710E+03        -1.03605        -1.03605        -14.7198        -14.7198
            3582     1.51320E+03     1.51320E+03    -786.601E-03    -786.601E-03        -15.2315        -15.2315
            3583     1.50924E+03     1.50924E+03    -568.368E-03    -568.368E-03        -15.6161        -15.6161
            3584     1.50526E+03     1.50526E+03    -370.745E-03    -370.745E-03        -15.8871        -15.8871
            3585     1.50130E+03     1.50130E+03    -182.056E-03    -182.056E-03        -16.0514        -16.0514
            3586     1.49739E+03     1.49739E+03     9.53175E-03     9.53175E-03        -16.1090        -16.1090
            3587     1.49357E+03     1.49357E+03     216.714E-03     216.714E-03        -16.0529        -16.0529
            3588     1.48988E+03     1.48988E+03     452.261E-03     452.261E-03        -15.8680        -15.8680
            3589     1.48640E+03     1.48640E+03     730.485E-03     730.485E-03        -15.5321        -15.5321
            3590     1.48316E+03     1.48316E+03         1.06640         1.06640        -15.0125        -15.0125
            3591     1.48027E+03     1.48027E+03         1.47807         1.47807        -14.2692        -14.2692
            3592     1.47780E+03     1.47780E+03         1.98576         1.98576        -13.2465        -13.2465
            3593     1.47588E+03     1.47588E+03         2.61563         2.61563        -11.8802        -11.8802
            3594     1.47463E+03     1.47463E+03         3.39912         3.39912        -10.0805        -10.0805
            3595     1.47423E+03     1.47423E+03         4.37947         4.37947        -7.74737        -7.74737
            3596     1.47488E+03     1.47488E+03         5.61109         5.61109        -4.73282        -4.73282
            3597     1.47683E+03     1.47683E+03         7.17533         7.17533    -877.619E-03    -877.619E-03
            3598     1.48037E+03     1.48037E+03         9.17403         9.17403         4.07400         4.07400
            3599     1.48586E+03     1.48586E+03         11.7824         11.7824         10.3892         10.3892
            3600     1.49375E+03     1.49375E+03         15.2022         15.2022         18.5393         18.5393
            3601     1.50452E+03     1.50452E+03         19.8709         19.8709         29.0105         29.0105
            3602     1.51886E+03     1.51886E+03         26.2090         26.2090         42.7239         42.7239
            3603     1.53719E+03     1.53719E+03         35.4946         35.4946         60.6797         60.6797
            3604     1.56044E+03     1.56044E+03         48.6708         48.6708         84.6904         84.6904
            3605     1.58792E+03     1.58792E+03         70.1279         70.1279         117.198         117.198
            3606     1.61911E+03     1.61911E+03         102.438         102.438         160.687         160.687
            3607     1.64613E+03     1.64613E+03         162.872         162.872         222.036         222.036
            3608     1.64244E+03     1.64244E+03         264.247         264.247         281.616         281.616
            3609     1.61664E+03     1.61664E+03         382.896         382.896         309.191         309.191
            3610     1.53852E+03     1.53852E+03        -1.70168        -1.70168         7.45588         7.45588
            3611     1.54079E+03     1.54079E+03        -2.12680        -2.12680         5.83359         5.83359
            3612     1.54234E+03     1.54234E+03        -2.36716        -2.36716         3.95437         3.95437
            3613     1.54310E+03     1.54310E+03        -2.44288        -2.44288         1.96192         1.96192
            3614     1.54306E+03     1.54306E+03        -2.38626        -2.38626    -24.6855E-03    -24.6855E-03
            3615     1.54224E+03     1.54224E+03        -2.23352        -2.23352        -1.91509        -1.91509
            3616     1.54070E+03     1.54070E+03        -2.01956        -2.01956        -3.64835        -3.64835
            3617     1.53851E+03     1.53851E+03        -1.77443        -1.77443        -5.18997        -5.18997
            3618     1.53575E+03     1.53575E+03        -1.52158        -1.52158        -6.52691        -6.52691
            3619     1.53251E+03     1.53251E+03        -1.27778        -1.27778        -7.66218        -7.66218
            3620     1.52885E+03     1.52885E+03        -1.05347        -1.05347        -8.60942        -8.60942
            3621     1.52485E+03     1.52485E+03    -854.075E-03    -854.075E-03        -9.38833        -9.38833
            3622     1.52057E+03     1.52057E+03    -680.891E-03    -680.891E-03        -10.0210        -10.0210
            3623     1.51608E+03     1.51608E+03    -532.495E-03    -532.495E-03        -10.5291        -10.5291
            3624     1.51141E+03     1.51141E+03    -405.365E-03    -405.365E-03        -10.9321        -10.9321
            3625     1.50662E+03     1.50662E+03    -294.930E-03    -294.930E-03        -11.2460        -11.2460
            3626     1.50174E+03     1.50174E+03    -195.704E-03    -195.704E-03        -11.4824        -11.4824
            3627     1.49681E+03     1.49681E+03    -102.042E-03    -102.042E-03        -11.6481        -11.6481
            3628     1.49188E+03     1.49188E+03    -7.79754E-03    -7.79754E-03        -11.7454        -11.7454
            3629     1.48697E+03     1.48697E+03     93.0585E-03     93.0585E-03        -11.7708        -11.7708
            3630     1.48214E+03     1.48214E+03     207.126E-03     207.126E-03        -11.7161        -11.7161
            3631     1.47744E+03     1.47744E+03     341.127E-03     341.127E-03        -11.5666        -11.5666
            3632     1.47293E+03     1.47293E+03     502.638E-03     502.638E-03        -11.3028        -11.3028
            3633     1.46868E+03     1.46868E+03     700.318E-03     700.318E-03        -10.8961        -10.8961
            3634     1.46478E+03     1.46478E+03     943.868E-03     943.868E-03        -10.3131        -10.3131
            3635     1.46135E+03     1.46135E+03         1.24659         1.24659        -9.50587        -9.50587
            3636     1.45853E+03     1.45853E+03         1.62240         1.62240        -8.42146        -8.42146
            3637     1.45648E+03     1.45648E+03         2.09503         2.09503        -6.98022        -6.98022
            3638     1.45543E+03     1.45543E+03         2.68698         2.68698        -5.09846        -5.09846
            3639     1.45563E+03     1.45563E+03         3.44509         3.44509        -2.63736        -2.63736
            3640     1.45743E+03     1.45743E+03         4.41183         4.41183     540.092E-03     540.092E-03
            3641     1.46126E+03     1.46126E+03         5.68573         5.68573         4.69602         4.69602
            3642     1.46766E+03     1.46766E+03         7.36678         7.36678         10.0700         10.0700
            3643     1.47736E+03     1.47736E+03         9.67010         9.67010         17.2085         17.2085
            3644     1.49124E+03     1.49124E+03         12.9022         12.9022         26.5776         26.5776
            3645     1.51066E+03     1.51066E+03         17.5432         17.5432         39.4498         39.4498
            3646     1.53693E+03     1.53693E+03         24.8032         24.8032         56.9140         56.9140
            3647     1.57280E+03     1.57280E+03         35.7792         35.7792         82.2807         82.2807
            3648     1.61908E+03     1.61908E+03         56.6178         56.6178         119.059         119.059
            3649     1.68062E+03     1.68062E+03         90.1676         90.1676         176.075         176.075
            3650     1.74124E+03     1.74124E+03         182.375         182.375         272.054         272.054
            3651     1.73126E+03     1.73126E+03         352.767         352.767         352.474         352.474
            3652     1.53680E+03     1.53680E+03    -597.092E-03    -597.092E-03         4.24862         4.24862
            3653     1.54029E+03     1.54029E+03    -753.093E-03    -753.093E-03         3.37034         3.37034
            3654     1.54289E+03     1.54289E+03    -842.884E-03    -842.884E-03         2.34662         2.34662
            3655     1.54449E+03     1.54449E+03    -873.121E-03    -873.121E-03         1.25719         1.25719
            3656     1.54506E+03     1.54506E+03    -855.198E-03    -855.198E-03     168.533E-03     168.533E-03
            3657     1.54462E+03     1.54462E+03    -801.979E-03    -801.979E-03    -868.793E-03    -868.793E-03
            3658     1.54325E+03     1.54325E+03    -726.109E-03    -726.109E-03        -1.82039        -1.82039
            3659     1.54102E+03     1.54102E+03    -638.418E-03    -638.418E-03        -2.66668        -2.66668
            3660     1.53805E+03     1.53805E+03    -547.550E-03    -547.550E-03        -3.40030        -3.40030
            3661     1.53443E+03     1.53443E+03    -459.572E-03    -459.572E-03        -4.02291        -4.02291
            3662     1.53027E+03     1.53027E+03    -378.435E-03    -378.435E-03        -4.54232        -4.54232
            3663     1.52566E+03     1.52566E+03    -306.084E-03    -306.084E-03        -4.96979        -4.96979
            3664     1.52068E+03     1.52068E+03    -243.151E-03    -243.151E-03        -5.31800        -5.31800
            3665     1.51540E+03     1.51540E+03    -189.065E-03    -189.065E-03        -5.59950        -5.59950
            3666     1.50988E+03     1.50988E+03    -142.729E-03    -142.729E-03        -5.82557        -5.82557
            3667     1.50417E+03     1.50417E+03    -102.382E-03    -102.382E-03        -6.00565        -6.00565
            3668     1.49831E+03     1.49831E+03    -66.2724E-03    -66.2724E-03        -6.14674        -6.14674
            3669     1.49235E+03     1.49235E+03    -32.1992E-03    -32.1992E-03        -6.25344        -6.25344
            3670     1.48631E+03     1.48631E+03     1.75458E-03     1.75458E-03        -6.32748        -6.32748
            3671     1.48023E+03     1.48023E+03     37.9538E-03     37.9538E-03        -6.36817        -6.36817
            3672     1.47415E+03     1.47415E+03     78.4455E-03     78.4455E-03        -6.37157        -6.37157
            3673     1.46811E+03     1.46811E+03     125.737E-03     125.737E-03        -6.33145        -6.33145
            3674     1.46216E+03     1.46216E+03     182.413E-03     182.413E-03        -6.23752        -6.23752
            3675     1.45638E+03     1.45638E+03     251.121E-03     251.121E-03        -6.07733        -6.07733
            3676     1.45083E+03     1.45083E+03     336.117E-03     336.117E-03        -5.83234        -5.83234
            3677     1.44561E+03     1.44561E+03     439.864E-03     439.864E-03        -5.48216        -5.48216
            3678     1.44086E+03     1.44086E+03     571.098E-03     571.098E-03        -4.99562        -4.99562
            3679     1.43674E+03     1.43674E+03     730.686E-03     730.686E-03        -4.34072        -4.34072
            3680     1.43343E+03     1.43343E+03     938.852E-03     938.852E-03        -3.46354        -3.46354
            3681     1.43121E+03     1.43121E+03         1.19060         1.19060        -2.31358        -2.31358
            3682     1.43040E+03     1.43040E+03         1.53532         1.53532    -789.592E-03    -789.592E-03
            3683     1.43142E+03     1.43142E+03         1.95136         1.95136         1.19046         1.19046
            3684     1.43486E+03     1.43486E+03         2.56242         2.56242         3.83979         3.83979
            3685     1.44146E+03     1.44146E+03         3.30870         3.30870         7.29722         7.29722
            3686     1.45230E+03     1.45230E+03         4.50501         4.50501         12.0787         12.0787
            3687     1.46882E+03     1.46882E+03         6.04329         6.04329         18.4370         18.4370
            3688     1.49334E+03     1.49334E+03         8.74081         8.74081         27.8439         27.8439
            3689     1.52888E+03     1.52888E+03         12.7519         12.7519         40.8688         40.8688
            3690     1.58189E+03     1.58189E+03         20.2890         20.2890         62.7327         62.7327
            3691     1.65904E+03     1.65904E+03         36.1615         36.1615         95.8911         95.8911
            3692     1.78718E+03     1.78718E+03         67.5717         67.5717         167.242         167.242
            3693     1.95085E+03     1.95085E+03         239.207         239.207         309.247         309.247
            3694         90.4956         90.4956        -675.184        -675.184        -86.5352        -86.5352
            3695         325.701         325.701        -274.335        -274.335        -222.378        -222.378
            3696         631.108         631.108        -85.2314        -85.2314        -240.341        -240.341
            3697         917.030         917.030        -13.9710        -13.9710        -197.861        -197.861
            3698     1.14003E+03     1.14003E+03         5.28776         5.28776        -139.802        -139.802
            3699         287.046         287.046        -498.198        -498.198        -196.834        -196.834
            3700         629.507         629.507        -275.776        -275.776        -388.011        -388.011
            3701         933.060         933.060        -162.403        -162.403        -383.736        -383.736
            3702     1.15880E+03     1.15880E+03        -100.734        -100.734        -297.666        -297.666
            3703     1.30954E+03     1.30954E+03        -63.5851        -63.5851        -202.047        -202.047
            3704         612.297         612.297        -283.375        -283.375        -324.283        -324.283
            3705     1.03592E+03     1.03592E+03        -278.176        -278.176        -454.494        -454.494
            3706     1.28361E+03     1.28361E+03        -233.195        -233.195        -393.786        -393.786
            3707     1.41207E+03     1.41207E+03        -171.123        -171.123        -281.931        -281.931
            3708     1.47472E+03     1.47472E+03        -114.994        -114.994        -181.062        -181.062
            3709     1.03853E+03     1.03853E+03        -92.4433        -92.4433        -432.141        -432.141
            3710     1.43463E+03     1.43463E+03        -267.018        -267.018        -412.614        -412.614
            3711     1.56811E+03     1.56811E+03        -257.183        -257.183        -305.259        -305.259
            3712     1.59230E+03     1.59230E+03        -192.231        -192.231        -199.864        -199.864
            3713     1.58110E+03     1.58110E+03        -127.570        -127.570        -120.515        -120.515
            3714     1.70972E+03     1.70972E+03         191.065         191.065         67.7941         67.7941
            3715     1.85122E+03     1.85122E+03         293.582         293.582         78.4899         78.4899
            3716     2.10453E+03     2.10453E+03         398.370         398.370         53.6711         53.6711
            3717     2.54330E+03     2.54330E+03         451.853         451.853        -49.8638        -49.8638
            3718     3.25317E+03     3.25317E+03         370.672         370.672        -279.030        -279.030
            3719     1.72850E+03     1.72850E+03         70.6688         70.6688         80.7800         80.7800
            3720     1.85935E+03     1.85935E+03         129.503         129.503         94.8272         94.8272
            3721     2.06541E+03     2.06541E+03         213.742         213.742         60.6299         60.6299
            3722     2.38893E+03     2.38893E+03         309.099         309.099        -96.6848        -96.6848
            3723     2.89288E+03     2.89288E+03         368.748         368.748        -477.058        -477.058
            3724     1.72206E+03     1.72206E+03        -37.6325        -37.6325         42.2517         42.2517
            3725     1.83717E+03     1.83717E+03        -32.4428        -32.4428         44.7933         44.7933
            3726     1.99391E+03     1.99391E+03         5.45538         5.45538         6.81810         6.81810
            3727     2.18717E+03     2.18717E+03         112.587         112.587        -149.415        -149.415
            3728     2.41615E+03     2.41615E+03         319.761         319.761        -562.175        -562.175
            3729     1.68572E+03     1.68572E+03        -95.6515        -95.6515        -11.7495        -11.7495
            3730     1.77707E+03     1.77707E+03        -132.566        -132.566        -32.7941        -32.7941
            3731     1.88751E+03     1.88751E+03        -149.821        -149.821        -85.6302        -85.6302
            3732     1.97229E+03     1.97229E+03        -80.3632        -80.3632        -220.556        -220.556
            3733     1.92982E+03     1.92982E+03         205.553         205.553        -556.098        -556.098
            3734     1.10978E+03     1.10978E+03        -63.3050        -63.3050         448.314         448.314
            3735     1.49545E+03     1.49545E+03        -264.293        -264.293         401.686         401.686
            3736     1.60882E+03     1.60882E+03        -258.634        -258.634         288.039         288.039
            3737     1.61669E+03     1.61669E+03        -193.249        -193.249         184.912         184.912
            3738     1.59482E+03     1.59482E+03        -127.773        -127.773         109.829         109.829
            3739         739.569         739.569        -214.585        -214.585         364.918         364.918
            3740     1.17340E+03     1.17340E+03        -278.245        -278.245         456.625         456.625
            3741     1.39133E+03     1.39133E+03        -249.910        -249.910         376.932         376.932
            3742     1.48486E+03     1.48486E+03        -186.375        -186.375         261.805         261.805
            3743     1.51986E+03     1.51986E+03        -125.301        -125.301         164.416         164.416
            3744         428.891         428.891        -394.116        -394.116         259.019         259.019
            3745         822.493         822.493        -278.775        -278.775         439.111         439.111
            3746     1.10914E+03     1.10914E+03        -202.930        -202.930         410.326         410.326
            3747     1.29140E+03     1.29140E+03        -142.762        -142.762         307.003         307.003
            3748     1.39862E+03     1.39862E+03        -95.3248        -95.3248         203.089         203.089
            3749         202.171         202.171        -572.463        -572.463         155.424         155.424
            3750         505.860         505.860        -276.998        -276.998         345.114         345.114
            3751         814.545         814.545        -134.682        -134.682         355.742         355.742
            3752     1.06682E+03     1.06682E+03        -70.2878        -70.2878         283.949         283.949
            3753     1.24652E+03     1.24652E+03        -40.0655        -40.0655         196.454         196.454
            3754         67.9258         67.9258        -706.944        -706.944         69.6861         69.6861
            3755         285.990         285.990        -277.470        -277.470         189.623         189.623
            3756         587.349         587.349        -74.6877        -74.6877         208.229         208.229
            3757         878.993         878.993     217.713E-03     217.713E-03         173.550         173.550
            3758     1.11182E+03     1.11182E+03         17.4936         17.4936         123.871         123.871
            3759     1.68754E+03     1.68754E+03        -98.2009        -98.2009         15.2108         15.2108
            3760     1.77873E+03     1.77873E+03        -134.751        -134.751         35.4163         35.4163
            3761     1.88902E+03     1.88902E+03        -151.599        -151.599         87.5952         87.5952
            3762     1.97400E+03     1.97400E+03        -81.7432        -81.7432         222.090         222.090
            3763     1.93201E+03     1.93201E+03         204.633         204.633         557.413         557.413
            3764     1.72341E+03     1.72341E+03        -39.5663        -39.5663        -38.9769        -38.9769
            3765     1.83842E+03     1.83842E+03        -33.9954        -33.9954        -42.2845        -42.2845
            3766     1.99510E+03     1.99510E+03         4.37732         4.37732        -4.92814        -4.92814
            3767     2.18853E+03     2.18853E+03         112.029         112.029         150.792         150.792
            3768     2.41825E+03     2.41825E+03         319.930         319.930         563.412         563.412
            3769     1.72936E+03     1.72936E+03         69.4343         69.4343        -77.6240        -77.6240
            3770     1.86013E+03     1.86013E+03         128.632         128.632        -92.3072        -92.3072
            3771     2.06612E+03     2.06612E+03         213.328         213.328        -58.6522        -58.6522
            3772     2.38982E+03     2.38982E+03         309.242         309.242         98.2494         98.2494
            3773     2.89460E+03     2.89460E+03         369.256         369.256         478.375         478.375
            3774     1.71013E+03     1.71013E+03         190.493         190.493        -64.6534        -64.6534
            3775     1.85157E+03     1.85157E+03         293.241         293.241        -75.8618        -75.8618
            3776     2.10483E+03     2.10483E+03         398.345         398.345        -51.4503        -51.4503
            3777     2.54374E+03     2.54374E+03         452.127         452.127         51.7304         51.7304
            3778     3.25416E+03     3.25416E+03         371.024         371.024         280.359         280.359
            3779     1.85269E+03     1.85269E+03         185.698         185.698        -552.316        -552.316
            3780     1.93820E+03     1.93820E+03        -110.079        -110.079        -233.809        -233.809
            3781     1.87008E+03     1.87008E+03        -172.552        -172.552        -103.167        -103.167
            3782     1.76737E+03     1.76737E+03        -147.149        -147.149        -48.2049        -48.2049
            3783     1.68051E+03     1.68051E+03        -104.882        -104.882        -23.9480        -23.9480
            3784     2.25312E+03     2.25312E+03         293.444         293.444        -573.585        -573.585
            3785     2.11804E+03     2.11804E+03         45.6962         45.6962        -171.309        -171.309
            3786     1.96502E+03     1.96502E+03        -57.4127        -57.4127        -21.4305        -21.4305
            3787     1.82413E+03     1.82413E+03        -78.0076        -78.0076         18.3820         18.3820
            3788     1.71568E+03     1.71568E+03        -67.1471        -67.1471         21.3231         21.3231
            3789     2.66792E+03     2.66792E+03         355.563         355.563        -540.011        -540.011
            3790     2.29425E+03     2.29425E+03         216.740         216.740        -123.144        -123.144
            3791     2.03644E+03     2.03644E+03         107.104         107.104         40.9907         40.9907
            3792     1.85603E+03     1.85603E+03         41.0992         41.0992         76.2718         76.2718
            3793     1.73225E+03     1.73225E+03         8.34152         8.34152         64.5766         64.5766
            3794     3.04208E+03     3.04208E+03         373.854         373.854        -429.959        -429.959
            3795     2.45286E+03     2.45286E+03         367.980         367.980        -83.9784        -83.9784
            3796     2.08414E+03     2.08414E+03         285.174         285.174         64.7116         64.7116
            3797     1.86043E+03     1.86043E+03         189.960         189.960         98.2671         98.2671
            3798     1.72544E+03     1.72544E+03         113.022         113.022         83.2601         83.2601
            3799     3.30742E+03     3.30742E+03         367.547         367.547        -240.862        -240.862
            3800     2.56784E+03     2.56784E+03         469.159         469.159        -44.4216        -44.4216
            3801     2.11122E+03     2.11122E+03         424.345         424.345         45.8872         45.8872
            3802     1.84962E+03     1.84962E+03         318.708         318.708         68.1946         68.1946
            3803     1.70600E+03     1.70600E+03         210.537         210.537         58.7623         58.7623
            3804     1.68544E+03     1.68544E+03        -95.9481        -95.9481         12.0518         12.0518
            3805     1.77666E+03     1.77666E+03        -132.992        -132.992         33.2479         33.2479
            3806     1.88693E+03     1.88693E+03        -150.330        -150.330         86.2267         86.2267
            3807     1.97165E+03     1.97165E+03        -81.0394        -81.0394         221.180         221.180
            3808     1.92920E+03     1.92920E+03         204.421         204.421         556.264         556.264
            3809     1.72190E+03     1.72190E+03        -38.0795        -38.0795        -41.9530        -41.9530
            3810     1.83690E+03     1.83690E+03        -32.9884        -32.9884        -44.3359        -44.3359
            3811     1.99346E+03     1.99346E+03         4.88332         4.88332        -6.21615        -6.21615
            3812     2.18641E+03     2.18641E+03         111.976         111.976         149.907         149.907
            3813     2.41507E+03     2.41507E+03         319.354         319.354         562.210         562.210
            3814     1.72850E+03     1.72850E+03         70.0919         70.0919        -80.4990        -80.4990
            3815     1.85922E+03     1.85922E+03         128.916         128.916        -94.3379        -94.3379
            3816     2.06502E+03     2.06502E+03         213.200         213.200        -60.0452        -60.0452
            3817     2.38806E+03     2.38806E+03         308.704         308.704         97.2466         97.2466
            3818     2.89122E+03     2.89122E+03         368.479         368.479         477.314         477.314
            3819     1.70991E+03     1.70991E+03         190.413         190.413        -67.6235        -67.6235
            3820     1.85130E+03     1.85130E+03         292.894         292.894        -78.0839        -78.0839
            3821     2.10420E+03     2.10420E+03         397.924         397.924        -53.0394        -53.0394
            3822     2.54238E+03     2.54238E+03         451.882         451.882         50.4725         50.4725
            3823     3.25100E+03     3.25100E+03         370.973         370.973         279.245         279.245
            3824     1.11175E+03     1.11175E+03        -64.2162        -64.2162         449.209         449.209
            3825     1.49788E+03     1.49788E+03        -266.141        -266.141         402.805         402.805
            3826     1.61136E+03     1.61136E+03        -260.880        -260.880         289.527         289.527
            3827     1.61942E+03     1.61942E+03        -195.888        -195.888         186.999         186.999
            3828     1.59782E+03     1.59782E+03        -130.938        -130.938         112.800         112.800
            3829         740.982         740.982        -216.155        -216.155         365.652         365.652
            3830     1.17556E+03     1.17556E+03        -280.419        -280.419         457.809         457.809
            3831     1.39383E+03     1.39383E+03        -252.398        -252.398         378.390         378.390
            3832     1.48769E+03     1.48769E+03        -189.215        -189.215         263.660         263.660
            3833     1.52316E+03     1.52316E+03        -128.681        -128.681         166.948         166.948
            3834         429.753         429.753        -396.415        -396.415         259.545         259.545
            3835         824.146         824.146        -281.206        -281.206         440.271         440.271
            3836     1.11137E+03     1.11137E+03        -205.548        -205.548         411.710         411.710
            3837     1.29418E+03     1.29418E+03        -145.720        -145.720         308.612         308.612
            3838     1.40208E+03     1.40208E+03        -98.8537        -98.8537         205.147         205.147
            3839         202.550         202.550        -575.482        -575.482         155.764         155.764
            3840         506.917         506.917        -279.611        -279.611         346.087         346.087
            3841         816.328         816.328        -137.318        -137.318         356.907         356.907
            3842     1.06937E+03     1.06937E+03        -73.2583        -73.2583         285.218         285.218
            3843     1.25000E+03     1.25000E+03        -43.6568        -43.6568         197.965         197.965
            3844         67.9717         67.9717        -710.518        -710.518         69.8848         69.8848
            3845         286.539         286.539        -280.198        -280.198         190.242         190.242
            3846         588.692         588.692        -77.2773        -77.2773         208.967         208.967
            3847         881.274         881.274        -2.69481        -2.69481         174.315         174.315
            3848     1.11521E+03     1.11521E+03         13.9110         13.9110         124.720         124.720
            3849     1.58404E+03     1.58404E+03        -130.720        -130.720        -123.395        -123.395
            3850     1.59483E+03     1.59483E+03        -194.800        -194.800        -201.910        -201.910
            3851     1.57023E+03     1.57023E+03        -259.303        -259.303        -306.707        -306.707
            3852     1.43644E+03     1.43644E+03        -268.830        -268.830        -413.492        -413.492
            3853     1.03991E+03     1.03991E+03        -93.7763        -93.7763        -432.502        -432.502
            3854     1.47796E+03     1.47796E+03        -118.375        -118.375        -183.373        -183.373
            3855     1.41465E+03     1.41465E+03        -173.913        -173.913        -283.639        -283.639
            3856     1.28564E+03     1.28564E+03        -235.637        -235.637        -395.080        -395.080
            3857     1.03747E+03     1.03747E+03        -280.487        -280.487        -455.421        -455.421
            3858         613.104         613.104        -285.583        -285.583        -324.580        -324.580
            3859     1.31288E+03     1.31288E+03        -67.0825        -67.0825        -203.699        -203.699
            3860     1.16122E+03     1.16122E+03        -103.608        -103.608        -298.941        -298.941
            3861         934.728         934.728        -164.965        -164.965        -384.787        -384.787
            3862         630.474         630.474        -278.360        -278.360        -388.792        -388.792
            3863         287.344         287.344        -501.208        -501.208        -196.957        -196.957
            3864     1.14334E+03     1.14334E+03         1.75664         1.75664        -140.647        -140.647
            3865         919.225         919.225        -16.8343        -16.8343        -198.525        -198.525
            3866         632.362         632.362        -87.7877        -87.7877        -240.896        -240.896
            3867         326.167         326.167        -277.064        -277.064        -222.770        -222.770
            3868         90.4767         90.4767        -678.793        -678.793        -86.5228        -86.5228


  Minimum               -25.3487        -25.3487    -1.06906E+03    -1.06906E+03        -860.350        -860.350
         At Node              28              28              28              28             590             590

  Maximum            3.87577E+03     3.87577E+03         503.940         503.940         855.090         855.090
         At Node              27              27             585             585             574             574

           Total     5.89766E+06     5.89766E+06     95.4287E+03     95.4287E+03     2.82687E+03     2.82687E+03


