********************************************************************************
Field Output Report, written Sat Feb 24 11:10:49 2024

Source 1
---------

   ODB: C:/Users/Isabel Haycock/OneDrive - Imperial College London/Fourth Year/FYP/Isabel Haycock/06 - FE models/Specimen_2/Plate_hole_1.odb
   Step: load
   Frame: Increment     11: Step Time =   0.7857

Loc 1 : Nodal values at shell < composite > < elset = ASSEMBLY_PLATE_1-1_COMPOSITELAYUP-1-1 > from source 1 : SNEG, (fraction = -1.0), Layer = 1
Loc 2 : Nodal values at shell < composite > < elset = ASSEMBLY_PLATE_1-1_COMPOSITELAYUP-1-1 > from source 1 : SPOS, (fraction = 1.0), Layer = 8

Output sorted by column "Node Label".

Field Output reported at nodes for part: PLATE_1-1
   Computation algorithm: EXTRAPOLATE_COMPUTE_AVERAGE
   Averaged at nodes
   Averaging regions: ODB_REGIONS

      Node Label           S.S11           S.S11           S.S22           S.S22           S.S12           S.S12
                          @Loc 1          @Loc 2          @Loc 1          @Loc 2          @Loc 1          @Loc 2
-----------------------------------------------------------------------------------------------------------------
               1     1.35165E+03     1.35165E+03        -62.6209        -62.6209        -28.1341        -28.1341
               2     1.28601E+03     1.28601E+03         1.72348         1.72348    -79.1959E-03    -79.1959E-03
               3     1.28623E+03     1.28623E+03     8.76353E-03     8.76353E-03    -8.89446E-03    -8.89446E-03
               4     1.30062E+03     1.30062E+03    -79.8226E-03    -79.8226E-03         2.70477         2.70477
               5     1.35220E+03     1.35220E+03        -62.4018        -62.4018         27.1315         27.1315
               6     1.28601E+03     1.28601E+03         1.72373         1.72373     79.1884E-03     79.1884E-03
               7     1.03662E+03     1.03662E+03         28.6406         28.6406        -3.97139        -3.97139
               8     1.29594E+03     1.29594E+03    -97.5684E-03    -97.5684E-03        -2.27886        -2.27886
               9     1.35439E+03     1.35439E+03        -65.2087        -65.2087         30.7965         30.7965
              10     1.37627E+03     1.37627E+03         134.957         134.957         1.52751         1.52751
              11     1.30088E+03     1.30088E+03    -83.2138E-03    -83.2138E-03        -2.70437        -2.70437
              12     1.28623E+03     1.28623E+03     8.76551E-03     8.76551E-03     8.89647E-03     8.89647E-03
              13     1.20920E+03     1.20920E+03         367.666         367.666        -80.0848        -80.0848
              14     1.96473E+03     1.96473E+03         271.300         271.300        -317.254        -317.254
              15     1.35292E+03     1.35292E+03        -65.6162        -65.6162        -32.5901        -32.5901
              16     1.29611E+03     1.29611E+03    -101.872E-03    -101.872E-03         2.28097         2.28097
              17     1.37577E+03     1.37577E+03         136.659         136.659        -3.89080        -3.89080
              18     1.20920E+03     1.20920E+03         367.655         367.655         80.0662         80.0662
              19     1.04044E+03     1.04044E+03         24.9428         24.9428        -3.96602        -3.96602
              20     1.96473E+03     1.96473E+03         271.300         271.300         317.254         317.254
              21        -21.2579        -21.2579        -903.405        -903.405     736.890E-03     736.890E-03
              22     1.06789E+03     1.06789E+03         247.411         247.411        -525.231        -525.231
              23     3.27695E+03     3.27695E+03         206.146         206.146     364.471E-03     364.471E-03
              24     1.08438E+03     1.08438E+03         254.531         254.531         532.524         532.524
              25     1.08632E+03     1.08632E+03         254.832         254.832         533.568         533.568
              26     1.04857E+03     1.04857E+03         244.072         244.072        -519.701        -519.701
              27     3.28336E+03     3.28336E+03         203.876         203.876         15.3439         15.3439
              28        -21.4079        -21.4079        -907.304        -907.304     803.851E-03     803.851E-03
              29     1.32650E+03     1.32650E+03        -50.2114        -50.2114        -32.7512        -32.7512
              30     1.31189E+03     1.31189E+03        -42.2099        -42.2099        -35.8098        -35.8098
              31     1.30033E+03     1.30033E+03        -33.8222        -33.8222        -35.8773        -35.8773
              32     1.29174E+03     1.29174E+03        -26.1382        -26.1382        -34.1701        -34.1701
              33     1.28564E+03     1.28564E+03        -19.5269        -19.5269        -31.5926        -31.5926
              34     1.28147E+03     1.28147E+03        -14.0292        -14.0292        -28.7221        -28.7221
              35     1.27873E+03     1.27873E+03        -9.53203        -9.53203        -25.8805        -25.8805
              36     1.27704E+03     1.27704E+03        -5.89254        -5.89254        -23.2265        -23.2265
              37     1.27610E+03     1.27610E+03        -2.96901        -2.96901        -20.8259        -20.8259
              38     1.27569E+03     1.27569E+03    -639.093E-03    -639.093E-03        -18.6923        -18.6923
              39     1.27565E+03     1.27565E+03         1.20042         1.20042        -16.8132        -16.8132
              40     1.27588E+03     1.27588E+03         2.63433         2.63433        -15.1635        -15.1635
              41     1.27628E+03     1.27628E+03         3.73253         3.73253        -13.7145        -13.7145
              42     1.27679E+03     1.27679E+03         4.55269         4.55269        -12.4376        -12.4376
              43     1.27738E+03     1.27738E+03         5.14275         5.14275        -11.3067        -11.3067
              44     1.27800E+03     1.27800E+03         5.54289         5.54289        -10.2990        -10.2990
              45     1.27864E+03     1.27864E+03         5.78692         5.78692        -9.39510        -9.39510
              46     1.27927E+03     1.27927E+03         5.90353         5.90353        -8.57901        -8.57901
              47     1.27989E+03     1.27989E+03         5.91709         5.91709        -7.83767        -7.83767
              48     1.28049E+03     1.28049E+03         5.84836         5.84836        -7.16052        -7.16052
              49     1.28106E+03     1.28106E+03         5.71500         5.71500        -6.53912        -6.53912
              50     1.28159E+03     1.28159E+03         5.53205         5.53205        -5.96671        -5.96671
              51     1.28209E+03     1.28209E+03         5.31225         5.31225        -5.43788        -5.43788
              52     1.28255E+03     1.28255E+03         5.06639         5.06639        -4.94827        -4.94827
              53     1.28298E+03     1.28298E+03         4.80352         4.80352        -4.49432        -4.49432
              54     1.28337E+03     1.28337E+03         4.53124         4.53124        -4.07305        -4.07305
              55     1.28373E+03     1.28373E+03         4.25584         4.25584        -3.68193        -3.68193
              56     1.28405E+03     1.28405E+03         3.98253         3.98253        -3.31872        -3.31872
              57     1.28434E+03     1.28434E+03         3.71557         3.71557        -2.98142        -2.98142
              58     1.28460E+03     1.28460E+03         3.45842         3.45842        -2.66815        -2.66815
              59     1.28483E+03     1.28483E+03         3.21385         3.21385        -2.37713        -2.37713
              60     1.28504E+03     1.28504E+03         2.98407         2.98407        -2.10663        -2.10663
              61     1.28522E+03     1.28522E+03         2.77080         2.77080        -1.85495        -1.85495
              62     1.28538E+03     1.28538E+03         2.57539         2.57539        -1.62040        -1.62040
              63     1.28552E+03     1.28552E+03         2.39885         2.39885        -1.40130        -1.40130
              64     1.28564E+03     1.28564E+03         2.24193         2.24193        -1.19595        -1.19595
              65     1.28574E+03     1.28574E+03         2.10519         2.10519        -1.00265        -1.00265
              66     1.28583E+03     1.28583E+03         1.98901         1.98901    -819.708E-03    -819.708E-03
              67     1.28589E+03     1.28589E+03         1.89368         1.89368    -645.397E-03    -645.397E-03
              68     1.28594E+03     1.28594E+03         1.81937         1.81937    -478.001E-03    -478.001E-03
              69     1.28598E+03     1.28598E+03         1.76620         1.76620    -315.796E-03    -315.796E-03
              70       1.286E+03       1.286E+03         1.73419         1.73419    -157.486E-03    -157.486E-03
              71     1.28616E+03     1.28616E+03         1.55175         1.55175    -85.8294E-03    -85.8294E-03
              72     1.28630E+03     1.28630E+03         1.37958         1.37958    -89.8698E-03    -89.8698E-03
              73     1.28643E+03     1.28643E+03         1.20153         1.20153    -91.8258E-03    -91.8258E-03
              74     1.28656E+03     1.28656E+03         1.02179         1.02179    -91.5922E-03    -91.5922E-03
              75     1.28666E+03     1.28666E+03     844.687E-03     844.687E-03    -89.1296E-03    -89.1296E-03
              76     1.28674E+03     1.28674E+03     674.597E-03     674.597E-03    -84.4348E-03    -84.4348E-03
              77     1.28679E+03     1.28679E+03     515.831E-03     515.831E-03    -77.5693E-03    -77.5693E-03
              78     1.28680E+03     1.28680E+03     372.546E-03     372.546E-03    -68.6319E-03    -68.6319E-03
              79     1.28676E+03     1.28676E+03     248.616E-03     248.616E-03    -57.8114E-03    -57.8114E-03
              80     1.28668E+03     1.28668E+03     147.540E-03     147.540E-03    -45.3029E-03    -45.3029E-03
              81     1.28654E+03     1.28654E+03     72.2539E-03     72.2539E-03    -31.4860E-03    -31.4860E-03
              82     1.28634E+03     1.28634E+03     25.0717E-03     25.0717E-03    -16.6139E-03    -16.6139E-03
              83     1.28624E+03     1.28624E+03     8.94312E-03     8.94312E-03    -16.3110E-03    -16.3110E-03
              84     1.28629E+03     1.28629E+03     9.19903E-03     9.19903E-03    -31.9554E-03    -31.9554E-03
              85     1.28637E+03     1.28637E+03     9.45557E-03     9.45557E-03    -48.6744E-03    -48.6744E-03
              86     1.28649E+03     1.28649E+03     9.89055E-03     9.89055E-03    -66.1092E-03    -66.1092E-03
              87     1.28663E+03     1.28663E+03     10.4504E-03     10.4504E-03    -84.5717E-03    -84.5717E-03
              88     1.28682E+03     1.28682E+03     11.1324E-03     11.1324E-03    -104.318E-03    -104.318E-03
              89     1.28705E+03     1.28705E+03     11.9394E-03     11.9394E-03    -125.613E-03    -125.613E-03
              90     1.28732E+03     1.28732E+03     12.8636E-03     12.8636E-03    -148.715E-03    -148.715E-03
              91     1.28764E+03     1.28764E+03     13.9050E-03     13.9050E-03    -173.881E-03    -173.881E-03
              92     1.28801E+03     1.28801E+03     15.0546E-03     15.0546E-03    -201.366E-03    -201.366E-03
              93     1.28844E+03     1.28844E+03     16.3059E-03     16.3059E-03    -231.412E-03    -231.412E-03
              94     1.28893E+03     1.28893E+03     17.6451E-03     17.6451E-03    -264.249E-03    -264.249E-03
              95     1.28949E+03     1.28949E+03     19.0561E-03     19.0561E-03    -300.086E-03    -300.086E-03
              96     1.29012E+03     1.29012E+03     20.5156E-03     20.5156E-03    -339.098E-03    -339.098E-03
              97     1.29084E+03     1.29084E+03     21.9926E-03     21.9926E-03    -381.420E-03    -381.420E-03
              98     1.29164E+03     1.29164E+03     23.4470E-03     23.4470E-03    -427.125E-03    -427.125E-03
              99     1.29254E+03     1.29254E+03     24.8248E-03     24.8248E-03    -476.202E-03    -476.202E-03
             100     1.29353E+03     1.29353E+03     26.0596E-03     26.0596E-03    -528.537E-03    -528.537E-03
             101     1.29463E+03     1.29463E+03     27.0613E-03     27.0613E-03    -583.871E-03    -583.871E-03
             102     1.29585E+03     1.29585E+03     27.7249E-03     27.7249E-03    -641.767E-03    -641.767E-03
             103     1.29718E+03     1.29718E+03     27.9066E-03     27.9066E-03    -701.555E-03    -701.555E-03
             104     1.29863E+03     1.29863E+03     27.4480E-03     27.4480E-03    -762.278E-03    -762.278E-03
             105     1.30020E+03     1.30020E+03     26.1301E-03     26.1301E-03    -822.619E-03    -822.619E-03
             106     1.30189E+03     1.30189E+03     23.7284E-03     23.7284E-03    -880.829E-03    -880.829E-03
             107     1.30369E+03     1.30369E+03     19.9300E-03     19.9300E-03    -934.636E-03    -934.636E-03
             108     1.30559E+03     1.30559E+03     14.4442E-03     14.4442E-03    -981.164E-03    -981.164E-03
             109     1.30757E+03     1.30757E+03     6.86557E-03     6.86557E-03        -1.01685        -1.01685
             110     1.30961E+03     1.30961E+03    -3.12771E-03    -3.12771E-03        -1.03737        -1.03737
             111     1.31167E+03     1.31167E+03    -15.9743E-03    -15.9743E-03        -1.03763        -1.03763
             112     1.31370E+03     1.31370E+03    -31.9190E-03    -31.9190E-03        -1.01180        -1.01180
             113     1.31565E+03     1.31565E+03    -51.2522E-03    -51.2522E-03    -953.434E-03    -953.434E-03
             114     1.31744E+03     1.31744E+03    -73.9145E-03    -73.9145E-03    -855.741E-03    -855.741E-03
             115     1.31900E+03     1.31900E+03    -99.6743E-03    -99.6743E-03    -712.105E-03    -712.105E-03
             116     1.32021E+03     1.32021E+03    -127.798E-03    -127.798E-03    -516.648E-03    -516.648E-03
             117     1.32099E+03     1.32099E+03    -156.976E-03    -156.976E-03    -265.351E-03    -265.351E-03
             118     1.32121E+03     1.32121E+03    -185.365E-03    -185.365E-03     42.9542E-03     42.9542E-03
             119     1.32076E+03     1.32076E+03    -210.105E-03    -210.105E-03     404.999E-03     404.999E-03
             120     1.31956E+03     1.31956E+03    -228.064E-03    -228.064E-03     811.830E-03     811.830E-03
             121     1.31751E+03     1.31751E+03    -235.100E-03    -235.100E-03         1.24751         1.24751
             122     1.31460E+03     1.31460E+03    -227.519E-03    -227.519E-03         1.68842         1.68842
             123     1.31083E+03     1.31083E+03    -201.917E-03    -201.917E-03         2.10401         2.10401
             124     1.30630E+03     1.30630E+03    -155.969E-03    -155.969E-03         2.45574         2.45574
             125     1.30174E+03     1.30174E+03    -233.417E-03    -233.417E-03         4.98818         4.98818
             126     1.30420E+03     1.30420E+03    -682.849E-03    -682.849E-03         8.97079         8.97079
             127     1.30710E+03     1.30710E+03        -1.42415        -1.42415         11.9209         11.9209
             128     1.31038E+03     1.31038E+03        -2.50509        -2.50509         14.0786         14.0786
             129     1.31407E+03     1.31407E+03        -4.03555        -4.03555         15.5983         15.5983
             130     1.31821E+03     1.31821E+03        -6.18238        -6.18238         16.5283         16.5283
             131     1.32287E+03     1.32287E+03        -9.16941        -9.16941         16.7988         16.7988
             132     1.32808E+03     1.32808E+03        -13.2729        -13.2729         16.1956         16.1956
             133     1.33376E+03     1.33376E+03        -18.8020        -18.8020         14.3056         14.3056
             134     1.33962E+03     1.33962E+03        -26.0172        -26.0172         10.4696         10.4696
             135     1.34485E+03     1.34485E+03        -34.9687        -34.9687         3.75166         3.75166
             136     1.34785E+03     1.34785E+03        -45.1235        -45.1235        -6.83519        -6.83519
             137     1.32719E+03     1.32719E+03        -50.0792        -50.0792         31.7467         31.7467
             138     1.31269E+03     1.31269E+03        -42.2559        -42.2559         34.9881         34.9881
             139     1.30115E+03     1.30115E+03        -33.9988        -33.9988         35.2649         35.2649
             140     1.29251E+03     1.29251E+03        -26.3802        -26.3802         33.7561         33.7561
             141     1.28632E+03     1.28632E+03        -19.7816        -19.7816         31.3370         31.3370
             142     1.28204E+03     1.28204E+03        -14.2652        -14.2652         28.5808         28.5808
             143     1.27920E+03     1.27920E+03        -9.73672        -9.73672         25.8151         25.8151
             144     1.27742E+03     1.27742E+03        -6.06378        -6.06378         23.2098         23.2098
             145     1.27641E+03     1.27641E+03        -3.10916        -3.10916         20.8391         20.8391
             146     1.27594E+03     1.27594E+03    -752.552E-03    -752.552E-03         18.7231         18.7231
             147     1.27586E+03     1.27586E+03         1.10912         1.10912         16.8533         16.8533
             148     1.27604E+03     1.27604E+03         2.56090         2.56090         15.2080         15.2080
             149     1.27641E+03     1.27641E+03         3.67336         3.67336         13.7600         13.7600
             150     1.27690E+03     1.27690E+03         4.50478         4.50478         12.4822         12.4822
             151     1.27747E+03     1.27747E+03         5.10371         5.10371         11.3492         11.3492
             152     1.27808E+03     1.27808E+03         5.51082         5.51082         10.3386         10.3386
             153     1.27870E+03     1.27870E+03         5.76035         5.76035         9.43161         9.43161
             154     1.27933E+03     1.27933E+03         5.88132         5.88132         8.61226         8.61226
             155     1.27994E+03     1.27994E+03         5.89837         5.89837         7.86767         7.86767
             156     1.28053E+03     1.28053E+03         5.83245         5.83245         7.18739         7.18739
             157     1.28109E+03     1.28109E+03         5.70139         5.70139         6.56301         6.56301
             158     1.28162E+03     1.28162E+03         5.52035         5.52035         5.98782         5.98782
             159     1.28211E+03     1.28211E+03         5.30216         5.30216         5.45642         5.45642
             160     1.28257E+03     1.28257E+03         5.05766         5.05766         4.96445         4.96445
             161     1.28300E+03     1.28300E+03         4.79597         4.79597         4.50835         4.50835
             162     1.28338E+03     1.28338E+03         4.52470         4.52470         4.08514         4.08514
             163     1.28374E+03     1.28374E+03         4.25020         4.25020         3.69228         3.69228
             164     1.28406E+03     1.28406E+03         3.97767         3.97767         3.32753         3.32753
             165     1.28435E+03     1.28435E+03         3.71141         3.71141         2.98885         2.98885
             166     1.28461E+03     1.28461E+03         3.45487         3.45487         2.67437         2.67437
             167     1.28484E+03     1.28484E+03         3.21085         3.21085         2.38229         2.38229
             168     1.28505E+03     1.28505E+03         2.98155         2.98155         2.11087         2.11087
             169     1.28523E+03     1.28523E+03         2.76871         2.76871         1.85839         1.85839
             170     1.28539E+03     1.28539E+03         2.57368         2.57368         1.62315         1.62315
             171     1.28552E+03     1.28552E+03         2.39747         2.39747         1.40346         1.40346
             172     1.28564E+03     1.28564E+03         2.24085         2.24085         1.19762         1.19762
             173     1.28574E+03     1.28574E+03         2.10438         2.10438         1.00392         1.00392
             174     1.28583E+03     1.28583E+03         1.98845         1.98845     820.629E-03     820.629E-03
             175     1.28589E+03     1.28589E+03         1.89334         1.89334     646.039E-03     646.039E-03
             176     1.28594E+03     1.28594E+03         1.81923         1.81923     478.415E-03     478.415E-03
             177     1.28598E+03     1.28598E+03         1.76625         1.76625     316.023E-03     316.023E-03
             178     1.28600E+03     1.28600E+03         1.73439         1.73439     157.554E-03     157.554E-03
             179     1.28585E+03     1.28585E+03         1.89781         1.89781     69.3268E-03     69.3268E-03
             180     1.28570E+03     1.28570E+03         2.05488         2.05488     56.6498E-03     56.6498E-03
             181     1.28558E+03     1.28558E+03         2.17780         2.17780     41.9800E-03     41.9800E-03
             182     1.28550E+03     1.28550E+03         2.26223         2.26223     25.8323E-03     25.8323E-03
             183     1.28546E+03     1.28546E+03         2.30519         2.30519     8.77095E-03     8.77095E-03
             184     1.28546E+03     1.28546E+03         2.30515         2.30515    -8.60769E-03    -8.60769E-03
             185     1.28550E+03     1.28550E+03         2.26214         2.26214    -25.6930E-03    -25.6930E-03
             186     1.28558E+03     1.28558E+03         2.17767         2.17767    -41.8920E-03    -41.8920E-03
             187     1.28570E+03     1.28570E+03         2.05470         2.05470    -56.6180E-03    -56.6180E-03
             188     1.28585E+03     1.28585E+03         1.89757         1.89757    -69.3137E-03    -69.3137E-03
             189     1.06498E+03     1.06498E+03         14.9218         14.9218         70.2253         70.2253
             190     1.14120E+03     1.14120E+03        -19.7432        -19.7432         110.486         110.486
             191     1.22550E+03     1.22550E+03        -52.4709        -52.4709         112.658         112.658
             192     1.29085E+03     1.29085E+03        -69.8817        -69.8817         89.8211         89.8211
             193     1.32977E+03     1.32977E+03        -71.4151        -71.4151         59.1928         59.1928
             194     1.32266E+03     1.32266E+03        -71.2828        -71.2828        -65.2764        -65.2764
             195     1.26663E+03     1.26663E+03        -63.8879        -63.8879        -99.5995        -99.5995
             196     1.17642E+03     1.17642E+03        -33.7430        -33.7430        -112.960        -112.960
             197     1.08175E+03     1.08175E+03         7.19897         7.19897        -79.1707        -79.1707
             198     1.29716E+03     1.29716E+03    -285.232E-03    -285.232E-03        -4.16053        -4.16053
             199     1.29989E+03     1.29989E+03    -832.914E-03    -832.914E-03        -7.36645        -7.36645
             200     1.30316E+03     1.30316E+03        -1.72803        -1.72803        -9.60496        -9.60496
             201     1.30692E+03     1.30692E+03        -3.00862        -3.00862        -11.1339        -11.1339
             202     1.31115E+03     1.31115E+03        -4.77504        -4.77504        -12.1190        -12.1190
             203     1.31588E+03     1.31588E+03        -7.18490        -7.18490        -12.6164        -12.6164
             204     1.32117E+03     1.32117E+03        -10.4534        -10.4534        -12.5612        -12.5612
             205     1.32703E+03     1.32703E+03        -14.8484        -14.8484        -11.7417        -11.7417
             206     1.33336E+03     1.33336E+03        -20.6716        -20.6716        -9.74422        -9.74422
             207     1.33985E+03     1.33985E+03        -28.1764        -28.1764        -5.90508        -5.90508
             208     1.34568E+03     1.34568E+03        -37.4059        -37.4059     718.506E-03     718.506E-03
             209     1.34922E+03     1.34922E+03        -47.8276        -47.8276         11.1362         11.1362
             210     1.38245E+03     1.38245E+03        -57.1481        -57.1481         3.30071         3.30071
             211     1.40035E+03     1.40035E+03        -26.4356        -26.4356        -26.8293        -26.8293
             212     1.40042E+03     1.40042E+03         33.9526         33.9526        -48.4880        -48.4880
             213     1.38571E+03     1.38571E+03         103.010         103.010        -39.6186        -39.6186
             214     1.38537E+03     1.38537E+03         103.599         103.599         42.7005         42.7005
             215     1.39972E+03     1.39972E+03         35.1486         35.1486         51.6644         51.6644
             216     1.39928E+03     1.39928E+03        -24.6415        -24.6415         30.1853         30.1853
             217     1.38099E+03     1.38099E+03        -54.7964        -54.7964     307.392E-03     307.392E-03
             218     1.29353E+03     1.29353E+03     34.2455E-03     34.2455E-03         2.77436         2.77436
             219     1.28613E+03     1.28613E+03     168.344E-03     168.344E-03         2.54948         2.54948
             220     1.27983E+03     1.27983E+03     292.481E-03     292.481E-03         1.98684         1.98684
             221     1.27548E+03     1.27548E+03     380.151E-03     380.151E-03         1.14624         1.14624
             222     1.27368E+03     1.27368E+03     410.769E-03     410.769E-03     150.124E-03     150.124E-03
             223     1.27464E+03     1.27464E+03     376.466E-03     376.466E-03    -840.788E-03    -840.788E-03
             224     1.27812E+03     1.27812E+03     285.124E-03     285.124E-03        -1.66579        -1.66579
             225     1.28350E+03     1.28350E+03     157.399E-03     157.399E-03        -2.20246        -2.20246
             226     1.28988E+03     1.28988E+03     19.7302E-03     19.7302E-03        -2.39093        -2.39093
             227     1.34763E+03     1.34763E+03        -45.2165        -45.2165         6.98105         6.98105
             228     1.34470E+03     1.34470E+03        -35.0656        -35.0656        -3.64609        -3.64609
             229     1.33950E+03     1.33950E+03        -26.1210        -26.1210        -10.3790        -10.3790
             230     1.33368E+03     1.33368E+03        -18.9132        -18.9132        -14.2252        -14.2252
             231     1.32802E+03     1.32802E+03        -13.3871        -13.3871        -16.1271        -16.1271
             232     1.32285E+03     1.32285E+03        -9.27909        -9.27909        -16.7445        -16.7445
             233     1.31822E+03     1.31822E+03        -6.27963        -6.27963        -16.4882        -16.4882
             234     1.31410E+03     1.31410E+03        -4.11438        -4.11438        -15.5696        -15.5696
             235     1.31045E+03     1.31045E+03        -2.56278        -2.56278        -14.0579        -14.0579
             236     1.30720E+03     1.30720E+03        -1.46082        -1.46082        -11.9052        -11.9052
             237     1.30435E+03     1.30435E+03    -702.181E-03    -702.181E-03        -8.95902        -8.95902
             238     1.30195E+03     1.30195E+03    -241.115E-03    -241.115E-03        -4.98315        -4.98315
             239     1.30638E+03     1.30638E+03    -155.772E-03    -155.772E-03        -2.45300        -2.45300
             240     1.31090E+03     1.31090E+03    -202.101E-03    -202.101E-03        -2.10057        -2.10057
             241     1.31466E+03     1.31466E+03    -227.547E-03    -227.547E-03        -1.68491        -1.68491
             242     1.31756E+03     1.31756E+03    -235.171E-03    -235.171E-03        -1.24399        -1.24399
             243     1.31960E+03     1.31960E+03    -227.998E-03    -227.998E-03    -808.401E-03    -808.401E-03
             244     1.32080E+03     1.32080E+03    -210.029E-03    -210.029E-03    -401.788E-03    -401.788E-03
             245     1.32124E+03     1.32124E+03    -185.225E-03    -185.225E-03    -40.0214E-03    -40.0214E-03
             246     1.32102E+03     1.32102E+03    -156.824E-03    -156.824E-03     267.940E-03     267.940E-03
             247     1.32024E+03     1.32024E+03    -127.638E-03    -127.638E-03     518.888E-03     518.888E-03
             248     1.31902E+03     1.31902E+03    -99.5164E-03    -99.5164E-03     713.994E-03     713.994E-03
             249     1.31746E+03     1.31746E+03    -73.7770E-03    -73.7770E-03     857.314E-03     857.314E-03
             250     1.31566E+03     1.31566E+03    -51.1261E-03    -51.1261E-03     954.724E-03     954.724E-03
             251     1.31371E+03     1.31371E+03    -31.8202E-03    -31.8202E-03         1.01285         1.01285
             252     1.31167E+03     1.31167E+03    -15.8875E-03    -15.8875E-03         1.03849         1.03849
             253     1.30962E+03     1.30962E+03    -3.06375E-03    -3.06375E-03         1.03807         1.03807
             254     1.30758E+03     1.30758E+03     6.92117E-03     6.92117E-03         1.01742         1.01742
             255     1.30559E+03     1.30559E+03     14.4840E-03     14.4840E-03     981.640E-03     981.640E-03
             256     1.30369E+03     1.30369E+03     19.9652E-03     19.9652E-03     935.033E-03     935.033E-03
             257     1.30189E+03     1.30189E+03     23.7535E-03     23.7535E-03     881.164E-03     881.164E-03
             258     1.30020E+03     1.30020E+03     26.1531E-03     26.1531E-03     822.903E-03     822.903E-03
             259     1.29863E+03     1.29863E+03     27.4647E-03     27.4647E-03     762.522E-03     762.522E-03
             260     1.29718E+03     1.29718E+03     27.9225E-03     27.9225E-03     701.765E-03     701.765E-03
             261     1.29585E+03     1.29585E+03     27.7368E-03     27.7368E-03     641.948E-03     641.948E-03
             262     1.29463E+03     1.29463E+03     27.0729E-03     27.0729E-03     584.028E-03     584.028E-03
             263     1.29353E+03     1.29353E+03     26.0685E-03     26.0685E-03     528.674E-03     528.674E-03
             264     1.29254E+03     1.29254E+03     24.8335E-03     24.8335E-03     476.321E-03     476.321E-03
             265     1.29164E+03     1.29164E+03     23.4539E-03     23.4539E-03     427.228E-03     427.228E-03
             266     1.29084E+03     1.29084E+03     21.9993E-03     21.9993E-03     381.511E-03     381.511E-03
             267     1.29012E+03     1.29012E+03     20.5210E-03     20.5210E-03     339.177E-03     339.177E-03
             268     1.28949E+03     1.28949E+03     19.0614E-03     19.0614E-03     300.154E-03     300.154E-03
             269     1.28893E+03     1.28893E+03     17.6494E-03     17.6494E-03     264.308E-03     264.308E-03
             270     1.28844E+03     1.28844E+03     16.3100E-03     16.3100E-03     231.463E-03     231.463E-03
             271     1.28801E+03     1.28801E+03     15.0582E-03     15.0582E-03     201.410E-03     201.410E-03
             272     1.28764E+03     1.28764E+03     13.9084E-03     13.9084E-03     173.919E-03     173.919E-03
             273     1.28732E+03     1.28732E+03     12.8665E-03     12.8665E-03     148.747E-03     148.747E-03
             274     1.28705E+03     1.28705E+03     11.9422E-03     11.9422E-03     125.640E-03     125.640E-03
             275     1.28682E+03     1.28682E+03     11.1350E-03     11.1350E-03     104.341E-03     104.341E-03
             276     1.28663E+03     1.28663E+03     10.4528E-03     10.4528E-03     84.5897E-03     84.5897E-03
             277     1.28648E+03     1.28648E+03     9.89279E-03     9.89279E-03     66.1232E-03     66.1232E-03
             278     1.28637E+03     1.28637E+03     9.45775E-03     9.45775E-03     48.6847E-03     48.6847E-03
             279     1.28629E+03     1.28629E+03     9.20112E-03     9.20112E-03     31.9621E-03     31.9621E-03
             280     1.28624E+03     1.28624E+03     8.94518E-03     8.94518E-03     16.3145E-03     16.3145E-03
             281     1.28634E+03     1.28634E+03     25.0773E-03     25.0773E-03     16.6175E-03     16.6175E-03
             282     1.28654E+03     1.28654E+03     72.2698E-03     72.2698E-03     31.4928E-03     31.4928E-03
             283     1.28668E+03     1.28668E+03     147.572E-03     147.572E-03     45.3125E-03     45.3125E-03
             284     1.28676E+03     1.28676E+03     248.669E-03     248.669E-03     57.8235E-03     57.8235E-03
             285     1.28680E+03     1.28680E+03     372.625E-03     372.625E-03     68.6461E-03     68.6461E-03
             286     1.28679E+03     1.28679E+03     515.939E-03     515.939E-03     77.5850E-03     77.5850E-03
             287     1.28674E+03     1.28674E+03     674.737E-03     674.737E-03     84.4516E-03     84.4516E-03
             288     1.28666E+03     1.28666E+03     844.860E-03     844.860E-03     89.1466E-03     89.1466E-03
             289     1.28655E+03     1.28655E+03         1.02199         1.02199     91.6093E-03     91.6093E-03
             290     1.28643E+03     1.28643E+03         1.20176         1.20176     91.8401E-03     91.8401E-03
             291     1.28630E+03     1.28630E+03         1.37984         1.37984     89.8826E-03     89.8826E-03
             292     1.28616E+03     1.28616E+03         1.55201         1.55201     85.8165E-03     85.8165E-03
             293     1.21553E+03     1.21553E+03         352.612         352.612        -80.5945        -80.5945
             294     1.22822E+03     1.22822E+03         322.303         322.303        -80.1302        -80.1302
             295     1.24054E+03     1.24054E+03         291.959         291.959        -77.5504        -77.5504
             296     1.25221E+03     1.25221E+03         262.207         262.207        -73.7168        -73.7168
             297     1.26295E+03     1.26295E+03         233.530         233.530        -68.7273        -68.7273
             298     1.27255E+03     1.27255E+03         206.344         206.344        -62.8227        -62.8227
             299     1.28092E+03     1.28092E+03         180.957         180.957        -56.2314        -56.2314
             300     1.28798E+03     1.28798E+03         157.596         157.596        -49.2447        -49.2447
             301     1.29377E+03     1.29377E+03         136.355         136.355        -42.1167        -42.1167
             302     1.29833E+03     1.29833E+03         117.262         117.262        -35.0767        -35.0767
             303     1.30180E+03     1.30180E+03         100.256         100.256        -28.3159        -28.3159
             304     1.30428E+03     1.30428E+03         85.2343         85.2343        -21.9606        -21.9606
             305     1.30592E+03     1.30592E+03         72.0614         72.0614        -16.1117        -16.1117
             306     1.30684E+03     1.30684E+03         60.5792         60.5792        -10.8069        -10.8069
             307     1.30716E+03     1.30716E+03         50.6345         50.6345        -6.07286        -6.07286
             308     1.30698E+03     1.30698E+03         42.0633         42.0633        -1.89208        -1.89208
             309     1.30641E+03     1.30641E+03         34.7213         34.7213         1.75501         1.75501
             310     1.30552E+03     1.30552E+03         28.4606         28.4606         4.91269         4.91269
             311     1.30437E+03     1.30437E+03         23.1544         23.1544         7.62285         7.62285
             312     1.30302E+03     1.30302E+03         18.6763         18.6763         9.93882         9.93882
             313     1.30153E+03     1.30153E+03         14.9177         14.9177         11.9098         11.9098
             314     1.29992E+03     1.29992E+03         11.7717         11.7717         13.5888         13.5888
             315     1.29824E+03     1.29824E+03         9.14516         9.14516         15.0248         15.0248
             316     1.29651E+03     1.29651E+03         6.94676         6.94676         16.2673         16.2673
             317     1.29476E+03     1.29476E+03         5.09437         5.09437         17.3621         17.3621
             318     1.29301E+03     1.29301E+03         3.50737         3.50737         18.3550         18.3550
             319     1.29128E+03     1.29128E+03         2.11034         2.11034         19.2895         19.2895
             320     1.28962E+03     1.28962E+03     827.872E-03     827.872E-03         20.2092         20.2092
             321     1.28804E+03     1.28804E+03    -413.930E-03    -413.930E-03         21.1571         21.1571
             322     1.28658E+03     1.28658E+03        -1.69144        -1.69144         22.1766         22.1766
             323     1.28530E+03     1.28530E+03        -3.08377        -3.08377         23.3113         23.3113
             324     1.28425E+03     1.28425E+03        -4.67635        -4.67635         24.6042         24.6042
             325     1.28353E+03     1.28353E+03        -6.56295        -6.56295         26.0954         26.0954
             326     1.28325E+03     1.28325E+03        -8.84895        -8.84895         27.8185         27.8185
             327     1.28356E+03     1.28356E+03        -11.6547        -11.6547         29.7910         29.7910
             328     1.28470E+03     1.28470E+03        -15.1155        -15.1155         32.0009         32.0009
             329     1.28694E+03     1.28694E+03        -19.3811        -19.3811         34.3804         34.3804
             330     1.29067E+03     1.29067E+03        -24.5941        -24.5941         36.7647         36.7647
             331     1.29635E+03     1.29635E+03        -30.8577        -30.8577         38.8300         38.8300
             332     1.30452E+03     1.30452E+03        -38.1154        -38.1154         40.0060         40.0060
             333     1.31563E+03     1.31563E+03        -45.9904        -45.9904         39.4189         39.4189
             334     1.32974E+03     1.32974E+03        -53.4071        -53.4071         35.8896         35.8896
             335     1.30065E+03     1.30065E+03    -176.423E-03    -176.423E-03        -1.98698        -1.98698
             336     1.30421E+03     1.30421E+03    -224.706E-03    -224.706E-03        -1.59019        -1.59019
             337     1.30690E+03     1.30690E+03    -252.766E-03    -252.766E-03        -1.12411        -1.12411
             338     1.30864E+03     1.30864E+03    -262.541E-03    -262.541E-03    -627.300E-03    -627.300E-03
             339     1.30940E+03     1.30940E+03    -257.928E-03    -257.928E-03    -130.262E-03    -130.262E-03
             340     1.30919E+03     1.30919E+03    -241.987E-03    -241.987E-03     343.432E-03     343.432E-03
             341     1.30808E+03     1.30808E+03    -219.566E-03    -219.566E-03     777.808E-03     777.808E-03
             342     1.30616E+03     1.30616E+03    -192.854E-03    -192.854E-03         1.16387         1.16387
             343     1.30352E+03     1.30352E+03    -165.778E-03    -165.778E-03         1.49818         1.49818
             344     1.30027E+03     1.30027E+03    -138.690E-03    -138.690E-03         1.78169         1.78169
             345     1.29650E+03     1.29650E+03    -114.652E-03    -114.652E-03         2.01803         2.01803
             346     1.29230E+03     1.29230E+03    -91.9299E-03    -91.9299E-03         2.21257         2.21257
             347     1.28776E+03     1.28776E+03    -73.7391E-03    -73.7391E-03         2.37124         2.37124
             348     1.28293E+03     1.28293E+03    -55.9862E-03    -55.9862E-03         2.49996         2.49996
             349     1.27787E+03     1.27787E+03    -43.4913E-03    -43.4913E-03         2.60406         2.60406
             350     1.27262E+03     1.27262E+03    -28.9971E-03    -28.9971E-03         2.68798         2.68798
             351     1.26722E+03     1.26722E+03    -20.7971E-03    -20.7971E-03         2.75514         2.75514
             352     1.26171E+03     1.26171E+03    -6.71600E-03    -6.71600E-03         2.80777         2.80777
             353     1.25610E+03     1.25610E+03    -1.24026E-03    -1.24026E-03         2.84695         2.84695
             354     1.25043E+03     1.25043E+03     15.9837E-03     15.9837E-03         2.87247         2.87247
             355     1.24472E+03     1.24472E+03     19.8900E-03     19.8900E-03         2.88304         2.88304
             356     1.23901E+03     1.23901E+03     44.7334E-03     44.7334E-03         2.87587         2.87587
             357     1.23334E+03     1.23334E+03     47.4561E-03     47.4561E-03         2.84713         2.84713
             358     1.22774E+03     1.22774E+03     86.1306E-03     86.1306E-03         2.79098         2.79098
             359     1.22229E+03     1.22229E+03     86.9246E-03     86.9246E-03         2.70070         2.70070
             360     1.21707E+03     1.21707E+03     149.045E-03     149.045E-03         2.56603         2.56603
             361     1.21216E+03     1.21216E+03     145.423E-03     145.423E-03         2.37658         2.37658
             362     1.20770E+03     1.20770E+03     247.366E-03     247.366E-03         2.11436         2.11436
             363     1.20384E+03     1.20384E+03     233.832E-03     233.832E-03         1.76406         1.76406
             364     1.20079E+03     1.20079E+03     406.148E-03     406.148E-03         1.29162         1.29162
             365     1.19883E+03     1.19883E+03     371.113E-03     371.113E-03     675.687E-03     675.687E-03
             366     1.19828E+03     1.19828E+03     677.047E-03     677.047E-03    -156.557E-03    -156.557E-03
             367     1.19963E+03     1.19963E+03     594.035E-03     594.035E-03        -1.23017        -1.23017
             368     1.20351E+03     1.20351E+03         1.18297         1.18297        -2.72481        -2.72481
             369     1.21079E+03     1.21079E+03     981.600E-03     981.600E-03        -4.64909        -4.64909
             370     1.22277E+03     1.22277E+03         2.27120         2.27120        -7.52131        -7.52131
             371     1.24136E+03     1.24136E+03         1.72922         1.72922        -11.2354        -11.2354
             372     1.26978E+03     1.26978E+03         5.17999         5.17999        -17.6006        -17.6006
             373     1.31305E+03     1.31305E+03         3.46097         3.46097        -25.9480        -25.9480
             374     1.38299E+03     1.38299E+03         16.3898         16.3898        -44.9300        -44.9300
             375     1.49895E+03     1.49895E+03         9.60929         9.60929        -71.2543        -71.2543
             376     1.76789E+03     1.76789E+03         126.271         126.271        -199.843        -199.843
             377     1.72035E+03     1.72035E+03         330.409         330.409        -337.554        -337.554
             378     1.43678E+03     1.43678E+03         381.444         381.444        -315.755        -315.755
             379     1.35879E+03     1.35879E+03         374.693         374.693        -265.635        -265.635
             380     1.30540E+03     1.30540E+03         374.328         374.328        -238.817        -238.817
             381     1.27684E+03     1.27684E+03         371.723         371.723        -211.145        -211.145
             382     1.25595E+03     1.25595E+03         370.427         370.427        -190.248        -190.248
             383     1.24248E+03     1.24248E+03         369.366         369.366        -170.116        -170.116
             384     1.23221E+03     1.23221E+03         368.647         368.647        -152.869        -152.869
             385     1.22498E+03     1.22498E+03         368.232         368.232        -136.422        -136.422
             386     1.21932E+03     1.21932E+03         367.910         367.910        -121.494        -121.494
             387     1.21514E+03     1.21514E+03         367.777         367.777        -107.208        -107.208
             388     1.21182E+03     1.21182E+03         367.660         367.660        -93.8223        -93.8223
             389     1.34868E+03     1.34868E+03        -48.0418        -48.0418        -11.8228        -11.8228
             390     1.34536E+03     1.34536E+03        -37.7754        -37.7754        -1.36762        -1.36762
             391     1.33972E+03     1.33972E+03        -28.6309        -28.6309         5.37264         5.37264
             392     1.33336E+03     1.33336E+03        -21.1339        -21.1339         9.35486         9.35486
             393     1.32710E+03     1.32710E+03        -15.2642        -15.2642         11.4829         11.4829
             394     1.32127E+03     1.32127E+03        -10.7967        -10.7967         12.4039         12.4039
             395     1.31599E+03     1.31599E+03        -7.45083        -7.45083         12.5306         12.5306
             396     1.31124E+03     1.31124E+03        -4.96900        -4.96900         12.0805         12.0805
             397     1.30701E+03     1.30701E+03        -3.14037        -3.14037         11.1246         11.1246
             398     1.30326E+03     1.30326E+03        -1.80836        -1.80836         9.61117         9.61117
             399     1.29999E+03     1.29999E+03    -873.091E-03    -873.091E-03         7.37732         7.37732
             400     1.29730E+03     1.29730E+03    -298.840E-03    -298.840E-03         4.16696         4.16696
             401     1.29047E+03     1.29047E+03     5.24435E-03     5.24435E-03         2.41190         2.41190
             402     1.28453E+03     1.28453E+03     130.037E-03     130.037E-03         2.28886         2.28886
             403     1.27928E+03     1.27928E+03     252.520E-03     252.520E-03         1.87016         1.87016
             404     1.27543E+03     1.27543E+03     349.638E-03     349.638E-03         1.18833         1.18833
             405     1.27355E+03     1.27355E+03     409.882E-03     409.882E-03     318.026E-03     318.026E-03
             406     1.27397E+03     1.27397E+03     408.345E-03     408.345E-03    -620.614E-03    -620.614E-03
             407     1.27667E+03     1.27667E+03     353.621E-03     353.621E-03        -1.49010        -1.49010
             408     1.28133E+03     1.28133E+03     264.340E-03     264.340E-03        -2.18672        -2.18672
             409     1.28743E+03     1.28743E+03     144.495E-03     144.495E-03        -2.63381        -2.63381
             410     1.29428E+03     1.29428E+03     21.6215E-03     21.6215E-03        -2.79344        -2.79344
             411     1.38247E+03     1.38247E+03         115.231         115.231         35.8980         35.8980
             412     1.39690E+03     1.39690E+03         58.8173         58.8173         51.6562         51.6562
             413     1.40397E+03     1.40397E+03    -280.939E-03    -280.939E-03         41.3537         41.3537
             414     1.39694E+03     1.39694E+03        -41.3588        -41.3588         16.8821         16.8821
             415     1.37884E+03     1.37884E+03        -60.5275        -60.5275        -8.17390        -8.17390
             416     1.38080E+03     1.38080E+03        -55.0172        -55.0172    -98.9020E-03    -98.9020E-03
             417     1.39919E+03     1.39919E+03        -25.0631        -25.0631        -29.9675        -29.9675
             418     1.39980E+03     1.39980E+03         34.4946         34.4946        -51.5559        -51.5559
             419     1.38562E+03     1.38562E+03         102.809         102.809        -42.8789        -42.8789
             420     1.21554E+03     1.21554E+03         352.605         352.605         80.5717         80.5717
             421     1.22822E+03     1.22822E+03         322.302         322.302         80.0972         80.0972
             422     1.24054E+03     1.24054E+03         291.967         291.967         77.5061         77.5061
             423     1.25220E+03     1.25220E+03         262.225         262.225         73.6624         73.6624
             424     1.26293E+03     1.26293E+03         233.560         233.560         68.6647         68.6647
             425     1.27254E+03     1.27254E+03         206.386         206.386         62.7554         62.7554
             426     1.28090E+03     1.28090E+03         181.011         181.011         56.1624         56.1624
             427     1.28796E+03     1.28796E+03         157.660         157.660         49.1777         49.1777
             428     1.29375E+03     1.29375E+03         136.428         136.428         42.0541         42.0541
             429     1.29831E+03     1.29831E+03         117.341         117.341         35.0212         35.0212
             430     1.30179E+03     1.30179E+03         100.339         100.339         28.2692         28.2692
             431     1.30427E+03     1.30427E+03         85.3191         85.3191         21.9237         21.9237
             432     1.30592E+03     1.30592E+03         72.1459         72.1459         16.0854         16.0854
             433     1.30684E+03     1.30684E+03         60.6615         60.6615         10.7914         10.7914
             434     1.30717E+03     1.30717E+03         50.7133         50.7133         6.06813         6.06813
             435     1.30700E+03     1.30700E+03         42.1374         42.1374         1.89766         1.89766
             436     1.30644E+03     1.30644E+03         34.7902         34.7902        -1.73935        -1.73935
             437     1.30555E+03     1.30555E+03         28.5236         28.5236        -4.88772        -4.88772
             438     1.30440E+03     1.30440E+03         23.2117         23.2117        -7.58896        -7.58896
             439     1.30306E+03     1.30306E+03         18.7279         18.7279        -9.89682        -9.89682
             440     1.30156E+03     1.30156E+03         14.9641         14.9641        -11.8601        -11.8601
             441     1.29996E+03     1.29996E+03         11.8136         11.8136        -13.5322        -13.5322
             442     1.29827E+03     1.29827E+03         9.18336         9.18336        -14.9617        -14.9617
             443     1.29653E+03     1.29653E+03         6.98227         6.98227        -16.1982        -16.1982
             444     1.29477E+03     1.29477E+03         5.12857         5.12857        -17.2876        -17.2876
             445     1.29301E+03     1.29301E+03         3.54168         3.54168        -18.2756        -18.2756
             446     1.29128E+03     1.29128E+03         2.14666         2.14666        -19.2058        -19.2058
             447     1.28959E+03     1.28959E+03     868.276E-03     868.276E-03        -20.1221        -20.1221
             448     1.28799E+03     1.28799E+03    -366.788E-03    -366.788E-03        -21.0674        -21.0674
             449     1.28651E+03     1.28651E+03        -1.63455        -1.63455        -22.0860        -22.0860
             450     1.28519E+03     1.28519E+03        -3.01338        -3.01338        -23.2218        -23.2218
             451     1.28410E+03     1.28410E+03        -4.58824        -4.58824        -24.5193        -24.5193
             452     1.28333E+03     1.28333E+03        -6.45211        -6.45211        -26.0204        -26.0204
             453     1.28298E+03     1.28298E+03        -8.71026        -8.71026        -27.7613        -27.7613
             454     1.28322E+03     1.28322E+03        -11.4830        -11.4830        -29.7641        -29.7641
             455     1.28426E+03     1.28426E+03        -14.9078        -14.9078        -32.0232        -32.0232
             456     1.28640E+03     1.28640E+03        -19.1386        -19.1386        -34.4788        -34.4788
             457     1.29001E+03     1.29001E+03        -24.3290        -24.3290        -36.9774        -36.9774
             458     1.29560E+03     1.29560E+03        -30.5999        -30.5999        -39.2008        -39.2008
             459     1.30372E+03     1.30372E+03        -37.9171        -37.9171        -40.5733        -40.5733
             460     1.31485E+03     1.31485E+03        -45.9153        -45.9153        -40.1895        -40.1895
             461     1.32906E+03     1.32906E+03        -53.5037        -53.5037        -36.8290        -36.8290
             462     1.32552E+03     1.32552E+03        -74.4744        -74.4744        -68.4229        -68.4229
             463     1.26996E+03     1.26996E+03        -67.3178        -67.3178        -102.101        -102.101
             464     1.18006E+03     1.18006E+03        -37.3312        -37.3312        -114.712        -114.712
             465     1.08552E+03     1.08552E+03         3.53328         3.53328        -80.0647        -80.0647
             466     1.06881E+03     1.06881E+03         11.2175         11.2175         71.0511         71.0511
             467     1.14496E+03     1.14496E+03        -23.4103        -23.4103         112.029         112.029
             468     1.22909E+03     1.22909E+03        -56.0371        -56.0371         114.839         114.839
             469     1.29412E+03     1.29412E+03        -73.2782        -73.2782         92.5740         92.5740
             470     1.33259E+03     1.33259E+03        -74.5875        -74.5875         62.4555         62.4555
             471     1.20692E+03     1.20692E+03         367.655         367.655        -65.3367        -65.3367
             472     1.20517E+03     1.20517E+03         367.680         367.680        -50.2385        -50.2385
             473     1.20396E+03     1.20396E+03         367.705         367.705        -35.6133        -35.6133
             474     1.20320E+03     1.20320E+03         367.734         367.734        -21.2663        -21.2663
             475     1.20284E+03     1.20284E+03         367.743         367.743        -7.11853        -7.11853
             476     1.20284E+03     1.20284E+03         367.737         367.737         6.99766         6.99766
             477     1.20321E+03     1.20321E+03         367.718         367.718         21.1601         21.1601
             478     1.20397E+03     1.20397E+03         367.685         367.685         35.5289         35.5289
             479     1.20518E+03     1.20518E+03         367.659         367.659         50.1792         50.1792
             480     1.20693E+03     1.20693E+03         367.638         367.638         65.3011         65.3011
             481     1.21182E+03     1.21182E+03         367.654         367.654         93.8114         93.8114
             482     1.21514E+03     1.21514E+03         367.775         367.775         107.200         107.200
             483     1.21932E+03     1.21932E+03         367.908         367.908         121.488         121.488
             484     1.22498E+03     1.22498E+03         368.231         368.231         136.417         136.417
             485     1.23221E+03     1.23221E+03         368.646         368.646         152.865         152.865
             486     1.24248E+03     1.24248E+03         369.365         369.365         170.113         170.113
             487     1.25595E+03     1.25595E+03         370.427         370.427         190.246         190.246
             488     1.27685E+03     1.27685E+03         371.723         371.723         211.142         211.142
             489     1.30540E+03     1.30540E+03         374.328         374.328         238.815         238.815
             490     1.35879E+03     1.35879E+03         374.693         374.693         265.633         265.633
             491     1.43678E+03     1.43678E+03         381.444         381.444         315.753         315.753
             492     1.72035E+03     1.72035E+03         330.409         330.409         337.553         337.553
             493     1.76789E+03     1.76789E+03         126.271         126.271         199.843         199.843
             494     1.49895E+03     1.49895E+03         9.60924         9.60924         71.2538         71.2538
             495     1.38300E+03     1.38300E+03         16.3897         16.3897         44.9296         44.9296
             496     1.31305E+03     1.31305E+03         3.46092         3.46092         25.9477         25.9477
             497     1.26978E+03     1.26978E+03         5.17994         5.17994         17.6004         17.6004
             498     1.24136E+03     1.24136E+03         1.72918         1.72918         11.2353         11.2353
             499     1.22277E+03     1.22277E+03         2.27116         2.27116         7.52130         7.52130
             500     1.21080E+03     1.21080E+03     981.564E-03     981.564E-03         4.64916         4.64916
             501     1.20351E+03     1.20351E+03         1.18294         1.18294         2.72493         2.72493
             502     1.19964E+03     1.19964E+03     594.011E-03     594.011E-03         1.23034         1.23034
             503     1.19829E+03     1.19829E+03     677.028E-03     677.028E-03     156.768E-03     156.768E-03
             504     1.19883E+03     1.19883E+03     371.100E-03     371.100E-03    -675.448E-03    -675.448E-03
             505     1.20079E+03     1.20079E+03     406.139E-03     406.139E-03        -1.29136        -1.29136
             506     1.20384E+03     1.20384E+03     233.827E-03     233.827E-03        -1.76379        -1.76379
             507     1.20770E+03     1.20770E+03     247.363E-03     247.363E-03        -2.11409        -2.11409
             508     1.21216E+03     1.21216E+03     145.423E-03     145.423E-03        -2.37630        -2.37630
             509     1.21707E+03     1.21707E+03     149.046E-03     149.046E-03        -2.56575        -2.56575
             510     1.22229E+03     1.22229E+03     86.9261E-03     86.9261E-03        -2.70042        -2.70042
             511     1.22774E+03     1.22774E+03     86.1339E-03     86.1339E-03        -2.79070        -2.79070
             512     1.23333E+03     1.23333E+03     47.4577E-03     47.4577E-03        -2.84686        -2.84686
             513     1.23901E+03     1.23901E+03     44.7380E-03     44.7380E-03        -2.87560        -2.87560
             514     1.24472E+03     1.24472E+03     19.8906E-03     19.8906E-03        -2.88277        -2.88277
             515     1.25043E+03     1.25043E+03     15.9895E-03     15.9895E-03        -2.87221        -2.87221
             516     1.25610E+03     1.25610E+03    -1.24123E-03    -1.24123E-03        -2.84668        -2.84668
             517     1.26170E+03     1.26170E+03    -6.70886E-03    -6.70886E-03        -2.80750        -2.80750
             518     1.26722E+03     1.26722E+03    -20.8002E-03    -20.8002E-03        -2.75487        -2.75487
             519     1.27262E+03     1.27262E+03    -28.9880E-03    -28.9880E-03        -2.68771        -2.68771
             520     1.27786E+03     1.27786E+03    -43.4953E-03    -43.4953E-03        -2.60377        -2.60377
             521     1.28292E+03     1.28292E+03    -55.9720E-03    -55.9720E-03        -2.49967        -2.49967
             522     1.28775E+03     1.28775E+03    -73.7362E-03    -73.7362E-03        -2.37095        -2.37095
             523     1.29230E+03     1.29230E+03    -91.8988E-03    -91.8988E-03        -2.21229        -2.21229
             524     1.29649E+03     1.29649E+03    -114.617E-03    -114.617E-03        -2.01780        -2.01780
             525     1.30026E+03     1.30026E+03    -138.612E-03    -138.612E-03        -1.78155        -1.78155
             526     1.30351E+03     1.30351E+03    -165.658E-03    -165.658E-03        -1.49821        -1.49821
             527     1.30615E+03     1.30615E+03    -192.681E-03    -192.681E-03        -1.16415        -1.16415
             528     1.30807E+03     1.30807E+03    -219.306E-03    -219.306E-03    -778.489E-03    -778.489E-03
             529     1.30918E+03     1.30918E+03    -241.713E-03    -241.713E-03    -344.608E-03    -344.608E-03
             530     1.30940E+03     1.30940E+03    -257.581E-03    -257.581E-03     128.493E-03     128.493E-03
             531     1.30864E+03     1.30864E+03    -262.330E-03    -262.330E-03     624.992E-03     624.992E-03
             532     1.30691E+03     1.30691E+03    -252.651E-03    -252.651E-03         1.12148         1.12148
             533     1.30422E+03     1.30422E+03    -224.892E-03    -224.892E-03         1.58761         1.58761
             534     1.30067E+03     1.30067E+03    -177.101E-03    -177.101E-03         1.98595         1.98595
             535         20.9008         20.9008        -637.792        -637.792        -3.03853        -3.03853
             536         177.538         177.538        -235.384        -235.384        -8.08912        -8.08912
             537         427.798         427.798        -44.0292        -44.0292        -9.18105        -9.18105
             538         685.005         685.005         23.6083         23.6083        -7.98047        -7.98047
             539         898.040         898.040         34.4240         34.4240        -5.74128        -5.74128
             540     1.38844E+03     1.38844E+03        -99.8856        -99.8856        -52.4028        -52.4028
             541     1.43885E+03     1.43885E+03        -150.115        -150.115        -93.8417        -93.8417
             542     1.48639E+03     1.48639E+03        -196.140        -196.140        -160.679        -160.679
             543     1.47499E+03     1.47499E+03        -180.727        -180.727        -265.040        -265.040
             544     1.25588E+03     1.25588E+03         50.2960         50.2960        -426.772        -426.772
             545         633.792         633.792         50.6274         50.6274        -339.274        -339.274
             546         295.925         295.925        -234.895        -234.895        -157.999        -157.999
             547         96.4066         96.4066        -549.412        -549.412        -29.6749        -29.6749
             548         3.58730         3.58730        -799.392        -799.392         16.1094         16.1094
             549     1.43628E+03     1.43628E+03         208.356         208.356         1.34312         1.34312
             550     1.55948E+03     1.55948E+03         309.429         309.429         1.15098         1.15098
             551     1.79112E+03     1.79112E+03         401.985         401.985         1.00535         1.00535
             552     2.20243E+03     2.20243E+03         428.676         428.676     851.466E-03     851.466E-03
             553     2.87000E+03     2.87000E+03         311.280         311.280     562.484E-03     562.484E-03
             554     3.12297E+03     3.12297E+03         242.324         242.324        -363.808        -363.808
             555     2.70968E+03     2.70968E+03         323.494         323.494        -622.048        -622.048
             556     2.15151E+03     2.15151E+03         380.990         380.990        -721.284        -721.284
             557     1.57480E+03     1.57480E+03         356.413         356.413        -671.236        -671.236
             558     1.27036E+03     1.27036E+03         54.5270         54.5270         429.334         429.334
             559     1.48486E+03     1.48486E+03        -179.745        -179.745         261.902         261.902
             560     1.49195E+03     1.49195E+03        -195.584        -195.584         156.912         156.912
             561     1.44169E+03     1.44169E+03        -149.608        -149.608         90.9309         90.9309
             562     1.38979E+03     1.38979E+03        -99.4335        -99.4335         50.4478         50.4478
             563        -5.20086        -5.20086        -842.194        -842.194        -18.9545        -18.9545
             564         52.5326         52.5326        -654.134        -654.134         1.15366         1.15366
             565         175.368         175.368        -397.611        -397.611         80.3868         80.3868
             566         385.668         385.668        -131.683        -131.683         212.424         212.424
             567         694.099         694.099         94.2034         94.2034         370.402         370.402
             568     1.39200E+03     1.39200E+03        -101.848        -101.848         53.1969         53.1969
             569     1.44380E+03     1.44380E+03        -151.581        -151.581         92.8251         92.8251
             570     1.49399E+03     1.49399E+03        -197.184        -197.184         158.172         158.172
             571     1.48697E+03     1.48697E+03        -180.923        -180.923         262.755         262.755
             572     1.27241E+03     1.27241E+03         54.2197         54.2197         430.212         430.212
             573     1.57686E+03     1.57686E+03         355.888         355.888         672.290         672.290
             574     2.15378E+03     2.15378E+03         381.520         381.520         722.427         722.427
             575     2.71170E+03     2.71170E+03         323.974         323.974         623.094         623.094
             576     3.12417E+03     3.12417E+03         242.591         242.591         364.640         364.640
             577     1.24218E+03     1.24218E+03         45.3716         45.3716        -425.136        -425.136
             578     1.46903E+03     1.46903E+03        -186.373        -186.373        -268.441        -268.441
             579     1.48362E+03     1.48362E+03        -200.237        -200.237        -165.173        -165.173
             580     1.43794E+03     1.43794E+03        -153.258        -153.258        -98.1672        -98.1672
             581     1.38879E+03     1.38879E+03        -102.771        -102.771        -56.7037        -56.7037
             582     1.43587E+03     1.43587E+03         210.450         210.450        -4.19992        -4.19992
             583     1.55956E+03     1.55956E+03         311.620         311.620        -4.42786        -4.42786
             584     1.79228E+03     1.79228E+03         403.630         403.630        -3.04719        -3.04719
             585     2.20520E+03     2.20520E+03         429.247         429.247         1.19229         1.19229
             586     2.87505E+03     2.87505E+03         310.137         310.137         9.75913         9.75913
             587     3.18433E+03     3.18433E+03         228.663         228.663        -312.677        -312.677
             588     2.88181E+03     2.88181E+03         294.942         294.942        -560.024        -560.024
             589     2.44771E+03     2.44771E+03         362.537         362.537        -700.556        -700.556
             590     1.95826E+03     1.95826E+03         389.224         389.224        -726.822        -726.822
             591     1.48287E+03     1.48287E+03         349.656         349.656        -657.560        -657.560
             592     1.57424E+03     1.57424E+03         355.205         355.205         671.023         671.023
             593     2.15050E+03     2.15050E+03         380.849         380.849         721.068         721.068
             594     2.70789E+03     2.70789E+03         323.245         323.245         622.029         622.029
             595     3.12031E+03     3.12031E+03         242.627         242.627         363.751         363.751
             596         900.859         900.859         31.4003         31.4003        -5.70696        -5.70696
             597         686.807         686.807         21.1733         21.1733        -7.91163        -7.91163
             598         428.747         428.747        -46.2005        -46.2005        -9.08172        -9.08172
             599         177.803         177.803        -237.746        -237.746        -7.97963        -7.97963
             600         20.8135         20.8135        -641.037        -641.037        -2.95130        -2.95130
             601        -5.28698        -5.28698        -845.786        -845.786        -19.0562        -19.0562
             602         52.5835         52.5835        -656.991        -656.991         1.03186         1.03186
             603         175.701         175.701        -399.521        -399.521         80.4163         80.4163
             604         386.405         386.405        -132.664        -132.664         212.770         212.770
             605         695.421         695.421         94.0143         94.0143         371.076         371.076
             606         634.700         634.700         49.8005         49.8005        -339.399        -339.399
             607         296.194         296.194        -236.715        -236.715        -157.869        -157.869
             608         96.3922         96.3922        -552.256        -552.256        -29.3725        -29.3725
             609         3.45304         3.45304        -803.021        -803.021         16.3687         16.3687
             610     1.33401E+03     1.33401E+03        -44.0516        -44.0516        -16.8406        -16.8406
             611     1.32212E+03     1.32212E+03        -39.5683        -39.5683        -22.3347        -22.3347
             612     1.31165E+03     1.31165E+03        -33.7067        -33.7067        -25.2516        -25.2516
             613     1.30301E+03     1.30301E+03        -27.5247        -27.5247        -26.1822        -26.1822
             614     1.29622E+03     1.29622E+03        -21.6790        -21.6790        -25.8073        -25.8073
             615     1.29107E+03     1.29107E+03        -16.4700        -16.4700        -24.6627        -24.6627
             616     1.28728E+03     1.28728E+03        -11.9925        -11.9925        -23.1317        -23.1317
             617     1.28457E+03     1.28457E+03        -8.22817        -8.22817        -21.4537        -21.4537
             618     1.28270E+03     1.28270E+03        -5.11561        -5.11561        -19.7710        -19.7710
             619     1.28146E+03     1.28146E+03        -2.57606        -2.57606        -18.1599        -18.1599
             620     1.28071E+03     1.28071E+03    -531.434E-03    -531.434E-03        -16.6567        -16.6567
             621     1.28032E+03     1.28032E+03         1.09146         1.09146        -15.2739        -15.2739
             622     1.28018E+03     1.28018E+03         2.35747         2.35747        -14.0104        -14.0104
             623     1.28024E+03     1.28024E+03         3.32363         3.32363        -12.8584        -12.8584
             624     1.28043E+03     1.28043E+03         4.03917         4.03917        -11.8072        -11.8072
             625     1.28071E+03     1.28071E+03         4.54663         4.54663        -10.8457        -10.8457
             626     1.28105E+03     1.28105E+03         4.88247         4.88247        -9.96318        -9.96318
             627     1.28142E+03     1.28142E+03         5.07797         5.07797        -9.15032        -9.15032
             628     1.28181E+03     1.28181E+03         5.15985         5.15985        -8.39902        -8.39902
             629     1.28220E+03     1.28220E+03         5.15087         5.15087        -7.70259        -7.70259
             630     1.28259E+03     1.28259E+03         5.07040         5.07040        -7.05548        -7.05548
             631     1.28296E+03     1.28296E+03         4.93482         4.93482        -6.45319        -6.45319
             632     1.28331E+03     1.28331E+03         4.75793         4.75793        -5.89201        -5.89201
             633     1.28365E+03     1.28365E+03         4.55131         4.55131        -5.36886        -5.36886
             634     1.28395E+03     1.28395E+03         4.32464         4.32464        -4.88115        -4.88115
             635     1.28424E+03     1.28424E+03         4.08594         4.08594        -4.42661        -4.42661
             636     1.28450E+03     1.28450E+03         3.84181         3.84181        -4.00321        -4.00321
             637     1.28473E+03     1.28473E+03         3.59767         3.59767        -3.60907        -3.60907
             638     1.28495E+03     1.28495E+03         3.35792         3.35792        -3.24239        -3.24239
             639     1.28514E+03     1.28514E+03         3.12609         3.12609        -2.90144        -2.90144
             640     1.28531E+03     1.28531E+03         2.90500         2.90500        -2.58448        -2.58448
             641     1.28546E+03     1.28546E+03         2.69687         2.69687        -2.28977        -2.28977
             642     1.28559E+03     1.28559E+03         2.50343         2.50343        -2.01557        -2.01557
             643     1.28571E+03     1.28571E+03         2.32602         2.32602        -1.76009        -1.76009
             644     1.28581E+03     1.28581E+03         2.16563         2.16563        -1.52154        -1.52154
             645     1.28589E+03     1.28589E+03         2.02300         2.02300        -1.29810        -1.29810
             646     1.28597E+03     1.28597E+03         1.89868         1.89868        -1.08791        -1.08791
             647     1.28603E+03     1.28603E+03         1.79305         1.79305    -889.122E-03    -889.122E-03
             648     1.28607E+03     1.28607E+03         1.70637         1.70637    -699.850E-03    -699.850E-03
             649     1.28611E+03     1.28611E+03         1.63882         1.63882    -518.207E-03    -518.207E-03
             650     1.28614E+03     1.28614E+03         1.59050         1.59050    -342.298E-03    -342.298E-03
             651     1.28615E+03     1.28615E+03         1.56146         1.56146    -170.686E-03    -170.686E-03
             652     1.33513E+03     1.33513E+03        -36.9750        -36.9750        -5.95964        -5.95964
             653     1.32586E+03     1.32586E+03        -34.9384        -34.9384        -12.2041        -12.2041
             654     1.31717E+03     1.31717E+03        -31.1832        -31.1832        -16.3928        -16.3928
             655     1.30947E+03     1.30947E+03        -26.5742        -26.5742        -18.8586        -18.8586
             656     1.30299E+03     1.30299E+03        -21.7813        -21.7813        -19.9880        -19.9880
             657     1.29773E+03     1.29773E+03        -17.2149        -17.2149        -20.1846        -20.1846
             658     1.29359E+03     1.29359E+03        -13.0880        -13.0880        -19.7743        -19.7743
             659     1.29042E+03     1.29042E+03        -9.48603        -9.48603        -19.0019        -19.0019
             660     1.28804E+03     1.28804E+03        -6.41869        -6.41869        -18.0326        -18.0326
             661     1.28631E+03     1.28631E+03        -3.85778        -3.85778        -16.9750        -16.9750
             662     1.28508E+03     1.28508E+03        -1.75602        -1.75602        -15.8951        -15.8951
             663     1.28425E+03     1.28425E+03    -60.2709E-03    -60.2709E-03        -14.8320        -14.8320
             664     1.28372E+03     1.28372E+03         1.28325         1.28325        -13.8065        -13.8065
             665     1.28342E+03     1.28342E+03         2.32512         2.32512        -12.8289        -12.8289
             666     1.28329E+03     1.28329E+03         3.11169         3.11169        -11.9026        -11.9026
             667     1.28328E+03     1.28328E+03         3.68426         3.68426        -11.0279        -11.0279
             668     1.28336E+03     1.28336E+03         4.07931         4.07931        -10.2029        -10.2029
             669     1.28350E+03     1.28350E+03         4.32856         4.32856        -9.42528        -9.42528
             670     1.28368E+03     1.28368E+03         4.45943         4.45943        -8.69252        -8.69252
             671     1.28389E+03     1.28389E+03         4.49543         4.49543        -8.00219        -8.00219
             672     1.28410E+03     1.28410E+03         4.45659         4.45659        -7.35214        -7.35214
             673     1.28432E+03     1.28432E+03         4.35984         4.35984        -6.74046        -6.74046
             674     1.28453E+03     1.28453E+03         4.21944         4.21944        -6.16548        -6.16548
             675     1.28473E+03     1.28473E+03         4.04729         4.04729        -5.62568        -5.62568
             676     1.28492E+03     1.28492E+03         3.85328         3.85328        -5.11964        -5.11964
             677     1.28510E+03     1.28510E+03         3.64558         3.64558        -4.64598        -4.64598
             678     1.28527E+03     1.28527E+03         3.43088         3.43088        -4.20332        -4.20332
             679     1.28541E+03     1.28541E+03         3.21461         3.21461        -3.79025        -3.79025
             680     1.28555E+03     1.28555E+03         3.00116         3.00116        -3.40531        -3.40531
             681     1.28567E+03     1.28567E+03         2.79406         2.79406        -3.04696        -3.04696
             682     1.28578E+03     1.28578E+03         2.59607         2.59607        -2.71360        -2.71360
             683     1.28587E+03     1.28587E+03         2.40937         2.40937        -2.40355        -2.40355
             684     1.28595E+03     1.28595E+03         2.23565         2.23565        -2.11508        -2.11508
             685     1.28602E+03     1.28602E+03         2.07619         2.07619        -1.84638        -1.84638
             686     1.28609E+03     1.28609E+03         1.93195         1.93195        -1.59559        -1.59559
             687     1.28614E+03     1.28614E+03         1.80365         1.80365        -1.36081        -1.36081
             688     1.28618E+03     1.28618E+03         1.69179         1.69179        -1.14010        -1.14010
             689     1.28622E+03     1.28622E+03         1.59674         1.59674    -931.503E-03    -931.503E-03
             690     1.28625E+03     1.28625E+03         1.51874         1.51874    -733.023E-03    -733.023E-03
             691     1.28627E+03     1.28627E+03         1.45795         1.45795    -542.656E-03    -542.656E-03
             692     1.28628E+03     1.28628E+03         1.41447         1.41447    -358.387E-03    -358.387E-03
             693     1.28629E+03     1.28629E+03         1.38832         1.38832    -178.697E-03    -178.697E-03
             694     1.33342E+03     1.33342E+03        -29.8244        -29.8244         2.01333         2.01333
             695     1.32662E+03     1.32662E+03        -29.6512        -29.6512        -4.23940        -4.23940
             696     1.31977E+03     1.31977E+03        -27.5596        -27.5596        -8.96148        -8.96148
             697     1.31333E+03     1.31333E+03        -24.3665        -24.3665        -12.2947        -12.2947
             698     1.30758E+03     1.30758E+03        -20.6574        -20.6574        -14.4437        -14.4437
             699     1.30266E+03     1.30266E+03        -16.8645        -16.8645        -15.6550        -15.6550
             700     1.29857E+03     1.29857E+03        -13.2568        -13.2568        -16.1737        -16.1737
             701     1.29528E+03     1.29528E+03        -9.98429        -9.98429        -16.2036        -16.2036
             702     1.29267E+03     1.29267E+03        -7.11410        -7.11410        -15.9045        -15.9045
             703     1.29064E+03     1.29064E+03        -4.66092        -4.66092        -15.3918        -15.3918
             704     1.28911E+03     1.28911E+03        -2.60946        -2.60946        -14.7471        -14.7471
             705     1.28796E+03     1.28796E+03    -927.721E-03    -927.721E-03        -14.0258        -14.0258
             706     1.28712E+03     1.28712E+03     423.535E-03     423.535E-03        -13.2651        -13.2651
             707     1.28653E+03     1.28653E+03         1.48594         1.48594        -12.4895        -12.4895
             708     1.28612E+03     1.28612E+03         2.30007         2.30007        -11.7150        -11.7150
             709     1.28586E+03     1.28586E+03         2.90394         2.90394        -10.9520        -10.9520
             710     1.28571E+03     1.28571E+03         3.33201         3.33201        -10.2075        -10.2075
             711     1.28563E+03     1.28563E+03         3.61497         3.61497        -9.48600        -9.48600
             712     1.28561E+03     1.28561E+03         3.77967         3.77967        -8.79062        -8.79062
             713     1.28562E+03     1.28562E+03         3.84934         3.84934        -8.12346        -8.12346
             714     1.28567E+03     1.28567E+03         3.84383         3.84383        -7.48594        -7.48594
             715     1.28573E+03     1.28573E+03         3.77999         3.77999        -6.87900        -6.87900
             716     1.28579E+03     1.28579E+03         3.67197         3.67197        -6.30315        -6.30315
             717     1.28586E+03     1.28586E+03         3.53159         3.53159        -5.75860        -5.75860
             718     1.28593E+03     1.28593E+03         3.36862         3.36862        -5.24521        -5.24521
             719     1.28600E+03     1.28600E+03         3.19110         3.19110        -4.76261        -4.76261
             720     1.28606E+03     1.28606E+03         3.00558         3.00558        -4.31016        -4.31016
             721     1.28612E+03     1.28612E+03         2.81736         2.81736        -3.88698        -3.88698
             722     1.28617E+03     1.28617E+03         2.63070         2.63070        -3.49199        -3.49199
             723     1.28622E+03     1.28622E+03         2.44898         2.44898        -3.12393        -3.12393
             724     1.28626E+03     1.28626E+03         2.27486         2.27486        -2.78136        -2.78136
             725     1.28629E+03     1.28629E+03         2.11042         2.11042        -2.46271        -2.46271
             726     1.28632E+03     1.28632E+03         1.95726         1.95726        -2.16628        -2.16628
             727     1.28635E+03     1.28635E+03         1.81657         1.81657        -1.89028        -1.89028
             728     1.28637E+03     1.28637E+03         1.68926         1.68926        -1.63284        -1.63284
             729     1.28638E+03     1.28638E+03         1.57598         1.57598        -1.39200        -1.39200
             730     1.28640E+03     1.28640E+03         1.47722         1.47722        -1.16578        -1.16578
             731     1.28641E+03     1.28641E+03         1.39328         1.39328    -952.154E-03    -952.154E-03
             732     1.28642E+03     1.28642E+03         1.32441         1.32441    -749.048E-03    -749.048E-03
             733     1.28642E+03     1.28642E+03         1.27073         1.27073    -554.383E-03    -554.383E-03
             734     1.28643E+03     1.28643E+03         1.23234         1.23234    -366.063E-03    -366.063E-03
             735     1.28643E+03     1.28643E+03         1.20925         1.20925    -182.526E-03    -182.526E-03
             736     1.33013E+03     1.33013E+03        -23.2828        -23.2828         7.42138         7.42138
             737     1.32548E+03     1.32548E+03        -24.3004        -24.3004         1.70755         1.70755
             738     1.32037E+03     1.32037E+03        -23.4599        -23.4599        -3.04813        -3.04813
             739     1.31526E+03     1.31526E+03        -21.4131        -21.4131        -6.76750        -6.76750
             740     1.31045E+03     1.31045E+03        -18.6877        -18.6877        -9.51829        -9.51829
             741     1.30613E+03     1.30613E+03        -15.6751        -15.6751        -11.4268        -11.4268
             742     1.30237E+03     1.30237E+03        -12.6578        -12.6578        -12.6465        -12.6465
             743     1.29920E+03     1.29920E+03        -9.81437        -9.81437        -13.3292        -13.3292
             744     1.29658E+03     1.29658E+03        -7.24692        -7.24692        -13.6061        -13.6061
             745     1.29445E+03     1.29445E+03        -5.00223        -5.00223        -13.5848        -13.5848
             746     1.29274E+03     1.29274E+03        -3.09068        -3.09068        -13.3480        -13.3480
             747     1.29140E+03     1.29140E+03        -1.50019        -1.50019        -12.9587        -12.9587
             748     1.29034E+03     1.29034E+03    -205.655E-03    -205.655E-03        -12.4635        -12.4635
             749     1.28952E+03     1.28952E+03     824.244E-03     824.244E-03        -11.8971        -11.8971
             750     1.28889E+03     1.28889E+03         1.62311         1.62311        -11.2852        -11.2852
             751     1.28841E+03     1.28841E+03         2.22401         2.22401        -10.6468        -10.6468
             752     1.28804E+03     1.28804E+03         2.65811         2.65811        -9.99634        -9.99634
             753     1.28776E+03     1.28776E+03         2.95370         2.95370        -9.34476        -9.34476
             754     1.28755E+03     1.28755E+03         3.13599         3.13599        -8.70040        -8.70040
             755     1.28739E+03     1.28739E+03         3.22695         3.22695        -8.06967        -8.06967
             756     1.28726E+03     1.28726E+03         3.24551         3.24551        -7.45749        -7.45749
             757     1.28716E+03     1.28716E+03         3.20776         3.20776        -6.86753        -6.86753
             758     1.28708E+03     1.28708E+03         3.12722         3.12722        -6.30253        -6.30253
             759     1.28702E+03     1.28702E+03         3.01517         3.01517        -5.76436        -5.76436
             760     1.28696E+03     1.28696E+03         2.88093         2.88093        -5.25422        -5.25422
             761     1.28692E+03     1.28692E+03         2.73212         2.73212        -4.77272        -4.77272
             762     1.28688E+03     1.28688E+03         2.57495         2.57495        -4.31998        -4.31998
             763     1.28684E+03     1.28684E+03         2.41440         2.41440        -3.89566        -3.89566
             764     1.28680E+03     1.28680E+03         2.25447         2.25447        -3.49908        -3.49908
             765     1.28677E+03     1.28677E+03         2.09831         2.09831        -3.12927        -3.12927
             766     1.28674E+03     1.28674E+03         1.94838         1.94838        -2.78497        -2.78497
             767     1.28671E+03     1.28671E+03         1.80660         1.80660        -2.46475        -2.46475
             768     1.28669E+03     1.28669E+03         1.67443         1.67443        -2.16698        -2.16698
             769     1.28666E+03     1.28666E+03         1.55296         1.55296        -1.88990        -1.88990
             770     1.28664E+03     1.28664E+03         1.44302         1.44302        -1.63166        -1.63166
             771     1.28662E+03     1.28662E+03         1.34518         1.34518        -1.39030        -1.39030
             772     1.28660E+03     1.28660E+03         1.25988         1.25988        -1.16382        -1.16382
             773     1.28659E+03     1.28659E+03         1.18738         1.18738    -950.157E-03    -950.157E-03
             774     1.28658E+03     1.28658E+03         1.12790         1.12790    -747.210E-03    -747.210E-03
             775     1.28657E+03     1.28657E+03         1.08154         1.08154    -552.862E-03    -552.862E-03
             776     1.28656E+03     1.28656E+03         1.04839         1.04839    -364.981E-03    -364.981E-03
             777     1.28656E+03     1.28656E+03         1.02845         1.02845    -181.992E-03    -181.992E-03
             778     1.32624E+03     1.32624E+03        -17.6965        -17.6965         10.8067         10.8067
             779     1.32329E+03     1.32329E+03        -19.3070        -19.3070         5.86412         5.86412
             780     1.31971E+03     1.31971E+03        -19.2893        -19.2893         1.41261         1.41261
             781     1.31587E+03     1.31587E+03        -18.1135        -18.1135        -2.35650        -2.35650
             782     1.31206E+03     1.31206E+03        -16.2031        -16.2031        -5.38753        -5.38753
             783     1.30846E+03     1.30846E+03        -13.9048        -13.9048        -7.71466        -7.71466
             784     1.30520E+03     1.30520E+03        -11.4773        -11.4773        -9.41416        -9.41416
             785     1.30233E+03     1.30233E+03        -9.10416        -9.10416        -10.5817        -10.5817
             786     1.29985E+03     1.29985E+03        -6.90118        -6.90118        -11.3146        -11.3146
             787     1.29776E+03     1.29776E+03        -4.93371        -4.93371        -11.7008        -11.7008
             788     1.29601E+03     1.29601E+03        -3.22981        -3.22981        -11.8163        -11.8163
             789     1.29456E+03     1.29456E+03        -1.79261        -1.79261        -11.7236        -11.7236
             790     1.29337E+03     1.29337E+03    -609.432E-03    -609.432E-03        -11.4731        -11.4731
             791     1.29239E+03     1.29239E+03     341.502E-03     341.502E-03        -11.1053        -11.1053
             792     1.29157E+03     1.29157E+03         1.08637         1.08637        -10.6525        -10.6525
             793     1.29091E+03     1.29091E+03         1.65271         1.65271        -10.1401        -10.1401
             794     1.29035E+03     1.29035E+03         2.06738         2.06738        -9.58853        -9.58853
             795     1.28988E+03     1.28988E+03         2.35544         2.35544        -9.01398        -9.01398
             796     1.28949E+03     1.28949E+03         2.53952         2.53952        -8.42929        -8.42929
             797     1.28915E+03     1.28915E+03         2.63958         2.63958        -7.84463        -7.84463
             798     1.28886E+03     1.28886E+03         2.67290         2.67290        -7.26798        -7.26798
             799     1.28860E+03     1.28860E+03         2.65423         2.65423        -6.70551        -6.70551
             800     1.28838E+03     1.28838E+03         2.59596         2.59596        -6.16189        -6.16189
             801     1.28818E+03     1.28818E+03         2.50845         2.50845        -5.64056        -5.64056
             802     1.28799E+03     1.28799E+03         2.40022         2.40022        -5.14390        -5.14390
             803     1.28783E+03     1.28783E+03         2.27822         2.27822        -4.67342        -4.67342
             804     1.28768E+03     1.28768E+03         2.14810         2.14810        -4.22991        -4.22991
             805     1.28755E+03     1.28755E+03         2.01438         2.01438        -3.81357        -3.81357
             806     1.28742E+03     1.28742E+03         1.88065         1.88065        -3.42408        -3.42408
             807     1.28731E+03     1.28731E+03         1.74975         1.74975        -3.06072        -3.06072
             808     1.28721E+03     1.28721E+03         1.62388         1.62388        -2.72245        -2.72245
             809     1.28712E+03     1.28712E+03         1.50473         1.50473        -2.40795        -2.40795
             810     1.28704E+03     1.28704E+03         1.39359         1.39359        -2.11569        -2.11569
             811     1.28696E+03     1.28696E+03         1.29142         1.29142        -1.84400        -1.84400
             812     1.28690E+03     1.28690E+03         1.19894         1.19894        -1.59103        -1.59103
             813     1.28684E+03     1.28684E+03         1.11664         1.11664        -1.35488        -1.35488
             814     1.28679E+03     1.28679E+03         1.04488         1.04488        -1.13354        -1.13354
             815     1.28675E+03     1.28675E+03     983.917E-03     983.917E-03    -924.982E-03    -924.982E-03
             816     1.28672E+03     1.28672E+03     933.894E-03     933.894E-03    -727.108E-03    -727.108E-03
             817     1.28669E+03     1.28669E+03     894.915E-03     894.915E-03    -537.807E-03    -537.807E-03
             818     1.28668E+03     1.28668E+03     867.042E-03     867.042E-03    -354.955E-03    -354.955E-03
             819     1.28666E+03     1.28666E+03     850.287E-03     850.287E-03    -177.002E-03    -177.002E-03
             820     1.32227E+03     1.32227E+03        -13.1139        -13.1139         12.6791         12.6791
             821     1.32064E+03     1.32064E+03        -14.8853        -14.8853         8.54439         8.54439
             822     1.31835E+03     1.31835E+03        -15.3235        -15.3235         4.55898         4.55898
             823     1.31566E+03     1.31566E+03        -14.7464        -14.7464     966.095E-03     966.095E-03
             824     1.31281E+03     1.31281E+03        -13.4725        -13.4725        -2.11080        -2.11080
             825     1.30999E+03     1.30999E+03        -11.7819        -11.7819        -4.63142        -4.63142
             826     1.30731E+03     1.30731E+03        -9.90080        -9.90080        -6.61245        -6.61245
             827     1.30484E+03     1.30484E+03        -7.99581        -7.99581        -8.10092        -8.10092
             828     1.30263E+03     1.30263E+03        -6.18232        -6.18232        -9.15918        -9.15918
             829     1.30067E+03     1.30067E+03        -4.53108        -4.53108        -9.85348        -9.85348
             830     1.29897E+03     1.29897E+03        -3.07948        -3.07948        -10.2471        -10.2471
             831     1.29749E+03     1.29749E+03        -1.84033        -1.84033        -10.3974        -10.3974
             832     1.29622E+03     1.29622E+03    -810.153E-03    -810.153E-03        -10.3542        -10.3542
             833     1.29512E+03     1.29512E+03     24.7975E-03     24.7975E-03        -10.1602        -10.1602
             834     1.29416E+03     1.29416E+03     683.937E-03     683.937E-03        -9.85101        -9.85101
             835     1.29333E+03     1.29333E+03         1.18913         1.18913        -9.45650        -9.45650
             836     1.29261E+03     1.29261E+03         1.56261         1.56261        -9.00112        -9.00112
             837     1.29197E+03     1.29197E+03         1.82559         1.82559        -8.50496        -8.50496
             838     1.29140E+03     1.29140E+03         1.99752         1.99752        -7.98427        -7.98427
             839     1.29089E+03     1.29089E+03         2.09573         2.09573        -7.45217        -7.45217
             840     1.29044E+03     1.29044E+03         2.13531         2.13531        -6.91905        -6.91905
             841     1.29002E+03     1.29002E+03         2.12916         2.12916        -6.39305        -6.39305
             842     1.28965E+03     1.28965E+03         2.08818         2.08818        -5.88042        -5.88042
             843     1.28931E+03     1.28931E+03         2.02141         2.02141        -5.38582        -5.38582
             844     1.28900E+03     1.28900E+03         1.93631         1.93631        -4.91259        -4.91259
             845     1.28872E+03     1.28872E+03         1.83896         1.83896        -4.46297        -4.46297
             846     1.28847E+03     1.28847E+03         1.73426         1.73426        -4.03831        -4.03831
             847     1.28823E+03     1.28823E+03         1.62612         1.62612        -3.63920        -3.63920
             848     1.28802E+03     1.28802E+03         1.51765         1.51765        -3.26565        -3.26565
             849     1.28783E+03     1.28783E+03         1.41126         1.41126        -2.91716        -2.91716
             850     1.28766E+03     1.28766E+03         1.30886         1.30886        -2.59287        -2.59287
             851     1.28750E+03     1.28750E+03         1.21186         1.21186        -2.29158        -2.29158
             852     1.28736E+03     1.28736E+03         1.12136         1.12136        -2.01188        -2.01188
             853     1.28724E+03     1.28724E+03         1.03816         1.03816        -1.75216        -1.75216
             854     1.28713E+03     1.28713E+03     962.859E-03     962.859E-03        -1.51066        -1.51066
             855     1.28704E+03     1.28704E+03     895.860E-03     895.860E-03        -1.28553        -1.28553
             856     1.28696E+03     1.28696E+03     837.458E-03     837.458E-03        -1.07483        -1.07483
             857     1.28689E+03     1.28689E+03     787.846E-03     787.846E-03    -876.573E-03    -876.573E-03
             858     1.28684E+03     1.28684E+03     747.148E-03     747.148E-03    -688.720E-03    -688.720E-03
             859     1.28679E+03     1.28679E+03     715.441E-03     715.441E-03    -509.215E-03    -509.215E-03
             860     1.28676E+03     1.28676E+03     692.770E-03     692.770E-03    -335.989E-03    -335.989E-03
             861     1.28675E+03     1.28675E+03     679.147E-03     679.147E-03    -167.561E-03    -167.561E-03
             862     1.31853E+03     1.31853E+03        -9.44521        -9.44521         13.4196         13.4196
             863     1.31793E+03     1.31793E+03        -11.0947        -11.0947         10.0291         10.0291
             864     1.31670E+03     1.31670E+03        -11.7143        -11.7143         6.56511         6.56511
             865     1.31504E+03     1.31504E+03        -11.5061        -11.5061         3.27587         3.27587
             866     1.31310E+03     1.31310E+03        -10.6965        -10.6965     320.216E-03     320.216E-03
             867     1.31103E+03     1.31103E+03        -9.49974        -9.49974        -2.21869        -2.21869
             868     1.30896E+03     1.30896E+03        -8.09733        -8.09733        -4.31205        -4.31205
             869     1.30695E+03     1.30695E+03        -6.63162        -6.63162        -5.96966        -5.96966
             870     1.30505E+03     1.30505E+03        -5.20449        -5.20449        -7.22398        -7.22398
             871     1.30330E+03     1.30330E+03        -3.88346        -3.88346        -8.11998        -8.11998
             872     1.30170E+03     1.30170E+03        -2.70719        -2.70719        -8.70735        -8.70735
             873     1.30024E+03     1.30024E+03        -1.69308        -1.69308        -9.03552        -9.03552
             874     1.29893E+03     1.29893E+03    -843.231E-03    -843.231E-03        -9.15096        -9.15096
             875     1.29774E+03     1.29774E+03    -149.877E-03    -149.877E-03        -9.09551        -9.09551
             876     1.29666E+03     1.29666E+03     400.688E-03     400.688E-03        -8.90600        -8.90600
             877     1.29569E+03     1.29569E+03     825.103E-03     825.103E-03        -8.61407        -8.61407
             878     1.29480E+03     1.29480E+03         1.14092         1.14092        -8.24656        -8.24656
             879     1.29400E+03     1.29400E+03         1.36528         1.36528        -7.82584        -7.82584
             880     1.29326E+03     1.29326E+03         1.51409         1.51409        -7.37033        -7.37033
             881     1.29259E+03     1.29259E+03         1.60167         1.60167        -6.89502        -6.89502
             882     1.29197E+03     1.29197E+03         1.64053         1.64053        -6.41189        -6.41189
             883     1.29140E+03     1.29140E+03         1.64138         1.64138        -5.93037        -5.93037
             884     1.29088E+03     1.29088E+03         1.61328         1.61328        -5.45775        -5.45775
             885     1.29041E+03     1.29041E+03         1.56376         1.56376        -4.99951        -4.99951
             886     1.28997E+03     1.28997E+03         1.49898         1.49898        -4.55960        -4.55960
             887     1.28957E+03     1.28957E+03         1.42398         1.42398        -4.14075        -4.14075
             888     1.28921E+03     1.28921E+03         1.34279         1.34279        -3.74466        -3.74466
             889     1.28888E+03     1.28888E+03         1.25863         1.25863        -3.37223        -3.37223
             890     1.28858E+03     1.28858E+03         1.17404         1.17404        -3.02366        -3.02366
             891     1.28831E+03     1.28831E+03         1.09098         1.09098        -2.69864        -2.69864
             892     1.28806E+03     1.28806E+03         1.01098         1.01098        -2.39644        -2.39644
             893     1.28784E+03     1.28784E+03     935.192E-03     935.192E-03        -2.11599        -2.11599
             894     1.28765E+03     1.28765E+03     864.488E-03     864.488E-03        -1.85598        -1.85598
             895     1.28747E+03     1.28747E+03     799.503E-03     799.503E-03        -1.61490        -1.61490
             896     1.28732E+03     1.28732E+03     740.700E-03     740.700E-03        -1.39109        -1.39109
             897     1.28719E+03     1.28719E+03     688.401E-03     688.401E-03        -1.18281        -1.18281
             898     1.28708E+03     1.28708E+03     642.829E-03     642.829E-03    -988.201E-03    -988.201E-03
             899     1.28699E+03     1.28699E+03     604.128E-03     604.128E-03    -805.386E-03    -805.386E-03
             900     1.28692E+03     1.28692E+03     572.389E-03     572.389E-03    -632.434E-03    -632.434E-03
             901     1.28686E+03     1.28686E+03     547.666E-03     547.666E-03    -467.390E-03    -467.390E-03
             902     1.28682E+03     1.28682E+03     529.990E-03     529.990E-03    -308.292E-03    -308.292E-03
             903     1.28680E+03     1.28680E+03     519.374E-03     519.374E-03    -153.776E-03    -153.776E-03
             904     1.31513E+03     1.31513E+03        -6.54771        -6.54771         13.2698         13.2698
             905     1.31539E+03     1.31539E+03        -7.91515        -7.91515         10.5262         10.5262
             906     1.31509E+03     1.31509E+03        -8.53021        -8.53021         7.58120         7.58120
             907     1.31433E+03     1.31433E+03        -8.51671        -8.51671         4.66583         4.66583
             908     1.31323E+03     1.31323E+03        -8.02706        -8.02706         1.94593         1.94593
             909     1.31189E+03     1.31189E+03        -7.21504        -7.21504    -472.611E-03    -472.611E-03
             910     1.31041E+03     1.31041E+03        -6.21768        -6.21768        -2.53497        -2.53497
             911     1.30886E+03     1.30886E+03        -5.14593        -5.14593        -4.22417        -4.22417
             912     1.30730E+03     1.30730E+03        -4.08305        -4.08305        -5.55055        -5.55055
             913     1.30577E+03     1.30577E+03        -3.08573        -3.08573        -6.54145        -6.54145
             914     1.30429E+03     1.30429E+03        -2.18880        -2.18880        -7.23387        -7.23387
             915     1.30288E+03     1.30288E+03        -1.40951        -1.40951        -7.66889        -7.66889
             916     1.30154E+03     1.30154E+03    -752.568E-03    -752.568E-03        -7.88780        -7.88780
             917     1.30028E+03     1.30028E+03    -214.046E-03    -214.046E-03        -7.92981        -7.92981
             918     1.29909E+03     1.29909E+03     215.267E-03     215.267E-03        -7.83061        -7.83061
             919     1.29798E+03     1.29798E+03     547.433E-03     547.433E-03        -7.62177        -7.62177
             920     1.29694E+03     1.29694E+03     795.597E-03     795.597E-03        -7.33051        -7.33051
             921     1.29597E+03     1.29597E+03     972.828E-03     972.828E-03        -6.97991        -6.97991
             922     1.29506E+03     1.29506E+03         1.09140         1.09140        -6.58911        -6.58911
             923     1.29422E+03     1.29422E+03         1.16241         1.16241        -6.17379        -6.17379
             924     1.29344E+03     1.29344E+03         1.19558         1.19558        -5.74653        -5.74653
             925     1.29272E+03     1.29272E+03         1.19928         1.19928        -5.31728        -5.31728
             926     1.29205E+03     1.29205E+03         1.18054         1.18054        -4.89370        -4.89370
             927     1.29144E+03     1.29144E+03         1.14521         1.14521        -4.48157        -4.48157
             928     1.29088E+03     1.29088E+03         1.09810         1.09810        -4.08509        -4.08509
             929     1.29036E+03     1.29036E+03         1.04308         1.04308        -3.70717        -3.70717
             930     1.28989E+03     1.28989E+03     983.263E-03     983.263E-03        -3.34967        -3.34967
             931     1.28946E+03     1.28946E+03     921.125E-03     921.125E-03        -3.01359        -3.01359
             932     1.28907E+03     1.28907E+03     858.596E-03     858.596E-03        -2.69926        -2.69926
             933     1.28872E+03     1.28872E+03     797.179E-03     797.179E-03        -2.40646        -2.40646
             934     1.28841E+03     1.28841E+03     738.023E-03     738.023E-03        -2.13457        -2.13457
             935     1.28813E+03     1.28813E+03     681.998E-03     681.998E-03        -1.88264        -1.88264
             936     1.28788E+03     1.28788E+03     629.749E-03     629.749E-03        -1.64947        -1.64947
             937     1.28766E+03     1.28766E+03     581.750E-03     581.750E-03        -1.43366        -1.43366
             938     1.28747E+03     1.28747E+03     538.338E-03     538.338E-03        -1.23371        -1.23371
             939     1.28731E+03     1.28731E+03     499.747E-03     499.747E-03        -1.04799        -1.04799
             940     1.28717E+03     1.28717E+03     466.136E-03     466.136E-03    -874.808E-03    -874.808E-03
             941     1.28705E+03     1.28705E+03     437.605E-03     437.605E-03    -712.429E-03    -712.429E-03
             942     1.28696E+03     1.28696E+03     414.213E-03     414.213E-03    -559.079E-03    -559.079E-03
             943     1.28689E+03     1.28689E+03     395.995E-03     395.995E-03    -412.968E-03    -412.968E-03
             944     1.28684E+03     1.28684E+03     382.969E-03     382.969E-03    -272.297E-03    -272.297E-03
             945     1.28681E+03     1.28681E+03     375.150E-03     375.150E-03    -135.864E-03    -135.864E-03
             946     1.31216E+03     1.31216E+03        -4.28262        -4.28262         12.3449         12.3449
             947     1.31321E+03     1.31321E+03        -5.29631        -5.29631         10.1572         10.1572
             948     1.31376E+03     1.31376E+03        -5.79839        -5.79839         7.71335         7.71335
             949     1.31383E+03     1.31383E+03        -5.86068        -5.86068         5.21548         5.21548
             950     1.31350E+03     1.31350E+03        -5.58034        -5.58034         2.82020         2.82020
             951     1.31283E+03     1.31283E+03        -5.06018        -5.06018     636.971E-03     636.971E-03
             952     1.31191E+03     1.31191E+03        -4.39520        -4.39520        -1.26737        -1.26737
             953     1.31080E+03     1.31080E+03        -3.66491        -3.66491        -2.86188        -2.86188
             954     1.30957E+03     1.30957E+03        -2.93018        -2.93018        -4.14233        -4.14233
             955     1.30824E+03     1.30824E+03        -2.23397        -2.23397        -5.12357        -5.12357
             956     1.30688E+03     1.30688E+03        -1.60324        -1.60324        -5.83228        -5.83228
             957     1.30550E+03     1.30550E+03        -1.05237        -1.05237        -6.30159        -6.30159
             958     1.30412E+03     1.30412E+03    -586.148E-03    -586.148E-03        -6.56698        -6.56698
             959     1.30278E+03     1.30278E+03    -202.876E-03    -202.876E-03        -6.66345        -6.66345
             960     1.30147E+03     1.30147E+03     103.354E-03     103.354E-03        -6.62378        -6.62378
             961     1.30021E+03     1.30021E+03     340.729E-03     340.729E-03        -6.47748        -6.47748
             962     1.29901E+03     1.29901E+03     518.415E-03     518.415E-03        -6.25036        -6.25036
             963     1.29786E+03     1.29786E+03     645.641E-03     645.641E-03        -5.96443        -5.96443
             964     1.29679E+03     1.29679E+03     731.133E-03     731.133E-03        -5.63810        -5.63810
             965     1.29577E+03     1.29577E+03     782.807E-03     782.807E-03        -5.28642        -5.28642
             966     1.29483E+03     1.29483E+03     807.615E-03     807.615E-03        -4.92153        -4.92153
             967     1.29395E+03     1.29395E+03     811.527E-03     811.527E-03        -4.55297        -4.55297
             968     1.29313E+03     1.29313E+03     799.569E-03     799.569E-03        -4.18813        -4.18813
             969     1.29238E+03     1.29238E+03     775.905E-03     775.905E-03        -3.83252        -3.83252
             970     1.29169E+03     1.29169E+03     743.939E-03     743.939E-03        -3.49017        -3.49017
             971     1.29106E+03     1.29106E+03     706.421E-03     706.421E-03        -3.16386        -3.16386
             972     1.29049E+03     1.29049E+03     665.545E-03     665.545E-03        -2.85535        -2.85535
             973     1.28997E+03     1.28997E+03     623.042E-03     623.042E-03        -2.56561        -2.56561
             974     1.28949E+03     1.28949E+03     580.266E-03     580.266E-03        -2.29499        -2.29499
             975     1.28907E+03     1.28907E+03     538.260E-03     538.260E-03        -2.04330        -2.04330
             976     1.28869E+03     1.28869E+03     497.819E-03     497.819E-03        -1.81001        -1.81001
             977     1.28835E+03     1.28835E+03     459.540E-03     459.540E-03        -1.59426        -1.59426
             978     1.28805E+03     1.28805E+03     423.865E-03     423.865E-03        -1.39500        -1.39500
             979     1.28779E+03     1.28779E+03     391.112E-03     391.112E-03        -1.21098        -1.21098
             980     1.28756E+03     1.28756E+03     361.509E-03     361.509E-03        -1.04086        -1.04086
             981     1.28737E+03     1.28737E+03     335.210E-03     335.210E-03    -883.205E-03    -883.205E-03
             982     1.28720E+03     1.28720E+03     312.316E-03     312.316E-03    -736.526E-03    -736.526E-03
             983     1.28707E+03     1.28707E+03     292.895E-03     292.895E-03    -599.291E-03    -599.291E-03
             984     1.28695E+03     1.28695E+03     276.978E-03     276.978E-03    -469.953E-03    -469.953E-03
             985     1.28687E+03     1.28687E+03     264.577E-03     264.577E-03    -346.937E-03    -346.937E-03
             986     1.28681E+03     1.28681E+03     255.709E-03     255.709E-03    -228.663E-03    -228.663E-03
             987     1.28677E+03     1.28677E+03     250.388E-03     250.388E-03    -114.164E-03    -114.164E-03
             988     1.30968E+03     1.30968E+03        -2.54041        -2.54041         10.6519         10.6519
             989     1.31155E+03     1.31155E+03        -3.19544        -3.19544         8.95990         8.95990
             990     1.31292E+03     1.31292E+03        -3.53766        -3.53766         7.01412         7.01412
             991     1.31379E+03     1.31379E+03        -3.60631        -3.60631         4.98122         4.98122
             992     1.31418E+03     1.31418E+03        -3.45777        -3.45777         2.99605         2.99605
             993     1.31414E+03     1.31414E+03        -3.15409        -3.15409         1.15825         1.15825
             994     1.31373E+03     1.31373E+03        -2.75405        -2.75405    -467.289E-03    -467.289E-03
             995     1.31300E+03     1.31300E+03        -2.30778        -2.30778        -1.84573        -1.84573
             996     1.31203E+03     1.31203E+03        -1.85450        -1.85450        -2.96660        -2.96660
             997     1.31087E+03     1.31087E+03        -1.42213        -1.42213        -3.83700        -3.83700
             998     1.30957E+03     1.30957E+03        -1.02873        -1.02873        -4.47601        -4.47601
             999     1.30818E+03     1.30818E+03    -684.051E-03    -684.051E-03        -4.90958        -4.90958
            1000     1.30673E+03     1.30673E+03    -391.764E-03    -391.764E-03        -5.16680        -5.16680
            1001     1.30527E+03     1.30527E+03    -151.150E-03    -151.150E-03        -5.27717        -5.27717
            1002     1.30381E+03     1.30381E+03     41.2463E-03     41.2463E-03        -5.26871        -5.26871
            1003     1.30239E+03     1.30239E+03     190.466E-03     190.466E-03        -5.16696        -5.16696
            1004     1.30100E+03     1.30100E+03     302.223E-03     302.223E-03        -4.99435        -4.99435
            1005     1.29967E+03     1.29967E+03     382.314E-03     382.314E-03        -4.77010        -4.77010
            1006     1.29841E+03     1.29841E+03     436.241E-03     436.241E-03        -4.51028        -4.51028
            1007     1.29722E+03     1.29722E+03     468.995E-03     468.995E-03        -4.22803        -4.22803
            1008     1.29610E+03     1.29610E+03     484.963E-03     484.963E-03        -3.93389        -3.93389
            1009     1.29506E+03     1.29506E+03     487.903E-03     487.903E-03        -3.63614        -3.63614
            1010     1.29410E+03     1.29410E+03     480.972E-03     480.972E-03        -3.34115        -3.34115
            1011     1.29321E+03     1.29321E+03     466.781E-03     466.781E-03        -3.05365        -3.05365
            1012     1.29240E+03     1.29240E+03     447.457E-03     447.457E-03        -2.77707        -2.77707
            1013     1.29166E+03     1.29166E+03     424.711E-03     424.711E-03        -2.51377        -2.51377
            1014     1.29098E+03     1.29098E+03     399.905E-03     399.905E-03        -2.26520        -2.26520
            1015     1.29037E+03     1.29037E+03     374.109E-03     374.109E-03        -2.03218        -2.03218
            1016     1.28982E+03     1.28982E+03     348.154E-03     348.154E-03        -1.81496        -1.81496
            1017     1.28933E+03     1.28933E+03     322.679E-03     322.679E-03        -1.61337        -1.61337
            1018     1.28889E+03     1.28889E+03     298.170E-03     298.170E-03        -1.42694        -1.42694
            1019     1.28850E+03     1.28850E+03     274.986E-03     274.986E-03        -1.25493        -1.25493
            1020     1.28815E+03     1.28815E+03     253.395E-03     253.395E-03        -1.09646        -1.09646
            1021     1.28785E+03     1.28785E+03     233.586E-03     233.586E-03    -950.479E-03    -950.479E-03
            1022     1.28759E+03     1.28759E+03     215.693E-03     215.693E-03    -815.872E-03    -815.872E-03
            1023     1.28737E+03     1.28737E+03     199.806E-03     199.806E-03    -691.447E-03    -691.447E-03
            1024     1.28718E+03     1.28718E+03     185.986E-03     185.986E-03    -575.975E-03    -575.975E-03
            1025     1.28702E+03     1.28702E+03     174.266E-03     174.266E-03    -468.197E-03    -468.197E-03
            1026     1.28690E+03     1.28690E+03     164.673E-03     164.673E-03    -366.843E-03    -366.843E-03
            1027     1.28680E+03     1.28680E+03     157.198E-03     157.198E-03    -270.648E-03    -270.648E-03
            1028     1.28673E+03     1.28673E+03     151.827E-03     151.827E-03    -178.315E-03    -178.315E-03
            1029     1.28669E+03     1.28669E+03     148.604E-03     148.604E-03    -89.1251E-03    -89.1251E-03
            1030     1.30779E+03     1.30779E+03        -1.25961        -1.25961         8.09901         8.09901
            1031     1.31058E+03     1.31058E+03        -1.60342        -1.60342         6.89432         6.89432
            1032     1.31283E+03     1.31283E+03        -1.78855        -1.78855         5.48469         5.48469
            1033     1.31450E+03     1.31450E+03        -1.83350        -1.83350         3.99429         3.99429
            1034     1.31558E+03     1.31558E+03        -1.76600        -1.76600         2.52530         2.52530
            1035     1.31610E+03     1.31610E+03        -1.61715        -1.61715         1.15502         1.15502
            1036     1.31611E+03     1.31611E+03        -1.41698        -1.41698    -64.5124E-03    -64.5124E-03
            1037     1.31568E+03     1.31568E+03        -1.19144        -1.19144        -1.10416        -1.10416
            1038     1.31489E+03     1.31489E+03    -960.960E-03    -960.960E-03        -1.95342        -1.95342
            1039     1.31380E+03     1.31380E+03    -740.321E-03    -740.321E-03        -2.61593        -2.61593
            1040     1.31248E+03     1.31248E+03    -539.037E-03    -539.037E-03        -3.10485        -3.10485
            1041     1.31101E+03     1.31101E+03    -362.431E-03    -362.431E-03        -3.43916        -3.43916
            1042     1.30943E+03     1.30943E+03    -212.510E-03    -212.510E-03        -3.64053        -3.64053
            1043     1.30779E+03     1.30779E+03    -89.0329E-03    -89.0329E-03        -3.73120        -3.73120
            1044     1.30614E+03     1.30614E+03     9.74115E-03     9.74115E-03        -3.73241        -3.73241
            1045     1.30451E+03     1.30451E+03     86.3747E-03     86.3747E-03        -3.66354        -3.66354
            1046     1.30291E+03     1.30291E+03     143.804E-03     143.804E-03        -3.54163        -3.54163
            1047     1.30138E+03     1.30138E+03     185.016E-03     185.016E-03        -3.38125        -3.38125
            1048     1.29991E+03     1.29991E+03     212.841E-03     212.841E-03        -3.19452        -3.19452
            1049     1.29853E+03     1.29853E+03     229.852E-03     229.852E-03        -2.99134        -2.99134
            1050     1.29724E+03     1.29724E+03     238.301E-03     238.301E-03        -2.77959        -2.77959
            1051     1.29604E+03     1.29604E+03     240.118E-03     240.118E-03        -2.56544        -2.56544
            1052     1.29492E+03     1.29492E+03     236.919E-03     236.919E-03        -2.35357        -2.35357
            1053     1.29390E+03     1.29390E+03     230.037E-03     230.037E-03        -2.14746        -2.14746
            1054     1.29297E+03     1.29297E+03     220.554E-03     220.554E-03        -1.94958        -1.94958
            1055     1.29212E+03     1.29212E+03     209.341E-03     209.341E-03        -1.76161        -1.76161
            1056     1.29135E+03     1.29135E+03     197.085E-03     197.085E-03        -1.58459        -1.58459
            1057     1.29066E+03     1.29066E+03     184.327E-03     184.327E-03        -1.41904        -1.41904
            1058     1.29003E+03     1.29003E+03     171.486E-03     171.486E-03        -1.26510        -1.26510
            1059     1.28948E+03     1.28948E+03     158.881E-03     158.881E-03        -1.12261        -1.12261
            1060     1.28898E+03     1.28898E+03     146.756E-03     146.756E-03    -991.177E-03    -991.177E-03
            1061     1.28855E+03     1.28855E+03     135.289E-03     135.289E-03    -870.241E-03    -870.241E-03
            1062     1.28816E+03     1.28816E+03     124.612E-03     124.612E-03    -759.120E-03    -759.120E-03
            1063     1.28783E+03     1.28783E+03     114.820E-03     114.820E-03    -657.045E-03    -657.045E-03
            1064     1.28754E+03     1.28754E+03     105.977E-03     105.977E-03    -563.182E-03    -563.182E-03
            1065     1.28729E+03     1.28729E+03     98.1286E-03     98.1286E-03    -476.661E-03    -476.661E-03
            1066     1.28709E+03     1.28709E+03     91.3031E-03     91.3031E-03    -396.581E-03    -396.581E-03
            1067     1.28691E+03     1.28691E+03     85.5174E-03     85.5174E-03    -322.031E-03    -322.031E-03
            1068     1.28678E+03     1.28678E+03     80.7828E-03     80.7828E-03    -252.087E-03    -252.087E-03
            1069     1.28667E+03     1.28667E+03     77.1165E-03     77.1165E-03    -185.833E-03    -185.833E-03
            1070     1.28660E+03     1.28660E+03     74.4656E-03     74.4656E-03    -122.390E-03    -122.390E-03
            1071     1.28655E+03     1.28655E+03     72.8165E-03     72.8165E-03    -61.3748E-03    -61.3748E-03
            1072     1.30666E+03     1.30666E+03    -443.144E-03    -443.144E-03         4.52302         4.52302
            1073     1.31056E+03     1.31056E+03    -569.178E-03    -569.178E-03         3.86938         3.86938
            1074     1.31380E+03     1.31380E+03    -638.307E-03    -638.307E-03         3.09898         3.09898
            1075     1.31630E+03     1.31630E+03    -657.079E-03    -657.079E-03         2.28132         2.28132
            1076     1.31803E+03     1.31803E+03    -635.079E-03    -635.079E-03         1.47327         1.47327
            1077     1.31902E+03     1.31902E+03    -583.332E-03    -583.332E-03     718.201E-03     718.201E-03
            1078     1.31934E+03     1.31934E+03    -512.694E-03    -512.694E-03     45.5295E-03     45.5295E-03
            1079     1.31908E+03     1.31908E+03    -432.500E-03    -432.500E-03    -528.058E-03    -528.058E-03
            1080     1.31833E+03     1.31833E+03    -350.238E-03    -350.238E-03    -996.507E-03    -996.507E-03
            1081     1.31718E+03     1.31718E+03    -271.254E-03    -271.254E-03        -1.36164        -1.36164
            1082     1.31572E+03     1.31572E+03    -199.086E-03    -199.086E-03        -1.63081        -1.63081
            1083     1.31406E+03     1.31406E+03    -135.668E-03    -135.668E-03        -1.81458        -1.81458
            1084     1.31225E+03     1.31225E+03    -81.7772E-03    -81.7772E-03        -1.92512        -1.92512
            1085     1.31037E+03     1.31037E+03    -37.3399E-03    -37.3399E-03        -1.97483        -1.97483
            1086     1.30846E+03     1.30846E+03    -1.74592E-03    -1.74592E-03        -1.97559        -1.97559
            1087     1.30656E+03     1.30656E+03     25.9182E-03     25.9182E-03        -1.93818        -1.93818
            1088     1.30472E+03     1.30472E+03     46.7073E-03     46.7073E-03        -1.87205        -1.87205
            1089     1.30294E+03     1.30294E+03     61.6886E-03     61.6886E-03        -1.78525        -1.78525
            1090     1.30126E+03     1.30126E+03     71.8811E-03     71.8811E-03        -1.68443        -1.68443
            1091     1.29968E+03     1.29968E+03     78.2036E-03     78.2036E-03        -1.57500        -1.57500
            1092     1.29820E+03     1.29820E+03     81.4647E-03     81.4647E-03        -1.46126        -1.46126
            1093     1.29683E+03     1.29683E+03     82.3527E-03     82.3527E-03        -1.34651        -1.34651
            1094     1.29557E+03     1.29557E+03     81.4456E-03     81.4456E-03        -1.23328        -1.23328
            1095     1.29442E+03     1.29442E+03     79.2180E-03     79.2180E-03        -1.12340        -1.12340
            1096     1.29337E+03     1.29337E+03     76.0560E-03     76.0560E-03        -1.01818        -1.01818
            1097     1.29242E+03     1.29242E+03     72.2683E-03     72.2683E-03    -918.470E-03    -918.470E-03
            1098     1.29157E+03     1.29157E+03     68.0998E-03     68.0998E-03    -824.796E-03    -824.796E-03
            1099     1.29080E+03     1.29080E+03     63.7420E-03     63.7420E-03    -737.405E-03    -737.405E-03
            1100     1.29012E+03     1.29012E+03     59.3435E-03     59.3435E-03    -656.340E-03    -656.340E-03
            1101     1.28951E+03     1.28951E+03     55.0178E-03     55.0178E-03    -581.484E-03    -581.484E-03
            1102     1.28897E+03     1.28897E+03     50.8504E-03     50.8504E-03    -512.604E-03    -512.604E-03
            1103     1.28850E+03     1.28850E+03     46.9055E-03     46.9055E-03    -449.381E-03    -449.381E-03
            1104     1.28808E+03     1.28808E+03     43.2293E-03     43.2293E-03    -391.432E-03    -391.432E-03
            1105     1.28772E+03     1.28772E+03     39.8559E-03     39.8559E-03    -338.332E-03    -338.332E-03
            1106     1.28741E+03     1.28741E+03     36.8076E-03     36.8076E-03    -289.626E-03    -289.626E-03
            1107     1.28714E+03     1.28714E+03     34.1019E-03     34.1019E-03    -244.839E-03    -244.839E-03
            1108     1.28692E+03     1.28692E+03     31.7466E-03     31.7466E-03    -203.487E-03    -203.487E-03
            1109     1.28674E+03     1.28674E+03     29.7527E-03     29.7527E-03    -165.077E-03    -165.077E-03
            1110     1.28659E+03     1.28659E+03     28.1171E-03     28.1171E-03    -129.119E-03    -129.119E-03
            1111     1.28648E+03     1.28648E+03     26.8606E-03     26.8606E-03    -95.1054E-03    -95.1054E-03
            1112     1.28640E+03     1.28640E+03     25.9875E-03     25.9875E-03    -62.5678E-03    -62.5678E-03
            1113     1.28636E+03     1.28636E+03     25.3551E-03     25.3551E-03    -31.6148E-03    -31.6148E-03
            1114     1.31061E+03     1.31061E+03        -52.9435        -52.9435         51.0848         51.0848
            1115     1.29477E+03     1.29477E+03        -41.1689        -41.1689         49.5711         49.5711
            1116     1.28390E+03     1.28390E+03        -30.8172        -30.8172         45.6090         45.6090
            1117     1.27688E+03     1.27688E+03        -22.3157        -22.3157         40.7504         40.7504
            1118     1.27261E+03     1.27261E+03        -15.5645        -15.5645         35.8554         35.8554
            1119     1.27023E+03     1.27023E+03        -10.2594        -10.2594         31.3293         31.3293
            1120     1.26910E+03     1.26910E+03        -6.10721        -6.10721         27.3237         27.3237
            1121     1.26882E+03     1.26882E+03        -2.85690        -2.85690         23.8607         23.8607
            1122     1.26906E+03     1.26906E+03    -315.976E-03    -315.976E-03         20.9031         20.9031
            1123     1.26966E+03     1.26966E+03         1.66446         1.66446         18.3912         18.3912
            1124     1.27046E+03     1.27046E+03         3.19644         3.19644         16.2598         16.2598
            1125     1.27139E+03     1.27139E+03         4.36651         4.36651         14.4473         14.4473
            1126     1.27237E+03     1.27237E+03         5.24160         5.24160         12.8991         12.8991
            1127     1.27338E+03     1.27338E+03         5.87488         5.87488         11.5685         11.5685
            1128     1.27438E+03     1.27438E+03         6.30909         6.30909         10.4161         10.4161
            1129     1.27536E+03     1.27536E+03         6.57938         6.57938         9.41015         9.41015
            1130     1.27630E+03     1.27630E+03         6.71498         6.71498         8.52438         8.52438
            1131     1.27720E+03     1.27720E+03         6.74054         6.74054         7.73793         7.73793
            1132     1.27805E+03     1.27805E+03         6.67704         6.67704         7.03408         7.03408
            1133     1.27885E+03     1.27885E+03         6.54241         6.54241         6.39959         6.39959
            1134     1.27959E+03     1.27959E+03         6.35204         6.35204         5.82396         5.82396
            1135     1.28028E+03     1.28028E+03         6.11913         6.11913         5.29891         5.29891
            1136     1.28092E+03     1.28092E+03         5.85500         5.85500         4.81788         4.81788
            1137     1.28150E+03     1.28150E+03         5.56933         5.56933         4.37564         4.37564
            1138     1.28204E+03     1.28204E+03         5.27034         5.27034         3.96800         3.96800
            1139     1.28253E+03     1.28253E+03         4.96500         4.96500         3.59152         3.59152
            1140     1.28298E+03     1.28298E+03         4.65916         4.65916         3.24335         3.24335
            1141     1.28338E+03     1.28338E+03         4.35770         4.35770         2.92105         2.92105
            1142     1.28375E+03     1.28375E+03         4.06466         4.06466         2.62248         2.62248
            1143     1.28408E+03     1.28408E+03         3.78336         3.78336         2.34573         2.34573
            1144     1.28437E+03     1.28437E+03         3.51648         3.51648         2.08903         2.08903
            1145     1.28463E+03     1.28463E+03         3.26617         3.26617         1.85071         1.85071
            1146     1.28486E+03     1.28486E+03         3.03415         3.03415         1.62917         1.62917
            1147     1.28506E+03     1.28506E+03         2.82173         2.82173         1.42285         1.42285
            1148     1.28523E+03     1.28523E+03         2.62994         2.62994         1.23022         1.23022
            1149     1.28539E+03     1.28539E+03         2.45955         2.45955         1.04974         1.04974
            1150     1.28551E+03     1.28551E+03         2.31114         2.31114     879.916E-03     879.916E-03
            1151     1.28562E+03     1.28562E+03         2.18510         2.18510     719.228E-03     719.228E-03
            1152     1.28570E+03     1.28570E+03         2.08173         2.08173     566.167E-03     566.167E-03
            1153     1.28577E+03     1.28577E+03         2.00124         2.00124     419.224E-03     419.224E-03
            1154     1.28581E+03     1.28581E+03         1.94376         1.94376     276.890E-03     276.890E-03
            1155     1.28584E+03     1.28584E+03         1.90929         1.90929     138.007E-03     138.007E-03
            1156     1.27894E+03     1.27894E+03        -48.3559        -48.3559         71.2649         71.2649
            1157     1.26610E+03     1.26610E+03        -33.8714        -33.8714         62.2558         62.2558
            1158     1.25940E+03     1.25940E+03        -22.9597        -22.9597         53.0029         53.0029
            1159     1.25651E+03     1.25651E+03        -14.9457        -14.9457         44.6280         44.6280
            1160     1.25588E+03     1.25588E+03        -9.05525        -9.05525         37.4887         37.4887
            1161     1.25653E+03     1.25653E+03        -4.68981        -4.68981         31.5637         31.5637
            1162     1.25786E+03     1.25786E+03        -1.41328        -1.41328         26.7051         26.7051
            1163     1.25955E+03     1.25955E+03         1.06849         1.06849         22.7371         22.7371
            1164     1.26138E+03     1.26138E+03         2.96011         2.96011         19.4961         19.4961
            1165     1.26324E+03     1.26324E+03         4.40129         4.40129         16.8408         16.8408
            1166     1.26506E+03     1.26506E+03         5.49132         5.49132         14.6546         14.6546
            1167     1.26680E+03     1.26680E+03         6.30130         6.30130         12.8430         12.8430
            1168     1.26846E+03     1.26846E+03         6.88432         6.88432         11.3305         11.3305
            1169     1.27001E+03     1.27001E+03         7.28093         7.28093         10.0568         10.0568
            1170     1.27147E+03     1.27147E+03         7.52334         7.52334         8.97413         8.97413
            1171     1.27282E+03     1.27282E+03         7.63777         7.63777         8.04487         8.04487
            1172     1.27408E+03     1.27408E+03         7.64617         7.64617         7.23935         7.23935
            1173     1.27524E+03     1.27524E+03         7.56725         7.56725         6.53425         6.53425
            1174     1.27632E+03     1.27632E+03         7.41719         7.41719         5.91128         5.91128
            1175     1.27731E+03     1.27731E+03         7.21012         7.21012         5.35613         5.35613
            1176     1.27823E+03     1.27823E+03         6.95838         6.95838         4.85759         4.85759
            1177     1.27907E+03     1.27907E+03         6.67282         6.67282         4.40689         4.40689
            1178     1.27984E+03     1.27984E+03         6.36292         6.36292         3.99715         3.99715
            1179     1.28054E+03     1.28054E+03         6.03692         6.03692         3.62291         3.62291
            1180     1.28118E+03     1.28118E+03         5.70199         5.70199         3.27985         3.27985
            1181     1.28177E+03     1.28177E+03         5.36428         5.36428         2.96449         2.96449
            1182     1.28230E+03     1.28230E+03         5.02904         5.02904         2.67395         2.67395
            1183     1.28278E+03     1.28278E+03         4.70072         4.70072         2.40586         2.40586
            1184     1.28321E+03     1.28321E+03         4.38305         4.38305         2.15815         2.15815
            1185     1.28360E+03     1.28360E+03         4.07913         4.07913         1.92903         1.92903
            1186     1.28394E+03     1.28394E+03         3.79150         3.79150         1.71688         1.71688
            1187     1.28425E+03     1.28425E+03         3.52220         3.52220         1.52020         1.52020
            1188     1.28452E+03     1.28452E+03         3.27289         3.27289         1.33758         1.33758
            1189     1.28476E+03     1.28476E+03         3.04486         3.04486         1.16766         1.16766
            1190     1.28497E+03     1.28497E+03         2.83911         2.83911         1.00914         1.00914
            1191     1.28515E+03     1.28515E+03         2.65641         2.65641     860.738E-03     860.738E-03
            1192     1.28530E+03     1.28530E+03         2.49732         2.49732     721.183E-03     721.183E-03
            1193     1.28543E+03     1.28543E+03         2.36226         2.36226     589.226E-03     589.226E-03
            1194     1.28553E+03     1.28553E+03         2.25154         2.25154     463.620E-03     463.620E-03
            1195     1.28560E+03     1.28560E+03         2.16536         2.16536     343.127E-03     343.127E-03
            1196     1.28566E+03     1.28566E+03         2.10387         2.10387     226.513E-03     226.513E-03
            1197     1.28569E+03     1.28569E+03         2.06709         2.06709     112.836E-03     112.836E-03
            1198     1.23077E+03     1.23077E+03        -33.0290        -33.0290         83.7436         83.7436
            1199     1.22818E+03     1.22818E+03        -19.6623        -19.6623         66.9365         66.9365
            1200     1.23007E+03     1.23007E+03        -10.9326        -10.9326         53.3684         53.3684
            1201     1.23387E+03     1.23387E+03        -5.14502        -5.14502         42.7819         42.7819
            1202     1.23830E+03     1.23830E+03        -1.19145        -1.19145         34.5976         34.5976
            1203     1.24275E+03     1.24275E+03         1.59812         1.59812         28.2624         28.2624
            1204     1.24696E+03     1.24696E+03         3.61739         3.61739         23.3285         23.3285
            1205     1.25082E+03     1.25082E+03         5.10956         5.10956         19.4578         19.4578
            1206     1.25432E+03     1.25432E+03         6.22316         6.22316         16.3951         16.3951
            1207     1.25746E+03     1.25746E+03         7.05382         7.05382         13.9510         13.9510
            1208     1.26028E+03     1.26028E+03         7.66362         7.66362         11.9825         11.9825
            1209     1.26282E+03     1.26282E+03         8.09533         8.09533         10.3822         10.3822
            1210     1.26510E+03     1.26510E+03         8.37943         8.37943         9.06829         9.06829
            1211     1.26716E+03     1.26716E+03         8.53918         8.53918         7.97849         7.97849
            1212     1.26902E+03     1.26902E+03         8.59311         8.59311         7.06489         7.06489
            1213     1.27071E+03     1.27071E+03         8.55688         8.55688         6.29071         6.29071
            1214     1.27224E+03     1.27224E+03         8.44413         8.44413         5.62750         5.62750
            1215     1.27364E+03     1.27364E+03         8.26710         8.26710         5.05328         5.05328
            1216     1.27491E+03     1.27491E+03         8.03689         8.03689         4.55101         4.55101
            1217     1.27607E+03     1.27607E+03         7.76365         7.76365         4.10750         4.10750
            1218     1.27713E+03     1.27713E+03         7.45667         7.45667         3.71250         3.71250
            1219     1.27809E+03     1.27809E+03         7.12438         7.12438         3.35804         3.35804
            1220     1.27897E+03     1.27897E+03         6.77442         6.77442         3.03789         3.03789
            1221     1.27977E+03     1.27977E+03         6.41362         6.41362         2.74716         2.74716
            1222     1.28050E+03     1.28050E+03         6.04808         6.04808         2.48199         2.48199
            1223     1.28116E+03     1.28116E+03         5.68314         5.68314         2.23930         2.23930
            1224     1.28176E+03     1.28176E+03         5.32344         5.32344         2.01656         2.01656
            1225     1.28230E+03     1.28230E+03         4.97299         4.97299         1.81170         1.81170
            1226     1.28278E+03     1.28278E+03         4.63521         4.63521         1.62297         1.62297
            1227     1.28322E+03     1.28322E+03         4.31294         4.31294         1.44885         1.44885
            1228     1.28361E+03     1.28361E+03         4.00856         4.00856         1.28798         1.28798
            1229     1.28395E+03     1.28395E+03         3.72403         3.72403         1.13915         1.13915
            1230     1.28426E+03     1.28426E+03         3.46090         3.46090         1.00121         1.00121
            1231     1.28453E+03     1.28453E+03         3.22043         3.22043     873.099E-03     873.099E-03
            1232     1.28476E+03     1.28476E+03         3.00358         3.00358     753.780E-03     753.780E-03
            1233     1.28496E+03     1.28496E+03         2.81109         2.81109     642.260E-03     642.260E-03
            1234     1.28513E+03     1.28513E+03         2.64354         2.64354     537.565E-03     537.565E-03
            1235     1.28527E+03     1.28527E+03         2.50133         2.50133     438.741E-03     438.741E-03
            1236     1.28539E+03     1.28539E+03         2.38476         2.38476     344.844E-03     344.844E-03
            1237     1.28547E+03     1.28547E+03         2.29405         2.29405     254.944E-03     254.944E-03
            1238     1.28554E+03     1.28554E+03         2.22933         2.22933     168.121E-03     168.121E-03
            1239     1.28557E+03     1.28557E+03         2.19064         2.19064     83.6717E-03     83.6717E-03
            1240     1.17318E+03     1.17318E+03        -9.00906        -9.00906         78.0048         78.0048
            1241     1.18762E+03     1.18762E+03        -1.50545        -1.50545         57.9157         57.9157
            1242     1.20111E+03     1.20111E+03         2.57816         2.57816         43.8255         43.8255
            1243     1.21278E+03     1.21278E+03         4.94712         4.94712         33.8112         33.8112
            1244     1.22263E+03     1.22263E+03         6.42559         6.42559         26.5506         26.5506
            1245     1.23089E+03     1.23089E+03         7.40986         7.40986         21.1838         21.1838
            1246     1.23782E+03     1.23782E+03         8.10321         8.10321         17.1512         17.1512
            1247     1.24367E+03     1.24367E+03         8.60918         8.60918         14.0738         14.0738
            1248     1.24864E+03     1.24864E+03         8.98260         8.98260         11.6939         11.6939
            1249     1.25290E+03     1.25290E+03         9.25189         9.25189         9.82959         9.82959
            1250     1.25657E+03     1.25657E+03         9.43259         9.43259         8.35198         8.35198
            1251     1.25976E+03     1.25976E+03         9.53371         9.53371         7.16712         7.16712
            1252     1.26255E+03     1.26255E+03         9.56149         9.56149         6.20625         6.20625
            1253     1.26501E+03     1.26501E+03         9.52120         9.52120         5.41801         5.41801
            1254     1.26720E+03     1.26720E+03         9.41811         9.41811         4.76397         4.76397
            1255     1.26915E+03     1.26915E+03         9.25781         9.25781         4.21495         4.21495
            1256     1.27090E+03     1.27090E+03         9.04635         9.04635         3.74881         3.74881
            1257     1.27247E+03     1.27247E+03         8.79018         8.79018         3.34857         3.34857
            1258     1.27389E+03     1.27389E+03         8.49593         8.49593         3.00125         3.00125
            1259     1.27518E+03     1.27518E+03         8.17034         8.17034         2.69682         2.69682
            1260     1.27634E+03     1.27634E+03         7.82007         7.82007         2.42756         2.42756
            1261     1.27740E+03     1.27740E+03         7.45152         7.45152         2.18749         2.18749
            1262     1.27836E+03     1.27836E+03         7.07078         7.07078         1.97195         1.97195
            1263     1.27923E+03     1.27923E+03         6.68351         6.68351         1.77731         1.77731
            1264     1.28001E+03     1.28001E+03         6.29491         6.29491         1.60070         1.60070
            1265     1.28073E+03     1.28073E+03         5.90962         5.90962         1.43984         1.43984
            1266     1.28137E+03     1.28137E+03         5.53181         5.53181         1.29287         1.29287
            1267     1.28196E+03     1.28196E+03         5.16510         5.16510         1.15828         1.15828
            1268     1.28248E+03     1.28248E+03         4.81263         4.81263         1.03478         1.03478
            1269     1.28295E+03     1.28295E+03         4.47704         4.47704     921.283E-03     921.283E-03
            1270     1.28337E+03     1.28337E+03         4.16058         4.16058     816.826E-03     816.826E-03
            1271     1.28374E+03     1.28374E+03         3.86509         3.86509     720.544E-03     720.544E-03
            1272     1.28407E+03     1.28407E+03         3.59207         3.59207     631.641E-03     631.641E-03
            1273     1.28436E+03     1.28436E+03         3.34270         3.34270     549.380E-03     549.380E-03
            1274     1.28461E+03     1.28461E+03         3.11793         3.11793     473.059E-03     473.059E-03
            1275     1.28483E+03     1.28483E+03         2.91848         2.91848     402.010E-03     402.010E-03
            1276     1.28501E+03     1.28501E+03         2.74490         2.74490     335.585E-03     335.585E-03
            1277     1.28517E+03     1.28517E+03         2.59758         2.59758     273.158E-03     273.158E-03
            1278     1.28529E+03     1.28529E+03         2.47682         2.47682     214.118E-03     214.118E-03
            1279     1.28538E+03     1.28538E+03         2.38283         2.38283     157.870E-03     157.870E-03
            1280     1.28545E+03     1.28545E+03         2.31574         2.31574     103.834E-03     103.834E-03
            1281     1.28549E+03     1.28549E+03         2.27559         2.27559     51.5646E-03     51.5646E-03
            1282     1.12387E+03     1.12387E+03         14.3503         14.3503         47.6471         47.6471
            1283     1.15589E+03     1.15589E+03         14.0323         14.0323         33.3756         33.3756
            1284     1.17976E+03     1.17976E+03         13.2389         13.2389         24.2943         24.2943
            1285     1.19787E+03     1.19787E+03         12.4840         12.4840         18.2069         18.2069
            1286     1.21190E+03     1.21190E+03         11.8843         11.8843         13.9651         13.9651
            1287     1.22297E+03     1.22297E+03         11.4453         11.4453         10.9258         10.9258
            1288     1.23185E+03     1.23185E+03         11.1390         11.1390         8.69461         8.69461
            1289     1.23909E+03     1.23909E+03         10.9282         10.9282         7.02587         7.02587
            1290     1.24506E+03     1.24506E+03         10.7785         10.7785         5.75579         5.75579
            1291     1.25005E+03     1.25005E+03         10.6603         10.6603         4.77516         4.77516
            1292     1.25428E+03     1.25428E+03         10.5504         10.5504         4.00732         4.00732
            1293     1.25789E+03     1.25789E+03         10.4312         10.4312         3.39853         3.39853
            1294     1.26101E+03     1.26101E+03         10.2904         10.2904         2.90973         2.90973
            1295     1.26373E+03     1.26373E+03         10.1201         10.1201         2.51255         2.51255
            1296     1.26612E+03     1.26612E+03         9.91603         9.91603         2.18588         2.18588
            1297     1.26823E+03     1.26823E+03         9.67665         9.67665         1.91403         1.91403
            1298     1.27011E+03     1.27011E+03         9.40280         9.40280         1.68514         1.68514
            1299     1.27180E+03     1.27180E+03         9.09696         9.09696         1.49026         1.49026
            1300     1.27331E+03     1.27331E+03         8.76283         8.76283         1.32255         1.32255
            1301     1.27467E+03     1.27467E+03         8.40487         8.40487         1.17681         1.17681
            1302     1.27590E+03     1.27590E+03         8.02799         8.02799         1.04902         1.04902
            1303     1.27701E+03     1.27701E+03         7.63732         7.63732     936.104E-03     936.104E-03
            1304     1.27801E+03     1.27801E+03         7.23794         7.23794     835.659E-03     835.659E-03
            1305     1.27892E+03     1.27892E+03         6.83475         6.83475     745.813E-03     745.813E-03
            1306     1.27975E+03     1.27975E+03         6.43237         6.43237     665.083E-03     665.083E-03
            1307     1.28049E+03     1.28049E+03         6.03502         6.03502     592.291E-03     592.291E-03
            1308     1.28116E+03     1.28116E+03         5.64653         5.64653     526.476E-03     526.476E-03
            1309     1.28177E+03     1.28177E+03         5.27030         5.27030     466.849E-03     466.849E-03
            1310     1.28232E+03     1.28232E+03         4.90928         4.90928     412.747E-03     412.747E-03
            1311     1.28280E+03     1.28280E+03         4.56599         4.56599     363.600E-03     363.600E-03
            1312     1.28324E+03     1.28324E+03         4.24257         4.24257     318.913E-03     318.913E-03
            1313     1.28363E+03     1.28363E+03         3.94080         3.94080     278.242E-03     278.242E-03
            1314     1.28397E+03     1.28397E+03         3.66212         3.66212     241.188E-03     241.188E-03
            1315     1.28427E+03     1.28427E+03         3.40769         3.40769     207.385E-03     207.385E-03
            1316     1.28454E+03     1.28454E+03         3.17843         3.17843     176.494E-03     176.494E-03
            1317     1.28476E+03     1.28476E+03         2.97502         2.97502     148.198E-03     148.198E-03
            1318     1.28495E+03     1.28495E+03         2.79800         2.79800     122.201E-03     122.201E-03
            1319     1.28511E+03     1.28511E+03         2.64777         2.64777     98.2265E-03     98.2265E-03
            1320     1.28524E+03     1.28524E+03         2.52458         2.52458     76.0127E-03     76.0127E-03
            1321     1.28534E+03     1.28534E+03         2.42865         2.42865     55.3168E-03     55.3168E-03
            1322     1.28540E+03     1.28540E+03         2.36010         2.36010     35.9134E-03     35.9134E-03
            1323     1.28545E+03     1.28545E+03         2.31894         2.31894     17.6393E-03     17.6393E-03
            1324     1.10670E+03     1.10670E+03         22.9258         22.9258        -3.24249        -3.24249
            1325     1.14576E+03     1.14576E+03         19.1863         19.1863        -2.82853        -2.82853
            1326     1.17328E+03     1.17328E+03         16.5628         16.5628        -2.40294        -2.40294
            1327     1.19353E+03     1.19353E+03         14.7263         14.7263        -2.04964        -2.04964
            1328     1.20889E+03     1.20889E+03         13.4430         13.4430        -1.76057        -1.76057
            1329     1.22082E+03     1.22082E+03         12.5577         12.5577        -1.52652        -1.52652
            1330     1.23028E+03     1.23028E+03         11.9477         11.9477        -1.33487        -1.33487
            1331     1.23792E+03     1.23792E+03         11.5268         11.5268        -1.17773        -1.17773
            1332     1.24417E+03     1.24417E+03         11.2275         11.2275        -1.04754        -1.04754
            1333     1.24937E+03     1.24937E+03         11.0017         11.0017    -939.252E-03    -939.252E-03
            1334     1.25375E+03     1.25375E+03         10.8129         10.8129    -848.412E-03    -848.412E-03
            1335     1.25747E+03     1.25747E+03         10.6354         10.6354    -771.770E-03    -771.770E-03
            1336     1.26068E+03     1.26068E+03         10.4509         10.4509    -706.560E-03    -706.560E-03
            1337     1.26346E+03     1.26346E+03         10.2477         10.2477    -650.629E-03    -650.629E-03
            1338     1.26590E+03     1.26590E+03         10.0185         10.0185    -602.171E-03    -602.171E-03
            1339     1.26805E+03     1.26805E+03         9.75990         9.75990    -559.740E-03    -559.740E-03
            1340     1.26996E+03     1.26996E+03         9.47112         9.47112    -522.137E-03    -522.137E-03
            1341     1.27167E+03     1.27167E+03         9.15361         9.15361    -488.396E-03    -488.396E-03
            1342     1.27320E+03     1.27320E+03         8.81025         8.81025    -457.732E-03    -457.732E-03
            1343     1.27458E+03     1.27458E+03         8.44490         8.44490    -429.517E-03    -429.517E-03
            1344     1.27582E+03     1.27582E+03         8.06204         8.06204    -403.254E-03    -403.254E-03
            1345     1.27694E+03     1.27694E+03         7.66646         7.66646    -378.555E-03    -378.555E-03
            1346     1.27796E+03     1.27796E+03         7.26300         7.26300    -355.123E-03    -355.123E-03
            1347     1.27888E+03     1.27888E+03         6.85637         6.85637    -332.732E-03    -332.732E-03
            1348     1.27971E+03     1.27971E+03         6.45105         6.45105    -311.217E-03    -311.217E-03
            1349     1.28046E+03     1.28046E+03         6.05118         6.05118    -290.457E-03    -290.457E-03
            1350     1.28114E+03     1.28114E+03         5.66051         5.66051    -270.366E-03    -270.366E-03
            1351     1.28175E+03     1.28175E+03         5.28236         5.28236    -250.882E-03    -250.882E-03
            1352     1.28230E+03     1.28230E+03         4.91966         4.91966    -231.962E-03    -231.962E-03
            1353     1.28279E+03     1.28279E+03         4.57490         4.57490    -213.569E-03    -213.569E-03
            1354     1.28323E+03     1.28323E+03         4.25018         4.25018    -195.675E-03    -195.675E-03
            1355     1.28362E+03     1.28362E+03         3.94726         3.94726    -178.247E-03    -178.247E-03
            1356     1.28396E+03     1.28396E+03         3.66758         3.66758    -161.251E-03    -161.251E-03
            1357     1.28427E+03     1.28427E+03         3.41226         3.41226    -144.644E-03    -144.644E-03
            1358     1.28453E+03     1.28453E+03         3.18221         3.18221    -128.374E-03    -128.374E-03
            1359     1.28476E+03     1.28476E+03         2.97812         2.97812    -112.379E-03    -112.379E-03
            1360     1.28495E+03     1.28495E+03         2.80050         2.80050    -96.5824E-03    -96.5824E-03
            1361     1.28511E+03     1.28511E+03         2.64972         2.64972    -80.8951E-03    -80.8951E-03
            1362     1.28524E+03     1.28524E+03         2.52606         2.52606    -65.2122E-03    -65.2122E-03
            1363     1.28533E+03     1.28533E+03         2.42968         2.42968    -49.4127E-03    -49.4127E-03
            1364     1.28540E+03     1.28540E+03         2.36070         2.36070    -33.3579E-03    -33.3579E-03
            1365     1.28545E+03     1.28545E+03         2.31912         2.31912    -16.9279E-03    -16.9279E-03
            1366     1.13571E+03     1.13571E+03         8.71296         8.71296        -54.8059        -54.8059
            1367     1.16427E+03     1.16427E+03         9.93901         9.93901        -39.6914        -39.6914
            1368     1.18579E+03     1.18579E+03         10.2285         10.2285        -29.7530        -29.7530
            1369     1.20233E+03     1.20233E+03         10.2277         10.2277        -22.8940        -22.8940
            1370     1.21528E+03     1.21528E+03         10.1619         10.1619        -18.0017        -18.0017
            1371     1.22559E+03     1.22559E+03         10.1078         10.1078        -14.4186        -14.4186
            1372     1.23392E+03     1.23392E+03         10.0852         10.0852        -11.7390        -11.7390
            1373     1.24075E+03     1.24075E+03         10.0866         10.0866        -9.69838        -9.69838
            1374     1.24641E+03     1.24641E+03         10.0984         10.0984        -8.12039        -8.12039
            1375     1.25117E+03     1.25117E+03         10.1044         10.1044        -6.88300        -6.88300
            1376     1.25521E+03     1.25521E+03         10.0912         10.0912        -5.90037        -5.90037
            1377     1.25868E+03     1.25868E+03         10.0479         10.0479        -5.11052        -5.11052
            1378     1.26169E+03     1.26169E+03         9.96716         9.96716        -4.46813        -4.46813
            1379     1.26432E+03     1.26432E+03         9.84465         9.84465        -3.93947        -3.93947
            1380     1.26663E+03     1.26663E+03         9.67875         9.67875        -3.49923        -3.49923
            1381     1.26868E+03     1.26868E+03         9.47007         9.47007        -3.12819        -3.12819
            1382     1.27051E+03     1.27051E+03         9.22103         9.22103        -2.81170        -2.81170
            1383     1.27215E+03     1.27215E+03         8.93536         8.93536        -2.53850        -2.53850
            1384     1.27362E+03     1.27362E+03         8.61773         8.61773        -2.29994        -2.29994
            1385     1.27495E+03     1.27495E+03         8.27338         8.27338        -2.08934        -2.08934
            1386     1.27615E+03     1.27615E+03         7.90787         7.90787        -1.90156        -1.90156
            1387     1.27724E+03     1.27724E+03         7.52677         7.52677        -1.73260        -1.73260
            1388     1.27822E+03     1.27822E+03         7.13558         7.13558        -1.57938        -1.57938
            1389     1.27911E+03     1.27911E+03         6.73948         6.73948        -1.43950        -1.43950
            1390     1.27992E+03     1.27992E+03         6.34333         6.34333        -1.31108        -1.31108
            1391     1.28065E+03     1.28065E+03         5.95154         5.95154        -1.19265        -1.19265
            1392     1.28131E+03     1.28131E+03         5.56808         5.56808        -1.08302        -1.08302
            1393     1.28190E+03     1.28190E+03         5.19642         5.19642    -981.255E-03    -981.255E-03
            1394     1.28243E+03     1.28243E+03         4.83960         4.83960    -886.555E-03    -886.555E-03
            1395     1.28291E+03     1.28291E+03         4.50019         4.50019    -798.249E-03    -798.249E-03
            1396     1.28334E+03     1.28334E+03         4.18036         4.18036    -715.747E-03    -715.747E-03
            1397     1.28372E+03     1.28372E+03         3.88189         3.88189    -638.514E-03    -638.514E-03
            1398     1.28405E+03     1.28405E+03         3.60625         3.60625    -566.053E-03    -566.053E-03
            1399     1.28435E+03     1.28435E+03         3.35457         3.35457    -497.886E-03    -497.886E-03
            1400     1.28460E+03     1.28460E+03         3.12778         3.12778    -433.550E-03    -433.550E-03
            1401     1.28482E+03     1.28482E+03         2.92654         2.92654    -372.580E-03    -372.580E-03
            1402     1.28501E+03     1.28501E+03         2.75138         2.75138    -314.513E-03    -314.513E-03
            1403     1.28516E+03     1.28516E+03         2.60266         2.60266    -258.875E-03    -258.875E-03
            1404     1.28528E+03     1.28528E+03         2.48065         2.48065    -205.186E-03    -205.186E-03
            1405     1.28538E+03     1.28538E+03         2.38549         2.38549    -152.954E-03    -152.954E-03
            1406     1.28545E+03     1.28545E+03         2.31730         2.31730    -101.671E-03    -101.671E-03
            1407     1.28549E+03     1.28549E+03         2.27605         2.27605    -50.9484E-03    -50.9484E-03
            1408     1.19756E+03     1.19756E+03        -19.2988        -19.2988        -81.3516        -81.3516
            1409     1.20528E+03     1.20528E+03        -9.41461        -9.41461        -62.3146        -62.3146
            1410     1.21414E+03     1.21414E+03        -3.49078        -3.49078        -48.3981        -48.3981
            1411     1.22258E+03     1.22258E+03     267.648E-03     267.648E-03        -38.1751        -38.1751
            1412     1.23014E+03     1.23014E+03         2.78289         2.78289        -30.5553        -30.5553
            1413     1.23674E+03     1.23674E+03         4.54734         4.54734        -24.7977        -24.7977
            1414     1.24246E+03     1.24246E+03         5.82964         5.82964        -20.3878        -20.3878
            1415     1.24740E+03     1.24740E+03         6.78597         6.78597        -16.9685        -16.9685
            1416     1.25167E+03     1.25167E+03         7.50599         7.50599        -14.2861        -14.2861
            1417     1.25540E+03     1.25540E+03         8.04478         8.04478        -12.1588        -12.1588
            1418     1.25865E+03     1.25865E+03         8.43627         8.43627        -10.4536        -10.4536
            1419     1.26152E+03     1.26152E+03         8.70347         8.70347        -9.07228        -9.07228
            1420     1.26405E+03     1.26405E+03         8.86271         8.86271        -7.94129        -7.94129
            1421     1.26630E+03     1.26630E+03         8.92705         8.92705        -7.00511        -7.00511
            1422     1.26832E+03     1.26832E+03         8.90757         8.90757        -6.22147        -6.22147
            1423     1.27013E+03     1.27013E+03         8.81443         8.81443        -5.55801        -5.55801
            1424     1.27176E+03     1.27176E+03         8.65719         8.65719        -4.98984        -4.98984
            1425     1.27324E+03     1.27324E+03         8.44506         8.44506        -4.49778        -4.49778
            1426     1.27457E+03     1.27457E+03         8.18686         8.18686        -4.06699        -4.06699
            1427     1.27579E+03     1.27579E+03         7.89104         7.89104        -3.68601        -3.68601
            1428     1.27689E+03     1.27689E+03         7.56560         7.56560        -3.34595        -3.34595
            1429     1.27789E+03     1.27789E+03         7.21804         7.21804        -3.03992        -3.03992
            1430     1.27880E+03     1.27880E+03         6.85528         6.85528        -2.76257        -2.76257
            1431     1.27963E+03     1.27963E+03         6.48363         6.48363        -2.50971        -2.50971
            1432     1.28038E+03     1.28038E+03         6.10876         6.10876        -2.27806        -2.27806
            1433     1.28106E+03     1.28106E+03         5.73575         5.73575        -2.06500        -2.06500
            1434     1.28167E+03     1.28167E+03         5.36901         5.36901        -1.86844        -1.86844
            1435     1.28223E+03     1.28223E+03         5.01238         5.01238        -1.68665        -1.68665
            1436     1.28272E+03     1.28272E+03         4.66915         4.66915        -1.51820        -1.51820
            1437     1.28317E+03     1.28317E+03         4.34208         4.34208        -1.36184        -1.36184
            1438     1.28357E+03     1.28357E+03         4.03347         4.03347        -1.21648        -1.21648
            1439     1.28392E+03     1.28392E+03         3.74519         3.74519        -1.08110        -1.08110
            1440     1.28423E+03     1.28423E+03         3.47876         3.47876    -954.777E-03    -954.777E-03
            1441     1.28451E+03     1.28451E+03         3.23538         3.23538    -836.622E-03    -836.622E-03
            1442     1.28475E+03     1.28475E+03         3.01597         3.01597    -725.769E-03    -725.769E-03
            1443     1.28495E+03     1.28495E+03         2.82123         2.82123    -621.368E-03    -621.368E-03
            1444     1.28512E+03     1.28512E+03         2.65169         2.65169    -522.574E-03    -522.574E-03
            1445     1.28527E+03     1.28527E+03         2.50771         2.50771    -428.544E-03    -428.544E-03
            1446     1.28538E+03     1.28538E+03         2.38955         2.38955    -338.428E-03    -338.428E-03
            1447     1.28547E+03     1.28547E+03         2.29737         2.29737    -251.375E-03    -251.375E-03
            1448     1.28553E+03     1.28553E+03         2.23126         2.23126    -166.523E-03    -166.523E-03
            1449     1.28557E+03     1.28557E+03         2.19121         2.19121    -83.2159E-03    -83.2159E-03
            1450     1.26099E+03     1.26099E+03        -42.8510        -42.8510        -76.7563        -76.7563
            1451     1.25195E+03     1.25195E+03        -28.6098        -28.6098        -64.4876        -64.4876
            1452     1.24862E+03     1.24862E+03        -18.5190        -18.5190        -53.4079        -53.4079
            1453     1.24839E+03     1.24839E+03        -11.4012        -11.4012        -44.1232        -44.1232
            1454     1.24975E+03     1.24975E+03        -6.28590        -6.28590        -36.5793        -36.5793
            1455     1.25186E+03     1.25186E+03        -2.54036        -2.54036        -30.5118        -30.5118
            1456     1.25428E+03     1.25428E+03     253.398E-03     253.398E-03        -25.6428        -25.6428
            1457     1.25677E+03     1.25677E+03         2.36437         2.36437        -21.7278        -21.7278
            1458     1.25920E+03     1.25920E+03         3.97204         3.97204        -18.5667        -18.5667
            1459     1.26151E+03     1.26151E+03         5.19603         5.19603        -15.9996        -15.9996
            1460     1.26368E+03     1.26368E+03         6.11961         6.11961        -13.9006        -13.9006
            1461     1.26569E+03     1.26569E+03         6.80173         6.80173        -12.1709        -12.1709
            1462     1.26755E+03     1.26755E+03         7.28620         7.28620        -10.7333        -10.7333
            1463     1.26927E+03     1.26927E+03         7.60654         7.60654        -9.52706        -9.52706
            1464     1.27085E+03     1.27085E+03         7.78962         7.78962        -8.50495        -8.50495
            1465     1.27231E+03     1.27231E+03         7.85761         7.85761        -7.62983        -7.62983
            1466     1.27365E+03     1.27365E+03         7.82939         7.82939        -6.87270        -6.87270
            1467     1.27488E+03     1.27488E+03         7.72133         7.72133        -6.21088        -6.21088
            1468     1.27602E+03     1.27602E+03         7.54784         7.54784        -5.62665        -5.62665
            1469     1.27706E+03     1.27706E+03         7.32171         7.32171        -5.10621        -5.10621
            1470     1.27801E+03     1.27801E+03         7.05429         7.05429        -4.63879        -4.63879
            1471     1.27889E+03     1.27889E+03         6.75564         6.75564        -4.21598        -4.21598
            1472     1.27968E+03     1.27968E+03         6.43468         6.43468        -3.83120        -3.83120
            1473     1.28041E+03     1.28041E+03         6.09923         6.09923        -3.47930        -3.47930
            1474     1.28107E+03     1.28107E+03         5.75614         5.75614        -3.15618        -3.15618
            1475     1.28168E+03     1.28168E+03         5.41131         5.41131        -2.85856        -2.85856
            1476     1.28222E+03     1.28222E+03         5.06984         5.06984        -2.58379        -2.58379
            1477     1.28271E+03     1.28271E+03         4.73602         4.73602        -2.32964        -2.32964
            1478     1.28316E+03     1.28316E+03         4.41350         4.41350        -2.09423        -2.09423
            1479     1.28355E+03     1.28355E+03         4.10528         4.10528        -1.87590        -1.87590
            1480     1.28391E+03     1.28391E+03         3.81384         3.81384        -1.67318        -1.67318
            1481     1.28422E+03     1.28422E+03         3.54118         3.54118        -1.48469        -1.48469
            1482     1.28450E+03     1.28450E+03         3.28890         3.28890        -1.30914        -1.30914
            1483     1.28475E+03     1.28475E+03         3.05825         3.05825        -1.14530        -1.14530
            1484     1.28496E+03     1.28496E+03         2.85020         2.85020    -991.934E-03    -991.934E-03
            1485     1.28514E+03     1.28514E+03         2.66546         2.66546    -847.866E-03    -847.866E-03
            1486     1.28529E+03     1.28529E+03         2.50458         2.50458    -711.906E-03    -711.906E-03
            1487     1.28542E+03     1.28542E+03         2.36793         2.36793    -582.870E-03    -582.870E-03
            1488     1.28552E+03     1.28552E+03         2.25577         2.25577    -459.573E-03    -459.573E-03
            1489     1.28560E+03     1.28560E+03         2.16827         2.16827    -340.830E-03    -340.830E-03
            1490     1.28566E+03     1.28566E+03         2.10553         2.10553    -225.454E-03    -225.454E-03
            1491     1.28569E+03     1.28569E+03         2.06753         2.06753    -112.539E-03    -112.539E-03
            1492     1.30471E+03     1.30471E+03        -52.1385        -52.1385        -55.1816        -55.1816
            1493     1.28934E+03     1.28934E+03        -39.7584        -39.7584        -52.1755        -52.1755
            1494     1.27927E+03     1.27927E+03        -29.2645        -29.2645        -47.1016        -47.1016
            1495     1.27310E+03     1.27310E+03        -20.8732        -20.8732        -41.4957        -41.4957
            1496     1.26960E+03     1.26960E+03        -14.3263        -14.3263        -36.1400        -36.1400
            1497     1.26784E+03     1.26784E+03        -9.23759        -9.23759        -31.3445        -31.3445
            1498     1.26722E+03     1.26722E+03        -5.27985        -5.27985        -27.1882        -27.1882
            1499     1.26732E+03     1.26732E+03        -2.19360        -2.19360        -23.6464        -23.6464
            1500     1.26787E+03     1.26787E+03     214.066E-03     214.066E-03        -20.6531        -20.6531
            1501     1.26870E+03     1.26870E+03         2.08799         2.08799        -18.1306        -18.1306
            1502     1.26969E+03     1.26969E+03         3.53587         3.53587        -16.0030        -16.0030
            1503     1.27076E+03     1.27076E+03         4.63981         4.63981        -14.2024        -14.2024
            1504     1.27186E+03     1.27186E+03         5.46306         5.46306        -12.6702        -12.6702
            1505     1.27296E+03     1.27296E+03         6.05567         6.05567        -11.3574        -11.3574
            1506     1.27403E+03     1.27403E+03         6.45792         6.45792        -10.2235        -10.2235
            1507     1.27507E+03     1.27507E+03         6.70297         6.70297        -9.23556        -9.23556
            1508     1.27606E+03     1.27606E+03         6.81852         6.81852        -8.36718        -8.36718
            1509     1.27699E+03     1.27699E+03         6.82803         6.82803        -7.59716        -7.59716
            1510     1.27787E+03     1.27787E+03         6.75155         6.75155        -6.90865        -6.90865
            1511     1.27870E+03     1.27870E+03         6.60629         6.60629        -6.28837        -6.28837
            1512     1.27946E+03     1.27946E+03         6.40712         6.40712        -5.72581        -5.72581
            1513     1.28017E+03     1.28017E+03         6.16682         6.16682        -5.21273        -5.21273
            1514     1.28083E+03     1.28083E+03         5.89643         5.89643        -4.74259        -4.74259
            1515     1.28143E+03     1.28143E+03         5.60537         5.60537        -4.31022        -4.31022
            1516     1.28198E+03     1.28198E+03         5.30170         5.30170        -3.91148        -3.91148
            1517     1.28248E+03     1.28248E+03         4.99227         4.99227        -3.54298        -3.54298
            1518     1.28294E+03     1.28294E+03         4.68282         4.68282        -3.20194        -3.20194
            1519     1.28335E+03     1.28335E+03         4.37818         4.37818        -2.88597        -2.88597
            1520     1.28372E+03     1.28372E+03         4.08232         4.08232        -2.59300        -2.59300
            1521     1.28405E+03     1.28405E+03         3.79852         3.79852        -2.32118        -2.32118
            1522     1.28435E+03     1.28435E+03         3.52942         3.52942        -2.06880        -2.06880
            1523     1.28461E+03     1.28461E+03         3.27715         3.27715        -1.83423        -1.83423
            1524     1.28485E+03     1.28485E+03         3.04338         3.04338        -1.61593        -1.61593
            1525     1.28505E+03     1.28505E+03         2.82943         2.82943        -1.41239        -1.41239
            1526     1.28523E+03     1.28523E+03         2.63629         2.63629        -1.22212        -1.22212
            1527     1.28538E+03     1.28538E+03         2.46472         2.46472        -1.04364        -1.04364
            1528     1.28551E+03     1.28551E+03         2.31524         2.31524    -875.460E-03    -875.460E-03
            1529     1.28561E+03     1.28561E+03         2.18827         2.18827    -716.115E-03    -716.115E-03
            1530     1.28570E+03     1.28570E+03         2.08406         2.08406    -564.124E-03    -564.124E-03
            1531     1.28577E+03     1.28577E+03         2.00279         2.00279    -418.003E-03    -418.003E-03
            1532     1.28581E+03     1.28581E+03         1.94458         1.94458    -276.271E-03    -276.271E-03
            1533     1.28584E+03     1.28584E+03         1.90941         1.90941    -137.816E-03    -137.816E-03
            1534     1.29200E+03     1.29200E+03     39.3770E-03     39.3770E-03        -4.37478        -4.37478
            1535     1.29624E+03     1.29624E+03     65.9707E-03     65.9707E-03        -7.79506        -7.79506
            1536     1.30052E+03     1.30052E+03     31.9937E-03     31.9937E-03        -10.3033        -10.3033
            1537     1.30494E+03     1.30494E+03    -152.815E-03    -152.815E-03        -12.2245        -12.2245
            1538     1.30964E+03     1.30964E+03    -620.525E-03    -620.525E-03        -13.7905        -13.7905
            1539     1.31478E+03     1.31478E+03        -1.55478        -1.55478        -15.1335        -15.1335
            1540     1.32056E+03     1.32056E+03        -3.21078        -3.21078        -16.2850        -16.2850
            1541     1.32721E+03     1.32721E+03        -5.94578        -5.94578        -17.1490        -17.1490
            1542     1.33493E+03     1.33493E+03        -10.2550        -10.2550        -17.4389        -17.4389
            1543     1.34389E+03     1.34389E+03        -16.7968        -16.7968        -16.5496        -16.5496
            1544     1.35386E+03     1.35386E+03        -26.3255        -26.3255        -13.3668        -13.3668
            1545     1.36375E+03     1.36375E+03        -39.3748        -39.3748        -6.04593        -6.04593
            1546     1.28655E+03     1.28655E+03     421.889E-03     421.889E-03        -4.03412        -4.03412
            1547     1.29231E+03     1.29231E+03         1.13051         1.13051        -7.21635        -7.21635
            1548     1.29751E+03     1.29751E+03         2.13281         2.13281        -9.62963        -9.62963
            1549     1.30242E+03     1.30242E+03         3.30110         3.30110        -11.6220        -11.6220
            1550     1.30733E+03     1.30733E+03         4.50754         4.50754        -13.4615        -13.4615
            1551     1.31250E+03     1.31250E+03         5.60476         5.60476        -15.3440        -15.3440
            1552     1.31825E+03     1.31825E+03         6.39489         6.39489        -17.4084        -17.4084
            1553     1.32495E+03     1.32495E+03         6.58186         6.58186        -19.7323        -19.7323
            1554     1.33308E+03     1.33308E+03         5.69358         5.69358        -22.2954        -22.2954
            1555     1.34324E+03     1.34324E+03         2.95412         2.95412        -24.8795        -24.8795
            1556     1.35614E+03     1.35614E+03        -2.90565        -2.90565        -26.8017        -26.8017
            1557     1.37231E+03     1.37231E+03        -13.7998        -13.7998        -26.3635        -26.3635
            1558     1.28196E+03     1.28196E+03     777.865E-03     777.865E-03        -3.04991        -3.04991
            1559     1.28895E+03     1.28895E+03         2.12524         2.12524        -5.46140        -5.46140
            1560     1.29483E+03     1.29483E+03         4.10858         4.10858        -7.32324        -7.32324
            1561     1.30001E+03     1.30001E+03         6.58394         6.58394        -8.93367        -8.93367
            1562     1.30487E+03     1.30487E+03         9.46120         9.46120        -10.5345        -10.5345
            1563     1.30974E+03     1.30974E+03         12.6837         12.6837        -12.3281        -12.3281
            1564     1.31498E+03     1.31498E+03         16.2050         16.2050        -14.5039        -14.5039
            1565     1.32099E+03     1.32099E+03         19.9572         19.9572        -17.2577        -17.2577
            1566     1.32832E+03     1.32832E+03         23.7970         23.7970        -20.8055        -20.8055
            1567     1.33776E+03     1.33776E+03         27.3968         27.3968        -25.3793        -25.3793
            1568     1.35056E+03     1.35056E+03         29.9889         29.9889        -31.1556        -31.1556
            1569     1.36873E+03     1.36873E+03         29.7520         29.7520        -37.9502        -37.9502
            1570     1.27899E+03     1.27899E+03         1.03279         1.03279        -1.53161        -1.53161
            1571     1.28679E+03     1.28679E+03         2.83931         2.83931        -2.72550        -2.72550
            1572     1.29306E+03     1.29306E+03         5.53291         5.53291        -3.64007        -3.64007
            1573     1.29834E+03     1.29834E+03         8.96698         8.96698        -4.45138        -4.45138
            1574     1.30305E+03     1.30305E+03         13.0948         13.0948        -5.30614        -5.30614
            1575     1.30755E+03     1.30755E+03         17.9542         17.9542        -6.33594        -6.33594
            1576     1.31218E+03     1.31218E+03         23.6607         23.6607        -7.67759        -7.67759
            1577     1.31730E+03     1.31730E+03         30.4122         30.4122        -9.49590        -9.49590
            1578     1.32339E+03     1.32339E+03         38.5021         38.5021        -12.0132        -12.0132
            1579     1.33114E+03     1.33114E+03         48.3417         48.3417        -15.5553        -15.5553
            1580     1.34169E+03     1.34169E+03         60.4740         60.4740        -20.6487        -20.6487
            1581     1.35713E+03     1.35713E+03         75.4844         75.4844        -28.1974        -28.1974
            1582     1.27821E+03     1.27821E+03         1.12865         1.12865     294.128E-03     294.128E-03
            1583     1.28628E+03     1.28628E+03         3.10836         3.10836     576.685E-03     576.685E-03
            1584     1.29266E+03     1.29266E+03         6.07090         6.07090     843.011E-03     843.011E-03
            1585     1.29794E+03     1.29794E+03         9.86980         9.86980         1.08440         1.08440
            1586     1.30255E+03     1.30255E+03         14.4767         14.4767         1.29472         1.29472
            1587     1.30685E+03     1.30685E+03         19.9688         19.9688         1.46923         1.46923
            1588     1.31117E+03     1.31117E+03         26.5309         26.5309         1.60438         1.60438
            1589     1.31585E+03     1.31585E+03         34.4782         34.4782         1.69796         1.69796
            1590     1.32132E+03     1.32132E+03         44.3071         44.3071         1.74873         1.74873
            1591     1.32817E+03     1.32817E+03         56.7928         56.7928         1.75672         1.75672
            1592     1.33736E+03     1.33736E+03         73.2008         73.2008         1.72350         1.72350
            1593     1.35059E+03     1.35059E+03         95.8055         95.8055         1.64964         1.64964
            1594     1.27982E+03     1.27982E+03         1.04349         1.04349         2.12980         2.12980
            1595     1.28758E+03     1.28758E+03         2.87022         2.87022         3.89759         3.89759
            1596     1.29379E+03     1.29379E+03         5.59545         5.59545         5.35229         5.35229
            1597     1.29899E+03     1.29899E+03         9.07070         9.07070         6.65251         6.65251
            1598     1.30360E+03     1.30360E+03         13.2474         13.2474         7.93280         7.93280
            1599     1.30799E+03     1.30799E+03         18.1616         18.1616         9.31519         9.31519
            1600     1.31250E+03     1.31250E+03         23.9273         23.9273         10.9297         10.9297
            1601     1.31750E+03     1.31750E+03         30.7408         30.7408         12.9365         12.9365
            1602     1.32347E+03     1.32347E+03         38.8942         38.8942         15.5561         15.5561
            1603     1.33110E+03     1.33110E+03         48.7976         48.7976         19.1139         19.1139
            1604     1.34153E+03     1.34153E+03         60.9918         60.9918         24.1382         24.1382
            1605     1.35687E+03     1.35687E+03         76.0623         76.0623         31.5395         31.5395
            1606     1.28364E+03     1.28364E+03     799.211E-03     799.211E-03         3.67785         3.67785
            1607     1.29055E+03     1.29055E+03         2.18692         2.18692         6.68962         6.68962
            1608     1.29630E+03     1.29630E+03         4.23339         4.23339         9.11398         9.11398
            1609     1.30131E+03     1.30131E+03         6.79093         6.79093         11.2317         11.2317
            1610     1.30598E+03     1.30598E+03         9.76571         9.76571         13.2725         13.2725
            1611     1.31064E+03     1.31064E+03         13.0975         13.0975         15.4296         15.4296
            1612     1.31564E+03     1.31564E+03         16.7366         16.7366         17.8856         17.8856
            1613     1.32140E+03     1.32140E+03         20.6121         20.6121         20.8323         20.8323
            1614     1.32849E+03     1.32849E+03         24.5779         24.5779         24.4838         24.4838
            1615     1.33768E+03     1.33768E+03         28.3040         28.3040         29.0726         29.0726
            1616     1.35025E+03     1.35025E+03         31.0218         31.0218         34.7768         34.7768
            1617     1.36819E+03     1.36819E+03         30.9041         30.9041         41.4151         41.4151
            1618     1.28914E+03     1.28914E+03     453.757E-03     453.757E-03         4.71160         4.71160
            1619     1.29476E+03     1.29476E+03         1.22268         1.22268         8.53799         8.53799
            1620     1.29976E+03     1.29976E+03         2.31938         2.31938         11.5510         11.5510
            1621     1.30442E+03     1.30442E+03         3.61048         3.61048         14.0811         14.0811
            1622     1.30902E+03     1.30902E+03         4.96253         4.96253         16.3845         16.3845
            1623     1.31386E+03     1.31386E+03         6.22276         6.22276         18.6481         18.6481
            1624     1.31925E+03     1.31925E+03         7.18827         7.18827         21.0047         21.0047
            1625     1.32557E+03     1.32557E+03         7.55827         7.55827         23.5282         23.5282
            1626     1.33332E+03     1.33332E+03         6.85649         6.85649         26.1972         26.1972
            1627     1.34312E+03     1.34312E+03         4.30375         4.30375         28.7950         28.7950
            1628     1.35566E+03     1.35566E+03        -1.37184        -1.37184         30.6421         30.6421
            1629     1.37149E+03     1.37149E+03        -12.0831        -12.0831         30.0397         30.0397
            1630     1.29558E+03     1.29558E+03     81.6444E-03     81.6444E-03         5.12160         5.12160
            1631     1.29962E+03     1.29962E+03     188.311E-03     188.311E-03         9.24731         9.24731
            1632     1.30362E+03     1.30362E+03     279.688E-03     279.688E-03         12.4071         12.4071
            1633     1.30768E+03     1.30768E+03     257.809E-03     257.809E-03         14.9082         14.9082
            1634     1.31195E+03     1.31195E+03    -17.0355E-03    -17.0355E-03         16.9711         16.9711
            1635     1.31663E+03     1.31663E+03    -735.770E-03    -735.770E-03         18.7195         18.7195
            1636     1.32191E+03     1.32191E+03        -2.16052        -2.16052         20.1791         20.1791
            1637     1.32805E+03     1.32805E+03        -4.65494        -4.65494         21.2509         21.2509
            1638     1.33526E+03     1.33526E+03        -8.72007        -8.72007         21.6485         21.6485
            1639     1.34371E+03     1.34371E+03        -15.0197        -15.0197         20.7692         20.7692
            1640     1.35321E+03     1.35321E+03        -24.3108        -24.3108         17.5052         17.5052
            1641     1.36263E+03     1.36263E+03        -37.1269        -37.1269         10.0188         10.0188
            1642     1.28615E+03     1.28615E+03         1.56175         1.56175     170.683E-03     170.683E-03
            1643     1.28613E+03     1.28613E+03         1.59083         1.59083     342.333E-03     342.333E-03
            1644     1.28611E+03     1.28611E+03         1.63916         1.63916     518.290E-03     518.290E-03
            1645     1.28607E+03     1.28607E+03         1.70672         1.70672     699.975E-03     699.975E-03
            1646     1.28602E+03     1.28602E+03         1.79341         1.79341     889.283E-03     889.283E-03
            1647     1.28597E+03     1.28597E+03         1.89906         1.89906         1.08811         1.08811
            1648     1.28589E+03     1.28589E+03         2.02340         2.02340         1.29833         1.29833
            1649     1.28581E+03     1.28581E+03         2.16606         2.16606         1.52181         1.52181
            1650     1.28571E+03     1.28571E+03         2.32649         2.32649         1.76039         1.76039
            1651     1.28559E+03     1.28559E+03         2.50395         2.50395         2.01591         2.01591
            1652     1.28546E+03     1.28546E+03         2.69743         2.69743         2.29015         2.29015
            1653     1.28531E+03     1.28531E+03         2.90562         2.90562         2.58491         2.58491
            1654     1.28514E+03     1.28514E+03         3.12679         3.12679         2.90193         2.90193
            1655     1.28494E+03     1.28494E+03         3.35869         3.35869         3.24294         3.24294
            1656     1.28473E+03     1.28473E+03         3.59853         3.59853         3.60969         3.60969
            1657     1.28450E+03     1.28450E+03         3.84276         3.84276         4.00391         4.00391
            1658     1.28424E+03     1.28424E+03         4.08698         4.08698         4.42740         4.42740
            1659     1.28395E+03     1.28395E+03         4.32579         4.32579         4.88204         4.88204
            1660     1.28364E+03     1.28364E+03         4.55255         4.55255         5.36985         5.36985
            1661     1.28331E+03     1.28331E+03         4.75926         4.75926         5.89310         5.89310
            1662     1.28296E+03     1.28296E+03         4.93623         4.93623         6.45439         6.45439
            1663     1.28259E+03     1.28259E+03         5.07186         5.07186         7.05678         7.05678
            1664     1.28220E+03     1.28220E+03         5.15234         5.15234         7.70398         7.70398
            1665     1.28181E+03     1.28181E+03         5.16126         5.16126         8.40046         8.40046
            1666     1.28142E+03     1.28142E+03         5.07925         5.07925         9.15174         9.15174
            1667     1.28105E+03     1.28105E+03         4.88350         4.88350         9.96447         9.96447
            1668     1.28071E+03     1.28071E+03         4.54725         4.54725         10.8467         10.8467
            1669     1.28043E+03     1.28043E+03         4.03919         4.03919         11.8076         11.8076
            1670     1.28024E+03     1.28024E+03         3.32281         3.32281         12.8578         12.8578
            1671     1.28018E+03     1.28018E+03         2.35554         2.35554         14.0082         14.0082
            1672     1.28031E+03     1.28031E+03         1.08818         1.08818         15.2691         15.2691
            1673     1.28071E+03     1.28071E+03    -536.241E-03    -536.241E-03         16.6480         16.6480
            1674     1.28146E+03     1.28146E+03        -2.58226        -2.58226         18.1453         18.1453
            1675     1.28269E+03     1.28269E+03        -5.12260        -5.12260         19.7480         19.7480
            1676     1.28456E+03     1.28456E+03        -8.23417        -8.23417         21.4189         21.4189
            1677     1.28726E+03     1.28726E+03        -11.9941        -11.9941         23.0817         23.0817
            1678     1.29103E+03     1.29103E+03        -16.4610        -16.4610         24.5946         24.5946
            1679     1.29615E+03     1.29615E+03        -21.6502        -21.6502         25.7230         25.7230
            1680     1.30288E+03     1.30288E+03        -27.4680        -27.4680         26.0948         26.0948
            1681     1.31145E+03     1.31145E+03        -33.6252        -33.6252         25.1885         25.1885
            1682     1.32185E+03     1.32185E+03        -39.4932        -39.4932         22.3369         22.3369
            1683     1.33375E+03     1.33375E+03        -44.0503        -44.0503         16.9208         16.9208
            1684     1.28629E+03     1.28629E+03         1.38859         1.38859     178.721E-03     178.721E-03
            1685     1.28628E+03     1.28628E+03         1.41475         1.41475     358.439E-03     358.439E-03
            1686     1.28627E+03     1.28627E+03         1.45825         1.45825     542.746E-03     542.746E-03
            1687     1.28625E+03     1.28625E+03         1.51905         1.51905     733.152E-03     733.152E-03
            1688     1.28622E+03     1.28622E+03         1.59707         1.59707     931.669E-03     931.669E-03
            1689     1.28618E+03     1.28618E+03         1.69214         1.69214         1.14030         1.14030
            1690     1.28614E+03     1.28614E+03         1.80401         1.80401         1.36105         1.36105
            1691     1.28609E+03     1.28609E+03         1.93234         1.93234         1.59586         1.59586
            1692     1.28602E+03     1.28602E+03         2.07661         2.07661         1.84669         1.84669
            1693     1.28595E+03     1.28595E+03         2.23611         2.23611         2.11544         2.11544
            1694     1.28587E+03     1.28587E+03         2.40988         2.40988         2.40396         2.40396
            1695     1.28577E+03     1.28577E+03         2.59664         2.59664         2.71405         2.71405
            1696     1.28567E+03     1.28567E+03         2.79469         2.79469         3.04747         3.04747
            1697     1.28555E+03     1.28555E+03         3.00187         3.00187         3.40588         3.40588
            1698     1.28541E+03     1.28541E+03         3.21540         3.21540         3.79089         3.79089
            1699     1.28526E+03     1.28526E+03         3.43175         3.43175         4.20403         4.20403
            1700     1.28510E+03     1.28510E+03         3.64654         3.64654         4.64677         4.64677
            1701     1.28492E+03     1.28492E+03         3.85434         3.85434         5.12051         5.12051
            1702     1.28473E+03     1.28473E+03         4.04844         4.04844         5.62664         5.62664
            1703     1.28453E+03     1.28453E+03         4.22068         4.22068         6.16652         6.16652
            1704     1.28432E+03     1.28432E+03         4.36116         4.36116         6.74158         6.74158
            1705     1.28410E+03     1.28410E+03         4.45798         4.45798         7.35332         7.35332
            1706     1.28389E+03     1.28389E+03         4.49686         4.49686         8.00340         8.00340
            1707     1.28368E+03     1.28368E+03         4.46086         4.46086         8.69371         8.69371
            1708     1.28350E+03     1.28350E+03         4.32995         4.32995         9.42637         9.42637
            1709     1.28336E+03     1.28336E+03         4.08059         4.08059         10.2037         10.2037
            1710     1.28328E+03     1.28328E+03         3.68535         3.68535         11.0283         11.0283
            1711     1.28329E+03     1.28329E+03         3.11251         3.11251         11.9024         11.9024
            1712     1.28342E+03     1.28342E+03         2.32558         2.32558         12.8275         12.8275
            1713     1.28372E+03     1.28372E+03         1.28332         1.28332         13.8035         13.8035
            1714     1.28425E+03     1.28425E+03    -60.5740E-03    -60.5740E-03         14.8264         14.8264
            1715     1.28508E+03     1.28508E+03        -1.75645        -1.75645         15.8861         15.8861
            1716     1.28630E+03     1.28630E+03        -3.85783        -3.85783         16.9612         16.9612
            1717     1.28803E+03     1.28803E+03        -6.41727        -6.41727         18.0125         18.0125
            1718     1.29040E+03     1.29040E+03        -9.48130        -9.48130         18.9742         18.9742
            1719     1.29356E+03     1.29356E+03        -13.0771        -13.0771         19.7384         19.7384
            1720     1.29767E+03     1.29767E+03        -17.1941        -17.1941         20.1421         20.1421
            1721     1.30290E+03     1.30290E+03        -21.7479        -21.7479         19.9451         19.9451
            1722     1.30935E+03     1.30935E+03        -26.5300        -26.5300         18.8268         18.8268
            1723     1.31701E+03     1.31701E+03        -31.1405        -31.1405         16.3884         16.3884
            1724     1.32569E+03     1.32569E+03        -34.9232        -34.9232         12.2343         12.2343
            1725     1.33498E+03     1.33498E+03        -37.0040        -37.0040         6.00573         6.00573
            1726     1.28643E+03     1.28643E+03         1.20949         1.20949     182.556E-03     182.556E-03
            1727     1.28643E+03     1.28643E+03         1.23258         1.23258     366.125E-03     366.125E-03
            1728     1.28642E+03     1.28642E+03         1.27099         1.27099     554.481E-03     554.481E-03
            1729     1.28642E+03     1.28642E+03         1.32468         1.32468     749.185E-03     749.185E-03
            1730     1.28641E+03     1.28641E+03         1.39357         1.39357     952.330E-03     952.330E-03
            1731     1.28640E+03     1.28640E+03         1.47752         1.47752         1.16600         1.16600
            1732     1.28638E+03     1.28638E+03         1.57631         1.57631         1.39226         1.39226
            1733     1.28637E+03     1.28637E+03         1.68961         1.68961         1.63313         1.63313
            1734     1.28635E+03     1.28635E+03         1.81695         1.81695         1.89063         1.89063
            1735     1.28632E+03     1.28632E+03         1.95768         1.95768         2.16667         2.16667
            1736     1.28629E+03     1.28629E+03         2.11089         2.11089         2.46316         2.46316
            1737     1.28626E+03     1.28626E+03         2.27538         2.27538         2.78187         2.78187
            1738     1.28622E+03     1.28622E+03         2.44956         2.44956         3.12450         3.12450
            1739     1.28617E+03     1.28617E+03         2.63134         2.63134         3.49263         3.49263
            1740     1.28612E+03     1.28612E+03         2.81808         2.81808         3.88769         3.88769
            1741     1.28606E+03     1.28606E+03         3.00638         3.00638         4.31096         4.31096
            1742     1.28600E+03     1.28600E+03         3.19198         3.19198         4.76350         4.76350
            1743     1.28593E+03     1.28593E+03         3.36959         3.36959         5.24619         5.24619
            1744     1.28586E+03     1.28586E+03         3.53265         3.53265         5.75968         5.75968
            1745     1.28579E+03     1.28579E+03         3.67312         3.67312         6.30433         6.30433
            1746     1.28572E+03     1.28572E+03         3.78123         3.78123         6.88027         6.88027
            1747     1.28567E+03     1.28567E+03         3.84516         3.84516         7.48729         7.48729
            1748     1.28562E+03     1.28562E+03         3.85075         3.85075         8.12485         8.12485
            1749     1.28560E+03     1.28560E+03         3.78115         3.78115         8.79201         8.79201
            1750     1.28563E+03     1.28563E+03         3.61650         3.61650         9.48731         9.48731
            1751     1.28570E+03     1.28570E+03         3.33357         3.33357         10.2086         10.2086
            1752     1.28586E+03     1.28586E+03         2.90553         2.90553         10.9527         10.9527
            1753     1.28612E+03     1.28612E+03         2.30169         2.30169         11.7151         11.7151
            1754     1.28652E+03     1.28652E+03         1.48764         1.48764         12.4887         12.4887
            1755     1.28712E+03     1.28712E+03     425.393E-03     425.393E-03         13.2629         13.2629
            1756     1.28795E+03     1.28795E+03    -925.472E-03    -925.472E-03         14.0217         14.0217
            1757     1.28910E+03     1.28910E+03        -2.60644        -2.60644         14.7404         14.7404
            1758     1.29063E+03     1.29063E+03        -4.65647        -4.65647         15.3819         15.3819
            1759     1.29265E+03     1.29265E+03        -7.10725        -7.10725         15.8908         15.8908
            1760     1.29525E+03     1.29525E+03        -9.97367        -9.97367         16.1861         16.1861
            1761     1.29853E+03     1.29853E+03        -13.2408        -13.2408         16.1534         16.1534
            1762     1.30260E+03     1.30260E+03        -16.8422        -16.8422         15.6348         15.6348
            1763     1.30750E+03     1.30750E+03        -20.6300        -20.6300         14.4286         14.4286
            1764     1.31323E+03     1.31323E+03        -24.3391        -24.3391         12.2917         12.2917
            1765     1.31965E+03     1.31965E+03        -27.5430        -27.5430         8.97442         8.97442
            1766     1.32651E+03     1.32651E+03        -29.6546        -29.6546         4.26353         4.26353
            1767     1.33331E+03     1.33331E+03        -29.8482        -29.8482        -1.98932        -1.98932
            1768     1.28656E+03     1.28656E+03         1.02866         1.02866     182.025E-03     182.025E-03
            1769     1.28656E+03     1.28656E+03         1.04860         1.04860     365.048E-03     365.048E-03
            1770     1.28657E+03     1.28657E+03         1.08176         1.08176     552.965E-03     552.965E-03
            1771     1.28658E+03     1.28658E+03         1.12813         1.12813     747.351E-03     747.351E-03
            1772     1.28659E+03     1.28659E+03         1.18763         1.18763     950.337E-03     950.337E-03
            1773     1.28660E+03     1.28660E+03         1.26014         1.26014         1.16404         1.16404
            1774     1.28662E+03     1.28662E+03         1.34547         1.34547         1.39057         1.39057
            1775     1.28664E+03     1.28664E+03         1.44333         1.44333         1.63197         1.63197
            1776     1.28666E+03     1.28666E+03         1.55330         1.55330         1.89026         1.89026
            1777     1.28669E+03     1.28669E+03         1.67480         1.67480         2.16739         2.16739
            1778     1.28671E+03     1.28671E+03         1.80701         1.80701         2.46522         2.46522
            1779     1.28674E+03     1.28674E+03         1.94883         1.94883         2.78550         2.78550
            1780     1.28677E+03     1.28677E+03         2.09881         2.09881         3.12987         3.12987
            1781     1.28680E+03     1.28680E+03         2.25504         2.25504         3.49976         3.49976
            1782     1.28684E+03     1.28684E+03         2.41503         2.41503         3.89642         3.89642
            1783     1.28687E+03     1.28687E+03         2.57565         2.57565         4.32083         4.32083
            1784     1.28692E+03     1.28692E+03         2.73290         2.73290         4.77368         4.77368
            1785     1.28696E+03     1.28696E+03         2.88179         2.88179         5.25528         5.25528
            1786     1.28702E+03     1.28702E+03         3.01613         3.01613         5.76553         5.76553
            1787     1.28708E+03     1.28708E+03         3.12827         3.12827         6.30382         6.30382
            1788     1.28716E+03     1.28716E+03         3.20891         3.20891         6.86893         6.86893
            1789     1.28726E+03     1.28726E+03         3.24677         3.24677         7.45898         7.45898
            1790     1.28739E+03     1.28739E+03         3.22832         3.22832         8.07125         8.07125
            1791     1.28755E+03     1.28755E+03         3.13748         3.13748         8.70201         8.70201
            1792     1.28776E+03     1.28776E+03         2.95532         2.95532         9.34636         9.34636
            1793     1.28804E+03     1.28804E+03         2.65989         2.65989         9.99783         9.99783
            1794     1.28841E+03     1.28841E+03         2.22599         2.22599         10.6480         10.6480
            1795     1.28889E+03     1.28889E+03         1.62536         1.62536         11.2860         11.2860
            1796     1.28952E+03     1.28952E+03     826.870E-03     826.870E-03         11.8973         11.8973
            1797     1.29033E+03     1.29033E+03    -202.464E-03    -202.464E-03         12.4628         12.4628
            1798     1.29139E+03     1.29139E+03        -1.49616        -1.49616         12.9567         12.9567
            1799     1.29273E+03     1.29273E+03        -3.08541        -3.08541         13.3446         13.3446
            1800     1.29443E+03     1.29443E+03        -4.99517        -4.99517         13.5797         13.5797
            1801     1.29656E+03     1.29656E+03        -7.23737        -7.23737         13.5995         13.5995
            1802     1.29917E+03     1.29917E+03        -9.80168        -9.80168         13.3215         13.3215
            1803     1.30233E+03     1.30233E+03        -12.6416        -12.6416         12.6394         12.6394
            1804     1.30607E+03     1.30607E+03        -15.6561        -15.6561         11.4225         11.4225
            1805     1.31039E+03     1.31039E+03        -18.6681        -18.6681         9.51997         9.51997
            1806     1.31519E+03     1.31519E+03        -21.3978        -21.3978         6.77733         6.77733
            1807     1.32029E+03     1.32029E+03        -23.4539        -23.4539         3.06532         3.06532
            1808     1.32540E+03     1.32540E+03        -24.3069        -24.3069        -1.68733        -1.68733
            1809     1.33005E+03     1.33005E+03        -23.2987        -23.2987        -7.40394        -7.40394
            1810     1.28666E+03     1.28666E+03     850.462E-03     850.462E-03     177.036E-03     177.036E-03
            1811     1.28667E+03     1.28667E+03     867.221E-03     867.221E-03     355.023E-03     355.023E-03
            1812     1.28669E+03     1.28669E+03     895.101E-03     895.101E-03     537.911E-03     537.911E-03
            1813     1.28672E+03     1.28672E+03     934.089E-03     934.089E-03     727.249E-03     727.249E-03
            1814     1.28675E+03     1.28675E+03     984.123E-03     984.123E-03     925.162E-03     925.162E-03
            1815     1.28679E+03     1.28679E+03         1.04511         1.04511         1.13376         1.13376
            1816     1.28684E+03     1.28684E+03         1.11688         1.11688         1.35514         1.35514
            1817     1.28690E+03     1.28690E+03         1.19919         1.19919         1.59134         1.59134
            1818     1.28696E+03     1.28696E+03         1.29171         1.29171         1.84436         1.84436
            1819     1.28704E+03     1.28704E+03         1.39390         1.39390         2.11611         2.11611
            1820     1.28712E+03     1.28712E+03         1.50507         1.50507         2.40843         2.40843
            1821     1.28721E+03     1.28721E+03         1.62426         1.62426         2.72299         2.72299
            1822     1.28731E+03     1.28731E+03         1.75018         1.75018         3.06134         3.06134
            1823     1.28742E+03     1.28742E+03         1.88114         1.88114         3.42478         3.42478
            1824     1.28755E+03     1.28755E+03         2.01492         2.01492         3.81436         3.81436
            1825     1.28768E+03     1.28768E+03         2.14870         2.14870         4.23080         4.23080
            1826     1.28783E+03     1.28783E+03         2.27889         2.27889         4.67441         4.67441
            1827     1.28799E+03     1.28799E+03         2.40097         2.40097         5.14501         5.14501
            1828     1.28817E+03     1.28817E+03         2.50929         2.50929         5.64180         5.64180
            1829     1.28838E+03     1.28838E+03         2.59689         2.59689         6.16326         6.16326
            1830     1.28860E+03     1.28860E+03         2.65526         2.65526         6.70700         6.70700
            1831     1.28886E+03     1.28886E+03         2.67406         2.67406         7.26960         7.26960
            1832     1.28915E+03     1.28915E+03         2.64087         2.64087         7.84636         7.84636
            1833     1.28949E+03     1.28949E+03         2.54096         2.54096         8.43112         8.43112
            1834     1.28988E+03     1.28988E+03         2.35708         2.35708         9.01587         9.01587
            1835     1.29035E+03     1.29035E+03         2.06926         2.06926         9.59043         9.59043
            1836     1.29090E+03     1.29090E+03         1.65491         1.65491         10.1419         10.1419
            1837     1.29157E+03     1.29157E+03         1.08898         1.08898         10.6541         10.6541
            1838     1.29238E+03     1.29238E+03     344.680E-03     344.680E-03         11.1067         11.1067
            1839     1.29336E+03     1.29336E+03    -605.491E-03    -605.491E-03         11.4741         11.4741
            1840     1.29456E+03     1.29456E+03        -1.78763        -1.78763         11.7241         11.7241
            1841     1.29600E+03     1.29600E+03        -3.22348        -3.22348         11.8163         11.8163
            1842     1.29775E+03     1.29775E+03        -4.92564        -4.92564         11.7004         11.7004
            1843     1.29983E+03     1.29983E+03        -6.89105        -6.89105         11.3142         11.3142
            1844     1.30230E+03     1.30230E+03        -9.09183        -9.09183         10.5821         10.5821
            1845     1.30516E+03     1.30516E+03        -11.4632        -11.4632         9.41658         9.41658
            1846     1.30842E+03     1.30842E+03        -13.8900        -13.8900         7.72063         7.72063
            1847     1.31201E+03     1.31201E+03        -16.1899        -16.1899         5.39829         5.39829
            1848     1.31582E+03     1.31582E+03        -18.1047        -18.1047         2.37216         2.37216
            1849     1.31965E+03     1.31965E+03        -19.2874        -19.2874        -1.39361        -1.39361
            1850     1.32323E+03     1.32323E+03        -19.3123        -19.3123        -5.84496        -5.84496
            1851     1.32618E+03     1.32618E+03        -17.7071        -17.7071        -10.7899        -10.7899
            1852     1.28675E+03     1.28675E+03     679.288E-03     679.288E-03     167.594E-03     167.594E-03
            1853     1.28676E+03     1.28676E+03     692.915E-03     692.915E-03     336.055E-03     336.055E-03
            1854     1.28679E+03     1.28679E+03     715.592E-03     715.592E-03     509.315E-03     509.315E-03
            1855     1.28683E+03     1.28683E+03     747.306E-03     747.306E-03     688.856E-03     688.856E-03
            1856     1.28689E+03     1.28689E+03     788.014E-03     788.014E-03     876.748E-03     876.748E-03
            1857     1.28696E+03     1.28696E+03     837.637E-03     837.637E-03         1.07505         1.07505
            1858     1.28704E+03     1.28704E+03     896.054E-03     896.054E-03         1.28579         1.28579
            1859     1.28713E+03     1.28713E+03     963.069E-03     963.069E-03         1.51097         1.51097
            1860     1.28724E+03     1.28724E+03         1.03840         1.03840         1.75252         1.75252
            1861     1.28736E+03     1.28736E+03         1.12162         1.12162         2.01229         2.01229
            1862     1.28750E+03     1.28750E+03         1.21214         1.21214         2.29205         2.29205
            1863     1.28766E+03     1.28766E+03         1.30917         1.30917         2.59340         2.59340
            1864     1.28783E+03     1.28783E+03         1.41162         1.41162         2.91777         2.91777
            1865     1.28802E+03     1.28802E+03         1.51805         1.51805         3.26634         3.26634
            1866     1.28823E+03     1.28823E+03         1.62657         1.62657         3.63999         3.63999
            1867     1.28847E+03     1.28847E+03         1.73476         1.73476         4.03920         4.03920
            1868     1.28872E+03     1.28872E+03         1.83953         1.83953         4.46397         4.46397
            1869     1.28900E+03     1.28900E+03         1.93694         1.93694         4.91371         4.91371
            1870     1.28931E+03     1.28931E+03         2.02212         2.02212         5.38707         5.38707
            1871     1.28965E+03     1.28965E+03         2.08897         2.08897         5.88181         5.88181
            1872     1.29002E+03     1.29002E+03         2.13006         2.13006         6.39459         6.39459
            1873     1.29043E+03     1.29043E+03         2.13632         2.13632         6.92075         6.92075
            1874     1.29089E+03     1.29089E+03         2.09688         2.09688         7.45403         7.45403
            1875     1.29140E+03     1.29140E+03         1.99885         1.99885         7.98628         7.98628
            1876     1.29196E+03     1.29196E+03         1.82714         1.82714         8.50711         8.50711
            1877     1.29260E+03     1.29260E+03         1.56445         1.56445         9.00340         9.00340
            1878     1.29333E+03     1.29333E+03         1.19134         1.19134         9.45889         9.45889
            1879     1.29416E+03     1.29416E+03     686.629E-03     686.629E-03         9.85348         9.85348
            1880     1.29511E+03     1.29511E+03     28.1177E-03     28.1177E-03         10.1627         10.1627
            1881     1.29621E+03     1.29621E+03    -806.016E-03    -806.016E-03         10.3568         10.3568
            1882     1.29749E+03     1.29749E+03        -1.83517        -1.83517         10.4001         10.4001
            1883     1.29896E+03     1.29896E+03        -3.07305        -3.07305         10.2501         10.2501
            1884     1.30066E+03     1.30066E+03        -4.52323        -4.52323         9.85704         9.85704
            1885     1.30261E+03     1.30261E+03        -6.17295        -6.17295         9.16377         9.16377
            1886     1.30482E+03     1.30482E+03        -7.98513        -7.98513         8.10719         8.10719
            1887     1.30728E+03     1.30728E+03        -9.88939        -9.88939         6.62125         6.62125
            1888     1.30996E+03     1.30996E+03        -11.7710        -11.7710         4.64347         4.64347
            1889     1.31278E+03     1.31278E+03        -13.4635        -13.4635         2.12640         2.12640
            1890     1.31562E+03     1.31562E+03        -14.7410        -14.7410    -947.454E-03    -947.454E-03
            1891     1.31831E+03     1.31831E+03        -15.3226        -15.3226        -4.53884        -4.53884
            1892     1.32060E+03     1.32060E+03        -14.8889        -14.8889        -8.52476        -8.52476
            1893     1.32223E+03     1.32223E+03        -13.1210        -13.1210        -12.6615        -12.6615
            1894     1.28680E+03     1.28680E+03     519.484E-03     519.484E-03     153.807E-03     153.807E-03
            1895     1.28682E+03     1.28682E+03     530.102E-03     530.102E-03     308.354E-03     308.354E-03
            1896     1.28686E+03     1.28686E+03     547.782E-03     547.782E-03     467.485E-03     467.485E-03
            1897     1.28692E+03     1.28692E+03     572.511E-03     572.511E-03     632.562E-03     632.562E-03
            1898     1.28699E+03     1.28699E+03     604.257E-03     604.257E-03     805.550E-03     805.550E-03
            1899     1.28708E+03     1.28708E+03     642.968E-03     642.968E-03     988.403E-03     988.403E-03
            1900     1.28719E+03     1.28719E+03     688.552E-03     688.552E-03         1.18305         1.18305
            1901     1.28732E+03     1.28732E+03     740.864E-03     740.864E-03         1.39138         1.39138
            1902     1.28747E+03     1.28747E+03     799.684E-03     799.684E-03         1.61523         1.61523
            1903     1.28765E+03     1.28765E+03     864.688E-03     864.688E-03         1.85636         1.85636
            1904     1.28784E+03     1.28784E+03     935.415E-03     935.415E-03         2.11643         2.11643
            1905     1.28806E+03     1.28806E+03         1.01123         1.01123         2.39695         2.39695
            1906     1.28830E+03     1.28830E+03         1.09126         1.09126         2.69922         2.69922
            1907     1.28858E+03     1.28858E+03         1.17435         1.17435         3.02432         3.02432
            1908     1.28888E+03     1.28888E+03         1.25899         1.25899         3.37298         3.37298
            1909     1.28921E+03     1.28921E+03         1.34319         1.34319         3.74551         3.74551
            1910     1.28957E+03     1.28957E+03         1.42443         1.42443         4.14171         4.14171
            1911     1.28997E+03     1.28997E+03         1.49948         1.49948         4.56068         4.56068
            1912     1.29041E+03     1.29041E+03         1.56433         1.56433         5.00073         5.00073
            1913     1.29088E+03     1.29088E+03         1.61393         1.61393         5.45912         5.45912
            1914     1.29140E+03     1.29140E+03         1.64212         1.64212         5.93190         5.93190
            1915     1.29197E+03     1.29197E+03         1.64138         1.64138         6.41359         6.41359
            1916     1.29259E+03     1.29259E+03         1.60266         1.60266         6.89692         6.89692
            1917     1.29326E+03     1.29326E+03         1.51525         1.51525         7.37243         7.37243
            1918     1.29400E+03     1.29400E+03         1.36665         1.36665         7.82816         7.82816
            1919     1.29480E+03     1.29480E+03         1.14258         1.14258         8.24912         8.24912
            1920     1.29569E+03     1.29569E+03     827.133E-03     827.133E-03         8.61690         8.61690
            1921     1.29666E+03     1.29666E+03     403.190E-03     403.190E-03         8.90912         8.90912
            1922     1.29774E+03     1.29774E+03    -146.769E-03    -146.769E-03         9.09898         9.09898
            1923     1.29892E+03     1.29892E+03    -839.375E-03    -839.375E-03         9.15488         9.15488
            1924     1.30024E+03     1.30024E+03        -1.68832        -1.68832         9.04004         9.04004
            1925     1.30169E+03     1.30169E+03        -2.70140        -2.70140         8.71268         8.71268
            1926     1.30329E+03     1.30329E+03        -3.87659        -3.87659         8.12644         8.12644
            1927     1.30504E+03     1.30504E+03        -5.19663        -5.19663         7.23198         7.23198
            1928     1.30693E+03     1.30693E+03        -6.62305        -6.62305         5.97970         5.97970
            1929     1.30894E+03     1.30894E+03        -8.08870        -8.08870         4.32458         4.32458
            1930     1.31101E+03     1.31101E+03        -9.49187        -9.49187         2.23400         2.23400
            1931     1.31308E+03     1.31308E+03        -10.6905        -10.6905    -302.228E-03    -302.228E-03
            1932     1.31502E+03     1.31502E+03        -11.5026        -11.5026        -3.25588        -3.25588
            1933     1.31668E+03     1.31668E+03        -11.7137        -11.7137        -6.54423        -6.54423
            1934     1.31790E+03     1.31790E+03        -11.0965        -11.0965        -10.0089        -10.0089
            1935     1.31850E+03     1.31850E+03        -9.44962        -9.44962        -13.4013        -13.4013
            1936     1.28681E+03     1.28681E+03     375.229E-03     375.229E-03     135.892E-03     135.892E-03
            1937     1.28684E+03     1.28684E+03     383.050E-03     383.050E-03     272.353E-03     272.353E-03
            1938     1.28689E+03     1.28689E+03     396.080E-03     396.080E-03     413.052E-03     413.052E-03
            1939     1.28696E+03     1.28696E+03     414.302E-03     414.302E-03     559.194E-03     559.194E-03
            1940     1.28705E+03     1.28705E+03     437.700E-03     437.700E-03     712.576E-03     712.576E-03
            1941     1.28717E+03     1.28717E+03     466.238E-03     466.238E-03     874.989E-03     874.989E-03
            1942     1.28731E+03     1.28731E+03     499.857E-03     499.857E-03         1.04821         1.04821
            1943     1.28747E+03     1.28747E+03     538.458E-03     538.458E-03         1.23397         1.23397
            1944     1.28766E+03     1.28766E+03     581.882E-03     581.882E-03         1.43397         1.43397
            1945     1.28788E+03     1.28788E+03     629.896E-03     629.896E-03         1.64982         1.64982
            1946     1.28813E+03     1.28813E+03     682.162E-03     682.162E-03         1.88304         1.88304
            1947     1.28841E+03     1.28841E+03     738.207E-03     738.207E-03         2.13504         2.13504
            1948     1.28872E+03     1.28872E+03     797.386E-03     797.386E-03         2.40699         2.40699
            1949     1.28907E+03     1.28907E+03     858.829E-03     858.829E-03         2.69986         2.69986
            1950     1.28946E+03     1.28946E+03     921.387E-03     921.387E-03         3.01428         3.01428
            1951     1.28989E+03     1.28989E+03     983.559E-03     983.559E-03         3.35046         3.35046
            1952     1.29036E+03     1.29036E+03         1.04341         1.04341         3.70806         3.70806
            1953     1.29088E+03     1.29088E+03         1.09848         1.09848         4.08610         4.08610
            1954     1.29144E+03     1.29144E+03         1.14564         1.14564         4.48271         4.48271
            1955     1.29205E+03     1.29205E+03         1.18103         1.18103         4.89498         4.89498
            1956     1.29272E+03     1.29272E+03         1.19985         1.19985         5.31873         5.31873
            1957     1.29344E+03     1.29344E+03         1.19625         1.19625         5.74817         5.74817
            1958     1.29422E+03     1.29422E+03         1.16319         1.16319         6.17564         6.17564
            1959     1.29506E+03     1.29506E+03         1.09233         1.09233         6.59119         6.59119
            1960     1.29597E+03     1.29597E+03     973.951E-03     973.951E-03         6.98226         6.98226
            1961     1.29694E+03     1.29694E+03     796.972E-03     796.972E-03         7.33319         7.33319
            1962     1.29798E+03     1.29798E+03     549.131E-03     549.131E-03         7.62481         7.62481
            1963     1.29909E+03     1.29909E+03     217.377E-03     217.377E-03         7.83411         7.83411
            1964     1.30028E+03     1.30028E+03    -211.425E-03    -211.425E-03         7.93386         7.93386
            1965     1.30154E+03     1.30154E+03    -749.326E-03    -749.326E-03         7.89254         7.89254
            1966     1.30288E+03     1.30288E+03        -1.40555        -1.40555         7.67451         7.67451
            1967     1.30429E+03     1.30429E+03        -2.18407        -2.18407         7.24061         7.24061
            1968     1.30577E+03     1.30577E+03        -3.08026        -3.08026         6.54959         6.54959
            1969     1.30730E+03     1.30730E+03        -4.07696        -4.07696         5.56044         5.56044
            1970     1.30885E+03     1.30885E+03        -5.13955        -5.13955         4.23610         4.23610
            1971     1.31040E+03     1.31040E+03        -6.21148        -6.21148         2.54918         2.54918
            1972     1.31188E+03     1.31188E+03        -7.20965        -7.20965     489.125E-03     489.125E-03
            1973     1.31322E+03     1.31322E+03        -8.02303        -8.02303        -1.92737        -1.92737
            1974     1.31433E+03     1.31433E+03        -8.51447        -8.51447        -4.64573        -4.64573
            1975     1.31509E+03     1.31509E+03        -8.52961        -8.52961        -7.56040        -7.56040
            1976     1.31539E+03     1.31539E+03        -7.91583        -7.91583        -10.5057        -10.5057
            1977     1.31513E+03     1.31513E+03        -6.54931        -6.54931        -13.2514        -13.2514
            1978     1.28677E+03     1.28677E+03     250.442E-03     250.442E-03     114.188E-03     114.188E-03
            1979     1.28681E+03     1.28681E+03     255.764E-03     255.764E-03     228.710E-03     228.710E-03
            1980     1.28687E+03     1.28687E+03     264.634E-03     264.634E-03     347.009E-03     347.009E-03
            1981     1.28695E+03     1.28695E+03     277.038E-03     277.038E-03     470.051E-03     470.051E-03
            1982     1.28706E+03     1.28706E+03     292.959E-03     292.959E-03     599.416E-03     599.416E-03
            1983     1.28720E+03     1.28720E+03     312.385E-03     312.385E-03     736.680E-03     736.680E-03
            1984     1.28737E+03     1.28737E+03     335.284E-03     335.284E-03     883.390E-03     883.390E-03
            1985     1.28756E+03     1.28756E+03     361.590E-03     361.590E-03         1.04108         1.04108
            1986     1.28779E+03     1.28779E+03     391.202E-03     391.202E-03         1.21124         1.21124
            1987     1.28805E+03     1.28805E+03     423.965E-03     423.965E-03         1.39530         1.39530
            1988     1.28835E+03     1.28835E+03     459.652E-03     459.652E-03         1.59461         1.59461
            1989     1.28869E+03     1.28869E+03     497.944E-03     497.944E-03         1.81041         1.81041
            1990     1.28907E+03     1.28907E+03     538.401E-03     538.401E-03         2.04376         2.04376
            1991     1.28949E+03     1.28949E+03     580.425E-03     580.425E-03         2.29551         2.29551
            1992     1.28996E+03     1.28996E+03     623.221E-03     623.221E-03         2.56621         2.56621
            1993     1.29049E+03     1.29049E+03     665.747E-03     665.747E-03         2.85603         2.85603
            1994     1.29106E+03     1.29106E+03     706.651E-03     706.651E-03         3.16463         3.16463
            1995     1.29169E+03     1.29169E+03     744.201E-03     744.201E-03         3.49105         3.49105
            1996     1.29238E+03     1.29238E+03     776.205E-03     776.205E-03         3.83352         3.83352
            1997     1.29313E+03     1.29313E+03     799.914E-03     799.914E-03         4.18927         4.18927
            1998     1.29395E+03     1.29395E+03     811.929E-03     811.929E-03         4.55427         4.55427
            1999     1.29483E+03     1.29483E+03     808.087E-03     808.087E-03         4.92301         4.92301
            2000     1.29578E+03     1.29578E+03     783.369E-03     783.369E-03         5.28811         5.28811
            2001     1.29679E+03     1.29679E+03     731.811E-03     731.811E-03         5.64003         5.64003
            2002     1.29787E+03     1.29787E+03     646.469E-03     646.469E-03         5.96665         5.96665
            2003     1.29901E+03     1.29901E+03     519.438E-03     519.438E-03         6.25293         6.25293
            2004     1.30021E+03     1.30021E+03     342.003E-03     342.003E-03         6.48048         6.48048
            2005     1.30147E+03     1.30147E+03     104.942E-03     104.942E-03         6.62730         6.62730
            2006     1.30278E+03     1.30278E+03    -200.900E-03    -200.900E-03         6.66761         6.66761
            2007     1.30413E+03     1.30413E+03    -583.717E-03    -583.717E-03         6.57194         6.57194
            2008     1.30550E+03     1.30550E+03        -1.04942        -1.04942         6.30755         6.30755
            2009     1.30688E+03     1.30688E+03        -1.59977        -1.59977         5.83947         5.83947
            2010     1.30825E+03     1.30825E+03        -2.23002        -2.23002         5.13222         5.13222
            2011     1.30957E+03     1.30957E+03        -2.92589        -2.92589         4.15267         4.15267
            2012     1.31081E+03     1.31081E+03        -3.66053        -3.66053         2.87410         2.87410
            2013     1.31192E+03     1.31192E+03        -4.39108        -4.39108         1.28154         1.28154
            2014     1.31284E+03     1.31284E+03        -5.05670        -5.05670    -620.932E-03    -620.932E-03
            2015     1.31350E+03     1.31350E+03        -5.57788        -5.57788        -2.80254        -2.80254
            2016     1.31384E+03     1.31384E+03        -5.85936        -5.85936        -5.19665        -5.19665
            2017     1.31377E+03     1.31377E+03        -5.79807        -5.79807        -7.69378        -7.69378
            2018     1.31323E+03     1.31323E+03        -5.29619        -5.29619        -10.1376        -10.1376
            2019     1.31218E+03     1.31218E+03        -4.28183        -4.28183        -12.3268        -12.3268
            2020     1.28669E+03     1.28669E+03     148.637E-03     148.637E-03     89.1438E-03     89.1438E-03
            2021     1.28673E+03     1.28673E+03     151.860E-03     151.860E-03     178.353E-03     178.353E-03
            2022     1.28680E+03     1.28680E+03     157.232E-03     157.232E-03     270.705E-03     270.705E-03
            2023     1.28689E+03     1.28689E+03     164.708E-03     164.708E-03     366.920E-03     366.920E-03
            2024     1.28702E+03     1.28702E+03     174.304E-03     174.304E-03     468.295E-03     468.295E-03
            2025     1.28718E+03     1.28718E+03     186.027E-03     186.027E-03     576.096E-03     576.096E-03
            2026     1.28737E+03     1.28737E+03     199.851E-03     199.851E-03     691.593E-03     691.593E-03
            2027     1.28759E+03     1.28759E+03     215.742E-03     215.742E-03     816.046E-03     816.046E-03
            2028     1.28785E+03     1.28785E+03     233.640E-03     233.640E-03     950.684E-03     950.684E-03
            2029     1.28815E+03     1.28815E+03     253.455E-03     253.455E-03         1.09670         1.09670
            2030     1.28850E+03     1.28850E+03     275.054E-03     275.054E-03         1.25521         1.25521
            2031     1.28889E+03     1.28889E+03     298.245E-03     298.245E-03         1.42726         1.42726
            2032     1.28933E+03     1.28933E+03     322.764E-03     322.764E-03         1.61374         1.61374
            2033     1.28982E+03     1.28982E+03     348.249E-03     348.249E-03         1.81538         1.81538
            2034     1.29037E+03     1.29037E+03     374.217E-03     374.217E-03         2.03266         2.03266
            2035     1.29098E+03     1.29098E+03     400.028E-03     400.028E-03         2.26575         2.26575
            2036     1.29166E+03     1.29166E+03     424.851E-03     424.851E-03         2.51439         2.51439
            2037     1.29240E+03     1.29240E+03     447.617E-03     447.617E-03         2.77779         2.77779
            2038     1.29321E+03     1.29321E+03     466.965E-03     466.965E-03         3.05447         3.05447
            2039     1.29410E+03     1.29410E+03     481.185E-03     481.185E-03         3.34208         3.34208
            2040     1.29506E+03     1.29506E+03     488.151E-03     488.151E-03         3.63721         3.63721
            2041     1.29610E+03     1.29610E+03     485.258E-03     485.258E-03         3.93511         3.93511
            2042     1.29722E+03     1.29722E+03     469.349E-03     469.349E-03         4.22944         4.22944
            2043     1.29841E+03     1.29841E+03     436.671E-03     436.671E-03         4.51191         4.51191
            2044     1.29968E+03     1.29968E+03     382.844E-03     382.844E-03         4.77201         4.77201
            2045     1.30100E+03     1.30100E+03     302.882E-03     302.882E-03         4.99658         4.99658
            2046     1.30239E+03     1.30239E+03     191.291E-03     191.291E-03         5.16960         5.16960
            2047     1.30382E+03     1.30382E+03     42.2795E-03     42.2795E-03         5.27186         5.27186
            2048     1.30528E+03     1.30528E+03    -149.866E-03    -149.866E-03         5.28095         5.28095
            2049     1.30674E+03     1.30674E+03    -390.186E-03    -390.186E-03         5.17136         5.17136
            2050     1.30818E+03     1.30818E+03    -682.155E-03    -682.155E-03         4.91509         4.91509
            2051     1.30957E+03     1.30957E+03        -1.02651        -1.02651         4.48267         4.48267
            2052     1.31087E+03     1.31087E+03        -1.41965        -1.41965         3.84498         3.84498
            2053     1.31204E+03     1.31204E+03        -1.85184        -1.85184         2.97607         2.97607
            2054     1.31301E+03     1.31301E+03        -2.30512        -2.30512         1.85679         1.85679
            2055     1.31374E+03     1.31374E+03        -2.75160        -2.75160     479.930E-03     479.930E-03
            2056     1.31416E+03     1.31416E+03        -3.15211        -3.15211        -1.14415        -1.14415
            2057     1.31420E+03     1.31420E+03        -3.45642        -3.45642        -2.98076        -2.98076
            2058     1.31381E+03     1.31381E+03        -3.60572        -3.60572        -4.96505        -4.96505
            2059     1.31295E+03     1.31295E+03        -3.53766        -3.53766        -6.99739        -6.99739
            2060     1.31158E+03     1.31158E+03        -3.19531        -3.19531        -8.94269        -8.94269
            2061     1.30972E+03     1.30972E+03        -2.53837        -2.53837        -10.6351        -10.6351
            2062     1.28655E+03     1.28655E+03     72.8325E-03     72.8325E-03     61.3878E-03     61.3878E-03
            2063     1.28660E+03     1.28660E+03     74.4819E-03     74.4819E-03     122.415E-03     122.415E-03
            2064     1.28667E+03     1.28667E+03     77.1334E-03     77.1334E-03     185.872E-03     185.872E-03
            2065     1.28678E+03     1.28678E+03     80.8006E-03     80.8006E-03     252.141E-03     252.141E-03
            2066     1.28691E+03     1.28691E+03     85.5363E-03     85.5363E-03     322.099E-03     322.099E-03
            2067     1.28708E+03     1.28708E+03     91.3235E-03     91.3235E-03     396.665E-03     396.665E-03
            2068     1.28729E+03     1.28729E+03     98.1507E-03     98.1507E-03     476.762E-03     476.762E-03
            2069     1.28754E+03     1.28754E+03     106.002E-03     106.002E-03     563.303E-03     563.303E-03
            2070     1.28783E+03     1.28783E+03     114.846E-03     114.846E-03     657.187E-03     657.187E-03
            2071     1.28816E+03     1.28816E+03     124.642E-03     124.642E-03     759.286E-03     759.286E-03
            2072     1.28855E+03     1.28855E+03     135.322E-03     135.322E-03     870.432E-03     870.432E-03
            2073     1.28898E+03     1.28898E+03     146.793E-03     146.793E-03     991.398E-03     991.398E-03
            2074     1.28948E+03     1.28948E+03     158.923E-03     158.923E-03         1.12287         1.12287
            2075     1.29003E+03     1.29003E+03     171.533E-03     171.533E-03         1.26540         1.26540
            2076     1.29066E+03     1.29066E+03     184.380E-03     184.380E-03         1.41938         1.41938
            2077     1.29135E+03     1.29135E+03     197.145E-03     197.145E-03         1.58498         1.58498
            2078     1.29212E+03     1.29212E+03     209.410E-03     209.410E-03         1.76206         1.76206
            2079     1.29297E+03     1.29297E+03     220.633E-03     220.633E-03         1.95009         1.95009
            2080     1.29390E+03     1.29390E+03     230.128E-03     230.128E-03         2.14803         2.14803
            2081     1.29492E+03     1.29492E+03     237.025E-03     237.025E-03         2.35423         2.35423
            2082     1.29604E+03     1.29604E+03     240.243E-03     240.243E-03         2.56620         2.56620
            2083     1.29724E+03     1.29724E+03     238.449E-03     238.449E-03         2.78047         2.78047
            2084     1.29853E+03     1.29853E+03     230.031E-03     230.031E-03         2.99236         2.99236
            2085     1.29992E+03     1.29992E+03     213.060E-03     213.060E-03         3.19572         3.19572
            2086     1.30138E+03     1.30138E+03     185.288E-03     185.288E-03         3.38265         3.38265
            2087     1.30292E+03     1.30292E+03     144.145E-03     144.145E-03         3.54330         3.54330
            2088     1.30451E+03     1.30451E+03     86.8029E-03     86.8029E-03         3.66553         3.66553
            2089     1.30615E+03     1.30615E+03     10.2782E-03     10.2782E-03         3.73481         3.73481
            2090     1.30780E+03     1.30780E+03    -88.3632E-03    -88.3632E-03         3.73411         3.73411
            2091     1.30944E+03     1.30944E+03    -211.690E-03    -211.690E-03         3.64407         3.64407
            2092     1.31102E+03     1.31102E+03    -361.447E-03    -361.447E-03         3.44346         3.44346
            2093     1.31249E+03     1.31249E+03    -537.896E-03    -537.896E-03         3.11005         3.11005
            2094     1.31381E+03     1.31381E+03    -739.047E-03    -739.047E-03         2.62217         2.62217
            2095     1.31490E+03     1.31490E+03    -959.620E-03    -959.620E-03         1.96080         1.96080
            2096     1.31570E+03     1.31570E+03        -1.19011        -1.19011         1.11273         1.11273
            2097     1.31613E+03     1.31613E+03        -1.41579        -1.41579     74.2292E-03     74.2292E-03
            2098     1.31613E+03     1.31613E+03        -1.61622        -1.61622        -1.14429        -1.14429
            2099     1.31561E+03     1.31561E+03        -1.76544        -1.76544        -2.51376        -2.51376
            2100     1.31454E+03     1.31454E+03        -1.83333        -1.83333        -3.98222        -3.98222
            2101     1.31287E+03     1.31287E+03        -1.78875        -1.78875        -5.47233        -5.47233
            2102     1.31063E+03     1.31063E+03        -1.60360        -1.60360        -6.88171        -6.88171
            2103     1.30784E+03     1.30784E+03        -1.25800        -1.25800        -8.08617        -8.08617
            2104     1.28636E+03     1.28636E+03     25.3608E-03     25.3608E-03     31.6215E-03     31.6215E-03
            2105     1.28640E+03     1.28640E+03     25.9933E-03     25.9933E-03     62.5810E-03     62.5810E-03
            2106     1.28648E+03     1.28648E+03     26.8666E-03     26.8666E-03     95.1255E-03     95.1255E-03
            2107     1.28659E+03     1.28659E+03     28.1234E-03     28.1234E-03     129.146E-03     129.146E-03
            2108     1.28674E+03     1.28674E+03     29.7594E-03     29.7594E-03     165.112E-03     165.112E-03
            2109     1.28692E+03     1.28692E+03     31.7537E-03     31.7537E-03     203.530E-03     203.530E-03
            2110     1.28714E+03     1.28714E+03     34.1097E-03     34.1097E-03     244.891E-03     244.891E-03
            2111     1.28741E+03     1.28741E+03     36.8161E-03     36.8161E-03     289.688E-03     289.688E-03
            2112     1.28772E+03     1.28772E+03     39.8652E-03     39.8652E-03     338.405E-03     338.405E-03
            2113     1.28808E+03     1.28808E+03     43.2397E-03     43.2397E-03     391.518E-03     391.518E-03
            2114     1.28849E+03     1.28849E+03     46.9171E-03     46.9171E-03     449.480E-03     449.480E-03
            2115     1.28897E+03     1.28897E+03     50.8634E-03     50.8634E-03     512.719E-03     512.719E-03
            2116     1.28951E+03     1.28951E+03     55.0323E-03     55.0323E-03     581.616E-03     581.616E-03
            2117     1.29012E+03     1.29012E+03     59.3599E-03     59.3599E-03     656.492E-03     656.492E-03
            2118     1.29080E+03     1.29080E+03     63.7606E-03     63.7606E-03     737.580E-03     737.580E-03
            2119     1.29157E+03     1.29157E+03     68.1208E-03     68.1208E-03     824.997E-03     824.997E-03
            2120     1.29243E+03     1.29243E+03     72.2923E-03     72.2923E-03     918.701E-03     918.701E-03
            2121     1.29337E+03     1.29337E+03     76.0834E-03     76.0834E-03         1.01844         1.01844
            2122     1.29442E+03     1.29442E+03     79.2497E-03     79.2497E-03         1.12371         1.12371
            2123     1.29557E+03     1.29557E+03     81.4824E-03     81.4824E-03         1.23363         1.23363
            2124     1.29683E+03     1.29683E+03     82.3961E-03     82.3961E-03         1.34692         1.34692
            2125     1.29820E+03     1.29820E+03     81.5165E-03     81.5165E-03         1.46172         1.46172
            2126     1.29968E+03     1.29968E+03     78.2663E-03     78.2663E-03         1.57555         1.57555
            2127     1.30126E+03     1.30126E+03     71.9583E-03     71.9583E-03         1.68507         1.68507
            2128     1.30295E+03     1.30295E+03     61.7846E-03     61.7846E-03         1.78600         1.78600
            2129     1.30472E+03     1.30472E+03     46.8280E-03     46.8280E-03         1.87295         1.87295
            2130     1.30657E+03     1.30657E+03     26.0704E-03     26.0704E-03         1.93927         1.93927
            2131     1.30846E+03     1.30846E+03    -1.55420E-03    -1.55420E-03         1.97691         1.97691
            2132     1.31037E+03     1.31037E+03    -37.1010E-03    -37.1010E-03         1.97644         1.97644
            2133     1.31226E+03     1.31226E+03    -81.4839E-03    -81.4839E-03         1.92708         1.92708
            2134     1.31407E+03     1.31407E+03    -135.318E-03    -135.318E-03         1.81698         1.81698
            2135     1.31574E+03     1.31574E+03    -198.680E-03    -198.680E-03         1.63372         1.63372
            2136     1.31719E+03     1.31719E+03    -270.807E-03    -270.807E-03         1.36514         1.36514
            2137     1.31835E+03     1.31835E+03    -349.767E-03    -349.767E-03         1.00064         1.00064
            2138     1.31911E+03     1.31911E+03    -432.046E-03    -432.046E-03     532.852E-03     532.852E-03
            2139     1.31937E+03     1.31937E+03    -512.290E-03    -512.290E-03    -40.1155E-03    -40.1155E-03
            2140     1.31906E+03     1.31906E+03    -583.039E-03    -583.039E-03    -712.237E-03    -712.237E-03
            2141     1.31807E+03     1.31807E+03    -634.910E-03    -634.910E-03        -1.46691        -1.46691
            2142     1.31634E+03     1.31634E+03    -657.104E-03    -657.104E-03        -2.27471        -2.27471
            2143     1.31386E+03     1.31386E+03    -638.434E-03    -638.434E-03        -3.09233        -3.09233
            2144     1.31062E+03     1.31062E+03    -569.416E-03    -569.416E-03        -3.86276        -3.86276
            2145     1.30672E+03     1.30672E+03    -442.568E-03    -442.568E-03        -4.51670        -4.51670
            2146     1.21849E+03     1.21849E+03         351.891         351.891        -94.3496        -94.3496
            2147     1.23168E+03     1.23168E+03         320.077         320.077        -93.7055        -93.7055
            2148     1.24448E+03     1.24448E+03         288.179         288.179        -90.5066        -90.5066
            2149     1.25645E+03     1.25645E+03         256.989         256.989        -85.6950        -85.6950
            2150     1.26729E+03     1.26729E+03         227.098         227.098        -79.5085        -79.5085
            2151     1.27680E+03     1.27680E+03         198.984         198.984        -72.2025        -72.2025
            2152     1.28483E+03     1.28483E+03         173.019         173.019        -64.1528        -64.1528
            2153     1.29141E+03     1.29141E+03         149.393         149.393        -55.7075        -55.7075
            2154     1.29656E+03     1.29656E+03         128.192         128.192        -47.1997        -47.1997
            2155     1.30045E+03     1.30045E+03         109.370         109.370        -38.9137        -38.9137
            2156     1.30319E+03     1.30319E+03         92.8142         92.8142        -31.0473        -31.0473
            2157     1.30500E+03     1.30500E+03         78.3621         78.3621        -23.7578        -23.7578
            2158     1.30601E+03     1.30601E+03         65.8200         65.8200        -17.1159        -17.1159
            2159     1.30638E+03     1.30638E+03         55.0002         55.0002        -11.1693        -11.1693
            2160     1.30625E+03     1.30625E+03         45.7044         45.7044        -5.90832        -5.90832
            2161     1.30572E+03     1.30572E+03         37.7605         37.7605        -1.31364        -1.31364
            2162     1.30489E+03     1.30489E+03         30.9962         30.9962         2.66310         2.66310
            2163     1.30383E+03     1.30383E+03         25.2661         25.2661         6.07228         6.07228
            2164     1.30260E+03     1.30260E+03         20.4290         20.4290         8.97540         8.97540
            2165     1.30126E+03     1.30126E+03         16.3651         16.3651         11.4319         11.4319
            2166     1.29983E+03     1.29983E+03         12.9596         12.9596         13.5031         13.5031
            2167     1.29837E+03     1.29837E+03         10.1129         10.1129         15.2466         15.2466
            2168     1.29689E+03     1.29689E+03         7.73009         7.73009         16.7181         16.7181
            2169     1.29541E+03     1.29541E+03         5.72586         5.72586         17.9689         17.9689
            2170     1.29397E+03     1.29397E+03         4.01826         4.01826         19.0476         19.0476
            2171     1.29258E+03     1.29258E+03         2.53098         2.53098         19.9992         19.9992
            2172     1.29127E+03     1.29127E+03         1.18907         1.18907         20.8658         20.8658
            2173     1.29006E+03     1.29006E+03    -80.1727E-03    -80.1727E-03         21.6867         21.6867
            2174     1.28900E+03     1.28900E+03        -1.35017        -1.35017         22.4984         22.4984
            2175     1.28813E+03     1.28813E+03        -2.69526        -2.69526         23.3348         23.3348
            2176     1.28750E+03     1.28750E+03        -4.19271        -4.19271         24.2257         24.2257
            2177     1.28718E+03     1.28718E+03        -5.92363        -5.92363         25.1952         25.1952
            2178     1.28728E+03     1.28728E+03        -7.97363        -7.97363         26.2580         26.2580
            2179     1.28790E+03     1.28790E+03        -10.4335        -10.4335         27.4130         27.4130
            2180     1.28921E+03     1.28921E+03        -13.3957        -13.3957         28.6331         28.6331
            2181     1.29140E+03     1.29140E+03        -16.9505        -16.9505         29.8501         29.8501
            2182     1.29470E+03     1.29470E+03        -21.1677        -21.1677         30.9292         30.9292
            2183     1.29939E+03     1.29939E+03        -26.0719        -26.0719         31.6409         31.6409
            2184     1.30573E+03     1.30573E+03        -31.5763        -31.5763         31.6173         31.6173
            2185     1.31394E+03     1.31394E+03        -37.3976        -37.3976         30.3406         30.3406
            2186     1.32402E+03     1.32402E+03        -42.9094        -42.9094         27.1458         27.1458
            2187     1.33561E+03     1.33561E+03        -47.0892        -47.0892         21.4181         21.4181
            2188     1.22207E+03     1.22207E+03         351.111         351.111        -107.859        -107.859
            2189     1.23593E+03     1.23593E+03         317.457         317.457        -107.029        -107.029
            2190     1.24921E+03     1.24921E+03         283.723         283.723        -103.063        -103.063
            2191     1.26149E+03     1.26149E+03         250.848         250.848        -97.1662        -97.1662
            2192     1.27237E+03     1.27237E+03         219.563         219.563        -89.5614        -89.5614
            2193     1.28162E+03     1.28162E+03         190.473         190.473        -80.7127        -80.7127
            2194     1.28918E+03     1.28918E+03         163.933         163.933        -71.0595        -71.0595
            2195     1.29504E+03     1.29504E+03         140.152         140.152        -61.0816        -61.0816
            2196     1.29939E+03     1.29939E+03         119.119         119.119        -51.1916        -51.1916
            2197     1.30239E+03     1.30239E+03         100.727         100.727        -41.6906        -41.6906
            2198     1.30429E+03     1.30429E+03         84.7792         84.7792        -32.8247        -32.8247
            2199     1.30530E+03     1.30530E+03         71.0318         71.0318        -24.7070        -24.7070
            2200     1.30561E+03     1.30561E+03         59.2505         59.2505        -17.4226        -17.4226
            2201     1.30539E+03     1.30539E+03         49.1843         49.1843        -10.9679        -10.9679
            2202     1.30479E+03     1.30479E+03         40.6248         40.6248        -5.32925        -5.32925
            2203     1.30390E+03     1.30390E+03         33.3620         33.3620    -449.431E-03    -449.431E-03
            2204     1.30283E+03     1.30283E+03         27.2276         27.2276         3.72935         3.72935
            2205     1.30162E+03     1.30162E+03         22.0576         22.0576         7.28116         7.28116
            2206     1.30035E+03     1.30035E+03         17.7192         17.7192         10.2761         10.2761
            2207     1.29904E+03     1.29904E+03         14.0856         14.0856         12.7871         12.7871
            2208     1.29773E+03     1.29773E+03         11.0509         11.0509         14.8813         14.8813
            2209     1.29644E+03     1.29644E+03         8.51461         8.51461         16.6229         16.6229
            2210     1.29519E+03     1.29519E+03         6.38937         6.38937         18.0705         18.0705
            2211     1.29399E+03     1.29399E+03         4.59167         4.59167         19.2775         19.2775
            2212     1.29288E+03     1.29288E+03         3.04568         3.04568         20.2922         20.2922
            2213     1.29186E+03     1.29186E+03         1.67758         1.67758         21.1582         21.1582
            2214     1.29096E+03     1.29096E+03     417.292E-03     417.292E-03         21.9137         21.9137
            2215     1.29020E+03     1.29020E+03    -805.027E-03    -805.027E-03         22.5928         22.5928
            2216     1.28963E+03     1.28963E+03        -2.05839        -2.05839         23.2244         23.2244
            2217     1.28928E+03     1.28928E+03        -3.41287        -3.41287         23.8319         23.8319
            2218     1.28921E+03     1.28921E+03        -4.93944        -4.93944         24.4316         24.4316
            2219     1.28950E+03     1.28950E+03        -6.71009        -6.71009         25.0305         25.0305
            2220     1.29023E+03     1.29023E+03        -8.79686        -8.79686         25.6219         25.6219
            2221     1.29151E+03     1.29151E+03        -11.2683        -11.2683         26.1788         26.1788
            2222     1.29347E+03     1.29347E+03        -14.1846        -14.1846         26.6455         26.6455
            2223     1.29626E+03     1.29626E+03        -17.5845        -17.5845         26.9227         26.9227
            2224     1.30005E+03     1.30005E+03        -21.4673        -21.4673         26.8542         26.8542
            2225     1.30498E+03     1.30498E+03        -25.7562        -25.7562         26.2050         26.2050
            2226     1.31116E+03     1.31116E+03        -30.2494        -30.2494         24.6596         24.6596
            2227     1.31858E+03     1.31858E+03        -34.5513        -34.5513         21.8225         21.8225
            2228     1.32704E+03     1.32704E+03        -38.0091        -38.0091         17.3024         17.3024
            2229     1.33613E+03     1.33613E+03        -39.7517        -39.7517         10.7468         10.7468
            2230     1.22676E+03     1.22676E+03         350.160         350.160        -122.112        -122.112
            2231     1.24130E+03     1.24130E+03         314.250         314.250        -120.960        -120.960
            2232     1.25520E+03     1.25520E+03         278.203         278.203        -116.091        -116.091
            2233     1.26774E+03     1.26774E+03         243.263         243.263        -108.744        -108.744
            2234     1.27852E+03     1.27852E+03         210.379         210.379        -99.4453        -99.4453
            2235     1.28733E+03     1.28733E+03         180.201         180.201        -88.7049        -88.7049
            2236     1.29407E+03     1.29407E+03         153.175         153.175        -77.2082        -77.2082
            2237     1.29897E+03     1.29897E+03         129.376         129.376        -65.5469        -65.5469
            2238     1.30218E+03     1.30218E+03         108.733         108.733        -54.1847        -54.1847
            2239     1.30409E+03     1.30409E+03         91.0027         91.0027        -43.5051        -43.5051
            2240     1.30493E+03     1.30493E+03         75.8724         75.8724        -33.6849        -33.6849
            2241     1.30500E+03     1.30500E+03         63.0374         63.0374        -24.8667        -24.8667
            2242     1.30452E+03     1.30452E+03         52.1672         52.1672        -17.0518        -17.0518
            2243     1.30367E+03     1.30367E+03         43.0010         43.0010        -10.2345        -10.2345
            2244     1.30257E+03     1.30257E+03         35.2731         35.2731        -4.34255        -4.34255
            2245     1.30134E+03     1.30134E+03         28.7835         28.7835     692.761E-03     692.761E-03
            2246     1.30005E+03     1.30005E+03         23.3357         23.3357         4.96326         4.96326
            2247     1.29875E+03     1.29875E+03         18.7802         18.7802         8.55368         8.55368
            2248     1.29747E+03     1.29747E+03         14.9736         14.9736         11.5521         11.5521
            2249     1.29625E+03     1.29625E+03         11.8024         11.8024         14.0384         14.0384
            2250     1.29510E+03     1.29510E+03         9.15904         9.15904         16.0881         16.0881
            2251     1.29403E+03     1.29403E+03         6.95399         6.95399         17.7689         17.7689
            2252     1.29305E+03     1.29305E+03         5.10223         5.10223         19.1418         19.1418
            2253     1.29218E+03     1.29218E+03         3.52904         3.52904         20.2605         20.2605
            2254     1.29143E+03     1.29143E+03         2.16237         2.16237         21.1721         21.1721
            2255     1.29081E+03     1.29081E+03     935.521E-03     935.521E-03         21.9169         21.9169
            2256     1.29033E+03     1.29033E+03    -217.220E-03    -217.220E-03         22.5290         22.5290
            2257     1.29002E+03     1.29002E+03        -1.35936        -1.35936         23.0360         23.0360
            2258     1.28992E+03     1.28992E+03        -2.55442        -2.55442         23.4587         23.4587
            2259     1.29006E+03     1.29006E+03        -3.86515        -3.86515         23.8105         23.8105
            2260     1.29050E+03     1.29050E+03        -5.35376        -5.35376         24.0955         24.0955
            2261     1.29129E+03     1.29129E+03        -7.08031        -7.08031         24.3065         24.3065
            2262     1.29251E+03     1.29251E+03        -9.09992        -9.09992         24.4208         24.4208
            2263     1.29425E+03     1.29425E+03        -11.4580        -11.4580         24.3952         24.3952
            2264     1.29662E+03     1.29662E+03        -14.1812        -14.1812         24.1588         24.1588
            2265     1.29970E+03     1.29970E+03        -17.2646        -17.2646         23.6054         23.6054
            2266     1.30358E+03     1.30358E+03        -20.6500        -20.6500         22.5841         22.5841
            2267     1.30833E+03     1.30833E+03        -24.1963        -24.1963         20.8986         20.8986
            2268     1.31392E+03     1.31392E+03        -27.6439        -27.6439         18.3102         18.3102
            2269     1.32023E+03     1.32023E+03        -30.5706        -30.5706         14.5739         14.5739
            2270     1.32699E+03     1.32699E+03        -32.3934        -32.3934         9.48046         9.48046
            2271     1.33371E+03     1.33371E+03        -32.2933        -32.2933         2.88698         2.88698
            2272     1.23274E+03     1.23274E+03         349.075         349.075        -137.213        -137.213
            2273     1.24830E+03     1.24830E+03         310.230         310.230        -135.701        -135.701
            2274     1.26277E+03     1.26277E+03         271.300         271.300        -129.501        -129.501
            2275     1.27551E+03     1.27551E+03         233.871         233.871        -120.390        -120.390
            2276     1.28599E+03     1.28599E+03         199.106         199.106        -108.856        -108.856
            2277     1.29391E+03     1.29391E+03         167.892         167.892        -95.8628        -95.8628
            2278     1.29952E+03     1.29952E+03         140.502         140.502        -82.2408        -82.2408
            2279     1.30294E+03     1.30294E+03         116.986         116.986        -68.7222        -68.7222
            2280     1.30473E+03     1.30473E+03         97.0420         97.0420        -55.9127        -55.9127
            2281     1.30520E+03     1.30520E+03         80.2627         80.2627        -44.0899        -44.0899
            2282     1.30480E+03     1.30480E+03         66.2357         66.2357        -33.4891        -33.4891
            2283     1.30381E+03     1.30381E+03         54.5069         54.5069        -24.1121        -24.1121
            2284     1.30248E+03     1.30248E+03         44.7399         44.7399        -15.9626        -15.9626
            2285     1.30097E+03     1.30097E+03         36.5854         36.5854        -8.94258        -8.94258
            2286     1.29940E+03     1.29940E+03         29.8001         29.8001        -2.96569        -2.96569
            2287     1.29787E+03     1.29787E+03         24.1419         24.1419         2.08620         2.08620
            2288     1.29641E+03     1.29641E+03         19.4391         19.4391         6.31859         6.31859
            2289     1.29507E+03     1.29507E+03         15.5262         15.5262         9.84000         9.84000
            2290     1.29386E+03     1.29386E+03         12.2802         12.2802         12.7472         12.7472
            2291     1.29279E+03     1.29279E+03         9.58448         9.58448         15.1304         15.1304
            2292     1.29187E+03     1.29187E+03         7.34714         7.34714         17.0690         17.0690
            2293     1.29109E+03     1.29109E+03         5.48128         5.48128         18.6339         18.6339
            2294     1.29045E+03     1.29045E+03         3.91373         3.91373         19.8863         19.8863
            2295     1.28995E+03     1.28995E+03         2.57455         2.57455         20.8790         20.8790
            2296     1.28960E+03     1.28960E+03         1.40106         1.40106         21.6565         21.6565
            2297     1.28940E+03     1.28940E+03     332.110E-03     332.110E-03         22.2551         22.2551
            2298     1.28936E+03     1.28936E+03    -690.019E-03    -690.019E-03         22.7038         22.7038
            2299     1.28951E+03     1.28951E+03        -1.72252        -1.72252         23.0236         23.0236
            2300     1.28986E+03     1.28986E+03        -2.82083        -2.82083         23.2276         23.2276
            2301     1.29046E+03     1.29046E+03        -4.03942        -4.03942         23.3201         23.3201
            2302     1.29133E+03     1.29133E+03        -5.43000        -5.43000         23.2953         23.2953
            2303     1.29254E+03     1.29254E+03        -7.03966        -7.03966         23.1353         23.1353
            2304     1.29413E+03     1.29413E+03        -8.90685        -8.90685         22.8078         22.8078
            2305     1.29618E+03     1.29618E+03        -11.0552        -11.0552         22.2618         22.2618
            2306     1.29874E+03     1.29874E+03        -13.4840        -13.4840         21.4245         21.4245
            2307     1.30187E+03     1.30187E+03        -16.1554        -16.1554         20.1975         20.1975
            2308     1.30559E+03     1.30559E+03        -18.9750        -18.9750         18.4569         18.4569
            2309     1.30991E+03     1.30991E+03        -21.7717        -21.7717         16.0568         16.0568
            2310     1.31472E+03     1.31472E+03        -24.2703        -24.2703         12.8475         12.8475
            2311     1.31984E+03     1.31984E+03        -26.0837        -26.0837         8.70360         8.70360
            2312     1.32499E+03     1.32499E+03        -26.6865        -26.6865         3.55771         3.55771
            2313     1.32967E+03     1.32967E+03        -25.4269        -25.4269        -2.51247        -2.51247
            2314     1.24085E+03     1.24085E+03         347.682         347.682        -153.468        -153.468
            2315     1.25731E+03     1.25731E+03         305.156         305.156        -151.216        -151.216
            2316     1.27251E+03     1.27251E+03         262.544         262.544        -143.412        -143.412
            2317     1.28524E+03     1.28524E+03         222.039         222.039        -131.722        -131.722
            2318     1.29486E+03     1.29486E+03         185.312         185.312        -117.438        -117.438
            2319     1.30149E+03     1.30149E+03         153.097         153.097        -101.665        -101.665
            2320     1.30516E+03     1.30516E+03         125.760         125.760        -85.5997        -85.5997
            2321     1.30670E+03     1.30670E+03         102.945         102.945        -70.2183        -70.2183
            2322     1.30652E+03     1.30652E+03         84.1204         84.1204        -55.9724        -55.9724
            2323     1.30532E+03     1.30532E+03         68.7020         68.7020        -43.2575        -43.2575
            2324     1.30348E+03     1.30348E+03         56.0361         56.0361        -32.0624        -32.0624
            2325     1.30135E+03     1.30135E+03         45.6749         45.6749        -22.4013        -22.4013
            2326     1.29915E+03     1.29915E+03         37.1426         37.1426        -14.1296        -14.1296
            2327     1.29701E+03     1.29701E+03         30.1372         30.1372        -7.13081        -7.13081
            2328     1.29505E+03     1.29505E+03         24.3519         24.3519        -1.24719        -1.24719
            2329     1.29329E+03     1.29329E+03         19.5874         19.5874         3.65738         3.65738
            2330     1.29177E+03     1.29177E+03         15.6488         15.6488         7.71924         7.71924
            2331     1.29048E+03     1.29048E+03         12.4018         12.4018         11.0579         11.0579
            2332     1.28944E+03     1.28944E+03         9.71846         9.71846         13.7818         13.7818
            2333     1.28861E+03     1.28861E+03         7.50419         7.50419         15.9858         15.9858
            2334     1.28800E+03     1.28800E+03         5.66985         5.66985         17.7524         17.7524
            2335     1.28758E+03     1.28758E+03         4.14418         4.14418         19.1527         19.1527
            2336     1.28734E+03     1.28734E+03         2.85965         2.85965         20.2466         20.2466
            2337     1.28727E+03     1.28727E+03         1.75811         1.75811         21.0846         21.0846
            2338     1.28737E+03     1.28737E+03     783.361E-03     783.361E-03         21.7071         21.7071
            2339     1.28763E+03     1.28763E+03    -116.160E-03    -116.160E-03         22.1462         22.1462
            2340     1.28806E+03     1.28806E+03    -991.192E-03    -991.192E-03         22.4250         22.4250
            2341     1.28867E+03     1.28867E+03        -1.89013        -1.89013         22.5583         22.5583
            2342     1.28947E+03     1.28947E+03        -2.86041        -2.86041         22.5521         22.5521
            2343     1.29048E+03     1.29048E+03        -3.94689        -3.94689         22.4031         22.4031
            2344     1.29175E+03     1.29175E+03        -5.19087        -5.19087         22.0981         22.0981
            2345     1.29329E+03     1.29329E+03        -6.62695        -6.62695         21.6126         21.6126
            2346     1.29516E+03     1.29516E+03        -8.27891        -8.27891         20.9094         20.9094
            2347     1.29738E+03     1.29738E+03        -10.1531        -10.1531         19.9373         19.9373
            2348     1.29999E+03     1.29999E+03        -12.2297        -12.2297         18.6298         18.6298
            2349     1.30301E+03     1.30301E+03        -14.4506        -14.4506         16.9066         16.9066
            2350     1.30642E+03     1.30642E+03        -16.7064        -16.7064         14.6768         14.6768
            2351     1.31018E+03     1.31018E+03        -18.8196        -18.8196         11.8495         11.8495
            2352     1.31415E+03     1.31415E+03        -20.5358        -20.5358         8.35110         8.35110
            2353     1.31816E+03     1.31816E+03        -21.5117        -21.5117         4.14934         4.14934
            2354     1.32190E+03     1.32190E+03        -21.3254        -21.3254    -699.452E-03    -699.452E-03
            2355     1.32501E+03     1.32501E+03        -19.5067        -19.5067        -6.00332        -6.00332
            2356     1.25144E+03     1.25144E+03         346.049         346.049        -170.964        -170.964
            2357     1.26948E+03     1.26948E+03         298.482         298.482        -167.900        -167.900
            2358     1.28515E+03     1.28515E+03         251.118         251.118        -157.359        -157.359
            2359     1.29730E+03     1.29730E+03         207.094         207.094        -142.433        -142.433
            2360     1.30555E+03     1.30555E+03         168.178         168.178        -124.402        -124.402
            2361     1.30962E+03     1.30962E+03         135.534         135.534        -105.281        -105.281
            2362     1.31075E+03     1.31075E+03         108.809         108.809        -86.6805        -86.6805
            2363     1.30950E+03     1.30950E+03         87.3425         87.3425        -69.3869        -69.3869
            2364     1.30700E+03     1.30700E+03         70.2546         70.2546        -54.0963        -54.0963
            2365     1.30382E+03     1.30382E+03         56.5492         56.5492        -40.7478        -40.7478
            2366     1.30045E+03     1.30045E+03         45.6129         45.6129        -29.3624        -29.3624
            2367     1.29717E+03     1.29717E+03         36.7721         36.7721        -19.7101        -19.7101
            2368     1.29417E+03     1.29417E+03         29.6476         29.6476        -11.6216        -11.6216
            2369     1.29152E+03     1.29152E+03         23.8417         23.8417        -4.87794        -4.87794
            2370     1.28928E+03     1.28928E+03         19.1216         19.1216     703.132E-03     703.132E-03
            2371     1.28743E+03     1.28743E+03         15.2548         15.2548         5.29572         5.29572
            2372     1.28598E+03     1.28598E+03         12.0943         12.0943         9.05012         9.05012
            2373     1.28489E+03     1.28489E+03         9.49911         9.49911         12.0974         12.0974
            2374     1.28412E+03     1.28412E+03         7.37197         7.37197         14.5515         14.5515
            2375     1.28365E+03     1.28365E+03         5.62140         5.62140         16.5086         16.5086
            2376     1.28345E+03     1.28345E+03         4.17858         4.17858         18.0512         18.0512
            2377     1.28348E+03     1.28348E+03         2.97875         2.97875         19.2478         19.2478
            2378     1.28372E+03     1.28372E+03         1.96878         1.96878         20.1557         20.1557
            2379     1.28415E+03     1.28415E+03         1.09784         1.09784         20.8208         20.8208
            2380     1.28475E+03     1.28475E+03     320.892E-03     320.892E-03         21.2792         21.2792
            2381     1.28551E+03     1.28551E+03    -406.104E-03    -406.104E-03         21.5576         21.5576
            2382     1.28644E+03     1.28644E+03        -1.12435        -1.12435         21.6737         21.6737
            2383     1.28752E+03     1.28752E+03        -1.87430        -1.87430         21.6360         21.6360
            2384     1.28877E+03     1.28877E+03        -2.69417        -2.69417         21.4448         21.4448
            2385     1.29020E+03     1.29020E+03        -3.61987        -3.61987         21.0908         21.0908
            2386     1.29182E+03     1.29182E+03        -4.68261        -4.68261         20.5558         20.5558
            2387     1.29365E+03     1.29365E+03        -5.90645        -5.90645         19.8115         19.8115
            2388     1.29571E+03     1.29571E+03        -7.30359        -7.30359         18.8205         18.8205
            2389     1.29803E+03     1.29803E+03        -8.86882        -8.86882         17.5352         17.5352
            2390     1.30060E+03     1.30060E+03        -10.5713        -10.5713         15.9009         15.9009
            2391     1.30341E+03     1.30341E+03        -12.3460        -12.3460         13.8580         13.8580
            2392     1.30643E+03     1.30643E+03        -14.0826        -14.0826         11.3494         11.3494
            2393     1.30959E+03     1.30959E+03        -15.6187        -15.6187         8.33183         8.33183
            2394     1.31276E+03     1.31276E+03        -16.7312        -16.7312         4.79132         4.79132
            2395     1.31575E+03     1.31575E+03        -17.1425        -17.1425     769.742E-03     769.742E-03
            2396     1.31835E+03     1.31835E+03        -16.5351        -16.5351        -3.60837        -3.60837
            2397     1.32027E+03     1.32027E+03        -14.5914        -14.5914        -8.09880        -8.09880
            2398     1.26667E+03     1.26667E+03         343.650         343.650        -190.410        -190.410
            2399     1.28573E+03     1.28573E+03         289.430         289.430        -185.271        -185.271
            2400     1.30171E+03     1.30171E+03         235.995         235.995        -171.350        -171.350
            2401     1.31264E+03     1.31264E+03         187.559         187.559        -151.290        -151.290
            2402     1.31749E+03     1.31749E+03         147.180         147.180        -128.527        -128.527
            2403     1.31810E+03     1.31810E+03         114.801         114.801        -105.711        -105.711
            2404     1.31510E+03     1.31510E+03         89.7667         89.7667        -84.3760        -84.3760
            2405     1.31050E+03     1.31050E+03         70.6368         70.6368        -65.8392        -65.8392
            2406     1.30521E+03     1.30521E+03         55.7749         55.7749        -49.8886        -49.8886
            2407     1.29994E+03     1.29994E+03         44.3205         44.3205        -36.5306        -36.5306
            2408     1.29507E+03     1.29507E+03         35.2815         35.2815        -25.3772        -25.3772
            2409     1.29078E+03     1.29078E+03         28.1807         28.1807        -16.1608        -16.1608
            2410     1.28715E+03     1.28715E+03         22.4938         22.4938        -8.56975        -8.56975
            2411     1.28419E+03     1.28419E+03         17.9507         17.9507        -2.35026        -2.35026
            2412     1.28187E+03     1.28187E+03         14.2730         14.2730         2.72189         2.72189
            2413     1.28014E+03     1.28014E+03         11.3017         11.3017         6.83878         6.83878
            2414     1.27893E+03     1.27893E+03         8.88157         8.88157         10.1584         10.1584
            2415     1.27819E+03     1.27819E+03         6.91392         6.91392         12.8177         12.8177
            2416     1.27786E+03     1.27786E+03         5.30564         5.30564         14.9276         14.9276
            2417     1.27788E+03     1.27788E+03         3.99127         3.99127         16.5838         16.5838
            2418     1.27820E+03     1.27820E+03         2.90954         2.90954         17.8630         17.8630
            2419     1.27879E+03     1.27879E+03         2.01296         2.01296         18.8302         18.8302
            2420     1.27960E+03     1.27960E+03         1.25652         1.25652         19.5365         19.5365
            2421     1.28060E+03     1.28060E+03     602.004E-03     602.004E-03         20.0231         20.0231
            2422     1.28177E+03     1.28177E+03     12.3498E-03     12.3498E-03         20.3202         20.3202
            2423     1.28309E+03     1.28309E+03    -546.261E-03    -546.261E-03         20.4493         20.4493
            2424     1.28455E+03     1.28455E+03        -1.10709        -1.10709         20.4223         20.4223
            2425     1.28613E+03     1.28613E+03        -1.70143        -1.70143         20.2431         20.2431
            2426     1.28784E+03     1.28784E+03        -2.35933        -2.35933         19.9064         19.9064
            2427     1.28967E+03     1.28967E+03        -3.10784        -3.10784         19.3991         19.3991
            2428     1.29163E+03     1.29163E+03        -3.96977        -3.96977         18.6996         18.6996
            2429     1.29373E+03     1.29373E+03        -4.96057        -4.96057         17.7790         17.7790
            2430     1.29595E+03     1.29595E+03        -6.08484        -6.08484         16.6014         16.6014
            2431     1.29831E+03     1.29831E+03        -7.33087        -7.33087         15.1259         15.1259
            2432     1.30079E+03     1.30079E+03        -8.66501        -8.66501         13.3100         13.3100
            2433     1.30336E+03     1.30336E+03        -10.0240        -10.0240         11.1143         11.1143
            2434     1.30597E+03     1.30597E+03        -11.3097        -11.3097         8.51063         8.51063
            2435     1.30854E+03     1.30854E+03        -12.3826        -12.3826         5.49230         5.49230
            2436     1.31097E+03     1.31097E+03        -13.0636        -13.0636         2.09030         2.09030
            2437     1.31309E+03     1.31309E+03        -13.1399        -13.1399        -1.61076        -1.61076
            2438     1.31475E+03     1.31475E+03        -12.3861        -12.3861        -5.45102        -5.45102
            2439     1.31577E+03     1.31577E+03        -10.6003        -10.6003        -9.18134        -9.18134
            2440     1.28736E+03     1.28736E+03         340.505         340.505        -211.559        -211.559
            2441     1.30881E+03     1.30881E+03         276.499         276.499        -204.194        -204.194
            2442     1.32411E+03     1.32411E+03         214.664         214.664        -183.414        -183.414
            2443     1.33075E+03     1.33075E+03         162.424         162.424        -156.648        -156.648
            2444     1.33089E+03     1.33089E+03         121.205         121.205        -128.009        -128.009
            2445     1.32492E+03     1.32492E+03         91.0822         91.0822        -100.910        -100.910
            2446     1.31682E+03     1.31682E+03         69.4516         69.4516        -78.1149        -78.1149
            2447     1.30820E+03     1.30820E+03         53.3356         53.3356        -58.9660        -58.9660
            2448     1.30001E+03     1.30001E+03         41.5113         41.5113        -43.3687        -43.3687
            2449     1.29280E+03     1.29280E+03         32.4614         32.4614        -30.6408        -30.6408
            2450     1.28666E+03     1.28666E+03         25.5930         25.5930        -20.3275        -20.3275
            2451     1.28167E+03     1.28167E+03         20.2121         20.2121        -11.9788        -11.9788
            2452     1.27773E+03     1.27773E+03         16.0114         16.0114        -5.23004        -5.23004
            2453     1.27476E+03     1.27476E+03         12.6626         12.6626     206.222E-03     206.222E-03
            2454     1.27264E+03     1.27264E+03         9.99705         9.99705         4.57788         4.57788
            2455     1.27127E+03     1.27127E+03         7.84803         7.84803         8.07232         8.07232
            2456     1.27054E+03     1.27054E+03         6.11780         6.11780         10.8536         10.8536
            2457     1.27036E+03     1.27036E+03         4.71414         4.71414         13.0466         13.0466
            2458     1.27063E+03     1.27063E+03         3.57635         3.57635         14.7601         14.7601
            2459     1.27129E+03     1.27129E+03         2.64817         2.64817         16.0783         16.0783
            2460     1.27228E+03     1.27228E+03         1.88841         1.88841         17.0731         17.0731
            2461     1.27353E+03     1.27353E+03         1.25857         1.25857         17.7997         17.7997
            2462     1.27501E+03     1.27501E+03     727.484E-03     727.484E-03         18.3038         18.3038
            2463     1.27666E+03     1.27666E+03     265.259E-03     265.259E-03         18.6190         18.6190
            2464     1.27847E+03     1.27847E+03    -154.509E-03    -154.509E-03         18.7702         18.7702
            2465     1.28040E+03     1.28040E+03    -557.749E-03    -557.749E-03         18.7729         18.7729
            2466     1.28244E+03     1.28244E+03    -968.619E-03    -968.619E-03         18.6345         18.6345
            2467     1.28456E+03     1.28456E+03        -1.41074        -1.41074         18.3541         18.3541
            2468     1.28676E+03     1.28676E+03        -1.90588        -1.90588         17.9231         17.9231
            2469     1.28902E+03     1.28902E+03        -2.47375        -2.47375         17.3256         17.3256
            2470     1.29133E+03     1.29133E+03        -3.12989        -3.12989         16.5388         16.5388
            2471     1.29368E+03     1.29368E+03        -3.88383        -3.88383         15.5341         15.5341
            2472     1.29606E+03     1.29606E+03        -4.73556        -4.73556         14.2792         14.2792
            2473     1.29845E+03     1.29845E+03        -5.67194        -5.67194         12.7400         12.7400
            2474     1.30083E+03     1.30083E+03        -6.66165        -6.66165         10.8853         10.8853
            2475     1.30315E+03     1.30315E+03        -7.65105        -7.65105         8.69216         8.69216
            2476     1.30536E+03     1.30536E+03        -8.55937        -8.55937         6.15356         6.15356
            2477     1.30739E+03     1.30739E+03        -9.27773        -9.27773         3.28895         3.28895
            2478     1.30914E+03     1.30914E+03        -9.67059        -9.67059     154.817E-03     154.817E-03
            2479     1.31051E+03     1.31051E+03        -9.58522        -9.58522        -3.14176        -3.14176
            2480     1.31138E+03     1.31138E+03        -8.86976        -8.86976        -6.43422        -6.43422
            2481     1.31166E+03     1.31166E+03        -7.40064        -7.40064        -9.49080        -9.49080
            2482     1.32046E+03     1.32046E+03         334.635         334.635        -236.648        -236.648
            2483     1.34184E+03     1.34184E+03         256.221         256.221        -221.606        -221.606
            2484     1.35281E+03     1.35281E+03         185.053         185.053        -192.017        -192.017
            2485     1.35324E+03     1.35324E+03         128.540         128.540        -154.834        -154.834
            2486     1.34181E+03     1.34181E+03         90.6106         90.6106        -118.685        -118.685
            2487     1.32750E+03     1.32750E+03         66.0507         66.0507        -90.0572        -90.0572
            2488     1.31343E+03     1.31343E+03         48.6985         48.6985        -66.9828        -66.9828
            2489     1.30074E+03     1.30074E+03         36.8471         36.8471        -48.9387        -48.9387
            2490     1.29010E+03     1.29010E+03         28.1115         28.1115        -34.7141        -34.7141
            2491     1.28139E+03     1.28139E+03         21.7811         21.7811        -23.4855        -23.4855
            2492     1.27457E+03     1.27457E+03         16.9557         16.9557        -14.6141        -14.6141
            2493     1.26936E+03     1.26936E+03         13.2978         13.2978        -7.56478        -7.56478
            2494     1.26559E+03     1.26559E+03         10.4376         10.4376        -1.97985        -1.97985
            2495     1.26302E+03     1.26302E+03         8.20245         8.20245         2.45984         2.45984
            2496     1.26147E+03     1.26147E+03         6.42367         6.42367         5.96846         5.96846
            2497     1.26077E+03     1.26077E+03         5.00778         5.00778         8.73873         8.73873
            2498     1.26078E+03     1.26078E+03         3.86907         3.86907         10.9057         10.9057
            2499     1.26138E+03     1.26138E+03         2.95343         2.95343         12.5895         12.5895
            2500     1.26245E+03     1.26245E+03         2.21230         2.21230         13.8779         13.8779
            2501     1.26392E+03     1.26392E+03         1.61155         1.61155         14.8474         14.8474
            2502     1.26571E+03     1.26571E+03         1.12018         1.12018         15.5552         15.5552
            2503     1.26775E+03     1.26775E+03     714.138E-03     714.138E-03         16.0494         16.0494
            2504     1.27000E+03     1.27000E+03     370.813E-03     370.813E-03         16.3652         16.3652
            2505     1.27240E+03     1.27240E+03     70.9656E-03     70.9656E-03         16.5303         16.5303
            2506     1.27492E+03     1.27492E+03    -204.166E-03    -204.166E-03         16.5625         16.5625
            2507     1.27753E+03     1.27753E+03    -471.739E-03    -471.739E-03         16.4727         16.4727
            2508     1.28020E+03     1.28020E+03    -748.730E-03    -748.730E-03         16.2638         16.2638
            2509     1.28291E+03     1.28291E+03        -1.05100        -1.05100         15.9318         15.9318
            2510     1.28563E+03     1.28563E+03        -1.39362        -1.39362         15.4659         15.4659
            2511     1.28835E+03     1.28835E+03        -1.78961        -1.78961         14.8489         14.8489
            2512     1.29104E+03     1.29104E+03        -2.24919        -2.24919         14.0585         14.0585
            2513     1.29367E+03     1.29367E+03        -2.77764        -2.77764         13.0681         13.0681
            2514     1.29623E+03     1.29623E+03        -3.37331        -3.37331         11.8490         11.8490
            2515     1.29868E+03     1.29868E+03        -4.02449        -4.02449         10.3736         10.3736
            2516     1.30097E+03     1.30097E+03        -4.70655        -4.70655         8.61956         8.61956
            2517     1.30307E+03     1.30307E+03        -5.37845        -5.37845         6.57534         6.57534
            2518     1.30492E+03     1.30492E+03        -5.98099        -5.98099         4.24762         4.24762
            2519     1.30645E+03     1.30645E+03        -6.43590        -6.43590         1.66907         1.66907
            2520     1.30759E+03     1.30759E+03        -6.64918        -6.64918        -1.09228        -1.09228
            2521     1.30827E+03     1.30827E+03        -6.51860        -6.51860        -3.92623        -3.92623
            2522     1.30843E+03     1.30843E+03        -5.94740        -5.94740        -6.67564        -6.67564
            2523     1.30803E+03     1.30803E+03        -4.86387        -4.86387        -9.13792        -9.13792
            2524     1.36887E+03     1.36887E+03         324.470         324.470        -261.973        -261.973
            2525     1.39076E+03     1.39076E+03         224.022         224.022        -238.793        -238.793
            2526     1.39402E+03     1.39402E+03         138.079         138.079        -188.417        -188.417
            2527     1.37121E+03     1.37121E+03         86.7921         86.7921        -136.425        -136.425
            2528     1.34480E+03     1.34480E+03         59.3776         59.3776        -99.5363        -99.5363
            2529     1.32152E+03     1.32152E+03         41.1770         41.1770        -71.9566        -71.9566
            2530     1.30180E+03     1.30180E+03         30.0027         30.0027        -51.5770        -51.5770
            2531     1.28625E+03     1.28625E+03         22.1328         22.1328        -36.3344        -36.3344
            2532     1.27408E+03     1.27408E+03         16.7628         16.7628        -24.6898        -24.6898
            2533     1.26493E+03     1.26493E+03         12.8101         12.8101        -15.7965        -15.7965
            2534     1.25822E+03     1.25822E+03         9.91610         9.91610        -8.87275        -8.87275
            2535     1.25355E+03     1.25355E+03         7.71060         7.71060        -3.50626        -3.50626
            2536     1.25053E+03     1.25053E+03         6.02162         6.02162     702.850E-03     702.850E-03
            2537     1.24887E+03     1.24887E+03         4.70093         4.70093         3.98121         3.98121
            2538     1.24831E+03     1.24831E+03         3.66186         3.66186         6.54580         6.54580
            2539     1.24863E+03     1.24863E+03         2.83557         2.83557         8.53173         8.53173
            2540     1.24968E+03     1.24968E+03         2.17582         2.17582         10.0645         10.0645
            2541     1.25130E+03     1.25130E+03         1.64602         1.64602         11.2289         11.2289
            2542     1.25339E+03     1.25339E+03         1.21946         1.21946         12.1012         12.1012
            2543     1.25584E+03     1.25584E+03     874.022E-03     874.022E-03         12.7359         12.7359
            2544     1.25857E+03     1.25857E+03     592.506E-03     592.506E-03         13.1800         13.1800
            2545     1.26152E+03     1.26152E+03     359.625E-03     359.625E-03         13.4676         13.4676
            2546     1.26464E+03     1.26464E+03     162.653E-03     162.653E-03         13.6264         13.6264
            2547     1.26788E+03     1.26788E+03    -10.5226E-03    -10.5226E-03         13.6751         13.6751
            2548     1.27119E+03     1.27119E+03    -170.723E-03    -170.723E-03         13.6266         13.6266
            2549     1.27455E+03     1.27455E+03    -328.695E-03    -328.695E-03         13.4866         13.4866
            2550     1.27792E+03     1.27792E+03    -494.459E-03    -494.459E-03         13.2554         13.2554
            2551     1.28127E+03     1.28127E+03    -677.900E-03    -677.900E-03         12.9269         12.9269
            2552     1.28458E+03     1.28458E+03    -887.998E-03    -887.998E-03         12.4898         12.4898
            2553     1.28780E+03     1.28780E+03        -1.13275        -1.13275         11.9278         11.9278
            2554     1.29092E+03     1.29092E+03        -1.41801        -1.41801         11.2204         11.2204
            2555     1.29389E+03     1.29389E+03        -1.74667        -1.74667         10.3441         10.3441
            2556     1.29668E+03     1.29668E+03        -2.11684        -2.11684         9.27474         9.27474
            2557     1.29923E+03     1.29923E+03        -2.52036        -2.52036         7.99034         7.99034
            2558     1.30150E+03     1.30150E+03        -2.94048        -2.94048         6.47477         6.47477
            2559     1.30343E+03     1.30343E+03        -3.35047        -3.35047         4.72317         4.72317
            2560     1.30496E+03     1.30496E+03        -3.71197        -3.71197         2.74761         2.74761
            2561     1.30604E+03     1.30604E+03        -3.97563        -3.97563     584.031E-03     584.031E-03
            2562     1.30661E+03     1.30661E+03        -4.08319        -4.08319        -1.70200        -1.70200
            2563     1.30663E+03     1.30663E+03        -3.97295        -3.97295        -4.01038        -4.01038
            2564     1.30608E+03     1.30608E+03        -3.58873        -3.58873        -6.20608        -6.20608
            2565     1.30498E+03     1.30498E+03        -2.89134        -2.89134        -8.12221        -8.12221
            2566     1.46597E+03     1.46597E+03         299.010         299.010        -298.771        -298.771
            2567     1.47462E+03     1.47462E+03         154.641         154.641        -230.826        -230.826
            2568     1.42340E+03     1.42340E+03         76.3937         76.3937        -149.488        -149.488
            2569     1.37126E+03     1.37126E+03         47.9186         47.9186        -101.107        -101.107
            2570     1.33203E+03     1.33203E+03         30.2484         30.2484        -69.8996        -69.8996
            2571     1.30160E+03     1.30160E+03         20.9410         20.9410        -48.3663        -48.3663
            2572     1.27932E+03     1.27932E+03         14.7920         14.7920        -33.5399        -33.5399
            2573     1.26283E+03     1.26283E+03         10.8620         10.8620        -22.6097        -22.6097
            2574     1.25104E+03     1.25104E+03         8.12860         8.12860        -14.6526        -14.6526
            2575     1.24279E+03     1.24279E+03         6.18153         6.18153        -8.58875        -8.58875
            2576     1.23735E+03     1.23735E+03         4.76237         4.76237        -4.02257        -4.02257
            2577     1.23409E+03     1.23409E+03         3.68765         3.68765    -490.394E-03    -490.394E-03
            2578     1.23254E+03     1.23254E+03         2.87320         2.87320         2.21119         2.21119
            2579     1.23236E+03     1.23236E+03         2.23509         2.23509         4.30451         4.30451
            2580     1.23324E+03     1.23324E+03         1.73758         1.73758         5.90591         5.90591
            2581     1.23496E+03     1.23496E+03         1.34082         1.34082         7.13312         7.13312
            2582     1.23735E+03     1.23735E+03         1.02586         1.02586         8.05719         8.05719
            2583     1.24025E+03     1.24025E+03     772.549E-03     772.549E-03         8.74563         8.74563
            2584     1.24355E+03     1.24355E+03     569.145E-03     569.145E-03         9.24343         9.24343
            2585     1.24714E+03     1.24714E+03     404.364E-03     404.364E-03         9.59118         9.59118
            2586     1.25097E+03     1.25097E+03     270.025E-03     270.025E-03         9.81726         9.81726
            2587     1.25495E+03     1.25495E+03     158.790E-03     158.790E-03         9.94584         9.94584
            2588     1.25904E+03     1.25904E+03     64.2630E-03     64.2630E-03         9.99346         9.99346
            2589     1.26320E+03     1.26320E+03    -19.2457E-03    -19.2457E-03         9.97261         9.97261
            2590     1.26738E+03     1.26738E+03    -97.3122E-03    -97.3122E-03         9.89018         9.89018
            2591     1.27156E+03     1.27156E+03    -175.039E-03    -175.039E-03         9.74908         9.74908
            2592     1.27569E+03     1.27569E+03    -257.622E-03    -257.622E-03         9.54747         9.54747
            2593     1.27975E+03     1.27975E+03    -349.838E-03    -349.838E-03         9.27957         9.27957
            2594     1.28370E+03     1.28370E+03    -456.331E-03    -456.331E-03         8.93540         8.93540
            2595     1.28751E+03     1.28751E+03    -580.972E-03    -580.972E-03         8.50154         8.50154
            2596     1.29113E+03     1.29113E+03    -726.751E-03    -726.751E-03         7.96149         7.96149
            2597     1.29452E+03     1.29452E+03    -894.877E-03    -894.877E-03         7.29691         7.29691
            2598     1.29761E+03     1.29761E+03        -1.08427        -1.08427         6.48916         6.48916
            2599     1.30036E+03     1.30036E+03        -1.29032        -1.29032         5.52165         5.52165
            2600     1.30268E+03     1.30268E+03        -1.50420        -1.50420         4.38302         4.38302
            2601     1.30453E+03     1.30453E+03        -1.71163        -1.71163         3.07091         3.07091
            2602     1.30582E+03     1.30582E+03        -1.89269        -1.89269         1.59672         1.59672
            2603     1.30650E+03     1.30650E+03        -2.02170        -2.02170    -9.86934E-03    -9.86934E-03
            2604     1.30652E+03     1.30652E+03        -2.06894        -2.06894        -1.69650        -1.69650
            2605     1.30587E+03     1.30587E+03        -2.00345        -2.00345        -3.38575        -3.38575
            2606     1.30455E+03     1.30455E+03        -1.79759        -1.79759        -4.97540        -4.97540
            2607     1.30262E+03     1.30262E+03        -1.43290        -1.43290        -6.34127        -6.34127
            2608     1.65224E+03     1.65224E+03         202.814         202.814        -262.243        -262.243
            2609     1.51375E+03     1.51375E+03         57.2719         57.2719        -141.985        -141.985
            2610     1.40517E+03     1.40517E+03         30.5877         30.5877        -81.4251        -81.4251
            2611     1.33975E+03     1.33975E+03         17.1389         17.1389        -53.2842        -53.2842
            2612     1.29479E+03     1.29479E+03         10.7475         10.7475        -34.7240        -34.7240
            2613     1.26463E+03     1.26463E+03         7.35488         7.35488        -23.6652        -23.6652
            2614     1.24382E+03     1.24382E+03         5.07206         5.07206        -15.6781        -15.6781
            2615     1.22979E+03     1.22979E+03         3.77392         3.77392        -10.2782        -10.2782
            2616     1.22058E+03     1.22058E+03         2.76396         2.76396        -6.21714        -6.21714
            2617     1.21496E+03     1.21496E+03         2.13581         2.13581        -3.27970        -3.27970
            2618     1.21202E+03     1.21202E+03         1.62140         1.62140        -1.02850        -1.02850
            2619     1.21113E+03     1.21113E+03         1.27221         1.27221     654.692E-03     654.692E-03
            2620     1.21181E+03     1.21181E+03     982.974E-03     982.974E-03         1.95057         1.95057
            2621     1.21368E+03     1.21368E+03     772.371E-03     772.371E-03         2.92896         2.92896
            2622     1.21647E+03     1.21647E+03     598.377E-03     598.377E-03         3.67562         3.67562
            2623     1.21996E+03     1.21996E+03     465.379E-03     465.379E-03         4.23352         4.23352
            2624     1.22398E+03     1.22398E+03     356.185E-03     356.185E-03         4.64834         4.64834
            2625     1.22839E+03     1.22839E+03     270.129E-03     270.129E-03         4.94727         4.94727
            2626     1.23310E+03     1.23310E+03     199.796E-03     199.796E-03         5.15671         5.15671
            2627     1.23800E+03     1.23800E+03     143.133E-03     143.133E-03         5.29398         5.29398
            2628     1.24304E+03     1.24304E+03     96.5367E-03     96.5367E-03         5.37479         5.37479
            2629     1.24816E+03     1.24816E+03     57.7838E-03     57.7838E-03         5.40969         5.40969
            2630     1.25331E+03     1.25331E+03     24.6892E-03     24.6892E-03         5.40741         5.40741
            2631     1.25847E+03     1.25847E+03    -4.85623E-03    -4.85623E-03         5.37320         5.37320
            2632     1.26359E+03     1.26359E+03    -32.5826E-03    -32.5826E-03         5.31042         5.31042
            2633     1.26865E+03     1.26865E+03    -60.4819E-03    -60.4819E-03         5.21961         5.21961
            2634     1.27361E+03     1.27361E+03    -90.1761E-03    -90.1761E-03         5.09933         5.09933
            2635     1.27845E+03     1.27845E+03    -123.520E-03    -123.520E-03         4.94564         4.94564
            2636     1.28313E+03     1.28313E+03    -162.003E-03    -162.003E-03         4.75263         4.75263
            2637     1.28760E+03     1.28760E+03    -207.109E-03    -207.109E-03         4.51228         4.51228
            2638     1.29182E+03     1.29182E+03    -259.776E-03    -259.776E-03         4.21505         4.21505
            2639     1.29573E+03     1.29573E+03    -320.496E-03    -320.496E-03         3.85033         3.85033
            2640     1.29925E+03     1.29925E+03    -388.741E-03    -388.741E-03         3.40739         3.40739
            2641     1.30231E+03     1.30231E+03    -462.883E-03    -462.883E-03         2.87677         2.87677
            2642     1.30482E+03     1.30482E+03    -539.572E-03    -539.572E-03         2.25189         2.25189
            2643     1.30669E+03     1.30669E+03    -613.684E-03    -613.684E-03         1.53150         1.53150
            2644     1.30784E+03     1.30784E+03    -677.852E-03    -677.852E-03     721.996E-03     721.996E-03
            2645     1.30819E+03     1.30819E+03    -722.895E-03    -722.895E-03    -159.726E-03    -159.726E-03
            2646     1.30769E+03     1.30769E+03    -738.007E-03    -738.007E-03        -1.08419        -1.08419
            2647     1.30632E+03     1.30632E+03    -712.260E-03    -712.260E-03        -2.00802        -2.00802
            2648     1.30411E+03     1.30411E+03    -636.058E-03    -636.058E-03        -2.87437        -2.87437
            2649     1.30114E+03     1.30114E+03    -502.891E-03    -502.891E-03        -3.61382        -3.61382
            2650     1.36188E+03     1.36188E+03        -42.5064        -42.5064         2.57281         2.57281
            2651     1.35323E+03     1.35323E+03        -29.5367        -29.5367         10.8920         10.8920
            2652     1.34390E+03     1.34390E+03        -19.6589        -19.6589         14.9556         14.9556
            2653     1.33523E+03     1.33523E+03        -12.6015        -12.6015         16.4998         16.4998
            2654     1.32758E+03     1.32758E+03        -7.76867        -7.76867         16.6477         16.6477
            2655     1.32094E+03     1.32094E+03        -4.57195        -4.57195         16.0587         16.0587
            2656     1.31513E+03     1.31513E+03        -2.53419        -2.53419         15.0720         15.0720
            2657     1.30996E+03     1.30996E+03        -1.29453        -1.29453         13.8216         13.8216
            2658     1.30526E+03     1.30526E+03    -588.075E-03    -588.075E-03         12.3008         12.3008
            2659     1.30086E+03     1.30086E+03    -221.801E-03    -221.801E-03         10.3924         10.3924
            2660     1.29664E+03     1.29664E+03    -57.2869E-03    -57.2869E-03         7.87280         7.87280
            2661     1.29252E+03     1.29252E+03    -2.96577E-03    -2.96577E-03         4.41860         4.41860
            2662     1.37145E+03     1.37145E+03        -25.2832        -25.2832         20.2573         20.2573
            2663     1.35694E+03     1.35694E+03        -12.3139        -12.3139         23.5166         23.5166
            2664     1.34452E+03     1.34452E+03        -4.25541        -4.25541         23.3812         23.3812
            2665     1.33434E+03     1.33434E+03     361.427E-03     361.427E-03         21.8276         21.8276
            2666     1.32605E+03     1.32605E+03         2.72033         2.72033         19.8187         19.8187
            2667     1.31916E+03     1.31916E+03         3.64955         3.64955         17.7735         17.7735
            2668     1.31325E+03     1.31325E+03         3.69895         3.69895         15.8295         15.8295
            2669     1.30797E+03     1.30797E+03         3.23117         3.23117         13.9748         13.9748
            2670     1.30302E+03     1.30302E+03         2.49407         2.49407         12.1060         12.1060
            2671     1.29813E+03     1.29813E+03         1.66985         1.66985         10.0444         10.0444
            2672     1.29303E+03     1.29303E+03     907.549E-03     907.549E-03         7.52702         7.52702
            2673     1.28746E+03     1.28746E+03     344.643E-03     344.643E-03         4.20226         4.20226
            2674     1.37279E+03     1.37279E+03         6.24274         6.24274         35.2494         35.2494
            2675     1.35456E+03     1.35456E+03         13.6554         13.6554         31.6110         31.6110
            2676     1.34099E+03     1.34099E+03         16.1895         16.1895         27.1186         27.1186
            2677     1.33077E+03     1.33077E+03         16.1006         16.1006         22.9359         22.9359
            2678     1.32281E+03     1.32281E+03         14.6628         14.6628         19.3967         19.3967
            2679     1.31634E+03     1.31634E+03         12.5799         12.5799         16.4917         16.4917
            2680     1.31078E+03     1.31078E+03         10.2372         10.2372         14.1027         14.1027
            2681     1.30569E+03     1.30569E+03         7.85793         7.85793         12.0729         12.0729
            2682     1.30073E+03     1.30073E+03         5.58739         5.58739         10.2245         10.2245
            2683     1.29555E+03     1.29555E+03         3.54386         3.54386         8.35124         8.35124
            2684     1.28977E+03     1.28977E+03         1.85510         1.85510         6.19738         6.19738
            2685     1.28299E+03     1.28299E+03     684.743E-03     684.743E-03         3.44222         3.44222
            2686     1.36527E+03     1.36527E+03         47.5378         47.5378         38.7810         38.7810
            2687     1.34728E+03     1.34728E+03         43.3166         43.3166         30.1217         30.1217
            2688     1.33491E+03     1.33491E+03         37.4399         37.4399         23.4231         23.4231
            2689     1.32595E+03     1.32595E+03         31.3862         31.3862         18.4273         18.4273
            2690     1.31906E+03     1.31906E+03         25.6989         25.6989         14.7205         14.7205
            2691     1.31340E+03     1.31340E+03         20.5266         20.5266         11.9501         11.9501
            2692     1.30842E+03     1.30842E+03         15.8891         15.8891         9.84027         9.84027
            2693     1.30370E+03     1.30370E+03         11.7693         11.7693         8.17274         8.17274
            2694     1.29887E+03     1.29887E+03         8.15870         8.15870         6.76069         6.76069
            2695     1.29357E+03     1.29357E+03         5.08315         5.08315         5.42681         5.42681
            2696     1.28736E+03     1.28736E+03         2.62674         2.62674         3.97968         3.97968
            2697     1.27970E+03     1.27970E+03     958.943E-03     958.943E-03         2.19535         2.19535
            2698     1.35448E+03     1.35448E+03         84.4095         84.4095         24.6286         24.6286
            2699     1.33956E+03     1.33956E+03         67.0520         67.0520         16.9558         16.9558
            2700     1.32947E+03     1.32947E+03         53.2037         53.2037         11.9601         11.9601
            2701     1.32209E+03     1.32209E+03         42.1334         42.1334         8.61535         8.61535
            2702     1.31628E+03     1.31628E+03         33.1368         33.1368         6.31762         6.31762
            2703     1.31138E+03     1.31138E+03         25.7015         25.7015         4.71316         4.71316
            2704     1.30692E+03     1.30692E+03         19.4643         19.4643         3.57645         3.57645
            2705     1.30253E+03     1.30253E+03         14.1824         14.1824         2.75285         2.75285
            2706     1.29787E+03     1.29787E+03         9.71128         9.71128         2.12984         2.12984
            2707     1.29256E+03     1.29256E+03         5.99739         5.99739         1.61642         1.61642
            2708     1.28617E+03     1.28617E+03         3.08251         3.08251         1.13248         1.13248
            2709     1.27810E+03     1.27810E+03         1.12313         1.12313     603.118E-03     603.118E-03
            2710     1.35018E+03     1.35018E+03         97.0517         97.0517        -4.22713        -4.22713
            2711     1.33707E+03     1.33707E+03         74.0489         74.0489        -4.55951        -4.55951
            2712     1.32798E+03     1.32798E+03         57.3459         57.3459        -4.55729        -4.55729
            2713     1.32121E+03     1.32121E+03         44.6634         44.6634        -4.43465        -4.43465
            2714     1.31579E+03     1.31579E+03         34.7006         34.7006        -4.24601        -4.24601
            2715     1.31115E+03     1.31115E+03         26.6614         26.6614        -4.01494        -4.01494
            2716     1.30687E+03     1.30687E+03         20.0366         20.0366        -3.74592        -3.74592
            2717     1.30261E+03     1.30261E+03         14.5032         14.5032        -3.43221        -3.43221
            2718     1.29803E+03     1.29803E+03         9.87142         9.87142        -3.05678        -3.05678
            2719     1.29280E+03     1.29280E+03         6.06103         6.06103        -2.58788        -2.58788
            2720     1.28646E+03     1.28646E+03         3.09771         3.09771        -1.97142        -1.97142
            2721     1.27846E+03     1.27846E+03         1.12307         1.12307        -1.11921        -1.11921
            2722     1.35729E+03     1.35729E+03         74.7421         74.7421        -32.2575        -32.2575
            2723     1.34207E+03     1.34207E+03         59.3977         59.3977        -25.3219        -25.3219
            2724     1.33164E+03     1.33164E+03         47.2896         47.2896        -20.5368        -20.5368
            2725     1.32397E+03     1.32397E+03         37.5561         37.5561        -17.0828        -17.0828
            2726     1.31797E+03     1.31797E+03         29.5906         29.5906        -14.4997        -14.4997
            2727     1.31293E+03     1.31293E+03         22.9616         22.9616        -12.4911        -12.4911
            2728     1.30841E+03     1.30841E+03         17.3710         17.3710        -10.8504        -10.8504
            2729     1.30402E+03     1.30402E+03         12.6232         12.6232        -9.41803        -9.41803
            2730     1.29944E+03     1.29944E+03         8.60526         8.60526        -8.05337        -8.05337
            2731     1.29432E+03     1.29432E+03         5.28103         5.28103        -6.61055        -6.61055
            2732     1.28827E+03     1.28827E+03         2.69373         2.69373        -4.91162        -4.91162
            2733     1.28081E+03     1.28081E+03     974.324E-03     974.324E-03        -2.73153        -2.73153
            2734     1.36843E+03     1.36843E+03         29.6947         29.6947        -41.3927        -41.3927
            2735     1.35064E+03     1.35064E+03         29.3608         29.3608        -34.9212        -34.9212
            2736     1.33817E+03     1.33817E+03         26.5683         26.5683        -29.4350        -29.4350
            2737     1.32900E+03     1.32900E+03         22.9553         22.9553        -25.0255        -25.0255
            2738     1.32191E+03     1.32191E+03         19.1744         19.1744        -21.4995        -21.4995
            2739     1.31613E+03     1.31613E+03         15.5094         15.5094        -18.6363        -18.6363
            2740     1.31111E+03     1.31111E+03         12.0867         12.0867        -16.2284        -16.2284
            2741     1.30647E+03     1.30647E+03         8.96912         8.96912        -14.0873        -14.0873
            2742     1.30185E+03     1.30185E+03         6.20309         6.20309        -12.0263        -12.0263
            2743     1.29695E+03     1.29695E+03         3.84453         3.84453        -9.84014        -9.84014
            2744     1.29141E+03     1.29141E+03         1.97649         1.97649        -7.27674        -7.27674
            2745     1.28489E+03     1.28489E+03     720.937E-03     720.937E-03        -4.02600        -4.02600
            2746     1.37145E+03     1.37145E+03        -12.7906        -12.7906        -29.7524        -29.7524
            2747     1.35570E+03     1.35570E+03        -2.36629        -2.36629        -30.3419        -30.3419
            2748     1.34326E+03     1.34326E+03         3.17067         3.17067        -28.5896        -28.5896
            2749     1.33355E+03     1.33355E+03         5.71298         5.71298        -26.1236        -26.1236
            2750     1.32585E+03     1.32585E+03         6.49123         6.49123        -23.5806        -23.5806
            2751     1.31955E+03     1.31955E+03         6.24475         6.24475        -21.1594        -21.1594
            2752     1.31419E+03     1.31419E+03         5.42767         5.42767        -18.8790        -18.8790
            2753     1.30939E+03     1.30939E+03         4.32783         4.32783        -16.6639        -16.6639
            2754     1.30485E+03     1.30485E+03         3.13972         3.13972        -14.3803        -14.3803
            2755     1.30030E+03     1.30030E+03         2.00804         2.00804        -11.8370        -11.8370
            2756     1.29551E+03     1.29551E+03         1.05374         1.05374        -8.77279        -8.77279
            2757     1.29022E+03     1.29022E+03     389.869E-03     389.869E-03        -4.85331        -4.85331
            2758     1.36245E+03     1.36245E+03        -37.4066        -37.4066        -9.77475        -9.77475
            2759     1.35305E+03     1.35305E+03        -24.6852        -24.6852        -17.2429        -17.2429
            2760     1.34362E+03     1.34362E+03        -15.4744        -15.4744        -20.5263        -20.5263
            2761     1.33524E+03     1.33524E+03        -9.21544        -9.21544        -21.4537        -21.4537
            2762     1.32809E+03     1.32809E+03        -5.14908        -5.14908        -21.1174        -21.1174
            2763     1.32200E+03     1.32200E+03        -2.61804        -2.61804        -20.1061        -20.1061
            2764     1.31675E+03     1.31675E+03        -1.13321        -1.13321        -18.6973        -18.6973
            2765     1.31212E+03     1.31212E+03    -339.914E-03    -339.914E-03        -16.9868        -16.9868
            2766     1.30790E+03     1.30790E+03     16.5048E-03     16.5048E-03        -14.9468        -14.9468
            2767     1.30392E+03     1.30392E+03     119.584E-03     119.584E-03        -12.4536        -12.4536
            2768     1.30006E+03     1.30006E+03     100.891E-03     100.891E-03        -9.28813        -9.28813
            2769     1.29621E+03     1.29621E+03     48.1794E-03     48.1794E-03        -5.14855        -5.14855
            2770     1.21304E+03     1.21304E+03         353.257         353.257         65.6704         65.6704
            2771     1.22521E+03     1.22521E+03         324.310         324.310         65.2894         65.2894
            2772     1.23711E+03     1.23711E+03         295.340         295.340         63.2747         63.2747
            2773     1.24845E+03     1.24845E+03         266.896         266.896         60.2805         60.2805
            2774     1.25903E+03     1.25903E+03         239.359         239.359         56.4149         56.4149
            2775     1.26866E+03     1.26866E+03         213.072         213.072         51.8075         51.8075
            2776     1.27722E+03     1.27722E+03         188.318         188.318         46.6486         46.6486
            2777     1.28465E+03     1.28465E+03         165.298         165.298         41.1282         41.1282
            2778     1.29091E+03     1.29091E+03         144.143         144.143         35.4455         35.4455
            2779     1.29606E+03     1.29606E+03         124.902         124.902         29.7775         29.7775
            2780     1.30014E+03     1.30014E+03         107.570         107.570         24.2722         24.2722
            2781     1.30325E+03     1.30325E+03         92.0903         92.0903         19.0494         19.0494
            2782     1.30547E+03     1.30547E+03         78.3709         78.3709         14.1877         14.1877
            2783     1.30692E+03     1.30692E+03         66.2996         66.2996         9.74256         9.74256
            2784     1.30770E+03     1.30770E+03         55.7478         55.7478         5.73455         5.73455
            2785     1.30790E+03     1.30790E+03         46.5851         46.5851         2.16998         2.16998
            2786     1.30761E+03     1.30761E+03         38.6768         38.6768    -967.819E-03    -967.819E-03
            2787     1.30692E+03     1.30692E+03         31.8953         31.8953        -3.70214        -3.70214
            2788     1.30588E+03     1.30588E+03         26.1151         26.1151        -6.06868        -6.06868
            2789     1.30456E+03     1.30456E+03         21.2199         21.2199        -8.10483        -8.10483
            2790     1.30302E+03     1.30302E+03         17.0986         17.0986        -9.85341        -9.85341
            2791     1.30129E+03     1.30129E+03         13.6487         13.6487        -11.3564        -11.3564
            2792     1.29941E+03     1.29941E+03         10.7736         10.7736        -12.6578        -12.6578
            2793     1.29742E+03     1.29742E+03         8.38374         8.38374        -13.7999        -13.7999
            2794     1.29534E+03     1.29534E+03         6.39450         6.39450        -14.8259        -14.8259
            2795     1.29319E+03     1.29319E+03         4.72678         4.72678        -15.7782        -15.7782
            2796     1.29100E+03     1.29100E+03         3.30477         3.30477        -16.7004        -16.7004
            2797     1.28878E+03     1.28878E+03         2.05584         2.05584        -17.6371        -17.6371
            2798     1.28656E+03     1.28656E+03     908.440E-03     908.440E-03        -18.6360        -18.6360
            2799     1.28436E+03     1.28436E+03    -209.036E-03    -209.036E-03        -19.7481        -19.7481
            2800     1.28220E+03     1.28220E+03        -1.37083        -1.37083        -21.0299        -21.0299
            2801     1.28012E+03     1.28012E+03        -2.65658        -2.65658        -22.5440        -22.5440
            2802     1.27819E+03     1.27819E+03        -4.15540        -4.15540        -24.3608        -24.3608
            2803     1.27646E+03     1.27646E+03        -5.97173        -5.97173        -26.5583        -26.5583
            2804     1.27506E+03     1.27506E+03        -8.23262        -8.23262        -29.2206        -29.2206
            2805     1.27418E+03     1.27418E+03        -11.0994        -11.0994        -32.4325        -32.4325
            2806     1.27406E+03     1.27406E+03        -14.7792        -14.7792        -36.2659        -36.2659
            2807     1.27513E+03     1.27513E+03        -19.5432        -19.5432        -40.7500        -40.7500
            2808     1.27800E+03     1.27800E+03        -25.7288        -25.7288        -45.8093        -45.8093
            2809     1.28359E+03     1.28359E+03        -33.7302        -33.7302        -51.1359        -51.1359
            2810     1.29311E+03     1.29311E+03        -43.8142        -43.8142        -55.9479        -55.9479
            2811     1.30800E+03     1.30800E+03        -55.7723        -55.7723        -58.7103        -58.7103
            2812     1.21107E+03     1.21107E+03         353.798         353.798         50.4545         50.4545
            2813     1.22284E+03     1.22284E+03         325.931         325.931         50.1466         50.1466
            2814     1.23438E+03     1.23438E+03         298.068         298.068         48.6227         48.6227
            2815     1.24545E+03     1.24545E+03         270.670         270.670         46.3978         46.3978
            2816     1.25586E+03     1.25586E+03         244.059         244.059         43.5274         43.5274
            2817     1.26547E+03     1.26547E+03         218.527         218.527         40.1154         40.1154
            2818     1.27414E+03     1.27414E+03         194.319         194.319         36.2754         36.2754
            2819     1.28180E+03     1.28180E+03         171.632         171.632         32.1491         32.1491
            2820     1.28842E+03     1.28842E+03         150.597         150.597         27.8706         27.8706
            2821     1.29399E+03     1.29399E+03         131.293         131.293         23.5705         23.5705
            2822     1.29855E+03     1.29855E+03         113.742         113.742         19.3618         19.3618
            2823     1.30213E+03     1.30213E+03         97.9238         97.9238         15.3339         15.3339
            2824     1.30483E+03     1.30483E+03         83.7851         83.7851         11.5576         11.5576
            2825     1.30672E+03     1.30672E+03         71.2435         71.2435         8.07566         8.07566
            2826     1.30789E+03     1.30789E+03         60.2012         60.2012         4.91636         4.91636
            2827     1.30841E+03     1.30841E+03         50.5472         50.5472         2.08538         2.08538
            2828     1.30838E+03     1.30838E+03         42.1672         42.1672    -420.336E-03    -420.336E-03
            2829     1.30786E+03     1.30786E+03         34.9431         34.9431        -2.61851        -2.61851
            2830     1.30694E+03     1.30694E+03         28.7605         28.7605        -4.53086        -4.53086
            2831     1.30566E+03     1.30566E+03         23.5066         23.5066        -6.18706        -6.18706
            2832     1.30408E+03     1.30408E+03         19.0752         19.0752        -7.61777        -7.61777
            2833     1.30226E+03     1.30226E+03         15.3643         15.3643        -8.85736        -8.85736
            2834     1.30022E+03     1.30022E+03         12.2790         12.2790        -9.93991        -9.93991
            2835     1.29801E+03     1.29801E+03         9.72965         9.72965        -10.9013        -10.9013
            2836     1.29564E+03     1.29564E+03         7.63300         7.63300        -11.7772        -11.7772
            2837     1.29314E+03     1.29314E+03         5.91084         5.91084        -12.6051        -12.6051
            2838     1.29052E+03     1.29052E+03         4.49023         4.49023        -13.4236        -13.4236
            2839     1.28779E+03     1.28779E+03         3.30216         3.30216        -14.2745        -14.2745
            2840     1.28495E+03     1.28495E+03         2.28113         2.28113        -15.2035        -15.2035
            2841     1.28202E+03     1.28202E+03         1.36347         1.36347        -16.2627        -16.2627
            2842     1.27898E+03     1.27898E+03     485.852E-03     485.852E-03        -17.5121        -17.5121
            2843     1.27584E+03     1.27584E+03    -417.346E-03    -417.346E-03        -19.0235        -19.0235
            2844     1.27260E+03     1.27260E+03        -1.41788        -1.41788        -20.8838        -20.8838
            2845     1.26927E+03     1.26927E+03        -2.59906        -2.59906        -23.1998        -23.1998
            2846     1.26588E+03     1.26588E+03        -4.06513        -4.06513        -26.1044        -26.1044
            2847     1.26249E+03     1.26249E+03        -5.95384        -5.95384        -29.7632        -29.7632
            2848     1.25922E+03     1.25922E+03        -8.46008        -8.46008        -34.3812        -34.3812
            2849     1.25631E+03     1.25631E+03        -11.8661        -11.8661        -40.2069        -40.2069
            2850     1.25421E+03     1.25421E+03        -16.6011        -16.6011        -47.5213        -47.5213
            2851     1.25375E+03     1.25375E+03        -23.3078        -23.3078        -56.5912        -56.5912
            2852     1.25643E+03     1.25643E+03        -32.9660        -32.9660        -67.4727        -67.4727
            2853     1.26488E+03     1.26488E+03        -46.7595        -46.7595        -79.5588        -79.5588
            2854     1.20972E+03     1.20972E+03         354.198         354.198         35.6879         35.6879
            2855     1.22120E+03     1.22120E+03         327.095         327.095         35.4263         35.4263
            2856     1.23248E+03     1.23248E+03         300.006         300.006         34.3329         34.3329
            2857     1.24334E+03     1.24334E+03         273.348         273.348         32.7623         32.7623
            2858     1.25362E+03     1.25362E+03         247.397         247.397         30.7632         30.7632
            2859     1.26318E+03     1.26318E+03         222.412         222.412         28.3901         28.3901
            2860     1.27191E+03     1.27191E+03         198.617         198.617         25.7279         25.7279
            2861     1.27971E+03     1.27971E+03         176.193         176.193         22.8604         22.8604
            2862     1.28654E+03     1.28654E+03         155.278         155.278         19.8820         19.8820
            2863     1.29239E+03     1.29239E+03         135.959         135.959         16.8780         16.8780
            2864     1.29726E+03     1.29726E+03         118.281         118.281         13.9258         13.9258
            2865     1.30118E+03     1.30118E+03         102.246         102.246         11.0904         11.0904
            2866     1.30421E+03     1.30421E+03         87.8232         87.8232         8.41924         8.41924
            2867     1.30641E+03     1.30641E+03         74.9559         74.9559         5.94882         5.94882
            2868     1.30786E+03     1.30786E+03         63.5647         63.5647         3.69728         3.69728
            2869     1.30862E+03     1.30862E+03         53.5580         53.5580         1.67500         1.67500
            2870     1.30878E+03     1.30878E+03         44.8331         44.8331    -121.610E-03    -121.610E-03
            2871     1.30841E+03     1.30841E+03         37.2843         37.2843        -1.70043        -1.70043
            2872     1.30757E+03     1.30757E+03         30.8029         30.8029        -3.07816        -3.07816
            2873     1.30633E+03     1.30633E+03         25.2829         25.2829        -4.27314        -4.27314
            2874     1.30474E+03     1.30474E+03         20.6202         20.6202        -5.30848        -5.30848
            2875     1.30285E+03     1.30285E+03         16.7160         16.7160        -6.20754        -6.20754
            2876     1.30070E+03     1.30070E+03         13.4760         13.4760        -6.99604        -6.99604
            2877     1.29832E+03     1.29832E+03         10.8126         10.8126        -7.69968        -7.69968
            2878     1.29573E+03     1.29573E+03         8.64360         8.64360        -8.34577        -8.34577
            2879     1.29295E+03     1.29295E+03         6.89324         6.89324        -8.96229        -8.96229
            2880     1.28998E+03     1.28998E+03         5.49164         5.49164        -9.57951        -9.57951
            2881     1.28684E+03     1.28684E+03         4.37486         4.37486        -10.2302        -10.2302
            2882     1.28350E+03     1.28350E+03         3.48428         3.48428        -10.9514        -10.9514
            2883     1.27995E+03     1.27995E+03         2.76621         2.76621        -11.7862        -11.7862
            2884     1.27616E+03     1.27616E+03         2.17101         2.17101        -12.7862        -12.7862
            2885     1.27208E+03     1.27208E+03         1.65178         1.65178        -14.0148        -14.0148
            2886     1.26767E+03     1.26767E+03         1.16251         1.16251        -15.5526        -15.5526
            2887     1.26284E+03     1.26284E+03     654.428E-03     654.428E-03        -17.5037        -17.5037
            2888     1.25751E+03     1.25751E+03     71.2452E-03     71.2452E-03        -20.0059        -20.0059
            2889     1.25158E+03     1.25158E+03    -661.300E-03    -661.300E-03        -23.2454        -23.2454
            2890     1.24493E+03     1.24493E+03        -1.64936        -1.64936        -27.4792        -27.4792
            2891     1.23745E+03     1.23745E+03        -3.06314        -3.06314        -33.0675        -33.0675
            2892     1.22907E+03     1.22907E+03        -5.18345        -5.18345        -40.5272        -40.5272
            2893     1.21986E+03     1.21986E+03        -8.51314        -8.51314        -50.6017        -50.6017
            2894     1.21027E+03     1.21027E+03        -13.9839        -13.9839        -64.3835        -64.3835
            2895     1.20188E+03     1.20188E+03        -23.4002        -23.4002        -83.2996        -83.2996
            2896     1.20887E+03     1.20887E+03         354.467         354.467         21.2253         21.2253
            2897     1.22016E+03     1.22016E+03         327.847         327.847         21.0009         21.0009
            2898     1.23128E+03     1.23128E+03         301.248         301.248         20.2898         20.2898
            2899     1.24201E+03     1.24201E+03         275.057         275.057         19.3146         19.3146
            2900     1.25220E+03     1.25220E+03         249.526         249.526         18.0946         18.0946
            2901     1.26172E+03     1.26172E+03         224.891         224.891         16.6714         16.6714
            2902     1.27047E+03     1.27047E+03         201.362         201.362         15.0852         15.0852
            2903     1.27835E+03     1.27835E+03         179.114         179.114         13.3906         13.3906
            2904     1.28531E+03     1.28531E+03         158.284         158.284         11.6366         11.6366
            2905     1.29132E+03     1.29132E+03         138.966         138.966         9.87423         9.87423
            2906     1.29638E+03     1.29638E+03         121.216         121.216         8.14711         8.14711
            2907     1.30051E+03     1.30051E+03         105.049         105.049         6.49132         6.49132
            2908     1.30374E+03     1.30374E+03         90.4511         90.4511         4.93628         4.93628
            2909     1.30614E+03     1.30614E+03         77.3783         77.3783         3.50006         3.50006
            2910     1.30777E+03     1.30777E+03         65.7661         65.7661         2.19606         2.19606
            2911     1.30869E+03     1.30869E+03         55.5327         55.5327         1.02712         1.02712
            2912     1.30897E+03     1.30897E+03         46.5862         46.5862    -6.37419E-03    -6.37419E-03
            2913     1.30870E+03     1.30870E+03         38.8267         38.8267    -911.713E-03    -911.713E-03
            2914     1.30792E+03     1.30792E+03         32.1520         32.1520        -1.69697        -1.69697
            2915     1.30670E+03     1.30670E+03         26.4587         26.4587        -2.37484        -2.37484
            2916     1.30511E+03     1.30511E+03         21.6462         21.6462        -2.95787        -2.95787
            2917     1.30317E+03     1.30317E+03         17.6167         17.6167        -3.46105        -3.46105
            2918     1.30095E+03     1.30095E+03         14.2779         14.2779        -3.89888        -3.89888
            2919     1.29845E+03     1.29845E+03         11.5426         11.5426        -4.28724        -4.28724
            2920     1.29572E+03     1.29572E+03         9.33025         9.33025        -4.64177        -4.64177
            2921     1.29275E+03     1.29275E+03         7.56684         7.56684        -4.97933        -4.97933
            2922     1.28956E+03     1.28956E+03         6.18524         6.18524        -5.31738        -5.31738
            2923     1.28614E+03     1.28614E+03         5.12534         5.12534        -5.67537        -5.67537
            2924     1.28246E+03     1.28246E+03         4.33422         4.33422        -6.07492        -6.07492
            2925     1.27848E+03     1.27848E+03         3.76627         3.76627        -6.54153        -6.54153
            2926     1.27417E+03     1.27417E+03         3.38323         3.38323        -7.10580        -7.10580
            2927     1.26943E+03     1.26943E+03         3.15437         3.15437        -7.80608        -7.80608
            2928     1.26417E+03     1.26417E+03         3.05630         3.05630        -8.69155        -8.69155
            2929     1.25825E+03     1.25825E+03         3.07309         3.07309        -9.82749        -9.82749
            2930     1.25148E+03     1.25148E+03         3.19504         3.19504        -11.3024        -11.3024
            2931     1.24361E+03     1.24361E+03         3.41827         3.41827        -13.2407        -13.2407
            2932     1.23430E+03     1.23430E+03         3.73934         3.73934        -15.8206        -15.8206
            2933     1.22306E+03     1.22306E+03         4.15116         4.15116        -19.3081        -19.3081
            2934     1.20923E+03     1.20923E+03         4.62146         4.62146        -24.1103        -24.1103
            2935     1.19187E+03     1.19187E+03         5.06299         5.06299        -30.8858        -30.8858
            2936     1.16956E+03     1.16956E+03         5.24102         5.24102        -40.7491        -40.7491
            2937     1.14027E+03     1.14027E+03         4.50004         4.50004        -55.7989        -55.7989
            2938     1.20846E+03     1.20846E+03         354.598         354.598         6.95645         6.95645
            2939     1.21967E+03     1.21967E+03         328.207         328.207         6.77278         6.77278
            2940     1.23070E+03     1.23070E+03         301.839         301.839         6.44108         6.44108
            2941     1.24137E+03     1.24137E+03         275.867         275.867         6.03109         6.03109
            2942     1.25152E+03     1.25152E+03         250.531         250.531         5.55982         5.55982
            2943     1.26103E+03     1.26103E+03         226.057         226.057         5.03609         5.03609
            2944     1.26978E+03     1.26978E+03         202.649         202.649         4.48107         4.48107
            2945     1.27770E+03     1.27770E+03         180.480         180.480         3.90805         3.90805
            2946     1.28472E+03     1.28472E+03         159.685         159.685         3.33640         3.33640
            2947     1.29081E+03     1.29081E+03         140.364         140.364         2.77948         2.77948
            2948     1.29595E+03     1.29595E+03         122.576         122.576         2.25032         2.25032
            2949     1.30017E+03     1.30017E+03         106.344         106.344         1.75895         1.75895
            2950     1.30350E+03     1.30350E+03         91.6614         91.6614         1.31103         1.31103
            2951     1.30599E+03     1.30599E+03         78.4906         78.4906     911.796E-03     911.796E-03
            2952     1.30770E+03     1.30770E+03         66.7731         66.7731     560.989E-03     560.989E-03
            2953     1.30869E+03     1.30869E+03         56.4330         56.4330     259.459E-03     259.459E-03
            2954     1.30903E+03     1.30903E+03         47.3822         47.3822     3.38284E-03     3.38284E-03
            2955     1.30880E+03     1.30880E+03         39.5246         39.5246    -209.383E-03    -209.383E-03
            2956     1.30805E+03     1.30805E+03         32.7600         32.7600    -384.164E-03    -384.164E-03
            2957     1.30684E+03     1.30684E+03         26.9870         26.9870    -524.612E-03    -524.612E-03
            2958     1.30524E+03     1.30524E+03         22.1057         22.1057    -636.200E-03    -636.200E-03
            2959     1.30329E+03     1.30329E+03         18.0192         18.0192    -722.989E-03    -722.989E-03
            2960     1.30103E+03     1.30103E+03         14.6354         14.6354    -789.928E-03    -789.928E-03
            2961     1.29849E+03     1.29849E+03         11.8678         11.8678    -840.872E-03    -840.872E-03
            2962     1.29569E+03     1.29569E+03         9.63610         9.63610    -880.045E-03    -880.045E-03
            2963     1.29265E+03     1.29265E+03         7.86689         7.86689    -910.887E-03    -910.887E-03
            2964     1.28936E+03     1.28936E+03         6.49416         6.49416    -936.975E-03    -936.975E-03
            2965     1.28581E+03     1.28581E+03         5.45927         5.45927    -961.383E-03    -961.383E-03
            2966     1.28198E+03     1.28198E+03         4.71176         4.71176    -987.282E-03    -987.282E-03
            2967     1.27783E+03     1.27783E+03         4.20930         4.20930        -1.01759        -1.01759
            2968     1.27329E+03     1.27329E+03         3.91871         3.91871        -1.05543        -1.05543
            2969     1.26828E+03     1.26828E+03         3.81605         3.81605        -1.10389        -1.10389
            2970     1.26266E+03     1.26266E+03         3.88840         3.88840        -1.16656        -1.16656
            2971     1.25628E+03     1.25628E+03         4.13406         4.13406        -1.24721        -1.24721
            2972     1.24890E+03     1.24890E+03         4.56604         4.56604        -1.35072        -1.35072
            2973     1.24020E+03     1.24020E+03         5.21207         5.21207        -1.48238        -1.48238
            2974     1.22973E+03     1.22973E+03         6.12236         6.12236        -1.64987        -1.64987
            2975     1.21685E+03     1.21685E+03         7.36816         7.36816        -1.86105        -1.86105
            2976     1.20059E+03     1.20059E+03         9.05965         9.05965        -2.12851        -2.12851
            2977     1.17950E+03     1.17950E+03         11.3413         11.3413        -2.46114        -2.46114
            2978     1.15117E+03     1.15117E+03         14.4376         14.4376        -2.86670        -2.86670
            2979     1.11134E+03     1.11134E+03         18.6698         18.6698        -3.26036        -3.26036
            2980     1.20846E+03     1.20846E+03         354.598         354.598        -7.22839        -7.22839
            2981     1.21967E+03     1.21967E+03         328.197         328.197        -7.33751        -7.33751
            2982     1.23072E+03     1.23072E+03         301.817         301.817        -7.27488        -7.27488
            2983     1.24139E+03     1.24139E+03         275.830         275.830        -7.10063        -7.10063
            2984     1.25155E+03     1.25155E+03         250.477         250.477        -6.82281        -6.82281
            2985     1.26107E+03     1.26107E+03         225.984         225.984        -6.44279        -6.44279
            2986     1.26983E+03     1.26983E+03         202.557         202.557        -5.97694        -5.97694
            2987     1.27775E+03     1.27775E+03         180.369         180.369        -5.43641        -5.43641
            2988     1.28477E+03     1.28477E+03         159.558         159.558        -4.84152        -4.84152
            2989     1.29085E+03     1.29085E+03         140.222         140.222        -4.20905        -4.20905
            2990     1.29599E+03     1.29599E+03         122.424         122.424        -3.55765        -3.55765
            2991     1.30021E+03     1.30021E+03         106.187         106.187        -2.90435        -2.90435
            2992     1.30353E+03     1.30353E+03         91.5013         91.5013        -2.26256        -2.26256
            2993     1.30601E+03     1.30601E+03         78.3316         78.3316        -1.64543        -1.64543
            2994     1.30770E+03     1.30770E+03         66.6182         66.6182        -1.06016        -1.06016
            2995     1.30868E+03     1.30868E+03         56.2849         56.2849    -514.376E-03    -514.376E-03
            2996     1.30901E+03     1.30901E+03         47.2425         47.2425    -9.88256E-03    -9.88256E-03
            2997     1.30877E+03     1.30877E+03         39.3946         39.3946     450.893E-03     450.893E-03
            2998     1.30801E+03     1.30801E+03         32.6400         32.6400     870.067E-03     870.067E-03
            2999     1.30680E+03     1.30680E+03         26.8771         26.8771         1.24921         1.24921
            3000     1.30520E+03     1.30520E+03         22.0051         22.0051         1.59302         1.59302
            3001     1.30325E+03     1.30325E+03         17.9268         17.9268         1.90588         1.90588
            3002     1.30100E+03     1.30100E+03         14.5496         14.5496         2.19428         2.19428
            3003     1.29847E+03     1.29847E+03         11.7863         11.7863         2.46476         2.46476
            3004     1.29569E+03     1.29569E+03         9.55609         9.55609         2.72553         2.72553
            3005     1.29266E+03     1.29266E+03         7.78498         7.78498         2.98543         2.98543
            3006     1.28941E+03     1.28941E+03         6.40595         6.40595         3.25518         3.25518
            3007     1.28590E+03     1.28590E+03         5.35942         5.35942         3.54711         3.54711
            3008     1.28212E+03     1.28212E+03         4.59330         4.59330         3.87645         3.87645
            3009     1.27804E+03     1.27804E+03         4.06342         4.06342         4.26182         4.26182
            3010     1.27359E+03     1.27359E+03         3.73359         3.73359         4.72716         4.72716
            3011     1.26869E+03     1.26869E+03         3.57618         3.57618         5.30326         5.30326
            3012     1.26323E+03     1.26323E+03         3.57223         3.57223         6.03148         6.03148
            3013     1.25705E+03     1.25705E+03         3.71210         3.71210         6.96755         6.96755
            3014     1.24996E+03     1.24996E+03         3.99546         3.99546         8.18998         8.18998
            3015     1.24167E+03     1.24167E+03         4.43157         4.43157         9.80964         9.80964
            3016     1.23178E+03     1.23178E+03         5.03761         5.03761         11.9918         11.9918
            3017     1.21977E+03     1.21977E+03         5.83576         5.83576         14.9837         14.9837
            3018     1.20485E+03     1.20485E+03         6.84161         6.84161         19.1810         19.1810
            3019     1.18591E+03     1.18591E+03         8.03853         8.03853         25.2284         25.2284
            3020     1.16126E+03     1.16126E+03         9.30051         9.30051         34.2762         34.2762
            3021     1.12849E+03     1.12849E+03         10.1032         10.1032         48.5243         48.5243
            3022     1.20887E+03     1.20887E+03         354.472         354.472        -21.4574        -21.4574
            3023     1.22018E+03     1.22018E+03         327.827         327.827        -21.4786        -21.4786
            3024     1.23132E+03     1.23132E+03         301.197         301.197        -20.9948        -20.9948
            3025     1.24207E+03     1.24207E+03         274.966         274.966        -20.2180        -20.2180
            3026     1.25228E+03     1.25228E+03         249.389         249.389        -19.1596        -19.1596
            3027     1.26182E+03     1.26182E+03         224.704         224.704        -17.8550        -17.8550
            3028     1.27058E+03     1.27058E+03         201.124         201.124        -16.3401        -16.3401
            3029     1.27847E+03     1.27847E+03         178.827         178.827        -14.6685        -14.6685
            3030     1.28543E+03     1.28543E+03         157.953         157.953        -12.8902        -12.8902
            3031     1.29144E+03     1.29144E+03         138.600         138.600        -11.0597        -11.0597
            3032     1.29648E+03     1.29648E+03         120.823         120.823        -9.22569        -9.22569
            3033     1.30059E+03     1.30059E+03         104.641         104.641        -7.43063        -7.43063
            3034     1.30381E+03     1.30381E+03         90.0366         90.0366        -5.71071        -5.71071
            3035     1.30618E+03     1.30618E+03         76.9670         76.9670        -4.09067        -4.09067
            3036     1.30777E+03     1.30777E+03         65.3658         65.3658        -2.59033        -2.59033
            3037     1.30866E+03     1.30866E+03         55.1498         55.1498        -1.21800        -1.21800
            3038     1.30892E+03     1.30892E+03         46.2253         46.2253     21.2151E-03     21.2151E-03
            3039     1.30862E+03     1.30862E+03         38.4908         38.4908         1.13104         1.13104
            3040     1.30783E+03     1.30783E+03         31.8423         31.8423         2.11688         2.11688
            3041     1.30660E+03     1.30660E+03         26.1750         26.1750         2.98991         2.98991
            3042     1.30500E+03     1.30500E+03         21.3868         21.3868         3.76201         3.76201
            3043     1.30307E+03     1.30307E+03         17.3786         17.3786         4.44848         4.44848
            3044     1.30086E+03     1.30086E+03         14.0568         14.0568         5.06501         5.06501
            3045     1.29840E+03     1.29840E+03         11.3329         11.3329         5.62957         5.62957
            3046     1.29570E+03     1.29570E+03         9.12500         9.12500         6.16083         6.16083
            3047     1.29280E+03     1.29280E+03         7.35719         7.35719         6.67971         6.67971
            3048     1.28969E+03     1.28969E+03         5.96034         5.96034         7.20898         7.20898
            3049     1.28636E+03     1.28636E+03         4.87158         4.87158         7.77485         7.77485
            3050     1.28281E+03     1.28281E+03         4.03443         4.03443         8.40764         8.40764
            3051     1.27901E+03     1.27901E+03         3.39833         3.39833         9.14400         9.14400
            3052     1.27491E+03     1.27491E+03         2.91831         2.91831         10.0289         10.0289
            3053     1.27047E+03     1.27047E+03         2.55409         2.55409         11.1195         11.1195
            3054     1.26560E+03     1.26560E+03         2.26882         2.26882         12.4898         12.4898
            3055     1.26020E+03     1.26020E+03         2.02685         2.02685         14.2380         14.2380
            3056     1.25414E+03     1.25414E+03         1.78954         1.78954         16.4970         16.4970
            3057     1.24726E+03     1.24726E+03         1.50864         1.50864         19.4521         19.4521
            3058     1.23936E+03     1.23936E+03         1.11219         1.11219         23.3638         23.3638
            3059     1.23019E+03     1.23019E+03     482.232E-03     482.232E-03         28.6141         28.6141
            3060     1.21949E+03     1.21949E+03    -597.183E-03    -597.183E-03         35.7647         35.7647
            3061     1.20702E+03     1.20702E+03        -2.53294        -2.53294         45.6778         45.6778
            3062     1.19279E+03     1.19279E+03        -6.15960        -6.15960         59.6777         59.6777
            3063     1.17765E+03     1.17765E+03        -13.1932        -13.1932         79.6881         79.6881
            3064     1.20972E+03     1.20972E+03         354.208         354.208        -35.8669        -35.8669
            3065     1.22122E+03     1.22122E+03         327.076         327.076        -35.7899        -35.7899
            3066     1.23253E+03     1.23253E+03         299.946         299.946        -34.8673        -34.8673
            3067     1.24342E+03     1.24342E+03         273.235         273.235        -33.4448        -33.4448
            3068     1.25373E+03     1.25373E+03         247.225         247.225        -31.5645        -31.5645
            3069     1.26331E+03     1.26331E+03         222.174         222.174        -29.2761        -29.2761
            3070     1.27205E+03     1.27205E+03         198.312         198.312        -26.6616        -26.6616
            3071     1.27987E+03     1.27987E+03         175.825         175.825        -23.8043        -23.8043
            3072     1.28670E+03     1.28670E+03         154.855         154.855        -20.8003        -20.8003
            3073     1.29254E+03     1.29254E+03         135.491         135.491        -17.7382        -17.7382
            3074     1.29739E+03     1.29739E+03         117.780         117.780        -14.6999        -14.6999
            3075     1.30129E+03     1.30129E+03         101.726         101.726        -11.7559        -11.7559
            3076     1.30429E+03     1.30429E+03         87.2966         87.2966        -8.95893        -8.95893
            3077     1.30645E+03     1.30645E+03         74.4346         74.4346        -6.35070        -6.35070
            3078     1.30786E+03     1.30786E+03         63.0587         63.0587        -3.95399        -3.95399
            3079     1.30858E+03     1.30858E+03         53.0751         53.0751        -1.78327        -1.78327
            3080     1.30871E+03     1.30871E+03         44.3790         44.3790     161.904E-03     161.904E-03
            3081     1.30831E+03     1.30831E+03         36.8625         36.8625         1.88689         1.88689
            3082     1.30745E+03     1.30745E+03         30.4149         30.4149         3.40674         3.40674
            3083     1.30619E+03     1.30619E+03         24.9283         24.9283         4.73876         4.73876
            3084     1.30460E+03     1.30460E+03         20.2968         20.2968         5.90573         5.90573
            3085     1.30272E+03     1.30272E+03         16.4200         16.4200         6.93119         6.93119
            3086     1.30058E+03     1.30058E+03         13.2022         13.2022         7.84167         7.84167
            3087     1.29823E+03     1.29823E+03         10.5542         10.5542         8.66413         8.66413
            3088     1.29570E+03     1.29570E+03         8.39196         8.39196         9.42768         9.42768
            3089     1.29299E+03     1.29299E+03         6.63792         6.63792         10.1626         10.1626
            3090     1.29012E+03     1.29012E+03         5.21972         5.21972         10.9022         10.9022
            3091     1.28710E+03     1.28710E+03         4.07038         4.07038         11.6827         11.6827
            3092     1.28392E+03     1.28392E+03         3.12723         3.12723         12.5458         12.5458
            3093     1.28057E+03     1.28057E+03         2.33121         2.33121         13.5396         13.5396
            3094     1.27705E+03     1.27705E+03         1.62534         1.62534         14.7224         14.7224
            3095     1.27331E+03     1.27331E+03     952.683E-03     952.683E-03         16.1653         16.1653
            3096     1.26935E+03     1.26935E+03     253.257E-03     253.257E-03         17.9579         17.9579
            3097     1.26512E+03     1.26512E+03    -541.355E-03    -541.355E-03         20.2143         20.2143
            3098     1.26059E+03     1.26059E+03        -1.51540        -1.51540         23.0831         23.0831
            3099     1.25577E+03     1.25577E+03        -2.78364        -2.78364         26.7589         26.7589
            3100     1.25065E+03     1.25065E+03        -4.51093        -4.51093         31.5008         31.5008
            3101     1.24535E+03     1.24535E+03        -6.95456        -6.95456         37.6506         37.6506
            3102     1.24013E+03     1.24013E+03        -10.5200        -10.5200         45.6592         45.6592
            3103     1.23558E+03     1.23558E+03        -15.8878        -15.8878         56.0817         56.0817
            3104     1.23301E+03     1.23301E+03        -24.1750        -24.1750         69.4988         69.4988
            3105     1.23496E+03     1.23496E+03        -37.0855        -37.0855         86.1659         86.1659
            3106     1.21107E+03     1.21107E+03         353.809         353.809        -50.5790        -50.5790
            3107     1.22287E+03     1.22287E+03         325.914         325.914        -50.3955        -50.3955
            3108     1.23443E+03     1.23443E+03         298.011         298.011        -48.9842        -48.9842
            3109     1.24552E+03     1.24552E+03         270.562         270.562        -46.8568        -46.8568
            3110     1.25596E+03     1.25596E+03         243.893         243.893        -44.0629        -44.0629
            3111     1.26559E+03     1.26559E+03         218.298         218.298        -40.7030        -40.7030
            3112     1.27428E+03     1.27428E+03         194.028         194.028        -36.8887        -36.8887
            3113     1.28195E+03     1.28195E+03         171.282         171.282        -32.7622        -32.7622
            3114     1.28857E+03     1.28857E+03         150.197         150.197        -28.4594        -28.4594
            3115     1.29413E+03     1.29413E+03         130.852         130.852        -24.1140        -24.1140
            3116     1.29866E+03     1.29866E+03         113.273         113.273        -19.8426        -19.8426
            3117     1.30222E+03     1.30222E+03         97.4399         97.4399        -15.7388        -15.7388
            3118     1.30489E+03     1.30489E+03         83.2979         83.2979        -11.8773        -11.8773
            3119     1.30674E+03     1.30674E+03         70.7637         70.7637        -8.30407        -8.30407
            3120     1.30787E+03     1.30787E+03         59.7378         59.7378        -5.05073        -5.05073
            3121     1.30836E+03     1.30836E+03         50.1070         50.1070        -2.12522        -2.12522
            3122     1.30829E+03     1.30829E+03         41.7552         41.7552     473.519E-03     473.519E-03
            3123     1.30775E+03     1.30775E+03         34.5620         34.5620         2.76196         2.76196
            3124     1.30680E+03     1.30680E+03         28.4115         28.4115         4.76086         4.76086
            3125     1.30551E+03     1.30551E+03         23.1891         23.1891         6.49947         6.49947
            3126     1.30393E+03     1.30393E+03         18.7871         18.7871         8.00826         8.00826
            3127     1.30211E+03     1.30211E+03         15.1021         15.1021         9.32179         9.32179
            3128     1.30010E+03     1.30010E+03         12.0381         12.0381         10.4746         10.4746
            3129     1.29791E+03     1.29791E+03         9.50402         9.50402         11.5030         11.5030
            3130     1.29559E+03     1.29559E+03         7.41534         7.41534         12.4437         12.4437
            3131     1.29315E+03     1.29315E+03         5.69225         5.69225         13.3349         13.3349
            3132     1.29061E+03     1.29061E+03         4.25998         4.25998         14.2165         14.2165
            3133     1.28799E+03     1.28799E+03         3.04715         3.04715         15.1313         15.1313
            3134     1.28529E+03     1.28529E+03         1.98523         1.98523         16.1264         16.1264
            3135     1.28253E+03     1.28253E+03         1.00661         1.00661         17.2548         17.2548
            3136     1.27971E+03     1.27971E+03     42.7511E-03     42.7511E-03         18.5776         18.5776
            3137     1.27685E+03     1.27685E+03    -978.835E-03    -978.835E-03         20.1668         20.1668
            3138     1.27398E+03     1.27398E+03        -2.13908        -2.13908         22.1079         22.1079
            3139     1.27112E+03     1.27112E+03        -3.53324        -3.53324         24.5042         24.5042
            3140     1.26835E+03     1.26835E+03        -5.28154        -5.28154         27.4795         27.4795
            3141     1.26578E+03     1.26578E+03        -7.54159        -7.54159         31.1813         31.1813
            3142     1.26362E+03     1.26362E+03        -10.5335        -10.5335         35.7784         35.7784
            3143     1.26220E+03     1.26220E+03        -14.5643        -14.5643         41.4510         41.4510
            3144     1.26212E+03     1.26212E+03        -20.0813        -20.0813         48.3499         48.3499
            3145     1.26434E+03     1.26434E+03        -27.6920        -27.6920         56.4990         56.4990
            3146     1.27043E+03     1.27043E+03        -38.1780        -38.1780         65.5411         65.5411
            3147     1.28271E+03     1.28271E+03        -52.2193        -52.2193         74.3513         74.3513
            3148     1.21304E+03     1.21304E+03         353.264         353.264        -65.7374        -65.7374
            3149     1.22522E+03     1.22522E+03         324.296         324.296        -65.4164        -65.4164
            3150     1.23714E+03     1.23714E+03         295.301         295.301        -63.4561        -63.4561
            3151     1.24850E+03     1.24850E+03         266.824         266.824        -60.5091        -60.5091
            3152     1.25908E+03     1.25908E+03         239.250         239.250        -56.6798        -56.6798
            3153     1.26873E+03     1.26873E+03         212.923         212.923        -52.0957        -52.0957
            3154     1.27730E+03     1.27730E+03         188.131         188.131        -46.9464        -46.9464
            3155     1.28473E+03     1.28473E+03         165.075         165.075        -41.4221        -41.4221
            3156     1.29100E+03     1.29100E+03         143.890         143.890        -35.7236        -35.7236
            3157     1.29614E+03     1.29614E+03         124.626         124.626        -30.0298        -30.0298
            3158     1.30020E+03     1.30020E+03         107.278         107.278        -24.4908        -24.4908
            3159     1.30329E+03     1.30329E+03         91.7911         91.7911        -19.2288        -19.2288
            3160     1.30549E+03     1.30549E+03         78.0716         78.0716        -14.3241        -14.3241
            3161     1.30692E+03     1.30692E+03         66.0067         66.0067        -9.83434        -9.83434
            3162     1.30767E+03     1.30767E+03         55.4665         55.4665        -5.78114        -5.78114
            3163     1.30785E+03     1.30785E+03         46.3194         46.3194        -2.17208        -2.17208
            3164     1.30754E+03     1.30754E+03         38.4293         38.4293         1.00886         1.00886
            3165     1.30683E+03     1.30683E+03         31.6677         31.6677         3.78434         3.78434
            3166     1.30578E+03     1.30578E+03         25.9076         25.9076         6.18984         6.18984
            3167     1.30446E+03     1.30446E+03         21.0322         21.0322         8.26254         8.26254
            3168     1.30291E+03     1.30291E+03         16.9291         16.9291         10.0453         10.0453
            3169     1.30118E+03     1.30118E+03         13.4956         13.4956         11.5802         11.5802
            3170     1.29932E+03     1.29932E+03         10.6338         10.6338         12.9112         12.9112
            3171     1.29735E+03     1.29735E+03         8.25387         8.25387         14.0811         14.0811
            3172     1.29529E+03     1.29529E+03         6.27026         6.27026         15.1331         15.1331
            3173     1.29318E+03     1.29318E+03         4.60312         4.60312         16.1098         16.1098
            3174     1.29104E+03     1.29104E+03         3.17563         3.17563         17.0550         17.0550
            3175     1.28888E+03     1.28888E+03         1.91398         1.91398         18.0134         18.0134
            3176     1.28674E+03     1.28674E+03     745.112E-03     745.112E-03         19.0324         19.0324
            3177     1.28463E+03     1.28463E+03    -404.507E-03    -404.507E-03         20.1624         20.1624
            3178     1.28260E+03     1.28260E+03        -1.61151        -1.61151         21.4590         21.4590
            3179     1.28067E+03     1.28067E+03        -2.95857        -2.95857         22.9826         22.9826
            3180     1.27893E+03     1.27893E+03        -4.53838        -4.53838         24.8002         24.8002
            3181     1.27745E+03     1.27745E+03        -6.45979        -6.45979         26.9833         26.9833
            3182     1.27637E+03     1.27637E+03        -8.85405        -8.85405         29.6056         29.6056
            3183     1.27589E+03     1.27589E+03        -11.8866        -11.8866         32.7344         32.7344
            3184     1.27629E+03     1.27629E+03        -15.7639        -15.7639         36.4123         36.4123
            3185     1.27801E+03     1.27801E+03        -20.7490        -20.7490         40.6224         40.6224
            3186     1.28166E+03     1.28166E+03        -27.1445        -27.1445         45.2163         45.2163
            3187     1.28811E+03     1.28811E+03        -35.2628        -35.2628         49.7912         49.7912
            3188     1.29845E+03     1.29845E+03        -45.2085        -45.2085         53.4880         53.4880
            3189     1.31382E+03     1.31382E+03        -56.5566        -56.5566         54.7517         54.7517
            3190     1.33583E+03     1.33583E+03        -46.9921        -46.9921        -21.2961        -21.2961
            3191     1.32425E+03     1.32425E+03        -42.9283        -42.9283        -27.1217        -27.1217
            3192     1.31412E+03     1.31412E+03        -37.4370        -37.4370        -30.3914        -30.3914
            3193     1.30584E+03     1.30584E+03        -31.5992        -31.5992        -31.6966        -31.6966
            3194     1.29944E+03     1.29944E+03        -26.0724        -26.0724        -31.7190        -31.7190
            3195     1.29472E+03     1.29472E+03        -21.1527        -21.1527        -30.9924        -30.9924
            3196     1.29140E+03     1.29140E+03        -16.9284        -16.9284        -29.8964        -29.8964
            3197     1.28920E+03     1.28920E+03        -13.3721        -13.3721        -28.6649        -28.6649
            3198     1.28789E+03     1.28789E+03        -10.4115        -10.4115        -27.4337        -27.4337
            3199     1.28727E+03     1.28727E+03        -7.95462        -7.95462        -26.2708        -26.2708
            3200     1.28718E+03     1.28718E+03        -5.90792        -5.90792        -25.2026        -25.2026
            3201     1.28750E+03     1.28750E+03        -4.18020        -4.18020        -24.2295        -24.2295
            3202     1.28813E+03     1.28813E+03        -2.68549        -2.68549        -23.3363        -23.3363
            3203     1.28900E+03     1.28900E+03        -1.34271        -1.34271        -22.4985        -22.4985
            3204     1.29006E+03     1.29006E+03    -74.5381E-03    -74.5381E-03        -21.6858        -21.6858
            3205     1.29127E+03     1.29127E+03         1.19328         1.19328        -20.8644        -20.8644
            3206     1.29258E+03     1.29258E+03         2.53413         2.53413        -19.9975        -19.9975
            3207     1.29397E+03     1.29397E+03         4.02063         4.02063        -19.0457        -19.0457
            3208     1.29541E+03     1.29541E+03         5.72769         5.72769        -17.9669        -17.9669
            3209     1.29689E+03     1.29689E+03         7.73154         7.73154        -16.7160        -16.7160
            3210     1.29837E+03     1.29837E+03         10.1142         10.1142        -15.2445        -15.2445
            3211     1.29984E+03     1.29984E+03         12.9607         12.9607        -13.5009        -13.5009
            3212     1.30126E+03     1.30126E+03         16.3661         16.3661        -11.4296        -11.4296
            3213     1.30260E+03     1.30260E+03         20.4300         20.4300        -8.97299        -8.97299
            3214     1.30383E+03     1.30383E+03         25.2670         25.2670        -6.06975        -6.06975
            3215     1.30489E+03     1.30489E+03         30.9971         30.9971        -2.66042        -2.66042
            3216     1.30572E+03     1.30572E+03         37.7613         37.7613         1.31646         1.31646
            3217     1.30625E+03     1.30625E+03         45.7051         45.7051         5.91132         5.91132
            3218     1.30638E+03     1.30638E+03         55.0006         55.0006         11.1724         11.1724
            3219     1.30601E+03     1.30601E+03         65.8201         65.8201         17.1192         17.1192
            3220     1.30500E+03     1.30500E+03         78.3618         78.3618         23.7612         23.7612
            3221     1.30319E+03     1.30319E+03         92.8135         92.8135         31.0508         31.0508
            3222     1.30045E+03     1.30045E+03         109.369         109.369         38.9174         38.9174
            3223     1.29656E+03     1.29656E+03         128.190         128.190         47.2033         47.2033
            3224     1.29141E+03     1.29141E+03         149.390         149.390         55.7111         55.7111
            3225     1.28483E+03     1.28483E+03         173.015         173.015         64.1563         64.1563
            3226     1.27680E+03     1.27680E+03         198.979         198.979         72.2057         72.2057
            3227     1.26729E+03     1.26729E+03         227.091         227.091         79.5111         79.5111
            3228     1.25645E+03     1.25645E+03         256.981         256.981         85.6966         85.6966
            3229     1.24449E+03     1.24449E+03         288.169         288.169         90.5065         90.5065
            3230     1.23168E+03     1.23168E+03         320.066         320.066         93.7024         93.7024
            3231     1.21849E+03     1.21849E+03         351.882         351.882         94.3418         94.3418
            3232     1.33619E+03     1.33619E+03        -39.6038        -39.6038        -10.6972        -10.6972
            3233     1.32715E+03     1.32715E+03        -37.9567        -37.9567        -17.2613        -17.2613
            3234     1.31870E+03     1.31870E+03        -34.5479        -34.5479        -21.8215        -21.8215
            3235     1.31125E+03     1.31125E+03        -30.2577        -30.2577        -24.6884        -24.6884
            3236     1.30504E+03     1.30504E+03        -25.7602        -25.7602        -26.2464        -26.2464
            3237     1.30008E+03     1.30008E+03        -21.4632        -21.4632        -26.8959        -26.8959
            3238     1.29628E+03     1.29628E+03        -17.5742        -17.5742        -26.9585        -26.9585
            3239     1.29348E+03     1.29348E+03        -14.1712        -14.1712        -26.6735        -26.6735
            3240     1.29151E+03     1.29151E+03        -11.2542        -11.2542        -26.1995        -26.1995
            3241     1.29023E+03     1.29023E+03        -8.78362        -8.78362        -25.6365        -25.6365
            3242     1.28950E+03     1.28950E+03        -6.69850        -6.69850        -25.0405        -25.0405
            3243     1.28921E+03     1.28921E+03        -4.92971        -4.92971        -24.4383        -24.4383
            3244     1.28928E+03     1.28928E+03        -3.40500        -3.40500        -23.8362        -23.8362
            3245     1.28963E+03     1.28963E+03        -2.05215        -2.05215        -23.2270        -23.2270
            3246     1.29020E+03     1.29020E+03    -800.194E-03    -800.194E-03        -22.5943        -22.5943
            3247     1.29096E+03     1.29096E+03     421.005E-03     421.005E-03        -21.9144        -21.9144
            3248     1.29186E+03     1.29186E+03         1.68041         1.68041        -21.1583        -21.1583
            3249     1.29288E+03     1.29288E+03         3.04784         3.04784        -20.2921        -20.2921
            3250     1.29400E+03     1.29400E+03         4.59335         4.59335        -19.2770        -19.2770
            3251     1.29519E+03     1.29519E+03         6.39072         6.39072        -18.0698        -18.0698
            3252     1.29644E+03     1.29644E+03         8.51573         8.51573        -16.6222        -16.6222
            3253     1.29773E+03     1.29773E+03         11.0519         11.0519        -14.8804        -14.8804
            3254     1.29904E+03     1.29904E+03         14.0865         14.0865        -12.7861        -12.7861
            3255     1.30035E+03     1.30035E+03         17.7200         17.7200        -10.2750        -10.2750
            3256     1.30162E+03     1.30162E+03         22.0583         22.0583        -7.27984        -7.27984
            3257     1.30282E+03     1.30282E+03         27.2283         27.2283        -3.72788        -3.72788
            3258     1.30390E+03     1.30390E+03         33.3626         33.3626     451.093E-03     451.093E-03
            3259     1.30478E+03     1.30478E+03         40.6252         40.6252         5.33109         5.33109
            3260     1.30539E+03     1.30539E+03         49.1845         49.1845         10.9699         10.9699
            3261     1.30561E+03     1.30561E+03         59.2505         59.2505         17.4248         17.4248
            3262     1.30529E+03     1.30529E+03         71.0314         71.0314         24.7093         24.7093
            3263     1.30429E+03     1.30429E+03         84.7783         84.7783         32.8272         32.8272
            3264     1.30239E+03     1.30239E+03         100.726         100.726         41.6933         41.6933
            3265     1.29939E+03     1.29939E+03         119.117         119.117         51.1943         51.1943
            3266     1.29504E+03     1.29504E+03         140.149         140.149         61.0843         61.0843
            3267     1.28918E+03     1.28918E+03         163.929         163.929         71.0621         71.0621
            3268     1.28162E+03     1.28162E+03         190.468         190.468         80.7149         80.7149
            3269     1.27237E+03     1.27237E+03         219.557         219.557         89.5631         89.5631
            3270     1.26149E+03     1.26149E+03         250.840         250.840         97.1667         97.1667
            3271     1.24921E+03     1.24921E+03         283.715         283.715         103.062         103.062
            3272     1.23593E+03     1.23593E+03         317.449         317.449         107.026         107.026
            3273     1.22207E+03     1.22207E+03         351.106         351.106         107.852         107.852
            3274     1.33371E+03     1.33371E+03        -32.1772        -32.1772        -2.90824        -2.90824
            3275     1.32703E+03     1.32703E+03        -32.3236        -32.3236        -9.46845        -9.46845
            3276     1.32030E+03     1.32030E+03        -30.5407        -30.5407        -14.5664        -14.5664
            3277     1.31399E+03     1.31399E+03        -27.6349        -27.6349        -18.3174        -18.3174
            3278     1.30838E+03     1.30838E+03        -24.1938        -24.1938        -20.9172        -20.9172
            3279     1.30362E+03     1.30362E+03        -20.6470        -20.6470        -22.6077        -22.6077
            3280     1.29972E+03     1.29972E+03        -17.2591        -17.2591        -23.6290        -23.6290
            3281     1.29663E+03     1.29663E+03        -14.1736        -14.1736        -24.1795        -24.1795
            3282     1.29426E+03     1.29426E+03        -11.4493        -11.4493        -24.4119        -24.4119
            3283     1.29252E+03     1.29252E+03        -9.09116        -9.09116        -24.4336        -24.4336
            3284     1.29129E+03     1.29129E+03        -7.07219        -7.07219        -24.3159        -24.3159
            3285     1.29050E+03     1.29050E+03        -5.34666        -5.34666        -24.1021        -24.1021
            3286     1.29006E+03     1.29006E+03        -3.85916        -3.85916        -23.8149        -23.8149
            3287     1.28992E+03     1.28992E+03        -2.54954        -2.54954        -23.4616        -23.4616
            3288     1.29002E+03     1.29002E+03        -1.35546        -1.35546        -23.0377        -23.0377
            3289     1.29033E+03     1.29033E+03    -214.168E-03    -214.168E-03        -22.5298        -22.5298
            3290     1.29081E+03     1.29081E+03     937.898E-03     937.898E-03        -21.9171        -21.9171
            3291     1.29143E+03     1.29143E+03         2.16422         2.16422        -21.1719        -21.1719
            3292     1.29219E+03     1.29219E+03         3.53049         3.53049        -20.2600        -20.2600
            3293     1.29305E+03     1.29305E+03         5.10339         5.10339        -19.1411        -19.1411
            3294     1.29403E+03     1.29403E+03         6.95496         6.95496        -17.7680        -17.7680
            3295     1.29510E+03     1.29510E+03         9.15987         9.15987        -16.0870        -16.0870
            3296     1.29625E+03     1.29625E+03         11.8031         11.8031        -14.0371        -14.0371
            3297     1.29747E+03     1.29747E+03         14.9743         14.9743        -11.5507        -11.5507
            3298     1.29875E+03     1.29875E+03         18.7808         18.7808        -8.55216        -8.55216
            3299     1.30005E+03     1.30005E+03         23.3363         23.3363        -4.96159        -4.96159
            3300     1.30134E+03     1.30134E+03         28.7839         28.7839    -690.941E-03    -690.941E-03
            3301     1.30257E+03     1.30257E+03         35.2734         35.2734         4.34452         4.34452
            3302     1.30367E+03     1.30367E+03         43.0011         43.0011         10.2366         10.2366
            3303     1.30452E+03     1.30452E+03         52.1670         52.1670         17.0541         17.0541
            3304     1.30500E+03     1.30500E+03         63.0369         63.0369         24.8691         24.8691
            3305     1.30493E+03     1.30493E+03         75.8714         75.8714         33.6873         33.6873
            3306     1.30409E+03     1.30409E+03         91.0012         91.0012         43.5076         43.5076
            3307     1.30218E+03     1.30218E+03         108.731         108.731         54.1871         54.1871
            3308     1.29897E+03     1.29897E+03         129.373         129.373         65.5492         65.5492
            3309     1.29407E+03     1.29407E+03         153.172         153.172         77.2103         77.2103
            3310     1.28733E+03     1.28733E+03         180.197         180.197         88.7066         88.7066
            3311     1.27852E+03     1.27852E+03         210.374         210.374         99.4461         99.4461
            3312     1.26774E+03     1.26774E+03         243.257         243.257         108.743         108.743
            3313     1.25520E+03     1.25520E+03         278.197         278.197         116.090         116.090
            3314     1.24130E+03     1.24130E+03         314.245         314.245         120.956         120.956
            3315     1.22676E+03     1.22676E+03         350.157         350.157         122.107         122.107
            3316     1.32968E+03     1.32968E+03        -25.3639        -25.3639         2.45761         2.45761
            3317     1.32500E+03     1.32500E+03        -26.6309        -26.6309        -3.57230        -3.57230
            3318     1.31988E+03     1.31988E+03        -26.0482        -26.0482        -8.70523        -8.70523
            3319     1.31476E+03     1.31476E+03        -24.2516        -24.2516        -12.8502        -12.8502
            3320     1.30994E+03     1.30994E+03        -21.7625        -21.7625        -16.0647        -16.0647
            3321     1.30562E+03     1.30562E+03        -18.9696        -18.9696        -18.4692        -18.4692
            3322     1.30189E+03     1.30189E+03        -16.1506        -16.1506        -20.2116        -20.2116
            3323     1.29875E+03     1.29875E+03        -13.4788        -13.4788        -21.4383        -21.4383
            3324     1.29619E+03     1.29619E+03        -11.0495        -11.0495        -22.2739        -22.2739
            3325     1.29414E+03     1.29414E+03        -8.90109        -8.90109        -22.8178        -22.8178
            3326     1.29254E+03     1.29254E+03        -7.03417        -7.03417        -23.1430        -23.1430
            3327     1.29133E+03     1.29133E+03        -5.42503        -5.42503        -23.3009        -23.3009
            3328     1.29046E+03     1.29046E+03        -4.03512        -4.03512        -23.3240        -23.3240
            3329     1.28987E+03     1.28987E+03        -2.81722        -2.81722        -23.2302        -23.2302
            3330     1.28951E+03     1.28951E+03        -1.71957        -1.71957        -23.0251        -23.0251
            3331     1.28936E+03     1.28936E+03    -687.655E-03    -687.655E-03        -22.7045        -22.7045
            3332     1.28940E+03     1.28940E+03     333.982E-03     333.982E-03        -22.2552        -22.2552
            3333     1.28960E+03     1.28960E+03         1.40254         1.40254        -21.6561        -21.6561
            3334     1.28995E+03     1.28995E+03         2.57573         2.57573        -20.8784        -20.8784
            3335     1.29045E+03     1.29045E+03         3.91468         3.91468        -19.8854        -19.8854
            3336     1.29109E+03     1.29109E+03         5.48208         5.48208        -18.6328        -18.6328
            3337     1.29187E+03     1.29187E+03         7.34782         7.34782        -17.0678        -17.0678
            3338     1.29279E+03     1.29279E+03         9.58508         9.58508        -15.1289        -15.1289
            3339     1.29386E+03     1.29386E+03         12.2807         12.2807        -12.7457        -12.7457
            3340     1.29507E+03     1.29507E+03         15.5267         15.5267        -9.83831        -9.83831
            3341     1.29641E+03     1.29641E+03         19.4395         19.4395        -6.31677        -6.31677
            3342     1.29787E+03     1.29787E+03         24.1422         24.1422        -2.08426        -2.08426
            3343     1.29940E+03     1.29940E+03         29.8003         29.8003         2.96774         2.96774
            3344     1.30096E+03     1.30096E+03         36.5854         36.5854         8.94474         8.94474
            3345     1.30248E+03     1.30248E+03         44.7396         44.7396         15.9648         15.9648
            3346     1.30381E+03     1.30381E+03         54.5063         54.5063         24.1143         24.1143
            3347     1.30480E+03     1.30480E+03         66.2346         66.2346         33.4914         33.4914
            3348     1.30520E+03     1.30520E+03         80.2612         80.2612         44.0922         44.0922
            3349     1.30473E+03     1.30473E+03         97.0400         97.0400         55.9149         55.9149
            3350     1.30294E+03     1.30294E+03         116.983         116.983         68.7241         68.7241
            3351     1.29952E+03     1.29952E+03         140.499         140.499         82.2424         82.2424
            3352     1.29391E+03     1.29391E+03         167.888         167.888         95.8639         95.8639
            3353     1.28599E+03     1.28599E+03         199.102         199.102         108.857         108.857
            3354     1.27551E+03     1.27551E+03         233.866         233.866         120.389         120.389
            3355     1.26277E+03     1.26277E+03         271.295         271.295         129.499         129.499
            3356     1.24830E+03     1.24830E+03         310.227         310.227         135.698         135.698
            3357     1.23275E+03     1.23275E+03         349.073         349.073         137.209         137.209
            3358     1.32502E+03     1.32502E+03        -19.4892        -19.4892         5.94425         5.94425
            3359     1.32191E+03     1.32191E+03        -21.2929        -21.2929     671.708E-03     671.708E-03
            3360     1.31817E+03     1.31817E+03        -21.4829        -21.4829        -4.16024        -4.16024
            3361     1.31418E+03     1.31418E+03        -20.5155        -20.5155        -8.35602        -8.35602
            3362     1.31020E+03     1.31020E+03        -18.8069        -18.8069        -11.8543        -11.8543
            3363     1.30645E+03     1.30645E+03        -16.6985        -16.6985        -14.6835        -14.6835
            3364     1.30303E+03     1.30303E+03        -14.4450        -14.4450        -16.9148        -16.9148
            3365     1.30001E+03     1.30001E+03        -12.2251        -12.2251        -18.6384        -18.6384
            3366     1.29739E+03     1.29739E+03        -10.1489        -10.1489        -19.9455        -19.9455
            3367     1.29517E+03     1.29517E+03        -8.27495        -8.27495        -20.9165        -20.9165
            3368     1.29330E+03     1.29330E+03        -6.62325        -6.62325        -21.6184        -21.6184
            3369     1.29175E+03     1.29175E+03        -5.18751        -5.18751        -22.1025        -22.1025
            3370     1.29049E+03     1.29049E+03        -3.94393        -3.94393        -22.4062        -22.4062
            3371     1.28947E+03     1.28947E+03        -2.85789        -2.85789        -22.5541        -22.5541
            3372     1.28867E+03     1.28867E+03        -1.88802        -1.88802        -22.5595        -22.5595
            3373     1.28806E+03     1.28806E+03    -989.476E-03    -989.476E-03        -22.4255        -22.4255
            3374     1.28763E+03     1.28763E+03    -114.775E-03    -114.775E-03        -22.1461        -22.1461
            3375     1.28737E+03     1.28737E+03     784.473E-03     784.473E-03        -21.7066        -21.7066
            3376     1.28727E+03     1.28727E+03         1.75901         1.75901        -21.0838        -21.0838
            3377     1.28734E+03     1.28734E+03         2.86039         2.86039        -20.2456        -20.2456
            3378     1.28758E+03     1.28758E+03         4.14479         4.14479        -19.1514        -19.1514
            3379     1.28800E+03     1.28800E+03         5.67038         5.67038        -17.7510        -17.7510
            3380     1.28861E+03     1.28861E+03         7.50465         7.50465        -15.9843        -15.9843
            3381     1.28944E+03     1.28944E+03         9.71886         9.71886        -13.7801        -13.7801
            3382     1.29048E+03     1.29048E+03         12.4021         12.4021        -11.0561        -11.0561
            3383     1.29177E+03     1.29177E+03         15.6491         15.6491        -7.71734        -7.71734
            3384     1.29329E+03     1.29329E+03         19.5876         19.5876        -3.65538        -3.65538
            3385     1.29505E+03     1.29505E+03         24.3520         24.3520         1.24927         1.24927
            3386     1.29701E+03     1.29701E+03         30.1371         30.1371         7.13296         7.13296
            3387     1.29915E+03     1.29915E+03         37.1423         37.1423         14.1318         14.1318
            3388     1.30135E+03     1.30135E+03         45.6743         45.6743         22.4035         22.4035
            3389     1.30348E+03     1.30348E+03         56.0351         56.0351         32.0646         32.0646
            3390     1.30532E+03     1.30532E+03         68.7006         68.7006         43.2596         43.2596
            3391     1.30652E+03     1.30652E+03         84.1186         84.1186         55.9742         55.9742
            3392     1.30670E+03     1.30670E+03         102.942         102.942         70.2198         70.2198
            3393     1.30517E+03     1.30517E+03         125.757         125.757         85.6008         85.6008
            3394     1.30150E+03     1.30150E+03         153.094         153.094         101.666         101.666
            3395     1.29486E+03     1.29486E+03         185.308         185.308         117.438         117.438
            3396     1.28525E+03     1.28525E+03         222.035         222.035         131.721         131.721
            3397     1.27252E+03     1.27252E+03         262.541         262.541         143.410         143.410
            3398     1.25731E+03     1.25731E+03         305.153         305.153         151.213         151.213
            3399     1.24085E+03     1.24085E+03         347.681         347.681         153.465         153.465
            3400     1.32029E+03     1.32029E+03        -14.6018        -14.6018         8.05138         8.05138
            3401     1.31836E+03     1.31836E+03        -16.5230        -16.5230         3.57902         3.57902
            3402     1.31577E+03     1.31577E+03        -17.1240        -17.1240    -785.206E-03    -785.206E-03
            3403     1.31277E+03     1.31277E+03        -16.7143        -16.7143        -4.79926        -4.79926
            3404     1.30961E+03     1.30961E+03        -15.6057        -15.6057        -8.33685        -8.33685
            3405     1.30645E+03     1.30645E+03        -14.0736        -14.0736        -11.3540        -11.3540
            3406     1.30343E+03     1.30343E+03        -12.3398        -12.3398        -13.8631        -13.8631
            3407     1.30061E+03     1.30061E+03        -10.5668        -10.5668        -15.9063        -15.9063
            3408     1.29804E+03     1.29804E+03        -8.86528        -8.86528        -17.5404        -17.5404
            3409     1.29572E+03     1.29572E+03        -7.30064        -7.30064        -18.8251        -18.8251
            3410     1.29365E+03     1.29365E+03        -5.90388        -5.90388        -19.8154        -19.8154
            3411     1.29182E+03     1.29182E+03        -4.68037        -4.68037        -20.5587        -20.5587
            3412     1.29020E+03     1.29020E+03        -3.61791        -3.61791        -21.0929        -21.0929
            3413     1.28877E+03     1.28877E+03        -2.69250        -2.69250        -21.4461        -21.4461
            3414     1.28752E+03     1.28752E+03        -1.87290        -1.87290        -21.6367        -21.6367
            3415     1.28644E+03     1.28644E+03        -1.12318        -1.12318        -21.6737        -21.6737
            3416     1.28552E+03     1.28552E+03    -405.150E-03    -405.150E-03        -21.5572        -21.5572
            3417     1.28475E+03     1.28475E+03     321.671E-03     321.671E-03        -21.2785        -21.2785
            3418     1.28415E+03     1.28415E+03         1.09848         1.09848        -20.8198        -20.8198
            3419     1.28372E+03     1.28372E+03         1.96930         1.96930        -20.1545        -20.1545
            3420     1.28348E+03     1.28348E+03         2.97920         2.97920        -19.2464        -19.2464
            3421     1.28345E+03     1.28345E+03         4.17897         4.17897        -18.0497        -18.0497
            3422     1.28365E+03     1.28365E+03         5.62174         5.62174        -16.5069        -16.5069
            3423     1.28412E+03     1.28412E+03         7.37226         7.37226        -14.5498        -14.5498
            3424     1.28489E+03     1.28489E+03         9.49935         9.49935        -12.0956        -12.0956
            3425     1.28598E+03     1.28598E+03         12.0945         12.0945        -9.04820        -9.04820
            3426     1.28743E+03     1.28743E+03         15.2549         15.2549        -5.29373        -5.29373
            3427     1.28928E+03     1.28928E+03         19.1216         19.1216    -701.087E-03    -701.087E-03
            3428     1.29152E+03     1.29152E+03         23.8416         23.8416         4.88002         4.88002
            3429     1.29417E+03     1.29417E+03         29.6473         29.6473         11.6237         11.6237
            3430     1.29717E+03     1.29717E+03         36.7715         36.7715         19.7122         19.7122
            3431     1.30045E+03     1.30045E+03         45.6120         45.6120         29.3644         29.3644
            3432     1.30382E+03     1.30382E+03         56.5480         56.5480         40.7496         40.7496
            3433     1.30700E+03     1.30700E+03         70.2531         70.2531         54.0979         54.0979
            3434     1.30950E+03     1.30950E+03         87.3405         87.3405         69.3881         69.3881
            3435     1.31075E+03     1.31075E+03         108.806         108.806         86.6813         86.6813
            3436     1.30962E+03     1.30962E+03         135.532         135.532         105.282         105.282
            3437     1.30556E+03     1.30556E+03         168.175         168.175         124.402         124.402
            3438     1.29730E+03     1.29730E+03         207.091         207.091         142.432         142.432
            3439     1.28515E+03     1.28515E+03         251.116         251.116         157.357         157.357
            3440     1.26948E+03     1.26948E+03         298.480         298.480         167.897         167.897
            3441     1.25144E+03     1.25144E+03         346.048         346.048         170.961         170.961
            3442     1.31579E+03     1.31579E+03        -10.6234        -10.6234         9.14961         9.14961
            3443     1.31477E+03     1.31477E+03        -12.3872        -12.3872         5.42684         5.42684
            3444     1.31310E+03     1.31310E+03        -13.1306        -13.1306         1.59497         1.59497
            3445     1.31098E+03     1.31098E+03        -13.0514        -13.0514        -2.09983        -2.09983
            3446     1.30855E+03     1.30855E+03        -12.3715        -12.3715        -5.49829        -5.49829
            3447     1.30598E+03     1.30598E+03        -11.3010        -11.3010        -8.51495        -8.51495
            3448     1.30337E+03     1.30337E+03        -10.0177        -10.0177        -11.1180        -11.1180
            3449     1.30080E+03     1.30080E+03        -8.66055        -8.66055        -13.3135        -13.3135
            3450     1.29832E+03     1.29832E+03        -7.32770        -7.32770        -15.1291        -15.1291
            3451     1.29596E+03     1.29596E+03        -6.08248        -6.08248        -16.6042        -16.6042
            3452     1.29373E+03     1.29373E+03        -4.95873        -4.95873        -17.7813        -17.7813
            3453     1.29164E+03     1.29164E+03        -3.96828        -3.96828        -18.7014        -18.7014
            3454     1.28968E+03     1.28968E+03        -3.10660        -3.10660        -19.4002        -19.4002
            3455     1.28784E+03     1.28784E+03        -2.35829        -2.35829        -19.9070        -19.9070
            3456     1.28613E+03     1.28613E+03        -1.70055        -1.70055        -20.2432        -20.2432
            3457     1.28455E+03     1.28455E+03        -1.10636        -1.10636        -20.4220        -20.4220
            3458     1.28309E+03     1.28309E+03    -545.656E-03    -545.656E-03        -20.4486        -20.4486
            3459     1.28177E+03     1.28177E+03     12.8515E-03     12.8515E-03        -20.3193        -20.3193
            3460     1.28060E+03     1.28060E+03     602.422E-03     602.422E-03        -20.0220        -20.0220
            3461     1.27960E+03     1.27960E+03         1.25687         1.25687        -19.5352        -19.5352
            3462     1.27879E+03     1.27879E+03         2.01326         2.01326        -18.8288        -18.8288
            3463     1.27820E+03     1.27820E+03         2.90981         2.90981        -17.8614        -17.8614
            3464     1.27788E+03     1.27788E+03         3.99150         3.99150        -16.5821        -16.5821
            3465     1.27786E+03     1.27786E+03         5.30584         5.30584        -14.9259        -14.9259
            3466     1.27819E+03     1.27819E+03         6.91408         6.91408        -12.8159        -12.8159
            3467     1.27893E+03     1.27893E+03         8.88168         8.88168        -10.1565        -10.1565
            3468     1.28014E+03     1.28014E+03         11.3018         11.3018        -6.83686        -6.83686
            3469     1.28187E+03     1.28187E+03         14.2730         14.2730        -2.71994        -2.71994
            3470     1.28419E+03     1.28419E+03         17.9505         17.9505         2.35222         2.35222
            3471     1.28715E+03     1.28715E+03         22.4935         22.4935         8.57168         8.57168
            3472     1.29078E+03     1.29078E+03         28.1801         28.1801         16.1627         16.1627
            3473     1.29507E+03     1.29507E+03         35.2808         35.2808         25.3789         25.3789
            3474     1.29994E+03     1.29994E+03         44.3195         44.3195         36.5322         36.5322
            3475     1.30522E+03     1.30522E+03         55.7736         55.7736         49.8899         49.8899
            3476     1.31050E+03     1.31050E+03         70.6353         70.6353         65.8402         65.8402
            3477     1.31510E+03     1.31510E+03         89.7648         89.7648         84.3765         84.3765
            3478     1.31810E+03     1.31810E+03         114.799         114.799         105.711         105.711
            3479     1.31749E+03     1.31749E+03         147.178         147.178         128.527         128.527
            3480     1.31264E+03     1.31264E+03         187.557         187.557         151.289         151.289
            3481     1.30171E+03     1.30171E+03         235.993         235.993         171.348         171.348
            3482     1.28573E+03     1.28573E+03         289.429         289.429         185.269         185.269
            3483     1.26667E+03     1.26667E+03         343.649         343.649         190.408         190.408
            3484     1.31168E+03     1.31168E+03        -7.42648        -7.42648         9.47331         9.47331
            3485     1.31139E+03     1.31139E+03        -8.87698        -8.87698         6.41702         6.41702
            3486     1.31051E+03     1.31051E+03        -9.58171        -9.58171         3.12815         3.12815
            3487     1.30915E+03     1.30915E+03        -9.66257        -9.66257    -164.586E-03    -164.586E-03
            3488     1.30739E+03     1.30739E+03        -9.26906        -9.26906        -3.29558        -3.29558
            3489     1.30537E+03     1.30537E+03        -8.55196        -8.55196        -6.15813        -6.15813
            3490     1.30315E+03     1.30315E+03        -7.64538        -7.64538        -8.69544        -8.69544
            3491     1.30083E+03     1.30083E+03        -6.65764        -6.65764        -10.8878        -10.8878
            3492     1.29846E+03     1.29846E+03        -5.66917        -5.66917        -12.7420        -12.7420
            3493     1.29606E+03     1.29606E+03        -4.73367        -4.73367        -14.2808        -14.2808
            3494     1.29368E+03     1.29368E+03        -3.88250        -3.88250        -15.5353        -15.5353
            3495     1.29133E+03     1.29133E+03        -3.12891        -3.12891        -16.5395        -16.5395
            3496     1.28902E+03     1.28902E+03        -2.47300        -2.47300        -17.3259        -17.3259
            3497     1.28676E+03     1.28676E+03        -1.90528        -1.90528        -17.9231        -17.9231
            3498     1.28456E+03     1.28456E+03        -1.41024        -1.41024        -18.3537        -18.3537
            3499     1.28244E+03     1.28244E+03    -968.207E-03    -968.207E-03        -18.6339        -18.6339
            3500     1.28040E+03     1.28040E+03    -557.403E-03    -557.403E-03        -18.7720        -18.7720
            3501     1.27847E+03     1.27847E+03    -154.217E-03    -154.217E-03        -18.7691        -18.7691
            3502     1.27666E+03     1.27666E+03     265.508E-03     265.508E-03        -18.6177        -18.6177
            3503     1.27500E+03     1.27500E+03     727.699E-03     727.699E-03        -18.3025        -18.3025
            3504     1.27353E+03     1.27353E+03         1.25876         1.25876        -17.7983        -17.7983
            3505     1.27228E+03     1.27228E+03         1.88858         1.88858        -17.0715        -17.0715
            3506     1.27129E+03     1.27129E+03         2.64832         2.64832        -16.0767        -16.0767
            3507     1.27063E+03     1.27063E+03         3.57648         3.57648        -14.7585        -14.7585
            3508     1.27036E+03     1.27036E+03         4.71424         4.71424        -13.0448        -13.0448
            3509     1.27054E+03     1.27054E+03         6.11787         6.11787        -10.8518        -10.8518
            3510     1.27127E+03     1.27127E+03         7.84804         7.84804        -8.07052        -8.07052
            3511     1.27264E+03     1.27264E+03         9.99700         9.99700        -4.57608        -4.57608
            3512     1.27476E+03     1.27476E+03         12.6624         12.6624    -204.431E-03    -204.431E-03
            3513     1.27773E+03     1.27773E+03         16.0112         16.0112         5.23178         5.23178
            3514     1.28167E+03     1.28167E+03         20.2117         20.2117         11.9805         11.9805
            3515     1.28666E+03     1.28666E+03         25.5924         25.5924         20.3290         20.3290
            3516     1.29280E+03     1.29280E+03         32.4607         32.4607         30.6422         30.6422
            3517     1.30001E+03     1.30001E+03         41.5103         41.5103         43.3697         43.3697
            3518     1.30820E+03     1.30820E+03         53.3344         53.3344         58.9668         58.9668
            3519     1.31682E+03     1.31682E+03         69.4502         69.4502         78.1152         78.1152
            3520     1.32492E+03     1.32492E+03         91.0806         91.0806         100.910         100.910
            3521     1.33089E+03     1.33089E+03         121.203         121.203         128.008         128.008
            3522     1.33075E+03     1.33075E+03         162.422         162.422         156.647         156.647
            3523     1.32411E+03     1.32411E+03         214.663         214.663         183.412         183.412
            3524     1.30881E+03     1.30881E+03         276.498         276.498         204.192         204.192
            3525     1.28736E+03     1.28736E+03         340.505         340.505         211.557         211.557
            3526     1.30805E+03     1.30805E+03        -4.88653        -4.88653         9.13090         9.13090
            3527     1.30844E+03     1.30844E+03        -5.95555        -5.95555         6.66456         6.66456
            3528     1.30827E+03     1.30827E+03        -6.51786        -6.51786         3.91520         3.91520
            3529     1.30759E+03     1.30759E+03        -6.64416        -6.64416         1.08313         1.08313
            3530     1.30645E+03     1.30645E+03        -6.42973        -6.42973        -1.67590        -1.67590
            3531     1.30492E+03     1.30492E+03        -5.97530        -5.97530        -4.25233        -4.25233
            3532     1.30308E+03     1.30308E+03        -5.37396        -5.37396        -6.57848        -6.57848
            3533     1.30098E+03     1.30098E+03        -4.70329        -4.70329        -8.62157        -8.62157
            3534     1.29868E+03     1.29868E+03        -4.02229        -4.02229        -10.3748        -10.3748
            3535     1.29623E+03     1.29623E+03        -3.37187        -3.37187        -11.8497        -11.8497
            3536     1.29368E+03     1.29368E+03        -2.77671        -2.77671        -13.0684        -13.0684
            3537     1.29104E+03     1.29104E+03        -2.24858        -2.24858        -14.0585        -14.0585
            3538     1.28835E+03     1.28835E+03        -1.78919        -1.78919        -14.8487        -14.8487
            3539     1.28563E+03     1.28563E+03        -1.39330        -1.39330        -15.4654        -15.4654
            3540     1.28291E+03     1.28291E+03        -1.05075        -1.05075        -15.9311        -15.9311
            3541     1.28020E+03     1.28020E+03    -748.527E-03    -748.527E-03        -16.2629        -16.2629
            3542     1.27753E+03     1.27753E+03    -471.567E-03    -471.567E-03        -16.4717        -16.4717
            3543     1.27492E+03     1.27492E+03    -204.017E-03    -204.017E-03        -16.5614        -16.5614
            3544     1.27240E+03     1.27240E+03     71.0966E-03     71.0966E-03        -16.5291        -16.5291
            3545     1.26999E+03     1.26999E+03     370.930E-03     370.930E-03        -16.3640        -16.3640
            3546     1.26775E+03     1.26775E+03     714.244E-03     714.244E-03        -16.0480        -16.0480
            3547     1.26571E+03     1.26571E+03         1.12028         1.12028        -15.5538        -15.5538
            3548     1.26392E+03     1.26392E+03         1.61164         1.61164        -14.8459        -14.8459
            3549     1.26245E+03     1.26245E+03         2.21238         2.21238        -13.8764        -13.8764
            3550     1.26138E+03     1.26138E+03         2.95349         2.95349        -12.5879        -12.5879
            3551     1.26078E+03     1.26078E+03         3.86910         3.86910        -10.9041        -10.9041
            3552     1.26077E+03     1.26077E+03         5.00778         5.00778        -8.73713        -8.73713
            3553     1.26147E+03     1.26147E+03         6.42363         6.42363        -5.96686        -5.96686
            3554     1.26302E+03     1.26302E+03         8.20234         8.20234        -2.45827        -2.45827
            3555     1.26559E+03     1.26559E+03         10.4374         10.4374         1.98136         1.98136
            3556     1.26937E+03     1.26937E+03         13.2975         13.2975         7.56621         7.56621
            3557     1.27457E+03     1.27457E+03         16.9552         16.9552         14.6154         14.6154
            3558     1.28140E+03     1.28140E+03         21.7805         21.7805         23.4866         23.4866
            3559     1.29010E+03     1.29010E+03         28.1108         28.1108         34.7149         34.7149
            3560     1.30074E+03     1.30074E+03         36.8462         36.8462         48.9392         48.9392
            3561     1.31343E+03     1.31343E+03         48.6975         48.6975         66.9829         66.9829
            3562     1.32750E+03     1.32750E+03         66.0496         66.0496         90.0569         90.0569
            3563     1.34182E+03     1.34182E+03         90.6095         90.6095         118.684         118.684
            3564     1.35324E+03     1.35324E+03         128.539         128.539         154.832         154.832
            3565     1.35281E+03     1.35281E+03         185.052         185.052         192.015         192.015
            3566     1.34184E+03     1.34184E+03         256.220         256.220         221.604         221.604
            3567     1.32046E+03     1.32046E+03         334.635         334.635         236.646         236.646
            3568     1.30499E+03     1.30499E+03        -2.90755        -2.90755         8.12123         8.12123
            3569     1.30609E+03     1.30609E+03        -3.59467        -3.59467         6.19879         6.19879
            3570     1.30663E+03     1.30663E+03        -3.97286        -3.97286         4.00141         4.00141
            3571     1.30661E+03     1.30661E+03        -4.08017        -4.08017         1.69378         1.69378
            3572     1.30604E+03     1.30604E+03        -3.97162        -3.97162    -590.441E-03    -590.441E-03
            3573     1.30496E+03     1.30496E+03        -3.70816        -3.70816        -2.75212        -2.75212
            3574     1.30343E+03     1.30343E+03        -3.34736        -3.34736        -4.72602        -4.72602
            3575     1.30150E+03     1.30150E+03        -2.93823        -2.93823        -6.47640        -6.47640
            3576     1.29923E+03     1.29923E+03        -2.51883        -2.51883        -7.99109        -7.99109
            3577     1.29668E+03     1.29668E+03        -2.11588        -2.11588        -9.27492        -9.27492
            3578     1.29389E+03     1.29389E+03        -1.74608        -1.74608        -10.3439        -10.3439
            3579     1.29092E+03     1.29092E+03        -1.41766        -1.41766        -11.2199        -11.2199
            3580     1.28780E+03     1.28780E+03        -1.13253        -1.13253        -11.9272        -11.9272
            3581     1.28457E+03     1.28457E+03    -887.858E-03    -887.858E-03        -12.4891        -12.4891
            3582     1.28127E+03     1.28127E+03    -677.798E-03    -677.798E-03        -12.9260        -12.9260
            3583     1.27792E+03     1.27792E+03    -494.377E-03    -494.377E-03        -13.2544        -13.2544
            3584     1.27455E+03     1.27455E+03    -328.624E-03    -328.624E-03        -13.4856        -13.4856
            3585     1.27119E+03     1.27119E+03    -170.660E-03    -170.660E-03        -13.6255        -13.6255
            3586     1.26788E+03     1.26788E+03    -10.4637E-03    -10.4637E-03        -13.6740        -13.6740
            3587     1.26464E+03     1.26464E+03     162.709E-03     162.709E-03        -13.6252        -13.6252
            3588     1.26152E+03     1.26152E+03     359.678E-03     359.678E-03        -13.4664        -13.4664
            3589     1.25857E+03     1.25857E+03     592.556E-03     592.556E-03        -13.1788        -13.1788
            3590     1.25584E+03     1.25584E+03     874.068E-03     874.068E-03        -12.7346        -12.7346
            3591     1.25339E+03     1.25339E+03         1.21950         1.21950        -12.0999        -12.0999
            3592     1.25130E+03     1.25130E+03         1.64605         1.64605        -11.2276        -11.2276
            3593     1.24968E+03     1.24968E+03         2.17584         2.17584        -10.0632        -10.0632
            3594     1.24863E+03     1.24863E+03         2.83557         2.83557        -8.53040        -8.53040
            3595     1.24831E+03     1.24831E+03         3.66182         3.66182        -6.54448        -6.54448
            3596     1.24887E+03     1.24887E+03         4.70086         4.70086        -3.97992        -3.97992
            3597     1.25053E+03     1.25053E+03         6.02149         6.02149    -701.613E-03    -701.613E-03
            3598     1.25355E+03     1.25355E+03         7.71041         7.71041         3.50741         3.50741
            3599     1.25822E+03     1.25822E+03         9.91583         9.91583         8.87378         8.87378
            3600     1.26494E+03     1.26494E+03         12.8098         12.8098         15.7974         15.7974
            3601     1.27408E+03     1.27408E+03         16.7623         16.7623         24.6905         24.6905
            3602     1.28625E+03     1.28625E+03         22.1323         22.1323         36.3347         36.3347
            3603     1.30180E+03     1.30180E+03         30.0021         30.0021         51.5770         51.5770
            3604     1.32152E+03     1.32152E+03         41.1763         41.1763         71.9563         71.9563
            3605     1.34480E+03     1.34480E+03         59.3769         59.3769         99.5356         99.5356
            3606     1.37121E+03     1.37121E+03         86.7915         86.7915         136.424         136.424
            3607     1.39402E+03     1.39402E+03         138.078         138.078         188.416         188.416
            3608     1.39076E+03     1.39076E+03         224.021         224.021         238.791         238.791
            3609     1.36887E+03     1.36887E+03         324.470         324.470         261.972         261.972
            3610     1.30262E+03     1.30262E+03        -1.44156        -1.44156         6.34167         6.34167
            3611     1.30455E+03     1.30455E+03        -1.80038        -1.80038         4.96969         4.96969
            3612     1.30587E+03     1.30587E+03        -2.00332        -2.00332         3.37850         3.37850
            3613     1.30653E+03     1.30653E+03        -2.06730        -2.06730         1.68981         1.68981
            3614     1.30650E+03     1.30650E+03        -2.01953        -2.01953     4.57471E-03     4.57471E-03
            3615     1.30582E+03     1.30582E+03        -1.89058        -1.89058        -1.60040        -1.60040
            3616     1.30452E+03     1.30452E+03        -1.70992        -1.70992        -3.07317        -3.07317
            3617     1.30268E+03     1.30268E+03        -1.50294        -1.50294        -4.38416        -4.38416
            3618     1.30035E+03     1.30035E+03        -1.28948        -1.28948        -5.52203        -5.52203
            3619     1.29761E+03     1.29761E+03        -1.08374        -1.08374        -6.48902        -6.48902
            3620     1.29451E+03     1.29451E+03    -894.573E-03    -894.573E-03        -7.29647        -7.29647
            3621     1.29113E+03     1.29113E+03    -726.580E-03    -726.580E-03        -7.96088        -7.96088
            3622     1.28751E+03     1.28751E+03    -580.880E-03    -580.880E-03        -8.50084        -8.50084
            3623     1.28370E+03     1.28370E+03    -456.278E-03    -456.278E-03        -8.93464        -8.93464
            3624     1.27975E+03     1.27975E+03    -349.804E-03    -349.804E-03        -9.27877        -9.27877
            3625     1.27569E+03     1.27569E+03    -257.596E-03    -257.596E-03        -9.54665        -9.54665
            3626     1.27155E+03     1.27155E+03    -175.016E-03    -175.016E-03        -9.74825        -9.74825
            3627     1.26738E+03     1.26738E+03    -97.2901E-03    -97.2901E-03        -9.88933        -9.88933
            3628     1.26320E+03     1.26320E+03    -19.2235E-03    -19.2235E-03        -9.97174        -9.97174
            3629     1.25904E+03     1.25904E+03     64.2852E-03     64.2852E-03        -9.99257        -9.99257
            3630     1.25495E+03     1.25495E+03     158.812E-03     158.812E-03        -9.94494        -9.94494
            3631     1.25097E+03     1.25097E+03     270.047E-03     270.047E-03        -9.81634        -9.81634
            3632     1.24714E+03     1.24714E+03     404.385E-03     404.385E-03        -9.59024        -9.59024
            3633     1.24354E+03     1.24354E+03     569.163E-03     569.163E-03        -9.24248        -9.24248
            3634     1.24025E+03     1.24025E+03     772.563E-03     772.563E-03        -8.74467        -8.74467
            3635     1.23735E+03     1.23735E+03         1.02587         1.02587        -8.05622        -8.05622
            3636     1.23496E+03     1.23496E+03         1.34082         1.34082        -7.13215        -7.13215
            3637     1.23324E+03     1.23324E+03         1.73756         1.73756        -5.90495        -5.90495
            3638     1.23236E+03     1.23236E+03         2.23505         2.23505        -4.30357        -4.30357
            3639     1.23254E+03     1.23254E+03         2.87313         2.87313        -2.21029        -2.21029
            3640     1.23409E+03     1.23409E+03         3.68755         3.68755     491.226E-03     491.226E-03
            3641     1.23735E+03     1.23735E+03         4.76224         4.76224         4.02330         4.02330
            3642     1.24280E+03     1.24280E+03         6.18135         6.18135         8.58936         8.58936
            3643     1.25105E+03     1.25105E+03         8.12837         8.12837         14.6531         14.6531
            3644     1.26283E+03     1.26283E+03         10.8617         10.8617         22.6099         22.6099
            3645     1.27932E+03     1.27932E+03         14.7917         14.7917         33.5399         33.5399
            3646     1.30160E+03     1.30160E+03         20.9406         20.9406         48.3660         48.3660
            3647     1.33203E+03     1.33203E+03         30.2481         30.2481         69.8990         69.8990
            3648     1.37126E+03     1.37126E+03         47.9182         47.9182         101.106         101.106
            3649     1.42340E+03     1.42340E+03         76.3934         76.3934         149.487         149.487
            3650     1.47462E+03     1.47462E+03         154.641         154.641         230.824         230.824
            3651     1.46597E+03     1.46597E+03         299.010         299.010         298.770         298.770
            3652     1.30115E+03     1.30115E+03    -505.689E-03    -505.689E-03         3.61323         3.61323
            3653     1.30412E+03     1.30412E+03    -636.776E-03    -636.776E-03         2.87041         2.87041
            3654     1.30633E+03     1.30633E+03    -712.136E-03    -712.136E-03         2.00354         2.00354
            3655     1.30770E+03     1.30770E+03    -737.365E-03    -737.365E-03         1.08015         1.08015
            3656     1.30819E+03     1.30819E+03    -722.059E-03    -722.059E-03     156.595E-03     156.595E-03
            3657     1.30784E+03     1.30784E+03    -677.058E-03    -677.058E-03    -724.143E-03    -724.143E-03
            3658     1.30668E+03     1.30668E+03    -613.025E-03    -613.025E-03        -1.53275        -1.53275
            3659     1.30481E+03     1.30481E+03    -539.095E-03    -539.095E-03        -2.25247        -2.25247
            3660     1.30230E+03     1.30230E+03    -462.561E-03    -462.561E-03        -2.87687        -2.87687
            3661     1.29924E+03     1.29924E+03    -388.545E-03    -388.545E-03        -3.40721        -3.40721
            3662     1.29572E+03     1.29572E+03    -320.383E-03    -320.383E-03        -3.84997        -3.84997
            3663     1.29181E+03     1.29181E+03    -259.716E-03    -259.716E-03        -4.21461        -4.21461
            3664     1.28760E+03     1.28760E+03    -207.078E-03    -207.078E-03        -4.51180        -4.51180
            3665     1.28312E+03     1.28312E+03    -161.986E-03    -161.986E-03        -4.75213        -4.75213
            3666     1.27845E+03     1.27845E+03    -123.512E-03    -123.512E-03        -4.94515        -4.94515
            3667     1.27361E+03     1.27361E+03    -90.1690E-03    -90.1690E-03        -5.09883        -5.09883
            3668     1.26864E+03     1.26864E+03    -60.4760E-03    -60.4760E-03        -5.21912        -5.21912
            3669     1.26358E+03     1.26358E+03    -32.5758E-03    -32.5758E-03        -5.30993        -5.30993
            3670     1.25846E+03     1.25846E+03    -4.84956E-03    -4.84956E-03        -5.37271        -5.37271
            3671     1.25331E+03     1.25331E+03     24.6966E-03     24.6966E-03        -5.40691        -5.40691
            3672     1.24815E+03     1.24815E+03     57.7913E-03     57.7913E-03        -5.40919        -5.40919
            3673     1.24304E+03     1.24304E+03     96.5443E-03     96.5443E-03        -5.37429        -5.37429
            3674     1.23800E+03     1.23800E+03     143.141E-03     143.141E-03        -5.29347        -5.29347
            3675     1.23309E+03     1.23309E+03     199.802E-03     199.802E-03        -5.15619        -5.15619
            3676     1.22839E+03     1.22839E+03     270.135E-03     270.135E-03        -4.94675        -4.94675
            3677     1.22398E+03     1.22398E+03     356.187E-03     356.187E-03        -4.64782        -4.64782
            3678     1.21996E+03     1.21996E+03     465.378E-03     465.378E-03        -4.23300        -4.23300
            3679     1.21647E+03     1.21647E+03     598.370E-03     598.370E-03        -3.67510        -3.67510
            3680     1.21368E+03     1.21368E+03     772.357E-03     772.357E-03        -2.92845        -2.92845
            3681     1.21181E+03     1.21181E+03     982.950E-03     982.950E-03        -1.95009        -1.95009
            3682     1.21114E+03     1.21114E+03         1.27218         1.27218    -654.243E-03    -654.243E-03
            3683     1.21202E+03     1.21202E+03         1.62135         1.62135         1.02890         1.02890
            3684     1.21496E+03     1.21496E+03         2.13574         2.13574         3.28003         3.28003
            3685     1.22058E+03     1.22058E+03         2.76388         2.76388         6.21737         6.21737
            3686     1.22979E+03     1.22979E+03         3.77382         3.77382         10.2783         10.2783
            3687     1.24382E+03     1.24382E+03         5.07195         5.07195         15.6781         15.6781
            3688     1.26463E+03     1.26463E+03         7.35475         7.35475         23.6650         23.6650
            3689     1.29479E+03     1.29479E+03         10.7473         10.7473         34.7236         34.7236
            3690     1.33976E+03     1.33976E+03         17.1388         17.1388         53.2837         53.2837
            3691     1.40517E+03     1.40517E+03         30.5876         30.5876         81.4245         81.4245
            3692     1.51375E+03     1.51375E+03         57.2718         57.2718         141.984         141.984
            3693     1.65224E+03     1.65224E+03         202.814         202.814         262.242         262.242
            3694         76.3259         76.3259        -573.554        -573.554        -72.6893        -72.6893
            3695         275.208         275.208        -233.433        -233.433        -187.946        -187.946
            3696         533.736         533.736        -72.6779        -72.6779        -203.514        -203.514
            3697         775.975         775.975        -12.0112        -12.0112        -167.727        -167.727
            3698         964.976         964.976         4.41785         4.41785        -118.582        -118.582
            3699         242.386         242.386        -423.661        -423.661        -165.767        -165.767
            3700         532.371         532.371        -234.507        -234.507        -328.131        -328.131
            3701         789.699         789.699        -138.109        -138.109        -324.966        -324.966
            3702         981.113         981.113        -85.7030        -85.7030        -252.248        -252.248
            3703     1.10888E+03     1.10888E+03        -54.1234        -54.1234        -171.272        -171.272
            3704         517.663         517.663        -241.827        -241.827        -273.624        -273.624
            3705         876.762         876.762        -236.587        -236.587        -384.530        -384.530
            3706     1.08697E+03     1.08697E+03        -198.220        -198.220        -333.396        -333.396
            3707     1.19595E+03     1.19595E+03        -145.469        -145.469        -238.724        -238.724
            3708     1.24900E+03     1.24900E+03        -97.7672        -97.7672        -153.306        -153.306
            3709         878.873         878.873        -80.2833        -80.2833        -364.916        -364.916
            3710     1.21492E+03     1.21492E+03        -227.350        -227.350        -349.012        -349.012
            3711     1.32824E+03     1.32824E+03        -218.627        -218.627        -258.175        -258.175
            3712     1.34872E+03     1.34872E+03        -163.333        -163.333        -168.960        -168.960
            3713     1.33912E+03     1.33912E+03        -108.374        -108.374        -101.834        -101.834
            3714     1.44731E+03     1.44731E+03         162.104         162.104         57.7165         57.7165
            3715     1.56685E+03     1.56685E+03         249.246         249.246         67.0896         67.0896
            3716     1.78099E+03     1.78099E+03         338.550         338.550         46.5729         46.5729
            3717     2.15246E+03     2.15246E+03         384.505         384.505        -40.6562        -40.6562
            3718     2.75481E+03     2.75481E+03         315.665         315.665        -235.049        -235.049
            3719     1.46340E+03     1.46340E+03         60.0136         60.0136         68.9011         68.9011
            3720     1.57415E+03     1.57415E+03         109.903         109.903         81.2189         81.2189
            3721     1.74861E+03     1.74861E+03         181.320         181.320         52.9487         52.9487
            3722     2.02266E+03     2.02266E+03         262.235         262.235        -79.5523        -79.5523
            3723     2.44995E+03     2.44995E+03         312.793         312.793        -401.997        -401.997
            3724     1.45815E+03     1.45815E+03        -31.8609        -31.8609         36.3162         36.3162
            3725     1.55572E+03     1.55572E+03        -27.5772        -27.5772         38.8268         38.8268
            3726     1.68868E+03     1.68868E+03         4.22320         4.22320         7.22001         7.22001
            3727     1.85259E+03     1.85259E+03         94.5551         94.5551        -124.406        -124.406
            3728     2.04638E+03     2.04638E+03         269.959         269.959        -473.986        -473.986
            3729     1.42754E+03     1.42754E+03        -81.1305        -81.1305        -9.48401        -9.48401
            3730     1.50505E+03     1.50505E+03        -112.568        -112.568        -27.0513        -27.0513
            3731     1.59884E+03     1.59884E+03        -127.584        -127.584        -71.4757        -71.4757
            3732     1.67091E+03     1.67091E+03        -69.4414        -69.4414        -185.348        -185.348
            3733     1.63442E+03     1.63442E+03         172.342         172.342        -469.219        -469.219
            3734         939.261         939.261        -55.6374        -55.6374         378.595         378.595
            3735     1.26652E+03     1.26652E+03        -225.084        -225.084         339.740         339.740
            3736     1.36277E+03     1.36277E+03        -219.866        -219.866         243.549         243.549
            3737     1.36939E+03     1.36939E+03        -164.186        -164.186         156.258         156.258
            3738     1.35073E+03     1.35073E+03        -108.532        -108.532         92.7561         92.7561
            3739         625.462         625.462        -183.631        -183.631         308.026         308.026
            3740         993.317         993.317        -236.703        -236.703         386.356         386.356
            3741     1.17833E+03     1.17833E+03        -212.426        -212.426         319.068         319.068
            3742     1.25767E+03     1.25767E+03        -158.409        -158.409         221.595         221.595
            3743     1.28726E+03     1.28726E+03        -106.503        -106.503         139.136         139.136
            3744         362.366         362.366        -335.555        -335.555         218.361         218.361
            3745         695.841         695.841        -237.033        -237.033         371.443         371.443
            3746         939.002         939.002        -172.502        -172.502         347.469         347.469
            3747     1.09361E+03     1.09361E+03        -121.394        -121.394         260.084         260.084
            3748     1.18446E+03     1.18446E+03        -81.0837        -81.0837         172.073         172.073
            3749         170.638         170.638        -486.550        -486.550         130.758         130.758
            3750         427.671         427.671        -235.580        -235.580         291.777         291.777
            3751         689.217         689.217        -114.595        -114.595         301.249         301.249
            3752         903.068         903.068        -59.8439        -59.8439         240.662         240.662
            3753     1.05539E+03     1.05539E+03        -34.1387        -34.1387         166.580         166.580
            3754         57.2902         57.2902        -600.457        -600.457         58.4949         58.4949
            3755         241.629         241.629        -236.135        -236.135         160.239         160.239
            3756         496.661         496.661        -63.7586        -63.7586         176.314         176.314
            3757         743.704         743.704     32.9280E-03     32.9280E-03         147.123         147.123
            3758         941.023         941.023         14.7938         14.7938         105.080         105.080
            3759     1.42908E+03     1.42908E+03        -83.3041        -83.3041         12.4328         12.4328
            3760     1.50646E+03     1.50646E+03        -114.432        -114.432         29.2843         29.2843
            3761     1.60012E+03     1.60012E+03        -129.101        -129.101         73.1469         73.1469
            3762     1.67237E+03     1.67237E+03        -70.6207        -70.6207         186.649         186.649
            3763     1.63629E+03     1.63629E+03         171.558         171.558         470.334         470.334
            3764     1.45930E+03     1.45930E+03        -33.5099        -33.5099        -33.5255        -33.5255
            3765     1.55679E+03     1.55679E+03        -28.9018        -28.9018        -36.6898        -36.6898
            3766     1.68969E+03     1.68969E+03         3.30278         3.30278        -5.61230        -5.61230
            3767     1.85376E+03     1.85376E+03         94.0791         94.0791         125.575         125.575
            3768     2.04817E+03     2.04817E+03         270.102         270.102         475.035         475.035
            3769     1.46413E+03     1.46413E+03         58.9602         58.9602        -66.2109        -66.2109
            3770     1.57481E+03     1.57481E+03         109.158         109.158        -79.0718        -79.0718
            3771     1.74922E+03     1.74922E+03         180.966         180.966        -51.2649        -51.2649
            3772     2.02342E+03     2.02342E+03         262.358         262.358         80.8832         80.8832
            3773     2.45142E+03     2.45142E+03         313.227         313.227         403.117         403.117
            3774     1.44765E+03     1.44765E+03         161.615         161.615        -55.0394        -55.0394
            3775     1.56714E+03     1.56714E+03         248.954         248.954        -64.8500        -64.8500
            3776     1.78125E+03     1.78125E+03         338.528         338.528        -44.6802        -44.6802
            3777     2.15283E+03     2.15283E+03         384.741         384.741         42.2479         42.2479
            3778     2.75566E+03     2.75566E+03         315.968         315.968         236.183         236.183
            3779     1.56908E+03     1.56908E+03         155.411         155.411        -466.093        -466.093
            3780     1.64207E+03     1.64207E+03        -94.6712        -94.6712        -196.702        -196.702
            3781     1.58411E+03     1.58411E+03        -146.873        -146.873        -86.4073        -86.4073
            3782     1.49687E+03     1.49687E+03        -124.955        -124.955        -40.1483        -40.1483
            3783     1.42316E+03     1.42316E+03        -88.9819        -88.9819        -19.8481        -19.8481
            3784     1.90833E+03     1.90833E+03         247.287         247.287        -483.725        -483.725
            3785     1.79424E+03     1.79424E+03         37.5939         37.5939        -143.139        -143.139
            3786     1.66436E+03     1.66436E+03        -49.1872        -49.1872        -16.8313        -16.8313
            3787     1.54479E+03     1.54479E+03        -66.2605        -66.2605         16.4031         16.4031
            3788     1.45282E+03     1.45282E+03        -56.9183        -56.9183         18.5657         18.5657
            3789     2.25956E+03     2.25956E+03         300.927         300.927        -455.169        -455.169
            3790     1.94295E+03     1.94295E+03         183.313         183.313        -101.929        -101.929
            3791     1.72445E+03     1.72445E+03         90.5903         90.5903         36.3120         36.3120
            3792     1.57155E+03     1.57155E+03         34.8379         34.8379         65.5225         65.5225
            3793     1.46669E+03     1.46669E+03         7.14205         7.14205         55.2064         55.2064
            3794     2.57624E+03     2.57624E+03         317.597         317.597        -362.275        -362.275
            3795     2.07647E+03     2.07647E+03         312.606         312.606        -68.8968        -68.8968
            3796     1.76422E+03     1.76422E+03         242.117         242.117         56.3547         56.3547
            3797     1.57492E+03     1.57492E+03         161.232         161.232         84.0834         84.0834
            3798     1.46074E+03     1.46074E+03         95.9258         95.9258         70.9459         70.9459
            3799     2.80074E+03     2.80074E+03         313.204         313.204        -202.906        -202.906
            3800     2.17309E+03     2.17309E+03         399.383         399.383        -36.2524        -36.2524
            3801     1.78653E+03     1.78653E+03         360.701         360.701         39.8415         39.8415
            3802     1.56542E+03     1.56542E+03         270.596         270.596         58.2882         58.2882
            3803     1.44412E+03     1.44412E+03         178.613         178.613         50.0128         50.0128
            3804     1.42730E+03     1.42730E+03        -81.3835        -81.3835         9.74074         9.74074
            3805     1.50470E+03     1.50470E+03        -112.933        -112.933         27.4369         27.4369
            3806     1.59834E+03     1.59834E+03        -128.018        -128.018         71.9826         71.9826
            3807     1.67037E+03     1.67037E+03        -70.0179        -70.0179         185.878         185.878
            3808     1.63389E+03     1.63389E+03         171.381         171.381         469.359         469.359
            3809     1.45802E+03     1.45802E+03        -32.2419        -32.2419        -36.0631        -36.0631
            3810     1.55549E+03     1.55549E+03        -28.0430        -28.0430        -38.4389        -38.4389
            3811     1.68830E+03     1.68830E+03         3.73413         3.73413        -6.70863        -6.70863
            3812     1.85194E+03     1.85194E+03         94.0337         94.0337         124.825         124.825
            3813     2.04546E+03     2.04546E+03         269.612         269.612         474.017         474.017
            3814     1.46340E+03     1.46340E+03         59.5223         59.5223        -68.6641        -68.6641
            3815     1.57404E+03     1.57404E+03         109.401         109.401        -80.8051        -80.8051
            3816     1.74829E+03     1.74829E+03         180.854         180.854        -52.4522        -52.4522
            3817     2.02192E+03     2.02192E+03         261.894         261.894         80.0324         80.0324
            3818     2.44854E+03     2.44854E+03         312.560         312.560         402.218         402.218
            3819     1.44747E+03     1.44747E+03         161.550         161.550        -57.5750        -57.5750
            3820     1.56692E+03     1.56692E+03         248.658         248.658        -66.7491        -66.7491
            3821     1.78072E+03     1.78072E+03         338.164         338.164        -46.0389        -46.0389
            3822     2.15168E+03     2.15168E+03         384.520         384.520         41.1753         41.1753
            3823     2.75297E+03     2.75297E+03         315.913         315.913         235.235         235.235
            3824         940.932         940.932        -56.4195        -56.4195         379.353         379.353
            3825     1.26859E+03     1.26859E+03        -226.661        -226.661         340.691         340.691
            3826     1.36494E+03     1.36494E+03        -221.782        -221.782         244.815         244.815
            3827     1.37171E+03     1.37171E+03        -166.436        -166.436         158.035         158.035
            3828     1.35329E+03     1.35329E+03        -111.232        -111.232         95.2861         95.2861
            3829         626.664         626.664        -184.973        -184.973         308.648         308.648
            3830         995.156         995.156        -238.557        -238.557         387.363         387.363
            3831     1.18046E+03     1.18046E+03        -214.548        -214.548         320.308         320.308
            3832     1.26009E+03     1.26009E+03        -160.831        -160.831         223.174         223.174
            3833     1.29007E+03     1.29007E+03        -109.384        -109.384         141.292         141.292
            3834         363.098         363.098        -337.517        -337.517         218.806         218.806
            3835         697.248         697.248        -239.106        -239.106         372.429         372.429
            3836         940.900         940.900        -174.734        -174.734         348.646         348.646
            3837     1.09597E+03     1.09597E+03        -123.916        -123.916         261.453         261.453
            3838     1.18741E+03     1.18741E+03        -84.0924        -84.0924         173.826         173.826
            3839         170.960         170.960        -489.124        -489.124         131.044         131.044
            3840         428.569         428.569        -237.808        -237.808         292.603         292.603
            3841         690.735         690.735        -116.841        -116.841         302.240         302.240
            3842         905.245         905.245        -62.3756        -62.3756         241.743         241.743
            3843     1.05835E+03     1.05835E+03        -37.1998        -37.1998         167.867         167.867
            3844         57.3299         57.3299        -603.503        -603.503         58.6614         58.6614
            3845         242.096         242.096        -238.461        -238.461         160.763         160.763
            3846         497.804         497.804        -65.9650        -65.9650         176.941         176.941
            3847         745.645         745.645        -2.44853        -2.44853         147.774         147.774
            3848         943.912         943.912         11.7411         11.7411         105.803         105.803
            3849     1.34162E+03     1.34162E+03        -111.060        -111.060        -104.287        -104.287
            3850     1.35088E+03     1.35088E+03        -165.523        -165.523        -170.702        -170.702
            3851     1.33006E+03     1.33006E+03        -220.435        -220.435        -259.406        -259.406
            3852     1.21647E+03     1.21647E+03        -228.896        -228.896        -349.757        -349.757
            3853         880.051         880.051        -81.4214        -81.4214        -365.222        -365.222
            3854     1.25176E+03     1.25176E+03        -100.651        -100.651        -155.274        -155.274
            3855     1.19815E+03     1.19815E+03        -147.848        -147.848        -240.177        -240.177
            3856     1.08871E+03     1.08871E+03        -200.303        -200.303        -334.497        -334.497
            3857         878.083         878.083        -238.558        -238.558        -385.318        -385.318
            3858         518.353         518.353        -243.710        -243.710        -273.876        -273.876
            3859     1.11172E+03     1.11172E+03        -57.1048        -57.1048        -172.678        -172.678
            3860         983.178         983.178        -88.1536        -88.1536        -253.333        -253.333
            3861         791.122         791.122        -140.293        -140.293        -325.860        -325.860
            3862         533.196         533.196        -236.709        -236.709        -328.794        -328.794
            3863         242.641         242.641        -426.226        -426.226        -165.870        -165.870
            3864         967.795         967.795         1.40866         1.40866        -119.302        -119.302
            3865         777.844         777.844        -14.4511        -14.4511        -168.293        -168.293
            3866         534.803         534.803        -74.8562        -74.8562        -203.988        -203.988
            3867         275.606         275.606        -235.758        -235.758        -188.279        -188.279
            3868         76.3111         76.3111        -576.629        -576.629        -72.6772        -72.6772


  Minimum               -21.4079        -21.4079        -907.304        -907.304        -726.822        -726.822
         At Node              28              28              28              28             590             590

  Maximum            3.28336E+03     3.28336E+03         429.247         429.247         722.427         722.427
         At Node              27              27             585             585             574             574

           Total     4.99381E+06     4.99381E+06     80.6738E+03     80.6738E+03     2.39710E+03     2.39710E+03


