********************************************************************************
Field Output Report, written Sat Feb 24 11:10:48 2024

Source 1
---------

   ODB: C:/Users/Isabel Haycock/OneDrive - Imperial College London/Fourth Year/FYP/Isabel Haycock/06 - FE models/Specimen_2/Plate_hole_1.odb
   Step: load
   Frame: Increment      8: Step Time =   0.5714

Loc 1 : Nodal values at shell < composite > < elset = ASSEMBLY_PLATE_1-1_COMPOSITELAYUP-1-1 > from source 1 : SNEG, (fraction = -1.0), Layer = 1
Loc 2 : Nodal values at shell < composite > < elset = ASSEMBLY_PLATE_1-1_COMPOSITELAYUP-1-1 > from source 1 : SPOS, (fraction = 1.0), Layer = 8

Output sorted by column "Node Label".

Field Output reported at nodes for part: PLATE_1-1
   Computation algorithm: EXTRAPOLATE_COMPUTE_AVERAGE
   Averaged at nodes
   Averaging regions: ODB_REGIONS

      Node Label           S.S11           S.S11           S.S22           S.S22           S.S12           S.S12
                          @Loc 1          @Loc 2          @Loc 1          @Loc 2          @Loc 1          @Loc 2
-----------------------------------------------------------------------------------------------------------------
               1         984.218         984.218        -45.7500        -45.7500        -20.2325        -20.2325
               2         936.263         936.263         1.27091         1.27091    -58.3145E-03    -58.3145E-03
               3         936.431         936.431     6.26969E-03     6.26969E-03    -6.56053E-03    -6.56053E-03
               4         946.772         946.772    -58.9468E-03    -58.9468E-03         1.98054         1.98054
               5         984.618         984.618        -45.5881        -45.5881         19.5006         19.5006
               6         936.262         936.262         1.27109         1.27109     58.3092E-03     58.3092E-03
               7         754.288         754.288         20.9417         20.9417        -2.90130        -2.90130
               8         943.333         943.333    -72.0669E-03    -72.0669E-03        -1.66733        -1.66733
               9         986.224         986.224        -47.6528        -47.6528         22.1931         22.1931
              10     1.00169E+03     1.00169E+03         98.4315         98.4315         1.12351         1.12351
              11         946.957         946.957    -61.3817E-03    -61.3817E-03        -1.98034        -1.98034
              12         936.430         936.430     6.27104E-03     6.27104E-03     6.56196E-03     6.56196E-03
              13         880.361         880.361         267.711         267.711        -58.3343        -58.3343
              14     1.43115E+03     1.43115E+03         198.018         198.018        -231.289        -231.289
              15         985.157         985.157        -47.9547        -47.9547        -23.5037        -23.5037
              16         943.452         943.452    -75.1384E-03    -75.1384E-03         1.66894         1.66894
              17     1.00131E+03     1.00131E+03         99.6722         99.6722        -2.85328        -2.85328
              18         880.367         880.367         267.704         267.704         58.3208         58.3208
              19         757.093         757.093         18.2240         18.2240        -2.89755        -2.89755
              20     1.43115E+03     1.43115E+03         198.018         198.018         231.289         231.289
              21        -15.4159        -15.4159        -659.973        -659.973     563.879E-03     563.879E-03
              22         776.678         776.678         177.635         177.635        -380.567        -380.567
              23     2.38746E+03     2.38746E+03         152.006         152.006     269.417E-03     269.417E-03
              24         788.673         788.673         182.825         182.825         385.866         385.866
              25         790.097         790.097         183.039         183.039         386.628         386.628
              26         762.604         762.604         175.172         175.172        -376.542        -376.542
              27     2.39215E+03     2.39215E+03         150.361         150.361         11.1303         11.1303
              28        -15.5242        -15.5242        -662.837        -662.837     612.592E-03     612.592E-03
              29         965.898         965.898        -36.7190        -36.7190        -23.6841        -23.6841
              30         955.255         955.255        -30.8930        -30.8930        -25.9649        -25.9649
              31         946.817         946.817        -24.7747        -24.7747        -26.0569        -26.0569
              32         940.542         940.542        -19.1626        -19.1626        -24.8454        -24.8454
              33         936.077         936.077        -14.3294        -14.3294        -22.9905        -22.9905
              34         933.021         933.021        -10.3073        -10.3073        -20.9150        -20.9150
              35         931.010         931.010        -7.01505        -7.01505        -18.8555        -18.8555
              36         929.763         929.763        -4.34902        -4.34902        -16.9290        -16.9290
              37         929.064         929.064        -2.20616        -2.20616        -15.1849        -15.1849
              38         928.756         928.756    -497.283E-03    -497.283E-03        -13.6337        -13.6337
              39         928.723         928.723     852.881E-03     852.881E-03        -12.2668        -12.2668
              40         928.880         928.880         1.90623         1.90623        -11.0664        -11.0664
              41         929.167         929.167         2.71381         2.71381        -10.0119        -10.0119
              42         929.538         929.538         3.31773         3.31773        -9.08238        -9.08238
              43         929.963         929.963         3.75306         3.75306        -8.25906        -8.25906
              44         930.415         930.415         4.04912         4.04912        -7.52530        -7.52530
              45         930.879         930.879         4.23067         4.23067        -6.86705        -6.86705
              46         931.341         931.341         4.31868         4.31868        -6.27265        -6.27265
              47         931.793         931.793         4.33097         4.33097        -5.73258        -5.73258
              48         932.228         932.228         4.28274         4.28274        -5.23916        -5.23916
              49         932.641         932.641         4.18694         4.18694        -4.78623        -4.78623
              50         933.031         933.031         4.05457         4.05457        -4.36886        -4.36886
              51         933.395         933.395         3.89499         3.89499        -3.98314        -3.98314
              52         933.733         933.733         3.71610         3.71610        -3.62587        -3.62587
              53         934.045         934.045         3.52455         3.52455        -3.29447        -3.29447
              54         934.330         934.330         3.32592         3.32592        -2.98679        -2.98679
              55         934.591         934.591         3.12485         3.12485        -2.70098        -2.70098
              56         934.827         934.827         2.92516         2.92516        -2.43544        -2.43544
              57         935.040         935.040         2.72999         2.72999        -2.18870        -2.18870
              58         935.231         935.231         2.54190         2.54190        -1.95942        -1.95942
              59         935.402         935.402         2.36293         2.36293        -1.74630        -1.74630
              60         935.554         935.554         2.19472         2.19472        -1.54809        -1.54809
              61         935.688         935.688         2.03854         2.03854        -1.36356        -1.36356
              62         935.805         935.805         1.89540         1.89540        -1.19150        -1.19150
              63         935.907         935.907         1.76605         1.76605        -1.03067        -1.03067
              64         935.994         935.994         1.65104         1.65104    -879.856E-03    -879.856E-03
              65         936.068         936.068         1.55081         1.55081    -737.815E-03    -737.815E-03
              66         936.129         936.129         1.46564         1.46564    -603.310E-03    -603.310E-03
              67         936.178         936.178         1.39573         1.39573    -475.094E-03    -475.094E-03
              68         936.215         936.215         1.34124         1.34124    -351.914E-03    -351.914E-03
              69         936.242         936.242         1.30224         1.30224    -232.517E-03    -232.517E-03
              70         936.257         936.257         1.27877         1.27877    -115.961E-03    -115.961E-03
              71         936.373         936.373         1.14414         1.14414    -63.2047E-03    -63.2047E-03
              72         936.477         936.477         1.01704         1.01704    -66.1865E-03    -66.1865E-03
              73         936.577         936.577     885.600E-03     885.600E-03    -67.6346E-03    -67.6346E-03
              74         936.669         936.669     752.922E-03     752.922E-03    -67.4710E-03    -67.4710E-03
              75         936.747         936.747     622.200E-03     622.200E-03    -65.6660E-03    -65.6660E-03
              76         936.806         936.806     496.667E-03     496.667E-03    -62.2167E-03    -62.2167E-03
              77         936.842         936.842     379.513E-03     379.513E-03    -57.1675E-03    -57.1675E-03
              78         936.849         936.849     273.816E-03     273.816E-03    -50.5899E-03    -50.5899E-03
              79         936.824         936.824     182.447E-03     182.447E-03    -42.6222E-03    -42.6222E-03
              80         936.762         936.762     107.999E-03     107.999E-03    -33.4068E-03    -33.4068E-03
              81         936.660         936.660     52.6530E-03     52.6530E-03    -23.2222E-03    -23.2222E-03
              82         936.514         936.514     18.1323E-03     18.1323E-03    -12.2545E-03    -12.2545E-03
              83         936.443         936.443     6.40212E-03     6.40212E-03    -12.0345E-03    -12.0345E-03
              84         936.478         936.478     6.59076E-03     6.59076E-03    -23.5777E-03    -23.5777E-03
              85         936.537         936.537     6.77968E-03     6.77968E-03    -35.9089E-03    -35.9089E-03
              86         936.620         936.620     7.10022E-03     7.10022E-03    -48.7637E-03    -48.7637E-03
              87         936.730         936.730     7.51308E-03     7.51308E-03    -62.3699E-03    -62.3699E-03
              88         936.868         936.868     8.01639E-03     8.01639E-03    -76.9150E-03    -76.9150E-03
              89         937.035         937.035     8.61247E-03     8.61247E-03    -92.5914E-03    -92.5914E-03
              90         937.235         937.235     9.29588E-03     9.29588E-03    -109.588E-03    -109.588E-03
              91         937.470         937.470     10.0670E-03     10.0670E-03    -128.093E-03    -128.093E-03
              92         937.744         937.744     10.9196E-03     10.9196E-03    -148.290E-03    -148.290E-03
              93         938.059         938.059     11.8494E-03     11.8494E-03    -170.356E-03    -170.356E-03
              94         938.419         938.419     12.8467E-03     12.8467E-03    -194.456E-03    -194.456E-03
              95         938.830         938.830     13.9006E-03     13.9006E-03    -220.741E-03    -220.741E-03
              96         939.295         939.295     14.9943E-03     14.9943E-03    -249.338E-03    -249.338E-03
              97         939.818         939.818     16.1062E-03     16.1062E-03    -280.340E-03    -280.340E-03
              98         940.406         940.406     17.2076E-03     17.2076E-03    -313.798E-03    -313.798E-03
              99         941.062         941.062     18.2600E-03     18.2600E-03    -349.698E-03    -349.698E-03
             100         941.792         941.792     19.2157E-03     19.2157E-03    -387.951E-03    -387.951E-03
             101         942.599         942.599     20.0100E-03     20.0100E-03    -428.363E-03    -428.363E-03
             102         943.488         943.488     20.5671E-03     20.5671E-03    -470.605E-03    -470.605E-03
             103         944.462         944.462     20.7831E-03     20.7831E-03    -514.180E-03    -514.180E-03
             104         945.523         945.523     20.5433E-03     20.5433E-03    -558.378E-03    -558.378E-03
             105         946.671         946.671     19.6888E-03     19.6888E-03    -602.227E-03    -602.227E-03
             106         947.904         947.904     18.0567E-03     18.0567E-03    -644.437E-03    -644.437E-03
             107         949.218         949.218     15.4192E-03     15.4192E-03    -683.338E-03    -683.338E-03
             108         950.603         950.603     11.5647E-03     11.5647E-03    -716.817E-03    -716.817E-03
             109         952.047         952.047     6.19724E-03     6.19724E-03    -742.261E-03    -742.261E-03
             110         953.530         953.530    -918.294E-06    -918.294E-06    -756.506E-03    -756.506E-03
             111         955.026         955.026    -10.1033E-03    -10.1033E-03    -755.834E-03    -755.834E-03
             112         956.503         956.503    -21.5386E-03    -21.5386E-03    -735.979E-03    -735.979E-03
             113         957.916         957.916    -35.4397E-03    -35.4397E-03    -692.261E-03    -692.261E-03
             114         959.214         959.214    -51.7687E-03    -51.7687E-03    -619.739E-03    -619.739E-03
             115         960.336         960.336    -70.3648E-03    -70.3648E-03    -513.625E-03    -513.625E-03
             116         961.210         961.210    -90.7038E-03    -90.7038E-03    -369.686E-03    -369.686E-03
             117         961.758         961.758    -111.846E-03    -111.846E-03    -185.062E-03    -185.062E-03
             118         961.900         961.900    -132.468E-03    -132.468E-03     41.0132E-03     41.0132E-03
             119         961.556         961.556    -150.506E-03    -150.506E-03     306.054E-03     306.054E-03
             120         960.654         960.654    -163.710E-03    -163.710E-03     603.431E-03     603.431E-03
             121         959.144         959.144    -169.089E-03    -169.089E-03     921.429E-03     921.429E-03
             122         956.999         956.999    -163.985E-03    -163.985E-03         1.24277         1.24277
             123         954.238         954.238    -145.945E-03    -145.945E-03         1.54517         1.54517
             124         950.923         950.923    -113.287E-03    -113.287E-03         1.80055         1.80055
             125         947.590         947.590    -171.289E-03    -171.289E-03         3.65278         3.65278
             126         949.398         949.398    -498.897E-03    -498.897E-03         6.56998         6.56998
             127         951.520         951.520        -1.03783        -1.03783         8.73255         8.73255
             128         953.921         953.921        -1.82317        -1.82317         10.3169         10.3169
             129         956.613         956.613        -2.93531        -2.93531         11.4370         11.4370
             130         959.636         959.636        -4.49636        -4.49636         12.1292         12.1292
             131         963.036         963.036        -6.67014        -6.67014         12.3435         12.3435
             132         966.840         966.840        -9.65916        -9.65916         11.9250         11.9250
             133         970.998         970.998        -13.6907        -13.6907         10.5731         10.5731
             134         975.289         975.289        -18.9575        -18.9575         7.80689         7.80689
             135         979.134         979.134        -25.4999        -25.4999         2.94178         2.94178
             136         981.364         981.364        -32.9325        -32.9325        -4.74738        -4.74738
             137         966.394         966.394        -36.6203        -36.6203         22.9501         22.9501
             138         955.829         955.829        -30.9249        -30.9249         25.3635         25.3635
             139         947.412         947.412        -24.9025        -24.9025         25.6079         25.6079
             140         941.103         941.103        -19.3387        -19.3387         24.5411         24.5411
             141         936.572         936.572        -14.5153        -14.5153         22.8021         22.8021
             142         933.437         933.437        -10.4798        -10.4798         20.8104         20.8104
             143         931.353         931.353        -7.16481        -7.16481         18.8065         18.8065
             144         930.042         930.042        -4.47440        -4.47440         16.9160         16.9160
             145         929.291         929.291        -2.30882        -2.30882         15.1939         15.1939
             146         928.939         928.939    -580.426E-03    -580.426E-03         13.6556         13.6556
             147         928.871         928.871     785.956E-03     785.956E-03         12.2958         12.2958
             148         929.001         929.001         1.85240         1.85240         11.0987         11.0987
             149         929.266         929.266         2.67043         2.67043         10.0449         10.0449
             150         929.620         929.620         3.28262         3.28262         9.11482         9.11482
             151         930.030         930.030         3.72444         3.72444         8.28999         8.28999
             152         930.471         930.471         4.02562         4.02562         7.55421         7.55421
             153         930.926         930.926         4.21120         4.21120         6.89369         6.89369
             154         931.380         931.380         4.30241         4.30241         6.29693         6.29693
             155         931.826         931.826         4.31725         4.31725         5.75451         5.75451
             156         932.256         932.256         4.27109         4.27109         5.25881         5.25881
             157         932.665         932.665         4.17697         4.17697         4.80371         4.80371
             158         933.051         933.051         4.04600         4.04600         4.38432         4.38432
             159         933.412         933.412         3.88759         3.88759         3.99671         3.99671
             160         933.747         933.747         3.70970         3.70970         3.63772         3.63772
             161         934.056         934.056         3.51901         3.51901         3.30476         3.30476
             162         934.340         934.340         3.32113         3.32113         2.99566         2.99566
             163         934.599         934.599         3.12071         3.12071         2.70858         2.70858
             164         934.833         934.833         2.92159         2.92159         2.44191         2.44191
             165         935.045         935.045         2.72693         2.72693         2.19416         2.19416
             166         935.236         935.236         2.53929         2.53929         1.96399         1.96399
             167         935.406         935.406         2.36072         2.36072         1.75009         1.75009
             168         935.557         935.557         2.19287         2.19287         1.55121         1.55121
             169         935.690         935.690         2.03701         2.03701         1.36610         1.36610
             170         935.807         935.807         1.89414         1.89414         1.19353         1.19353
             171         935.908         935.908         1.76504         1.76504         1.03227         1.03227
             172         935.995         935.995         1.65025         1.65025     881.091E-03     881.091E-03
             173         936.068         936.068         1.55021         1.55021     738.746E-03     738.746E-03
             174         936.129         936.129         1.46522         1.46522     603.990E-03     603.990E-03
             175         936.178         936.178         1.39548         1.39548     475.567E-03     475.567E-03
             176         936.215         936.215         1.34113         1.34113     352.220E-03     352.220E-03
             177         936.241         936.241         1.30228         1.30228     232.686E-03     232.686E-03
             178         936.257         936.257         1.27891         1.27891     116.011E-03     116.011E-03
             179         936.146         936.146         1.39960         1.39960     51.0436E-03     51.0436E-03
             180         936.037         936.037         1.51555         1.51555     41.7068E-03     41.7068E-03
             181         935.950         935.950         1.60629         1.60629     30.9049E-03     30.9049E-03
             182         935.889         935.889         1.66862         1.66862     19.0166E-03     19.0166E-03
             183         935.857         935.857         1.70033         1.70033     6.45665E-03     6.45665E-03
             184         935.857         935.857         1.70030         1.70030    -6.33655E-03    -6.33655E-03
             185         935.889         935.889         1.66855         1.66855    -18.9141E-03    -18.9141E-03
             186         935.950         935.950         1.60620         1.60620    -30.8401E-03    -30.8401E-03
             187         936.037         936.037         1.51542         1.51542    -41.6833E-03    -41.6833E-03
             188         936.146         936.146         1.39943         1.39943    -51.0337E-03    -51.0337E-03
             189         775.041         775.041         10.8795         10.8795         51.2958         51.2958
             190         830.784         830.784        -14.5289        -14.5289         80.6391         80.6391
             191         892.378         892.378        -38.4825        -38.4825         82.1108         82.1108
             192         940.047         940.047        -51.1815        -51.1815         65.3305         65.3305
             193         968.360         968.360        -52.2438        -52.2438         42.9150         42.9150
             194         963.190         963.190        -52.1589        -52.1589        -47.3662        -47.3662
             195         922.383         922.383        -46.8141        -46.8141        -72.5097        -72.5097
             196         856.529         856.529        -24.7786        -24.7786        -82.4002        -82.4002
             197         787.310         787.310         5.21837         5.21837        -57.8176        -57.8176
             198         944.226         944.226    -209.539E-03    -209.539E-03        -3.04415        -3.04415
             199         946.230         946.230    -609.569E-03    -609.569E-03        -5.39027        -5.39027
             200         948.630         948.630        -1.26181        -1.26181        -7.02967        -7.02967
             201         951.377         951.377        -2.19415        -2.19415        -8.15195        -8.15195
             202         954.467         954.467        -3.47998        -3.47998        -8.87912        -8.87912
             203         957.928         957.928        -5.23456        -5.23456        -9.25342        -9.25342
             204         961.791         961.791        -7.61539        -7.61539        -9.22862        -9.22862
             205         966.070         966.070        -10.8188        -10.8188        -8.65129        -8.65129
             206         970.704         970.704        -15.0666        -15.0666        -7.22064        -7.22064
             207         975.458         975.458        -20.5463        -20.5463        -4.45251        -4.45251
             208         979.743         979.743        -27.2931        -27.2931     342.837E-03     342.837E-03
             209         982.372         982.372        -34.9220        -34.9220         7.90719         7.90719
             210     1.00657E+03     1.00657E+03        -41.6932        -41.6932         2.08799         2.08799
             211     1.01948E+03     1.01948E+03        -19.2254        -19.2254        -19.8769        -19.8769
             212     1.01939E+03     1.01939E+03         24.8370         24.8370        -35.5872        -35.5872
             213     1.00859E+03     1.00859E+03         75.1619         75.1619        -28.9966        -28.9966
             214     1.00834E+03     1.00834E+03         75.5962         75.5962         31.2635         31.2635
             215     1.01888E+03     1.01888E+03         25.7174         25.7174         37.9234         37.9234
             216     1.01869E+03     1.01869E+03        -17.9055        -17.9055         22.3443         22.3443
             217     1.00549E+03     1.00549E+03        -39.9633        -39.9633     563.462E-03     563.462E-03
             218         941.591         941.591     22.6068E-03     22.6068E-03         2.02923         2.02923
             219         936.194         936.194     118.558E-03     118.558E-03         1.86321         1.86321
             220         931.599         931.599     207.426E-03     207.426E-03         1.45138         1.45138
             221         928.426         928.426     270.195E-03     270.195E-03     837.438E-03     837.438E-03
             222         927.112         927.112     292.097E-03     292.097E-03     110.513E-03     110.513E-03
             223         927.809         927.809     267.483E-03     267.483E-03    -612.596E-03    -612.596E-03
             224         930.343         930.343     202.009E-03     202.009E-03        -1.21508        -1.21508
             225         934.258         934.258     110.490E-03     110.490E-03        -1.60786        -1.60786
             226         938.911         938.911     11.8927E-03     11.8927E-03        -1.74718        -1.74718
             227         981.206         981.206        -33.0011        -33.0011         4.85399         4.85399
             228         979.020         979.020        -25.5712        -25.5712        -2.86477        -2.86477
             229         975.202         975.202        -19.0338        -19.0338        -7.74095        -7.74095
             230         970.937         970.937        -13.7723        -13.7723        -10.5147        -10.5147
             231         966.803         966.803        -9.74286        -9.74286        -11.8755        -11.8755
             232         963.021         963.021        -6.75039        -6.75039        -12.3045        -12.3045
             233         959.641         959.641        -4.56742        -4.56742        -12.1005        -12.1005
             234         956.637         956.637        -2.99284        -2.99284        -11.4167        -11.4167
             235         953.967         953.967        -1.86519        -1.86519        -10.3023        -10.3023
             236         951.594         951.594        -1.06448        -1.06448        -8.72152        -8.72152
             237         949.509         949.509    -512.886E-03    -512.886E-03        -6.56171        -6.56171
             238         947.749         947.749    -176.832E-03    -176.832E-03        -3.64928        -3.64928
             239         950.977         950.977    -113.139E-03    -113.139E-03        -1.79857        -1.79857
             240         954.287         954.287    -146.073E-03    -146.073E-03        -1.54267        -1.54267
             241         957.044         957.044    -164.001E-03    -164.001E-03        -1.24021        -1.24021
             242         959.183         959.183    -169.134E-03    -169.134E-03    -918.856E-03    -918.856E-03
             243         960.689         960.689    -163.656E-03    -163.656E-03    -600.918E-03    -600.918E-03
             244         961.585         961.585    -150.445E-03    -150.445E-03    -303.696E-03    -303.696E-03
             245         961.925         961.925    -132.361E-03    -132.361E-03    -38.8564E-03    -38.8564E-03
             246         961.779         961.779    -111.732E-03    -111.732E-03     186.969E-03     186.969E-03
             247         961.227         961.227    -90.5834E-03    -90.5834E-03     371.338E-03     371.338E-03
             248         960.350         960.350    -70.2467E-03    -70.2467E-03     515.021E-03     515.021E-03
             249         959.226         959.226    -51.6655E-03    -51.6655E-03     620.902E-03     620.902E-03
             250         957.926         957.926    -35.3456E-03    -35.3456E-03     693.216E-03     693.216E-03
             251         956.510         956.510    -21.4644E-03    -21.4644E-03     736.760E-03     736.760E-03
             252         955.033         955.033    -10.0385E-03    -10.0385E-03     756.470E-03     756.470E-03
             253         953.535         953.535    -870.170E-06    -870.170E-06     757.026E-03     757.026E-03
             254         952.051         952.051     6.23878E-03     6.23878E-03     742.687E-03     742.687E-03
             255         950.607         950.607     11.5946E-03     11.5946E-03     717.170E-03     717.170E-03
             256         949.221         949.221     15.4455E-03     15.4455E-03     683.633E-03     683.633E-03
             257         947.907         947.907     18.0756E-03     18.0756E-03     644.686E-03     644.686E-03
             258         946.673         946.673     19.7060E-03     19.7060E-03     602.438E-03     602.438E-03
             259         945.525         945.525     20.5558E-03     20.5558E-03     558.559E-03     558.559E-03
             260         944.464         944.464     20.7949E-03     20.7949E-03     514.335E-03     514.335E-03
             261         943.489         943.489     20.5760E-03     20.5760E-03     470.740E-03     470.740E-03
             262         942.600         942.600     20.0185E-03     20.0185E-03     428.480E-03     428.480E-03
             263         941.792         941.792     19.2223E-03     19.2223E-03     388.053E-03     388.053E-03
             264         941.062         941.062     18.2664E-03     18.2664E-03     349.786E-03     349.786E-03
             265         940.406         940.406     17.2127E-03     17.2127E-03     313.874E-03     313.874E-03
             266         939.819         939.819     16.1111E-03     16.1111E-03     280.407E-03     280.407E-03
             267         939.295         939.295     14.9983E-03     14.9983E-03     249.396E-03     249.396E-03
             268         938.830         938.830     13.9043E-03     13.9043E-03     220.792E-03     220.792E-03
             269         938.419         938.419     12.8499E-03     12.8499E-03     194.500E-03     194.500E-03
             270         938.058         938.058     11.8523E-03     11.8523E-03     170.393E-03     170.393E-03
             271         937.743         937.743     10.9221E-03     10.9221E-03     148.323E-03     148.323E-03
             272         937.470         937.470     10.0694E-03     10.0694E-03     128.121E-03     128.121E-03
             273         937.235         937.235     9.29795E-03     9.29795E-03     109.612E-03     109.612E-03
             274         937.035         937.035     8.61442E-03     8.61442E-03     92.6113E-03     92.6113E-03
             275         936.867         936.867     8.01814E-03     8.01814E-03     76.9315E-03     76.9315E-03
             276         936.730         936.730     7.51475E-03     7.51475E-03     62.3832E-03     62.3832E-03
             277         936.620         936.620     7.10176E-03     7.10176E-03     48.7741E-03     48.7741E-03
             278         936.536         936.536     6.78117E-03     6.78117E-03     35.9165E-03     35.9165E-03
             279         936.477         936.477     6.59218E-03     6.59218E-03     23.5827E-03     23.5827E-03
             280         936.442         936.442     6.40352E-03     6.40352E-03     12.0371E-03     12.0371E-03
             281         936.514         936.514     18.1362E-03     18.1362E-03     12.2572E-03     12.2572E-03
             282         936.659         936.659     52.6643E-03     52.6643E-03     23.2272E-03     23.2272E-03
             283         936.761         936.761     108.022E-03     108.022E-03     33.4138E-03     33.4138E-03
             284         936.823         936.823     182.485E-03     182.485E-03     42.6311E-03     42.6311E-03
             285         936.849         936.849     273.874E-03     273.874E-03     50.6004E-03     50.6004E-03
             286         936.841         936.841     379.592E-03     379.592E-03     57.1790E-03     57.1790E-03
             287         936.806         936.806     496.769E-03     496.769E-03     62.2292E-03     62.2292E-03
             288         936.746         936.746     622.327E-03     622.327E-03     65.6786E-03     65.6786E-03
             289         936.668         936.668     753.074E-03     753.074E-03     67.4836E-03     67.4836E-03
             290         936.577         936.577     885.775E-03     885.775E-03     67.6452E-03     67.6452E-03
             291         936.477         936.477         1.01723         1.01723     66.1960E-03     66.1960E-03
             292         936.372         936.372         1.14433         1.14433     63.1952E-03     63.1952E-03
             293         884.968         884.968         256.766         256.766        -58.7110        -58.7110
             294         894.191         894.191         234.727         234.727        -58.3853        -58.3853
             295         903.154         903.154         212.659         212.659        -56.5214        -56.5214
             296         911.643         911.643         191.016         191.016        -53.7454        -53.7454
             297         919.455         919.455         170.151         170.151        -50.1267        -50.1267
             298         926.449         926.449         150.365         150.365        -45.8400        -45.8400
             299         932.545         932.545         131.883         131.883        -41.0505        -41.0505
             300         937.686         937.686         114.872         114.872        -35.9698        -35.9698
             301         941.907         941.907         99.4014         99.4014        -30.7824        -30.7824
             302         945.235         945.235         85.4916         85.4916        -25.6555        -25.6555
             303         947.769         947.769         73.0998         73.0998        -20.7288        -20.7288
             304         949.579         949.579         62.1514         62.1514        -16.0944        -16.0944
             305         950.781         950.781         52.5488         52.5488        -11.8265        -11.8265
             306         951.452         951.452         44.1771         44.1771        -7.95326        -7.95326
             307         951.690         951.690         36.9253         36.9253        -4.49446        -4.49446
             308         951.566         951.566         30.6741         30.6741        -1.43795        -1.43795
             309         951.151         951.151         25.3184         25.3184         1.23011         1.23011
             310         950.500         950.500         20.7508         20.7508         3.54162         3.54162
             311         949.666         949.666         16.8788         16.8788         5.52679         5.52679
             312         948.686         948.686         13.6104         13.6104         7.22428         7.22428
             313         947.597         947.597         10.8664         10.8664         8.66971         8.66971
             314         946.426         946.426         8.56907         8.56907         9.90171         9.90171
             315         945.200         945.200         6.65030         6.65030         10.9558         10.9558
             316         943.938         943.938         5.04359         5.04359         11.8679         11.8679
             317         942.661         942.661         3.68899         3.68899         12.6716         12.6716
             318         941.386         941.386         2.52767         2.52767         13.4001         13.4001
             319         940.131         940.131         1.50459         1.50459         14.0852         14.0852
             320         938.917         938.917     564.671E-03     564.671E-03         14.7587         14.7587
             321         937.767         937.767    -346.029E-03    -346.029E-03         15.4519         15.4519
             322         936.708         936.708        -1.28329        -1.28329         16.1965         16.1965
             323         935.776         935.776        -2.30488        -2.30488         17.0240         17.0240
             324         935.018         935.018        -3.47321        -3.47321         17.9660         17.9660
             325         934.498         934.498        -4.85673        -4.85673         19.0513         19.0513
             326         934.300         934.300        -6.53235        -6.53235         20.3040         20.3040
             327         934.542         934.542        -8.58792        -8.58792         21.7365         21.7365
             328         935.380         935.380        -11.1219        -11.1219         23.3392         23.3392
             329         937.027         937.027        -14.2433        -14.2433         25.0617         25.0617
             330         939.758         939.758        -18.0556        -18.0556         26.7822         26.7822
             331         943.919         943.919        -22.6325        -22.6325         28.2631         28.2631
             332         949.888         949.888        -27.9308        -27.9308         29.0870         29.0870
             333         957.991         957.991        -33.6722        -33.6722         28.6160         28.6160
             334         968.265         968.265        -39.0685        -39.0685         25.9923         25.9923
             335         946.775         946.775    -128.434E-03    -128.434E-03        -1.45594        -1.45594
             336         949.375         949.375    -162.851E-03    -162.851E-03        -1.16754        -1.16754
             337         951.354         951.354    -182.752E-03    -182.752E-03    -828.175E-03    -828.175E-03
             338         952.637         952.637    -189.534E-03    -189.534E-03    -465.905E-03    -465.905E-03
             339         953.202         953.202    -186.013E-03    -186.013E-03    -102.999E-03    -102.999E-03
             340         953.065         953.065    -174.387E-03    -174.387E-03     243.294E-03     243.294E-03
             341         952.271         952.271    -158.159E-03    -158.159E-03     561.233E-03     561.233E-03
             342         950.881         950.881    -138.899E-03    -138.899E-03     844.154E-03     844.154E-03
             343         948.969         948.969    -119.444E-03    -119.444E-03         1.08944         1.08944
             344         946.607         946.607    -100.039E-03    -100.039E-03         1.29770         1.29770
             345         943.867         943.867    -82.8969E-03    -82.8969E-03         1.47151         1.47151
             346         940.814         940.814    -66.7538E-03    -66.7538E-03         1.61472         1.61472
             347         937.503         937.503    -53.9362E-03    -53.9362E-03         1.73161         1.73161
             348         933.983         933.983    -41.4752E-03    -41.4752E-03         1.82649         1.82649
             349         930.293         930.293    -32.8614E-03    -32.8614E-03         1.90322         1.90322
             350         926.465         926.465    -22.8348E-03    -22.8348E-03         1.96504         1.96504
             351         922.528         922.528    -17.4062E-03    -17.4062E-03         2.01443         2.01443
             352         918.503         918.503    -7.75248E-03    -7.75248E-03         2.05303         2.05303
             353         914.412         914.412    -4.37502E-03    -4.37502E-03         2.08164         2.08164
             354         910.274         910.274     7.47481E-03     7.47481E-03         2.10011         2.10011
             355         906.110         906.110     9.62759E-03     9.62759E-03         2.10750         2.10750
             356         901.944         901.944     26.9033E-03     26.9033E-03         2.10179         2.10179
             357         897.804         897.804     28.0958E-03     28.0958E-03         2.08018         2.08018
             358         893.727         893.727     55.2777E-03     55.2777E-03         2.03843         2.03843
             359         889.756         889.756     54.9517E-03     54.9517E-03         1.97162         1.97162
             360         885.949         885.949     98.9785E-03     98.9785E-03         1.87228         1.87228
             361         882.376         882.376     95.3134E-03     95.3134E-03         1.73280         1.73280
             362         879.131         879.131     168.014E-03     168.014E-03         1.54011         1.54011
             363         876.329         876.329     157.011E-03     157.011E-03         1.28291         1.28291
             364         874.121         874.121     280.476E-03     280.476E-03     936.534E-03     936.534E-03
             365         872.702         872.702     253.732E-03     253.732E-03     485.048E-03     485.048E-03
             366         872.325         872.325     473.752E-03     473.752E-03    -124.197E-03    -124.197E-03
             367         873.331         873.331     412.084E-03     412.084E-03    -910.414E-03    -910.414E-03
             368         876.180         876.180     837.013E-03     837.013E-03        -2.00337        -2.00337
             369         881.518         881.518     689.372E-03     689.372E-03        -3.41193        -3.41193
             370         890.283         890.283         1.62277         1.62277        -5.51048        -5.51048
             371         903.869         903.869         1.22767         1.22767        -8.22918        -8.22918
             372         924.629         924.629         3.73324         3.73324        -12.8767        -12.8767
             373         956.223         956.223         2.48203         2.48203        -18.9893        -18.9893
             374     1.00726E+03     1.00726E+03         11.8987         11.8987        -32.8401        -32.8401
             375     1.09184E+03     1.09184E+03         6.96573         6.96573        -52.1314        -52.1314
             376     1.28779E+03     1.28779E+03         92.1740         92.1740        -145.845        -145.845
             377     1.25276E+03     1.25276E+03         240.970         240.970        -246.076        -246.076
             378     1.04596E+03     1.04596E+03         278.014         278.014        -230.064        -230.064
             379         989.252         989.252         273.023         273.023        -193.476        -193.476
             380         950.357         950.357         272.700         272.700        -173.958        -173.958
             381         929.589         929.589         270.769         270.769        -153.788        -153.788
             382         914.377         914.377         269.798         269.798        -138.576        -138.576
             383         904.578         904.578         269.007         269.007        -123.908        -123.908
             384         897.100         897.100         268.467         268.467        -111.350        -111.350
             385         891.842         891.842         268.154         268.154        -99.3688        -99.3688
             386         887.724         887.724         267.909         267.909        -88.4971        -88.4971
             387         884.683         884.683         267.805         267.805        -78.0903        -78.0903
             388         882.267         882.267         267.713         267.713        -68.3413        -68.3413
             389         981.979         981.979        -35.0801        -35.0801        -8.40874        -8.40874
             390         979.508         979.508        -27.5642        -27.5642    -816.027E-03    -816.027E-03
             391         975.364         975.364        -20.8789        -20.8789         4.06510         4.06510
             392         970.705         970.705        -15.4043        -15.4043         6.93793         6.93793
             393         966.121         966.121        -11.1221        -11.1221         8.46382         8.46382
             394         961.862         961.862        -7.86549        -7.86549         9.11501         9.11501
             395         958.002         958.002        -5.42810        -5.42810         9.19170         9.19170
             396         954.539         954.539        -3.62100        -3.62100         8.85173         8.85173
             397         951.445         951.445        -2.28985        -2.28985         8.14560         8.14560
             398         948.698         948.698        -1.32009        -1.32009         7.03456         7.03456
             399         946.307         946.307    -638.646E-03    -638.646E-03         5.39845         5.39845
             400         944.328         944.328    -219.341E-03    -219.341E-03         3.04898         3.04898
             401         939.339         939.339     1.52481E-03     1.52481E-03         1.76264         1.76264
             402         935.010         935.010     90.8764E-03     90.8764E-03         1.67112         1.67112
             403         931.188         931.188     178.632E-03     178.632E-03         1.36436         1.36436
             404         928.387         928.387     248.226E-03     248.226E-03     866.207E-03     866.207E-03
             405         927.022         927.022     291.482E-03     291.482E-03     231.026E-03     231.026E-03
             406         927.327         927.327     290.374E-03     290.374E-03    -453.850E-03    -453.850E-03
             407         929.293         929.293     251.158E-03     251.158E-03        -1.08849        -1.08849
             408         932.693         932.693     187.289E-03     187.289E-03        -1.59752        -1.59752
             409         937.139         937.139     101.485E-03     101.485E-03        -1.92509        -1.92509
             410         942.143         942.143     13.5632E-03     13.5632E-03        -2.04340        -2.04340
             411     1.00622E+03     1.00622E+03         84.0660         84.0660         26.2616         26.2616
             412     1.01679E+03     1.01679E+03         42.9651         42.9651         37.8586         37.8586
             413     1.02204E+03     1.02204E+03    -127.978E-03    -127.978E-03         30.4376         30.4376
             414     1.01704E+03     1.01704E+03        -30.1267        -30.1267         12.6377         12.6377
             415     1.00396E+03     1.00396E+03        -44.1700        -44.1700        -5.64461        -5.64461
             416     1.00536E+03     1.00536E+03        -40.1256        -40.1256    -411.363E-03    -411.363E-03
             417     1.01863E+03     1.01863E+03        -18.2144        -18.2144        -22.1861        -22.1861
             418     1.01894E+03     1.01894E+03         25.2395         25.2395        -37.8460        -37.8460
             419     1.00852E+03     1.00852E+03         75.0206         75.0206        -31.3960        -31.3960
             420         884.972         884.972         256.761         256.761         58.6944         58.6944
             421         894.193         894.193         234.726         234.726         58.3613         58.3613
             422         903.151         903.151         212.664         212.664         56.4892         56.4892
             423         911.637         911.637         191.029         191.029         53.7057         53.7057
             424         919.444         919.444         170.172         170.172         50.0810         50.0810
             425         926.436         926.436         150.395         150.395         45.7910         45.7910
             426         932.530         932.530         131.922         131.922         41.0001         41.0001
             427         937.670         937.670         114.919         114.919         35.9208         35.9208
             428         941.893         941.893         99.4542         99.4542         30.7366         30.7366
             429         945.221         945.221         85.5492         85.5492         25.6149         25.6149
             430         947.759         947.759         73.1604         73.1604         20.6945         20.6945
             431         949.573         949.573         62.2133         62.2133         16.0673         16.0673
             432         950.779         950.779         52.6105         52.6105         11.8072         11.8072
             433         951.455         951.455         44.2373         44.2373         7.94173         7.94173
             434         951.699         951.699         36.9829         36.9829         4.49086         4.49086
             435         951.579         951.579         30.7282         30.7282         1.44187         1.44187
             436         951.168         951.168         25.3688         25.3688        -1.21881        -1.21881
             437         950.521         950.521         20.7969         20.7969        -3.52351        -3.52351
             438         949.689         949.689         16.9207         16.9207        -5.50216        -5.50216
             439         948.711         948.711         13.6482         13.6482        -7.19370        -7.19370
             440         947.622         947.622         10.9004         10.9004        -8.63351        -8.63351
             441         946.451         946.451         8.59974         8.59974        -9.86041        -9.86041
             442         945.222         945.222         6.67832         6.67832        -10.9097        -10.9097
             443         943.957         943.957         5.06964         5.06964        -11.8175        -11.8175
             444         942.674         942.674         3.71409         3.71409        -12.6172        -12.6172
             445         941.391         941.391         2.55286         2.55286        -13.3422        -13.3422
             446         940.127         940.127         1.53124         1.53124        -14.0242        -14.0242
             447         938.901         938.901     594.324E-03     594.324E-03        -14.6951        -14.6951
             448         937.735         937.735    -311.437E-03    -311.437E-03        -15.3865        -15.3865
             449         936.656         936.656        -1.24155        -1.24155        -16.1304        -16.1304
             450         935.700         935.700        -2.25326        -2.25326        -16.9589        -16.9589
             451         934.911         934.911        -3.40861        -3.40861        -17.9043        -17.9043
             452         934.353         934.353        -4.77550        -4.77550        -18.9969        -18.9969
             453         934.109         934.109        -6.43077        -6.43077        -20.2629        -20.2629
             454         934.293         934.293        -8.46222        -8.46222        -21.7177        -21.7177
             455         935.063         935.063        -10.9700        -10.9700        -23.3565        -23.3565
             456         936.632         936.632        -14.0662        -14.0662        -25.1349        -25.1349
             457         939.281         939.281        -17.8622        -17.8622        -26.9392        -26.9392
             458         943.370         943.370        -22.4449        -22.4449        -28.5358        -28.5358
             459         949.299         949.299        -27.7873        -27.7873        -29.5031        -29.5031
             460         957.421         957.421        -33.6191        -33.6191        -29.1800        -29.1800
             461         967.778         967.778        -39.1411        -39.1411        -26.6788        -26.6788
             462         965.292         965.292        -54.5068        -54.5068        -49.6768        -49.6768
             463         924.829         924.829        -49.3371        -49.3371        -74.3462        -74.3462
             464         859.193         859.193        -27.4175        -27.4175        -83.6870        -83.6870
             465         790.075         790.075         2.52363         2.52363        -58.4747        -58.4747
             466         777.854         777.854         8.15661         8.15661         51.9025         51.9025
             467         833.550         833.550        -17.2254        -17.2254         81.7720         81.7720
             468         895.010         895.010        -41.1056        -41.1056         83.7123         83.7123
             469         942.445         942.445        -53.6799        -53.6799         67.3517         67.3517
             470         970.432         970.432        -54.5774        -54.5774         45.3110         45.3110
             471         878.703         878.703         267.698         267.698        -47.5922        -47.5922
             472         877.431         877.431         267.713         267.713        -36.5943        -36.5943
             473         876.549         876.549         267.728         267.728        -25.9412        -25.9412
             474         876.001         876.001         267.747         267.747        -15.4906        -15.4906
             475         875.734         875.734         267.752         267.752        -5.18529        -5.18529
             476         875.737         875.737         267.748         267.748         5.09726         5.09726
             477         876.007         876.007         267.735         267.735         15.4133         15.4133
             478         876.556         876.556         267.713         267.713         25.8798         25.8798
             479         877.439         877.439         267.697         267.697         36.5511         36.5511
             480         878.711         878.711         267.686         267.686         47.5663         47.5663
             481         882.269         882.269         267.708         267.708         68.3334         68.3334
             482         884.685         884.685         267.803         267.803         78.0848         78.0848
             483         887.725         887.725         267.908         267.908         88.4929         88.4929
             484         891.843         891.843         268.153         268.153         99.3654         99.3654
             485         897.101         897.101         268.467         268.467         111.347         111.347
             486         904.579         904.579         269.007         269.007         123.906         123.906
             487         914.378         914.378         269.798         269.798         138.574         138.574
             488         929.590         929.590         270.769         270.769         153.786         153.786
             489         950.358         950.358         272.700         272.700         173.956         173.956
             490         989.252         989.252         273.023         273.023         193.475         193.475
             491     1.04596E+03     1.04596E+03         278.014         278.014         230.063         230.063
             492     1.25276E+03     1.25276E+03         240.970         240.970         246.075         246.075
             493     1.28779E+03     1.28779E+03         92.1739         92.1739         145.844         145.844
             494     1.09184E+03     1.09184E+03         6.96569         6.96569         52.1311         52.1311
             495     1.00726E+03     1.00726E+03         11.8987         11.8987         32.8398         32.8398
             496         956.225         956.225         2.48199         2.48199         18.9891         18.9891
             497         924.630         924.630         3.73320         3.73320         12.8765         12.8765
             498         903.871         903.871         1.22763         1.22763         8.22911         8.22911
             499         890.285         890.285         1.62274         1.62274         5.51047         5.51047
             500         881.521         881.521     689.346E-03     689.346E-03         3.41197         3.41197
             501         876.182         876.182     836.992E-03     836.992E-03         2.00346         2.00346
             502         873.333         873.333     412.067E-03     412.067E-03     910.541E-03     910.541E-03
             503         872.326         872.326     473.739E-03     473.739E-03     124.352E-03     124.352E-03
             504         872.703         872.703     253.723E-03     253.723E-03    -484.873E-03    -484.873E-03
             505         874.122         874.122     280.469E-03     280.469E-03    -936.345E-03    -936.345E-03
             506         876.329         876.329     157.008E-03     157.008E-03        -1.28272        -1.28272
             507         879.131         879.131     168.012E-03     168.012E-03        -1.53991        -1.53991
             508         882.376         882.376     95.3132E-03     95.3132E-03        -1.73259        -1.73259
             509         885.948         885.948     98.9791E-03     98.9791E-03        -1.87207        -1.87207
             510         889.755         889.755     54.9527E-03     54.9527E-03        -1.97141        -1.97141
             511         893.725         893.725     55.2798E-03     55.2798E-03        -2.03823        -2.03823
             512         897.802         897.802     28.0967E-03     28.0967E-03        -2.07998        -2.07998
             513         901.942         901.942     26.9062E-03     26.9062E-03        -2.10159        -2.10159
             514         906.107         906.107     9.62759E-03     9.62759E-03        -2.10731        -2.10731
             515         910.271         910.271     7.47836E-03     7.47836E-03        -2.09992        -2.09992
             516         914.408         914.408    -4.37645E-03    -4.37645E-03        -2.08144        -2.08144
             517         918.499         918.499    -7.74827E-03    -7.74827E-03        -2.05283        -2.05283
             518         922.523         922.523    -17.4094E-03    -17.4094E-03        -2.01423        -2.01423
             519         926.461         926.461    -22.8296E-03    -22.8296E-03        -1.96483        -1.96483
             520         930.287         930.287    -32.8658E-03    -32.8658E-03        -1.90301        -1.90301
             521         933.977         933.977    -41.4668E-03    -41.4668E-03        -1.82628        -1.82628
             522         937.497         937.497    -53.9362E-03    -53.9362E-03        -1.73140        -1.73140
             523         940.808         940.808    -66.7339E-03    -66.7339E-03        -1.61451        -1.61451
             524         943.861         943.861    -82.8741E-03    -82.8741E-03        -1.47133        -1.47133
             525         946.600         946.600    -99.9857E-03    -99.9857E-03        -1.29759        -1.29759
             526         948.961         948.961    -119.360E-03    -119.360E-03        -1.08945        -1.08945
             527         950.874         950.874    -138.777E-03    -138.777E-03    -844.345E-03    -844.345E-03
             528         952.264         952.264    -157.974E-03    -157.974E-03    -561.715E-03    -561.715E-03
             529         953.060         953.060    -174.191E-03    -174.191E-03    -244.135E-03    -244.135E-03
             530         953.199         953.199    -185.764E-03    -185.764E-03     101.729E-03     101.729E-03
             531         952.637         952.637    -189.383E-03    -189.383E-03     464.246E-03     464.246E-03
             532         951.357         951.357    -182.668E-03    -182.668E-03     826.286E-03     826.286E-03
             533         949.382         949.382    -162.981E-03    -162.981E-03         1.16570         1.16570
             534         946.785         946.785    -128.916E-03    -128.916E-03         1.45522         1.45522
             535         15.1147         15.1147        -466.403        -466.403        -2.18301        -2.18301
             536         128.750         128.750        -172.756        -172.756        -5.86772        -5.86772
             537         310.652         310.652        -32.6183        -32.6183        -6.68113        -6.68113
             538         497.933         497.933         17.0985         17.0985        -5.81968        -5.81968
             539         653.222         653.222         25.1339         25.1339        -4.19201        -4.19201
             540     1.01112E+03     1.01112E+03        -72.9948        -72.9948        -37.7668        -37.7668
             541     1.04800E+03     1.04800E+03        -109.786        -109.786        -67.7666        -67.7666
             542     1.08281E+03     1.08281E+03        -143.708        -143.708        -116.276        -116.276
             543     1.07458E+03     1.07458E+03        -133.158        -133.158        -192.147        -192.147
             544         914.290         914.290         34.3794         34.3794        -309.367        -309.367
             545         460.426         460.426         34.0669         34.0669        -245.280        -245.280
             546         214.469         214.469        -173.798        -173.798        -113.505        -113.505
             547         69.5771         69.5771        -402.575        -402.575        -20.4203        -20.4203
             548         2.46080         2.46080        -584.351        -584.351         12.3915         12.3915
             549     1.04515E+03     1.04515E+03         152.106         152.106     987.566E-03     987.566E-03
             550     1.13442E+03     1.13442E+03         226.213         226.213     846.117E-03     846.117E-03
             551     1.30251E+03     1.30251E+03         294.483         294.483     739.467E-03     739.467E-03
             552     1.60182E+03     1.60182E+03         314.873         314.873     627.391E-03     627.391E-03
             553     2.08959E+03     2.08959E+03         229.186         229.186     415.286E-03     415.286E-03
             554     2.27516E+03     2.27516E+03         177.960         177.960        -264.065        -264.065
             555     1.97375E+03     1.97375E+03         236.056         236.056        -451.442        -451.442
             556     1.56669E+03     1.56669E+03         276.669         276.669        -523.329        -523.329
             557     1.14616E+03     1.14616E+03         257.684         257.684        -486.812        -486.812
             558         924.840         924.840         37.4539         37.4539         311.223         311.223
             559     1.08179E+03     1.08179E+03        -132.455        -132.455         189.852         189.852
             560     1.08687E+03     1.08687E+03        -143.303        -143.303         113.522         113.522
             561     1.05006E+03     1.05006E+03        -109.413        -109.413         65.6403         65.6403
             562     1.01210E+03     1.01210E+03        -72.6614        -72.6614         36.3394         36.3394
             563        -3.86204        -3.86204        -615.467        -615.467        -14.3630        -14.3630
             564         37.8075         37.8075        -478.736        -478.736    -199.167E-03    -199.167E-03
             565         126.842         126.842        -292.191        -292.191         57.1430         57.1430
             566         279.739         279.739        -98.7141        -98.7141         153.037         153.037
             567         504.332         504.332         65.7940         65.7940         267.902         267.902
             568     1.01373E+03     1.01373E+03        -74.4369        -74.4369         38.3589         38.3589
             569     1.05161E+03     1.05161E+03        -110.864        -110.864         67.0312         67.0312
             570     1.08837E+03     1.08837E+03        -144.481        -144.481         114.446         114.446
             571     1.08334E+03     1.08334E+03        -133.325        -133.325         190.476         190.476
             572         926.349         926.349         37.2215         37.2215         311.863         311.863
             573     1.14768E+03     1.14768E+03         257.301         257.301         487.583         487.583
             574     1.56836E+03     1.56836E+03         277.058         277.058         524.166         524.166
             575     1.97523E+03     1.97523E+03         236.412         236.412         452.210         452.210
             576     2.27604E+03     2.27604E+03         178.158         178.158         264.678         264.678
             577         904.310         904.310         30.7748         30.7748        -308.196        -308.196
             578     1.07025E+03     1.07025E+03        -137.277        -137.277        -194.658        -194.658
             579     1.08081E+03     1.08081E+03        -146.704        -146.704        -119.574        -119.574
             580     1.04735E+03     1.04735E+03        -112.094        -112.094        -70.9386        -70.9386
             581     1.01139E+03     1.01139E+03        -75.1179        -75.1179        -40.9223        -40.9223
             582     1.04484E+03     1.04484E+03         153.637         153.637        -3.08473        -3.08473
             583     1.13446E+03     1.13446E+03         227.823         227.823        -3.26814        -3.26814
             584     1.30334E+03     1.30334E+03         295.703         295.703        -2.28854        -2.28854
             585     1.60383E+03     1.60383E+03         315.312         315.312     778.876E-03     778.876E-03
             586     2.09327E+03     2.09327E+03         228.369         228.369         7.03747         7.03747
             587     2.31995E+03     2.31995E+03         168.154         168.154        -226.972        -226.972
             588     2.09930E+03     2.09930E+03         215.672         215.672        -406.476        -406.476
             589     1.78270E+03     1.78270E+03         263.874         263.874        -508.385        -508.385
             590     1.42577E+03     1.42577E+03         282.265         282.265        -527.302        -527.302
             591     1.07913E+03     1.07913E+03         252.604         252.604        -476.852        -476.852
             592     1.14575E+03     1.14575E+03         256.803         256.803         486.657         486.657
             593     1.56595E+03     1.56595E+03         276.566         276.566         523.172         523.172
             594     1.97243E+03     1.97243E+03         235.872         235.872         451.432         451.432
             595     2.27320E+03     2.27320E+03         178.174         178.174         264.027         264.027
             596         655.289         655.289         22.9120         22.9120        -4.16717        -4.16717
             597         499.255         499.255         15.3096         15.3096        -5.76977        -5.76977
             598         311.348         311.348        -34.2139        -34.2139        -6.60910        -6.60910
             599         128.945         128.945        -174.492        -174.492        -5.78833        -5.78833
             600         15.0525         15.0525        -468.789        -468.789        -2.11967        -2.11967
             601        -3.92439        -3.92439        -618.107        -618.107        -14.4402        -14.4402
             602         37.8442         37.8442        -480.838        -480.838    -292.636E-03    -292.636E-03
             603         127.085         127.085        -293.600        -293.600         57.1599         57.1599
             604         280.278         280.278        -99.4429        -99.4429         153.286         153.286
             605         505.302         505.302         65.6466         65.6466         268.391         268.391
             606         461.103         461.103         33.4573         33.4573        -245.371        -245.371
             607         214.668         214.668        -175.137        -175.137        -113.408        -113.408
             608         69.5670         69.5670        -404.665        -404.665        -20.1960        -20.1960
             609         2.36349         2.36349        -587.017        -587.017         12.5834         12.5834
             610         971.317         971.317        -32.1841        -32.1841        -12.0762        -12.0762
             611         962.670         962.670        -28.9331        -28.9331        -16.1189        -16.1189
             612         955.044         955.044        -24.6673        -24.6673        -18.2816        -18.2816
             613         948.743         948.743        -20.1599        -20.1599        -18.9920        -18.9920
             614         943.782         943.782        -15.8921        -15.8921        -18.7449        -18.7449
             615         940.016         940.016        -12.0853        -12.0853        -17.9311        -17.9311
             616         937.241         937.241        -8.81047        -8.81047        -16.8308        -16.8308
             617         935.255         935.255        -6.05522        -6.05522        -15.6196        -15.6196
             618         933.881         933.881        -3.77544        -3.77544        -14.4020        -14.4020
             619         932.974         932.974        -1.91408        -1.91408        -13.2345        -13.2345
             620         932.418         932.418    -414.391E-03    -414.391E-03        -12.1442        -12.1442
             621         932.124         932.124     776.919E-03     776.919E-03        -11.1404        -11.1404
             622         932.022         932.022         1.70711         1.70711        -10.2227        -10.2227
             623         932.060         932.060         2.41779         2.41779        -9.38566        -9.38566
             624         932.195         932.195         2.94489         2.94489        -8.62160        -8.62160
             625         932.397         932.397         3.31947         3.31947        -7.92246        -7.92246
             626         932.642         932.642         3.56818         3.56818        -7.28057        -7.28057
             627         932.913         932.913         3.71390         3.71390        -6.68912        -6.68912
             628         933.197         933.197         3.77615         3.77615        -6.14227        -6.14227
             629         933.482         933.482         3.77163         3.77163        -5.63515        -5.63515
             630         933.763         933.763         3.71449         3.71449        -5.16376        -5.16376
             631         934.034         934.034         3.61674         3.61674        -4.72482        -4.72482
             632         934.292         934.292         3.48850         3.48850        -4.31564        -4.31564
             633         934.534         934.534         3.33828         3.33828        -3.93401        -3.93401
             634         934.759         934.759         3.17318         3.17318        -3.57804        -3.57804
             635         934.966         934.966         2.99908         2.99908        -3.24611        -3.24611
             636         935.156         935.156         2.82085         2.82085        -2.93675        -2.93675
             637         935.329         935.329         2.64248         2.64248        -2.64861        -2.64861
             638         935.485         935.485         2.46719         2.46719        -2.38040        -2.38040
             639         935.625         935.625         2.29761         2.29761        -2.13085        -2.13085
             640         935.750         935.750         2.13581         2.13581        -1.89873        -1.89873
             641         935.860         935.860         1.98343         1.98343        -1.68279        -1.68279
             642         935.958         935.958         1.84176         1.84176        -1.48174        -1.48174
             643         936.043         936.043         1.71178         1.71178        -1.29431        -1.29431
             644         936.117         936.117         1.59425         1.59425        -1.11920        -1.11920
             645         936.180         936.180         1.48971         1.48971    -955.086E-03    -955.086E-03
             646         936.233         936.233         1.39857         1.39857    -800.621E-03    -800.621E-03
             647         936.277         936.277         1.32111         1.32111    -654.455E-03    -654.455E-03
             648         936.312         936.312         1.25755         1.25755    -515.223E-03    -515.223E-03
             649         936.339         936.339         1.20800         1.20800    -381.548E-03    -381.548E-03
             650         936.358         936.358         1.17256         1.17256    -252.053E-03    -252.053E-03
             651         936.369         936.369         1.15126         1.15126    -125.692E-03    -125.692E-03
             652         972.089         972.089        -26.9931        -26.9931        -4.15422        -4.15422
             653         965.353         965.353        -25.5286        -25.5286        -8.73118        -8.73118
             654         959.036         959.036        -22.8034        -22.8034        -11.8121        -11.8121
             655         953.430         953.430        -19.4487        -19.4487        -13.6366        -13.6366
             656         948.702         948.702        -15.9540        -15.9540        -14.4842        -14.4842
             657         944.864         944.864        -12.6204        -12.6204        -14.6484        -14.6484
             658         941.841         941.841        -9.60464        -9.60464        -14.3665        -14.3665
             659         939.520         939.520        -6.97028        -6.97028        -13.8174        -13.8174
             660         937.781         937.781        -4.72518        -4.72518        -13.1222        -13.1222
             661         936.510         936.510        -2.84935        -2.84935        -12.3603        -12.3603
             662         935.609         935.609        -1.30869        -1.30869        -11.5804        -11.5804
             663         934.997         934.997    -64.6609E-03    -64.6609E-03        -10.8114        -10.8114
             664         934.606         934.606     921.825E-03     921.825E-03        -10.0688        -10.0688
             665         934.383         934.383         1.68759         1.68759        -9.36016        -9.36016
             666         934.284         934.284         2.26643         2.26643        -8.68825        -8.68825
             667         934.276         934.276         2.68848         2.68848        -8.05326        -8.05326
             668         934.334         934.334         2.98037         2.98037        -7.45405        -7.45405
             669         934.436         934.436         3.16528         3.16528        -6.88892        -6.88892
             670         934.566         934.566         3.26328         3.26328        -6.35606        -6.35606
             671         934.714         934.714         3.29155         3.29155        -5.85377        -5.85377
             672         934.870         934.870         3.26477         3.26477        -5.38052        -5.38052
             673         935.027         935.027         3.19535         3.19535        -4.93495        -4.93495
             674         935.182         935.182         3.09373         3.09373        -4.51586        -4.51586
             675         935.330         935.330         2.96865         2.96865        -4.12219        -4.12219
             676         935.470         935.470         2.82737         2.82737        -3.75292        -3.75292
             677         935.600         935.600         2.67590         2.67590        -3.40708        -3.40708
             678         935.720         935.720         2.51915         2.51915        -3.08367        -3.08367
             679         935.829         935.829         2.36113         2.36113        -2.78171        -2.78171
             680         935.928         935.928         2.20506         2.20506        -2.50014        -2.50014
             681         936.016         936.016         2.05354         2.05354        -2.23787        -2.23787
             682         936.094         936.094         1.90862         1.90862        -1.99373        -1.99373
             683         936.164         936.164         1.77191         1.77191        -1.76654        -1.76654
             684         936.224         936.224         1.64466         1.64466        -1.55502        -1.55502
             685         936.277         936.277         1.52782         1.52782        -1.35788        -1.35788
             686         936.322         936.322         1.42211         1.42211        -1.17377        -1.17377
             687         936.361         936.361         1.32806         1.32806        -1.00131        -1.00131
             688         936.393         936.393         1.24604         1.24604    -839.105E-03    -839.105E-03
             689         936.420         936.420         1.17633         1.17633    -685.715E-03    -685.715E-03
             690         936.441         936.441         1.11912         1.11912    -539.696E-03    -539.696E-03
             691         936.457         936.457         1.07453         1.07453    -399.589E-03    -399.589E-03
             692         936.468         936.468         1.04264         1.04264    -263.927E-03    -263.927E-03
             693         936.475         936.475         1.02345         1.02345    -131.604E-03    -131.604E-03
             694         970.803         970.803        -21.7574        -21.7574         1.63966         1.63966
             695         965.875         965.875        -21.6506        -21.6506        -2.93221        -2.93221
             696         960.898         960.898        -20.1398        -20.1398        -6.39332        -6.39332
             697         956.217         956.217        -17.8204        -17.8204        -8.84394        -8.84394
             698         952.032         952.032        -15.1197        -15.1197        -10.4312        -10.4312
             699         948.444         948.444        -12.3537        -12.3537        -11.3335        -11.3335
             700         945.466         945.466        -9.71972        -9.71972        -11.7287        -11.7287
             701         943.056         943.056        -7.32815        -7.32815        -11.7652        -11.7652
             702         941.150         941.150        -5.22877        -5.22877        -11.5597        -11.5597
             703         939.670         939.670        -3.43296        -3.43296        -11.1965        -11.1965
             704         938.543         938.543        -1.93005        -1.93005        -10.7354        -10.7354
             705         937.702         937.702    -697.028E-03    -697.028E-03        -10.2171        -10.2171
             706         937.089         937.089     294.531E-03     294.531E-03        -9.66876        -9.66876
             707         936.653         936.653         1.07486         1.07486        -9.10855        -9.10855
             708         936.355         936.355         1.67349         1.67349        -8.54826        -8.54826
             709         936.162         936.162         2.11813         2.11813        -7.99564        -7.99564
             710         936.047         936.047         2.43391         2.43391        -7.45579        -7.45579
             711         935.990         935.990         2.64327         2.64327        -6.93214        -6.93214
             712         935.973         935.973         2.76581         2.76581        -6.42701        -6.42701
             713         935.985         935.985         2.81853         2.81853        -5.94198        -5.94198
             714         936.016         936.016         2.81598         2.81598        -5.47815        -5.47815
             715         936.059         936.059         2.77050         2.77050        -5.03624        -5.03624
             716         936.108         936.108         2.69245         2.69245        -4.61668        -4.61668
             717         936.160         936.160         2.59051         2.59051        -4.21964        -4.21964
             718         936.211         936.211         2.47185         2.47185        -3.84508        -3.84508
             719         936.260         936.260         2.34239         2.34239        -3.49275        -3.49275
             720         936.306         936.306         2.20692         2.20692        -3.16222        -3.16222
             721         936.348         936.348         2.06937         2.06937        -2.85288        -2.85288
             722         936.386         936.386         1.93286         1.93286        -2.56397        -2.56397
             723         936.419         936.419         1.79989         1.79989        -2.29458        -2.29458
             724         936.449         936.449         1.67241         1.67241        -2.04369        -2.04369
             725         936.474         936.474         1.55198         1.55198        -1.81018        -1.81018
             726         936.496         936.496         1.43976         1.43976        -1.59281        -1.59281
             727         936.514         936.514         1.33666         1.33666        -1.39030        -1.39030
             728         936.529         936.529         1.24333         1.24333        -1.20129        -1.20129
             729         936.542         936.542         1.16028         1.16028        -1.02437        -1.02437
             730         936.552         936.552         1.08785         1.08785    -858.099E-03    -858.099E-03
             731         936.560         936.560         1.02628         1.02628    -700.993E-03    -700.993E-03
             732         936.567         936.567     975.756E-03     975.756E-03    -551.556E-03    -551.556E-03
             733         936.572         936.572     936.374E-03     936.374E-03    -408.270E-03    -408.270E-03
             734         936.575         936.575     908.206E-03     908.206E-03    -269.610E-03    -269.610E-03
             735         936.577         936.577     891.266E-03     891.266E-03    -134.440E-03    -134.440E-03
             736         968.382         968.382        -16.9743        -16.9743         5.56029         5.56029
             737         965.020         965.020        -17.7324        -17.7324         1.39002         1.39002
             738         961.314         961.314        -17.1330        -17.1330        -2.08798        -2.08798
             739         957.602         957.602        -15.6503        -15.6503        -4.81414        -4.81414
             740         954.105         954.105        -13.6688        -13.6688        -6.83584        -6.83584
             741         950.957         950.957        -11.4742        -11.4742        -8.24373        -8.24373
             742         948.222         948.222        -9.27312        -9.27312        -9.14864        -9.14864
             743         945.909         945.909        -7.19660        -7.19660        -9.66076        -9.66076
             744         943.996         943.996        -5.31988        -5.31988        -9.87557        -9.87557
             745         942.441         942.441        -3.67769        -3.67769        -9.87134        -9.87134
             746         941.195         941.195        -2.27808        -2.27808        -9.70856        -9.70856
             747         940.210         940.210        -1.11260        -1.11260        -9.43324        -9.43324
             748         939.438         939.438    -163.219E-03    -163.219E-03        -9.07951        -9.07951
             749         938.839         938.839     592.756E-03     592.756E-03        -8.67279        -8.67279
             750         938.378         938.378         1.17973         1.17973        -8.23186        -8.23186
             751         938.025         938.025         1.62178         1.62178        -7.77077        -7.77077
             752         937.756         937.756         1.94161         1.94161        -7.30012        -7.30012
             753         937.551         937.551         2.15988         2.15988        -6.82794        -6.82794
             754         937.395         937.395         2.29501         2.29501        -6.36040        -6.36040
             755         937.276         937.276         2.36308         2.36308        -5.90226        -5.90226
             756         937.183         937.183         2.37792         2.37792        -5.45714        -5.45714
             757         937.111         937.111         2.35134         2.35134        -5.02780        -5.02780
             758         937.053         937.053         2.29323         2.29323        -4.61628        -4.61628
             759         937.006         937.006         2.21189         2.21189        -4.22399        -4.22399
             760         936.967         936.967         2.11413         2.11413        -3.85186        -3.85186
             761         936.932         936.932         2.00558         2.00558        -3.50037        -3.50037
             762         936.902         936.902         1.89078         1.89078        -3.16964        -3.16964
             763         936.874         936.874         1.77342         1.77342        -2.85947        -2.85947
             764         936.849         936.849         1.65642         1.65642        -2.56939        -2.56939
             765         936.826         936.826         1.54211         1.54211        -2.29871        -2.29871
             766         936.804         936.804         1.43232         1.43232        -2.04654        -2.04654
             767         936.783         936.783         1.32846         1.32846        -1.81186        -1.81186
             768         936.765         936.765         1.23160         1.23160        -1.59349        -1.59349
             769         936.747         936.747         1.14256         1.14256        -1.39017        -1.39017
             770         936.731         936.731         1.06194         1.06194        -1.20056        -1.20056
             771         936.717         936.717     990.193E-03     990.193E-03        -1.02324        -1.02324
             772         936.705         936.705     927.618E-03     927.618E-03    -856.758E-03    -856.758E-03
             773         936.694         936.694     874.435E-03     874.435E-03    -699.608E-03    -699.608E-03
             774         936.685         936.685     830.788E-03     830.788E-03    -550.271E-03    -550.271E-03
             775         936.678         936.678     796.772E-03     796.772E-03    -407.201E-03    -407.201E-03
             776         936.673         936.673     772.442E-03     772.442E-03    -268.847E-03    -268.847E-03
             777         936.670         936.670     757.813E-03     757.813E-03    -134.063E-03    -134.063E-03
             778         965.524         965.524        -12.8945        -12.8945         8.00666         8.00666
             779         963.398         963.398        -14.0806        -14.0806         4.40443         4.40443
             780         960.809         960.809        -14.0789        -14.0789         1.15415         1.15415
             781         958.026         958.026        -13.2306        -13.2306        -1.60304        -1.60304
             782         955.256         955.256        -11.8438        -11.8438        -3.82489        -3.82489
             783         952.642         952.642        -10.1712        -10.1712        -5.53492        -5.53492
             784         950.269         950.269        -8.40182        -8.40182        -6.78773        -6.78773
             785         948.179         948.179        -6.66994        -6.66994        -7.65233        -7.65233
             786         946.378         946.378        -5.06064        -5.06064        -8.19917        -8.19917
             787         944.853         944.853        -3.62209        -3.62209        -8.49225        -8.49225
             788         943.577         943.577        -2.37520        -2.37520        -8.58677        -8.58677
             789         942.519         942.519        -1.32264        -1.32264        -8.52822        -8.52822
             790         941.647         941.647    -455.421E-03    -455.421E-03        -8.35355        -8.35355
             791         940.928         940.928     242.157E-03     242.157E-03        -8.09226        -8.09226
             792         940.337         940.337     789.068E-03     789.068E-03        -7.76791        -7.76791
             793         939.848         939.848         1.20533         1.20533        -7.39922        -7.39922
             794         939.441         939.441         1.51051         1.51051        -7.00112        -7.00112
             795         939.101         939.101         1.72289         1.72289        -6.58548        -6.58548
             796         938.812         938.812         1.85899         1.85899        -6.16176        -6.16176
             797         938.566         938.566         1.93341         1.93341        -5.73744        -5.73744
             798         938.353         938.353         1.95880         1.95880        -5.31842        -5.31842
             799         938.166         938.166         1.94595         1.94595        -4.90926        -4.90926
             800         938.001         938.001         1.90396         1.90396        -4.51343        -4.51343
             801         937.854         937.854         1.84040         1.84040        -4.13349        -4.13349
             802         937.722         937.722         1.76155         1.76155        -3.77123        -3.77123
             803         937.603         937.603         1.67251         1.67251        -3.42780        -3.42780
             804         937.494         937.494         1.57742         1.57742        -3.10383        -3.10383
             805         937.396         937.396         1.47962         1.47962        -2.79948        -2.79948
             806         937.306         937.306         1.38175         1.38175        -2.51457        -2.51457
             807         937.224         937.224         1.28590         1.28590        -2.24859        -2.24859
             808         937.150         937.150         1.19368         1.19368        -2.00082        -2.00082
             809         937.083         937.083         1.10637         1.10637        -1.77031        -1.77031
             810         937.023         937.023         1.02489         1.02489        -1.55597        -1.55597
             811         936.969         936.969     949.977E-03     949.977E-03        -1.35658        -1.35658
             812         936.921         936.921     882.144E-03     882.144E-03        -1.17082        -1.17082
             813         936.880         936.880     821.772E-03     821.772E-03    -997.300E-03    -997.300E-03
             814         936.844         936.844     769.126E-03     769.126E-03    -834.578E-03    -834.578E-03
             815         936.814         936.814     724.388E-03     724.388E-03    -681.165E-03    -681.165E-03
             816         936.790         936.790     687.677E-03     687.677E-03    -535.541E-03    -535.541E-03
             817         936.771         936.771     659.068E-03     659.068E-03    -396.169E-03    -396.169E-03
             818         936.757         936.757     638.609E-03     638.609E-03    -261.499E-03    -261.499E-03
             819         936.749         936.749     626.310E-03     626.310E-03    -130.406E-03    -130.406E-03
             820         962.622         962.622        -9.55102        -9.55102         9.35204         9.35204
             821         961.451         961.451        -10.8503        -10.8503         6.34221         6.34221
             822         959.796         959.796        -11.1781        -11.1781         3.43585         3.43585
             823         957.854         957.854        -10.7647        -10.7647     811.241E-03     811.241E-03
             824         955.792         955.792        -9.84149        -9.84149        -1.44044        -1.44044
             825         953.742         953.742        -8.61230        -8.61230        -3.28866        -3.28866
             826         951.794         951.794        -7.24211        -7.24211        -4.74461        -4.74461
             827         950.001         950.001        -5.85275        -5.85275        -5.84178        -5.84178
             828         948.391         948.391        -4.52873        -4.52873        -6.62507        -6.62507
             829         946.970         946.970        -3.32205        -3.32205        -7.14237        -7.14237
             830         945.729         945.729        -2.26037        -2.26037        -7.43959        -7.43959
             831         944.654         944.654        -1.35337        -1.35337        -7.55841        -7.55841
             832         943.725         943.725    -598.737E-03    -598.737E-03        -7.53513        -7.53513
             833         942.922         942.922     13.3628E-03     13.3628E-03        -7.40082        -7.40082
             834         942.226         942.226     496.971E-03     496.971E-03        -7.18157        -7.18157
             835         941.621         941.621     867.968E-03     867.968E-03        -6.89912        -6.89912
             836         941.091         941.091         1.14253         1.14253        -6.57140        -6.57140
             837         940.624         940.624         1.33612         1.33612        -6.21313        -6.21313
             838         940.210         940.210         1.46296         1.46296        -5.83625        -5.83625
             839         939.840         939.840         1.53569         1.53569        -5.45039        -5.45039
             840         939.508         939.508         1.56538         1.56538        -5.06321        -5.06321
             841         939.208         939.208         1.56145         1.56145        -4.68071        -4.68071
             842         938.935         938.935         1.53190         1.53190        -4.30753        -4.30753
             843         938.688         938.688         1.48335         1.48335        -3.94711        -3.94711
             844         938.463         938.463         1.42129         1.42129        -3.60196        -3.60196
             845         938.257         938.257         1.35017         1.35017        -3.27377        -3.27377
             846         938.070         938.070         1.27360         1.27360        -2.96355        -2.96355
             847         937.899         937.899         1.19445         1.19445        -2.67178        -2.67178
             848         937.745         937.745         1.11502         1.11502        -2.39850        -2.39850
             849         937.604         937.604         1.03707         1.03707        -2.14339        -2.14339
             850         937.477         937.477     962.015E-03     962.015E-03        -1.90583        -1.90583
             851         937.363         937.363     890.899E-03     890.899E-03        -1.68498        -1.68498
             852         937.261         937.261     824.529E-03     824.529E-03        -1.47982        -1.47982
             853         937.171         937.171     763.501E-03     763.501E-03        -1.28920        -1.28920
             854         937.092         937.092     708.250E-03     708.250E-03        -1.11184        -1.11184
             855         937.023         937.023     659.085E-03     659.085E-03    -946.398E-03    -946.398E-03
             856         936.964         936.964     616.223E-03     616.223E-03    -791.472E-03    -791.472E-03
             857         936.915         936.915     579.807E-03     579.807E-03    -645.614E-03    -645.614E-03
             858         936.876         936.876     549.932E-03     549.932E-03    -507.345E-03    -507.345E-03
             859         936.845         936.845     526.654E-03     526.654E-03    -375.165E-03    -375.165E-03
             860         936.823         936.823     510.009E-03     510.009E-03    -247.566E-03    -247.566E-03
             861         936.810         936.810     500.007E-03     500.007E-03    -123.470E-03    -123.470E-03
             862         959.881         959.881        -6.87649        -6.87649         9.87467         9.87467
             863         959.459         959.459        -8.08341        -8.08341         7.40907         7.40907
             864         958.584         958.584        -8.54060        -8.54060         4.88536         4.88536
             865         957.384         957.384        -8.39417        -8.39417         2.48502         2.48502
             866         955.984         955.984        -7.80832        -7.80832     324.556E-03     324.556E-03
             867         954.490         954.490        -6.93881        -6.93881        -1.53451        -1.53451
             868         952.985         952.985        -5.91789        -5.91789        -3.07033        -3.07033
             869         951.527         951.527        -4.84947        -4.84947        -4.28928        -4.28928
             870         950.151         950.151        -3.80807        -3.80807        -5.21441        -5.21441
             871         948.878         948.878        -2.84322        -2.84322        -5.87805        -5.87805
             872         947.713         947.713        -1.98339        -1.98339        -6.31610        -6.31610
             873         946.656         946.656        -1.24154        -1.24154        -6.56438        -6.56438
             874         945.699         945.699    -619.407E-03    -619.407E-03        -6.65665        -6.65665
             875         944.834         944.834    -111.478E-03    -111.478E-03        -6.62335        -6.62335
             876         944.052         944.052     292.132E-03     292.132E-03        -6.49135        -6.49135
             877         943.343         943.343     603.496E-03     603.496E-03        -6.28373        -6.28373
             878         942.698         942.698     835.382E-03     835.382E-03        -6.02011        -6.02011
             879         942.111         942.111         1.00028         1.00028        -5.71687        -5.71687
             880         941.574         941.574         1.10982         1.10982        -5.38753        -5.38753
             881         941.083         941.083         1.17444         1.17444        -5.04309        -5.04309
             882         940.632         940.632         1.20330         1.20330        -4.69235        -4.69235
             883         940.219         940.219         1.20425         1.20425        -4.34229        -4.34229
             884         939.840         939.840         1.18392         1.18392        -3.99828        -3.99828
             885         939.492         939.492         1.14782         1.14782        -3.66437        -3.66437
             886         939.173         939.173         1.10049         1.10049        -3.34352        -3.34352
             887         938.881         938.881         1.04563         1.04563        -3.03777        -3.03777
             888         938.615         938.615     986.183E-03     986.183E-03        -2.74840        -2.74840
             889         938.373         938.373     924.529E-03     924.529E-03        -2.47611        -2.47611
             890         938.153         938.153     862.525E-03     862.525E-03        -2.22108        -2.22108
             891         937.954         937.954     801.626E-03     801.626E-03        -1.98311        -1.98311
             892         937.775         937.775     742.951E-03     742.951E-03        -1.76171        -1.76171
             893         937.615         937.615     687.354E-03     687.354E-03        -1.55610        -1.55610
             894         937.472         937.472     635.474E-03     635.474E-03        -1.36536        -1.36536
             895         937.346         937.346     587.783E-03     587.783E-03        -1.18839        -1.18839
             896         937.235         937.235     544.621E-03     544.621E-03        -1.02400        -1.02400
             897         937.140         937.140     506.228E-03     506.228E-03    -870.913E-03    -870.913E-03
             898         937.059         937.059     472.770E-03     472.770E-03    -727.800E-03    -727.800E-03
             899         936.991         936.991     444.354E-03     444.354E-03    -593.284E-03    -593.284E-03
             900         936.937         936.937     421.048E-03     421.048E-03    -465.962E-03    -465.962E-03
             901         936.895         936.895     402.892E-03     402.892E-03    -344.410E-03    -344.410E-03
             902         936.865         936.865     389.911E-03     389.911E-03    -227.197E-03    -227.197E-03
             903         936.848         936.848     382.115E-03     382.115E-03    -113.332E-03    -113.332E-03
             904         957.400         957.400        -4.76564        -4.76564         9.75040         9.75040
             905         957.602         957.602        -5.76420        -5.76420         7.75681         7.75681
             906         957.397         957.397        -6.21553        -6.21553         5.61276         5.61276
             907         956.858         956.858        -6.20899        -6.20899         3.48680         3.48680
             908         956.066         956.066        -5.85501        -5.85501         1.50024         1.50024
             909         955.101         955.101        -5.26528        -5.26528    -269.096E-03    -269.096E-03
             910         954.033         954.033        -4.53952        -4.53952        -1.78052        -1.78052
             911         952.914         952.914        -3.75861        -3.75861        -3.02096        -3.02096
             912         951.787         951.787        -2.98338        -2.98338        -3.99739        -3.99739
             913         950.677         950.677        -2.25535        -2.25535        -4.72923        -4.72923
             914         949.605         949.605        -1.60011        -1.60011        -5.24310        -5.24310
             915         948.579         948.579        -1.03043        -1.03043        -5.56869        -5.56869
             916         947.607         947.607    -549.888E-03    -549.888E-03        -5.73593        -5.73593
             917         946.689         946.689    -155.736E-03    -155.736E-03        -5.77333        -5.77333
             918         945.826         945.826     158.658E-03     158.658E-03        -5.70688        -5.70688
             919         945.017         945.017     402.042E-03     402.042E-03        -5.55959        -5.55959
             920         944.259         944.259     583.976E-03     583.976E-03        -5.35136        -5.35136
             921         943.552         943.552     713.983E-03     713.983E-03        -5.09908        -5.09908
             922         942.893         942.893     801.024E-03     801.024E-03        -4.81677        -4.81677
             923         942.280         942.280     853.201E-03     853.201E-03        -4.51594        -4.51594
             924         941.711         941.711     877.632E-03     877.632E-03        -4.20585        -4.20585
             925         941.184         941.184     880.433E-03     880.433E-03        -3.89381        -3.89381
             926         940.697         940.697     866.764E-03     866.764E-03        -3.58550        -3.58550
             927         940.249         940.249     840.911E-03     840.911E-03        -3.28518        -3.28518
             928         939.837         939.837     806.392E-03     806.392E-03        -2.99598        -2.99598
             929         939.459         939.459     766.056E-03     766.056E-03        -2.72008        -2.72008
             930         939.115         939.115     722.189E-03     722.189E-03        -2.45886        -2.45886
             931         938.802         938.802     676.602E-03     676.602E-03        -2.21311        -2.21311
             932         938.518         938.518     630.719E-03     630.719E-03        -1.98309        -1.98309
             933         938.262         938.262     585.642E-03     585.642E-03        -1.76869        -1.76869
             934         938.032         938.032     542.218E-03     542.218E-03        -1.56946        -1.56946
             935         937.827         937.827     501.086E-03     501.086E-03        -1.38473        -1.38473
             936         937.645         937.645     462.723E-03     462.723E-03        -1.21364        -1.21364
             937         937.485         937.485     427.476E-03     427.476E-03        -1.05520        -1.05520
             938         937.345         937.345     395.595E-03     395.595E-03    -908.308E-03    -908.308E-03
             939         937.224         937.224     367.252E-03     367.252E-03    -771.785E-03    -771.785E-03
             940         937.122         937.122     342.565E-03     342.565E-03    -644.404E-03    -644.404E-03
             941         937.037         937.037     321.608E-03     321.608E-03    -524.904E-03    -524.904E-03
             942         936.968         936.968     304.425E-03     304.425E-03    -411.993E-03    -411.993E-03
             943         936.916         936.916     291.043E-03     291.043E-03    -304.365E-03    -304.365E-03
             944         936.879         936.879     281.473E-03     281.473E-03    -200.709E-03    -200.709E-03
             945         936.857         936.857     275.729E-03     275.729E-03    -100.150E-03    -100.150E-03
             946         955.229         955.229        -3.11637        -3.11637         9.06247         9.06247
             947         956.006         956.006        -3.85505        -3.85505         7.47376         7.47376
             948         956.414         956.414        -4.22198        -4.22198         5.69541         5.69541
             949         956.480         956.480        -4.26891        -4.26891         3.87475         3.87475
             950         956.251         956.251        -4.06617        -4.06617         2.12615         2.12615
             951         955.780         955.780        -3.68836        -3.68836     529.874E-03     529.874E-03
             952         955.122         955.122        -3.20453        -3.20453    -864.808E-03    -864.808E-03
             953         954.325         954.325        -2.67260        -2.67260        -2.03475        -2.03475
             954         953.432         953.432        -2.13698        -2.13698        -2.97633        -2.97633
             955         952.477         952.477        -1.62908        -1.62908        -3.69991        -3.69991
             956         951.488         951.488        -1.16865        -1.16865        -4.22458        -4.22458
             957         950.487         950.487    -766.308E-03    -766.308E-03        -4.57423        -4.57423
             958         949.492         949.492    -425.631E-03    -425.631E-03        -4.77454        -4.77454
             959         948.514         948.514    -145.453E-03    -145.453E-03        -4.85094        -4.85094
             960         947.564         947.564     78.4796E-03     78.4796E-03        -4.82728        -4.82728
             961         946.648         946.648     252.105E-03     252.105E-03        -4.72507        -4.72507
             962         945.773         945.773     382.091E-03     382.091E-03        -4.56316        -4.56316
             963         944.941         944.941     475.162E-03     475.162E-03        -4.35765        -4.35765
             964         944.156         944.156     537.690E-03     537.690E-03        -4.12204        -4.12204
             965         943.418         943.418     575.455E-03     575.455E-03        -3.86736        -3.86736
             966         942.728         942.728     593.541E-03     593.541E-03        -3.60254        -3.60254
             967         942.085         942.085     596.317E-03     596.317E-03        -3.33462        -3.33462
             968         941.490         941.490     587.462E-03     587.462E-03        -3.06902        -3.06902
             969         940.942         940.942     570.027E-03     570.027E-03        -2.80985        -2.80985
             970         940.437         940.437     546.505E-03     546.505E-03        -2.56009        -2.56009
             971         939.976         939.976     518.914E-03     518.914E-03        -2.32182        -2.32182
             972         939.555         939.555     488.861E-03     488.861E-03        -2.09635        -2.09635
             973         939.173         939.173     457.618E-03     457.618E-03        -1.88445        -1.88445
             974         938.828         938.828     426.177E-03     426.177E-03        -1.68638        -1.68638
             975         938.517         938.517     395.304E-03     395.304E-03        -1.50204        -1.50204
             976         938.239         938.239     365.583E-03     365.583E-03        -1.33106        -1.33106
             977         937.992         937.992     337.451E-03     337.451E-03        -1.17283        -1.17283
             978         937.773         937.773     311.233E-03     311.233E-03        -1.02660        -1.02660
             979         937.580         937.580     287.164E-03     287.164E-03    -891.469E-03    -891.469E-03
             980         937.413         937.413     265.409E-03     265.409E-03    -766.468E-03    -766.468E-03
             981         937.269         937.269     246.082E-03     246.082E-03    -650.556E-03    -650.556E-03
             982         937.147         937.147     229.258E-03     229.258E-03    -542.650E-03    -542.650E-03
             983         937.046         937.046     214.986E-03     214.986E-03    -441.635E-03    -441.635E-03
             984         936.965         936.965     203.289E-03     203.289E-03    -346.386E-03    -346.386E-03
             985         936.903         936.903     194.176E-03     194.176E-03    -255.752E-03    -255.752E-03
             986         936.859         936.859     187.659E-03     187.659E-03    -168.581E-03    -168.581E-03
             987         936.833         936.833     183.749E-03     183.749E-03    -84.1712E-03    -84.1712E-03
             988         953.414         953.414        -1.84826        -1.84826         7.81502         7.81502
             989         954.784         954.784        -2.32425        -2.32425         6.58669         6.58669
             990         955.797         955.797        -2.57323        -2.57323         5.17114         5.17114
             991         956.444         956.444        -2.62344        -2.62344         3.68974         3.68974
             992         956.743         956.743        -2.51567        -2.51567         2.24090         2.24090
             993         956.728         956.728        -2.29490        -2.29490     897.573E-03     897.573E-03
             994         956.439         956.439        -2.00380        -2.00380    -292.495E-03    -292.495E-03
             995         955.924         955.924        -1.67885        -1.67885        -1.30344        -1.30344
             996         955.227         955.227        -1.34861        -1.34861        -2.12717        -2.12717
             997         954.390         954.390        -1.03346        -1.03346        -2.76848        -2.76848
             998         953.452         953.452    -746.596E-03    -746.596E-03        -3.24094        -3.24094
             999         952.446         952.446    -495.187E-03    -495.187E-03        -3.56324        -3.56324
            1000         951.400         951.400    -281.950E-03    -281.950E-03        -3.75644        -3.75644
            1001         950.339         950.339    -106.393E-03    -106.393E-03        -3.84192        -3.84192
            1002         949.281         949.281     33.9779E-03     33.9779E-03        -3.84009        -3.84009
            1003         948.242         948.242     142.824E-03     142.824E-03        -3.76956        -3.76956
            1004         947.235         947.235     224.304E-03     224.304E-03        -3.64672        -3.64672
            1005         946.267         946.267     282.646E-03     282.646E-03        -3.48563        -3.48563
            1006         945.347         945.347     321.864E-03     321.864E-03        -3.29805        -3.29805
            1007         944.478         944.478     345.605E-03     345.605E-03        -3.09363        -3.09363
            1008         943.663         943.663     357.074E-03     357.074E-03        -2.88012        -2.88012
            1009         942.904         942.904     359.019E-03     359.019E-03        -2.66362        -2.66362
            1010         942.200         942.200     353.752E-03     353.752E-03        -2.44882        -2.44882
            1011         941.552         941.552     343.182E-03     343.182E-03        -2.23924        -2.23924
            1012         940.957         940.957     328.865E-03     328.865E-03        -2.03741        -2.03741
            1013         940.413         940.413     312.055E-03     312.055E-03        -1.84509        -1.84509
            1014         939.919         939.919     293.748E-03     293.748E-03        -1.66340        -1.66340
            1015         939.472         939.472     274.728E-03     274.728E-03        -1.49293        -1.49293
            1016         939.069         939.069     255.604E-03     255.604E-03        -1.33391        -1.33391
            1017         938.707         938.707     236.842E-03     236.842E-03        -1.18623        -1.18623
            1018         938.384         938.384     218.798E-03     218.798E-03        -1.04956        -1.04956
            1019         938.098         938.098     201.735E-03     201.735E-03    -923.385E-03    -923.385E-03
            1020         937.845         937.845     185.847E-03     185.847E-03    -807.062E-03    -807.062E-03
            1021         937.624         937.624     171.274E-03     171.274E-03    -699.844E-03    -699.844E-03
            1022         937.432         937.432     158.113E-03     158.113E-03    -600.916E-03    -600.916E-03
            1023         937.268         937.268     146.429E-03     146.429E-03    -509.417E-03    -509.417E-03
            1024         937.129         937.129     136.265E-03     136.265E-03    -424.451E-03    -424.451E-03
            1025         937.014         937.014     127.648E-03     127.648E-03    -345.103E-03    -345.103E-03
            1026         936.922         936.922     120.594E-03     120.594E-03    -270.446E-03    -270.446E-03
            1027         936.851         936.851     115.099E-03     115.099E-03    -199.558E-03    -199.558E-03
            1028         936.801         936.801     111.151E-03     111.151E-03    -131.492E-03    -131.492E-03
            1029         936.772         936.772     108.781E-03     108.781E-03    -65.7246E-03    -65.7246E-03
            1030         952.025         952.025    -916.174E-03    -916.174E-03         5.93992         5.93992
            1031         954.070         954.070        -1.16488        -1.16488         5.06541         5.06541
            1032         955.726         955.726        -1.29866        -1.29866         4.03993         4.03993
            1033         956.957         956.957        -1.33082        -1.33082         2.95388         2.95388
            1034         957.759         957.759        -1.28143        -1.28143         1.88182         1.88182
            1035         958.153         958.153        -1.17299        -1.17299     880.304E-03     880.304E-03
            1036         958.177         958.177        -1.02727        -1.02727    -12.4177E-03    -12.4177E-03
            1037         957.879         957.879    -863.114E-03    -863.114E-03    -774.761E-03    -774.761E-03
            1038         957.312         957.312    -695.367E-03    -695.367E-03        -1.39872        -1.39872
            1039         956.529         956.529    -534.784E-03    -534.784E-03        -1.88667        -1.88667
            1040         955.582         955.582    -388.296E-03    -388.296E-03        -2.24794        -2.24794
            1041         954.516         954.516    -259.786E-03    -259.786E-03        -2.49621        -2.49621
            1042         953.372         953.372    -150.721E-03    -150.721E-03        -2.64714        -2.64714
            1043         952.187         952.187    -60.9337E-03    -60.9337E-03        -2.71688        -2.71688
            1044         950.987         950.987     10.8418E-03     10.8418E-03        -2.72089        -2.72089
            1045         949.798         949.798     66.4718E-03     66.4718E-03        -2.67329        -2.67329
            1046         948.636         948.636     108.097E-03     108.097E-03        -2.58654        -2.58654
            1047         947.517         947.517     137.895E-03     137.895E-03        -2.47129        -2.47129
            1048         946.450         946.450     157.934E-03     157.934E-03        -2.33643        -2.33643
            1049         945.442         945.442     170.091E-03     170.091E-03        -2.18922        -2.18922
            1050         944.497         944.497     176.012E-03     176.012E-03        -2.03545        -2.03545
            1051         943.619         943.619     177.105E-03     177.105E-03        -1.87968        -1.87968
            1052         942.806         942.806     174.552E-03     174.552E-03        -1.72535        -1.72535
            1053         942.059         942.059     169.325E-03     169.325E-03        -1.57505        -1.57505
            1054         941.376         941.376     162.215E-03     162.215E-03        -1.43061        -1.43061
            1055         940.754         940.754     153.858E-03     153.858E-03        -1.29328        -1.29328
            1056         940.191         940.191     144.755E-03     144.755E-03        -1.16384        -1.16384
            1057         939.683         939.683     135.301E-03     135.301E-03        -1.04270        -1.04270
            1058         939.227         939.227     125.799E-03     125.799E-03    -929.976E-03    -929.976E-03
            1059         938.819         938.819     116.485E-03     116.485E-03    -825.563E-03    -825.563E-03
            1060         938.457         938.457     107.532E-03     107.532E-03    -729.190E-03    -729.190E-03
            1061         938.136         938.136     99.0725E-03     99.0725E-03    -640.458E-03    -640.458E-03
            1062         937.855         937.855     91.2008E-03     91.2008E-03    -558.876E-03    -558.876E-03
            1063         937.609         937.609     83.9846E-03     83.9846E-03    -483.888E-03    -483.888E-03
            1064         937.397         937.397     77.4715E-03     77.4715E-03    -414.891E-03    -414.891E-03
            1065         937.215         937.215     71.6923E-03     71.6923E-03    -351.252E-03    -351.252E-03
            1066         937.062         937.062     66.6681E-03     66.6681E-03    -292.316E-03    -292.316E-03
            1067         936.936         936.936     62.4103E-03     62.4103E-03    -237.419E-03    -237.419E-03
            1068         936.834         936.834     58.9268E-03     58.9268E-03    -185.888E-03    -185.888E-03
            1069         936.757         936.757     56.2298E-03     56.2298E-03    -137.053E-03    -137.053E-03
            1070         936.703         936.703     54.2798E-03     54.2798E-03    -90.2730E-03    -90.2730E-03
            1071         936.670         936.670     53.0668E-03     53.0668E-03    -45.2704E-03    -45.2704E-03
            1072         951.186         951.186    -322.155E-03    -322.155E-03         3.31660         3.31660
            1073         954.048         954.048    -412.653E-03    -412.653E-03         2.84207         2.84207
            1074         956.425         956.425    -462.072E-03    -462.072E-03         2.28157         2.28157
            1075         958.260         958.260    -475.136E-03    -475.136E-03         1.68569         1.68569
            1076         959.540         959.540    -458.765E-03    -458.765E-03         1.09594         1.09594
            1077         960.284         960.284    -420.925E-03    -420.925E-03     544.048E-03     544.048E-03
            1078         960.538         960.538    -369.466E-03    -369.466E-03     51.6292E-03     51.6292E-03
            1079         960.362         960.362    -311.144E-03    -311.144E-03    -368.959E-03    -368.959E-03
            1080         959.827         959.827    -251.380E-03    -251.380E-03    -713.118E-03    -713.118E-03
            1081         959.002         959.002    -194.043E-03    -194.043E-03    -982.010E-03    -982.010E-03
            1082         957.956         957.956    -141.696E-03    -141.696E-03        -1.18087        -1.18087
            1083         956.751         956.751    -95.7347E-03    -95.7347E-03        -1.31730        -1.31730
            1084         955.441         955.441    -56.7193E-03    -56.7193E-03        -1.40010        -1.40010
            1085         954.073         954.073    -24.5906E-03    -24.5906E-03        -1.43828        -1.43828
            1086         952.684         952.684     1.09987E-03     1.09987E-03        -1.44049        -1.44049
            1087         951.306         951.306     21.0204E-03     21.0204E-03        -1.41459        -1.41459
            1088         949.962         949.962     35.9419E-03     35.9419E-03        -1.36749        -1.36749
            1089         948.669         948.669     46.6434E-03     46.6434E-03        -1.30507        -1.30507
            1090         947.440         947.440     53.8687E-03     53.8687E-03        -1.23221        -1.23221
            1091         946.284         946.284     58.2880E-03     58.2880E-03        -1.15289        -1.15289
            1092         945.204         945.204     60.4910E-03     60.4910E-03        -1.07026        -1.07026
            1093         944.204         944.204     60.9792E-03     60.9792E-03    -986.764E-03    -986.764E-03
            1094         943.284         943.284     60.1738E-03     60.1738E-03    -904.258E-03    -904.258E-03
            1095         942.442         942.442     58.4200E-03     58.4200E-03    -824.106E-03    -824.106E-03
            1096         941.675         941.675     55.9987E-03     55.9987E-03    -747.274E-03    -747.274E-03
            1097         940.980         940.980     53.1340E-03     53.1340E-03    -674.406E-03    -674.406E-03
            1098         940.354         940.354     50.0037E-03     50.0037E-03    -605.894E-03    -605.894E-03
            1099         939.791         939.791     46.7464E-03     46.7464E-03    -541.931E-03    -541.931E-03
            1100         939.289         939.289     43.4693E-03     43.4693E-03    -482.556E-03    -482.556E-03
            1101         938.842         938.842     40.2545E-03     40.2545E-03    -427.693E-03    -427.693E-03
            1102         938.446         938.446     37.1634E-03     37.1634E-03    -377.178E-03    -377.178E-03
            1103         938.098         938.098     34.2418E-03     34.2418E-03    -330.781E-03    -330.781E-03
            1104         937.793         937.793     31.5227E-03     31.5227E-03    -288.229E-03    -288.229E-03
            1105         937.528         937.528     29.0302E-03     29.0302E-03    -249.213E-03    -249.213E-03
            1106         937.300         937.300     26.7800E-03     26.7800E-03    -213.403E-03    -213.403E-03
            1107         937.105         937.105     24.7842E-03     24.7842E-03    -180.455E-03    -180.455E-03
            1108         936.942         936.942     23.0479E-03     23.0479E-03    -150.016E-03    -150.016E-03
            1109         936.807         936.807     21.5788E-03     21.5788E-03    -121.727E-03    -121.727E-03
            1110         936.700         936.700     20.3742E-03     20.3742E-03    -95.2295E-03    -95.2295E-03
            1111         936.618         936.618     19.4492E-03     19.4492E-03    -70.1544E-03    -70.1544E-03
            1112         936.560         936.560     18.8066E-03     18.8066E-03    -46.1585E-03    -46.1585E-03
            1113         936.526         936.526     18.3410E-03     18.3410E-03    -23.3234E-03    -23.3234E-03
            1114         954.366         954.366        -38.7543        -38.7543         37.0845         37.0845
            1115         942.796         942.796        -30.1606        -30.1606         36.0394         36.0394
            1116         934.849         934.849        -22.5963        -22.5963         33.1931         33.1931
            1117         929.704         929.704        -16.3786        -16.3786         29.6793         29.6793
            1118         926.569         926.569        -11.4376        -11.4376         26.1290         26.1290
            1119         924.812         924.812        -7.55259        -7.55259         22.8407         22.8407
            1120         923.978         923.978        -4.51029        -4.51029         19.9275         19.9275
            1121         923.754         923.754        -2.12754        -2.12754         17.4070         17.4070
            1122         923.925         923.925    -263.764E-03    -263.764E-03         15.2533         15.2533
            1123         924.348         924.348         1.18982         1.18982         13.4233         13.4233
            1124         924.927         924.927         2.31512         2.31512         11.8702         11.8702
            1125         925.596         925.596         3.17542         3.17542         10.5493         10.5493
            1126         926.312         926.312         3.81966         3.81966         9.42092         9.42092
            1127         927.044         927.044         4.28672         4.28672         8.45097         8.45097
            1128         927.773         927.773         4.60787         4.60787         7.61103         7.61103
            1129         928.485         928.485         4.80880         4.80880         6.87772         6.87772
            1130         929.170         929.170         4.91090         4.91090         6.23204         6.23204
            1131         929.824         929.824         4.93220         4.93220         5.65873         5.65873
            1132         930.442         930.442         4.88804         4.88804         5.14558         5.14558
            1133         931.023         931.023         4.79156         4.79156         4.68293         4.68293
            1134         931.565         931.565         4.65402         4.65402         4.26313         4.26313
            1135         932.069         932.069         4.48510         4.48510         3.88012         3.88012
            1136         932.535         932.535         4.29309         4.29309         3.52913         3.52913
            1137         932.964         932.964         4.08508         4.08508         3.20633         3.20633
            1138         933.357         933.357         3.86712         3.86712         2.90868         2.90868
            1139         933.716         933.716         3.64433         3.64433         2.63366         2.63366
            1140         934.043         934.043         3.42100         3.42100         2.37920         2.37920
            1141         934.339         934.339         3.20074         3.20074         2.14354         2.14354
            1142         934.606         934.606         2.98651         2.98651         1.92513         1.92513
            1143         934.845         934.845         2.78077         2.78077         1.72256         1.72256
            1144         935.060         935.060         2.58548         2.58548         1.53457         1.53457
            1145         935.250         935.250         2.40226         2.40226         1.35995         1.35995
            1146         935.419         935.419         2.23237         2.23237         1.19753         1.19753
            1147         935.567         935.567         2.07679         2.07679         1.04618         1.04618
            1148         935.695         935.695         1.93628         1.93628     904.782E-03     904.782E-03
            1149         935.805         935.805         1.81142         1.81142     772.240E-03     772.240E-03
            1150         935.899         935.899         1.70264         1.70264     647.451E-03     647.451E-03
            1151         935.976         935.976         1.61025         1.61025     529.317E-03     529.317E-03
            1152         936.038         936.038         1.53447         1.53447     416.739E-03     416.739E-03
            1153         936.086         936.086         1.47545         1.47545     308.618E-03     308.618E-03
            1154         936.119         936.119         1.43329         1.43329     203.855E-03     203.855E-03
            1155         936.139         936.139         1.40802         1.40802     101.610E-03     101.610E-03
            1156         931.303         931.303        -35.4385        -35.4385         51.8707         51.8707
            1157         921.894         921.894        -24.8460        -24.8460         45.3543         45.3543
            1158         916.970         916.970        -16.8599        -16.8599         38.6383         38.6383
            1159         914.836         914.836        -10.9908        -10.9908         32.5487         32.5487
            1160         914.350         914.350        -6.67480        -6.67480         27.3517         27.3517
            1161         914.802         914.802        -3.47476        -3.47476         23.0353         23.0353
            1162         915.762         915.762        -1.07191        -1.07191         19.4939         19.4939
            1163         916.980         916.980     748.958E-03     748.958E-03         16.6005         16.6005
            1164         918.305         918.305         2.13762         2.13762         14.2366         14.2366
            1165         919.653         919.653         3.19637         3.19637         12.2994         12.2994
            1166         920.975         920.975         3.99791         3.99791         10.7043         10.7043
            1167         922.244         922.244         4.59431         4.59431         9.38240         9.38240
            1168         923.448         923.448         5.02442         5.02442         8.27873         8.27873
            1169         924.579         924.579         5.31793         5.31793         7.34931         7.34931
            1170         925.638         925.638         5.49840         5.49840         6.55936         6.55936
            1171         926.624         926.624         5.58501         5.58501         5.88138         5.88138
            1172         927.540         927.540         5.59380         5.59380         5.29371         5.29371
            1173         928.389         928.389         5.53847         5.53847         4.77931         4.77931
            1174         929.174         929.174         5.43084         5.43084         4.32484         4.32484
            1175         929.899         929.899         5.28125         5.28125         3.91981         3.91981
            1176         930.566         930.566         5.09873         5.09873         3.55605         3.55605
            1177         931.180         931.180         4.89124         4.89124         3.22715         3.22715
            1178         931.742         931.742         4.66570         4.66570         2.92806         2.92806
            1179         932.257         932.257         4.42818         4.42818         2.65482         2.65482
            1180         932.727         932.727         4.18393         4.18393         2.40426         2.40426
            1181         933.154         933.154         3.93745         3.93745         2.17385         2.17385
            1182         933.542         933.542         3.69262         3.69262         1.96149         1.96149
            1183         933.893         933.893         3.45272         3.45272         1.76544         1.76544
            1184         934.209         934.209         3.22048         3.22048         1.58422         1.58422
            1185         934.493         934.493         2.99819         2.99819         1.41651         1.41651
            1186         934.747         934.747         2.78773         2.78773         1.26114         1.26114
            1187         934.973         934.973         2.59063         2.59063         1.11703         1.11703
            1188         935.173         935.173         2.40809         2.40809     983.136E-03     983.136E-03
            1189         935.348         935.348         2.24108         2.24108     858.492E-03     858.492E-03
            1190         935.500         935.500         2.09036         2.09036     742.144E-03     742.144E-03
            1191         935.632         935.632         1.95649         1.95649     633.159E-03     633.159E-03
            1192         935.743         935.743         1.83990         1.83990     530.619E-03     530.619E-03
            1193         935.835         935.835         1.74091         1.74091     433.612E-03     433.612E-03
            1194         935.909         935.909         1.65974         1.65974     341.233E-03     341.233E-03
            1195         935.965         935.965         1.59656         1.59656     252.580E-03     252.580E-03
            1196         936.005         936.005         1.55147         1.55147     166.754E-03     166.754E-03
            1197         936.029         936.029         1.52450         1.52450     83.0715E-03     83.0715E-03
            1198         896.148         896.148        -24.2451        -24.2451         61.0649         61.0649
            1199         894.204         894.204        -14.4539        -14.4539         48.8361         48.8361
            1200         895.540         895.540        -8.05572        -8.05572         38.9524         38.9524
            1201         898.287         898.287        -3.81194        -3.81194         31.2347         31.2347
            1202         901.497         901.497    -911.922E-03    -911.922E-03         25.2649         25.2649
            1203         904.728         904.728         1.13495         1.13495         20.6422         20.6422
            1204         907.784         907.784         2.61720         2.61720         17.0408         17.0408
            1205         910.593         910.593         3.71307         3.71307         14.2149         14.2149
            1206         913.136         913.136         4.53151         4.53151         11.9786         11.9786
            1207         915.425         915.425         5.14263         5.14263         10.1937         10.1937
            1208         917.480         917.480         5.59197         5.59197         8.75615         8.75615
            1209         919.327         919.327         5.91085         5.91085         7.58747         7.58747
            1210         920.990         920.990         6.12162         6.12162         6.62797         6.62797
            1211         922.490         922.490         6.24129         6.24129         5.83218         5.83218
            1212         923.848         923.848         6.28341         6.28341         5.16512         5.16512
            1213         925.079         925.079         6.25941         6.25941         4.59992         4.59992
            1214         926.197         926.197         6.17927         6.17927         4.11577         4.11577
            1215         927.216         927.216         6.05192         6.05192         3.69662         3.69662
            1216         928.144         928.144         5.88547         5.88547         3.33001         3.33001
            1217         928.990         928.990         5.68733         5.68733         3.00629         3.00629
            1218         929.763         929.763         5.46430         5.46430         2.71797         2.71797
            1219         930.467         930.467         5.22254         5.22254         2.45920         2.45920
            1220         931.109         931.109         4.96765         4.96765         2.22545         2.22545
            1221         931.694         931.694         4.70464         4.70464         2.01313         2.01313
            1222         932.226         932.226         4.43796         4.43796         1.81942         1.81942
            1223         932.708         932.708         4.17156         4.17156         1.64207         1.64207
            1224         933.145         933.145         3.90883         3.90883         1.47924         1.47924
            1225         933.540         933.540         3.65273         3.65273         1.32942         1.32942
            1226         933.895         933.895         3.40577         3.40577         1.19134         1.19134
            1227         934.214         934.214         3.17007         3.17007         1.06388         1.06388
            1228         934.499         934.499         2.94737         2.94737     946.064E-03     946.064E-03
            1229         934.753         934.753         2.73911         2.73911     837.005E-03     837.005E-03
            1230         934.977         934.977         2.54646         2.54646     735.876E-03     735.876E-03
            1231         935.174         935.174         2.37035         2.37035     641.897E-03     641.897E-03
            1232         935.346         935.346         2.21151         2.21151     554.322E-03     554.322E-03
            1233         935.493         935.493         2.07048         2.07048     472.425E-03     472.425E-03
            1234         935.618         935.618         1.94770         1.94770     395.501E-03     395.501E-03
            1235         935.722         935.722         1.84347         1.84347     322.854E-03     322.854E-03
            1236         935.805         935.805         1.75802         1.75802     253.799E-03     253.799E-03
            1237         935.869         935.869         1.69151         1.69151     187.658E-03     187.658E-03
            1238         935.914         935.914         1.64407         1.64407     123.760E-03     123.760E-03
            1239         935.941         935.941         1.61571         1.61571     61.5972E-03     61.5972E-03
            1240         854.056         854.056        -6.65444        -6.65444         56.9519         56.9519
            1241         864.545         864.545        -1.14902        -1.14902         42.2979         42.2979
            1242         874.356         874.356         1.84922         1.84922         32.0145         32.0145
            1243         882.852         882.852         3.58929         3.58929         24.7030         24.7030
            1244         890.025         890.025         4.67567         4.67567         19.4006         19.4006
            1245         896.041         896.041         5.39921         5.39921         15.4805         15.4805
            1246         901.094         901.094         5.90919         5.90919         12.5345         12.5345
            1247         905.359         905.359         6.28173         6.28173         10.2860         10.2860
            1248         908.982         908.982         6.55713         6.55713         8.54701         8.54701
            1249         912.083         912.083         6.75631         6.75631         7.18471         7.18471
            1250         914.759         914.759         6.89069         6.89069         6.10498         6.10498
            1251         917.085         917.085         6.96689         6.96689         5.23921         5.23921
            1252         919.122         919.122         6.98946         6.98946         4.53716         4.53716
            1253         920.919         920.919         6.96223         6.96223         3.96129         3.96129
            1254         922.513         922.513         6.88903         6.88903         3.48352         3.48352
            1255         923.936         923.936         6.77391         6.77391         3.08252         3.08252
            1256         925.212         925.212         6.62128         6.62128         2.74209         2.74209
            1257         926.360         926.360         6.43580         6.43580         2.44983         2.44983
            1258         927.397         927.397         6.22233         6.22233         2.19622         2.19622
            1259         928.335         928.335         5.98576         5.98576         1.97394         1.97394
            1260         929.186         929.186         5.73096         5.73096         1.77733         1.77733
            1261         929.958         929.958         5.46260         5.46260         1.60203         1.60203
            1262         930.658         930.658         5.18514         5.18514         1.44462         1.44462
            1263         931.294         931.294         4.90273         4.90273         1.30244         1.30244
            1264         931.870         931.870         4.61916         4.61916         1.17340         1.17340
            1265         932.393         932.393         4.33785         4.33785         1.05583         1.05583
            1266         932.865         932.865         4.06187         4.06187     948.377E-03     948.377E-03
            1267         933.291         933.291         3.79387         3.79387     849.932E-03     849.932E-03
            1268         933.674         933.674         3.53616         3.53616     759.566E-03     759.566E-03
            1269         934.018         934.018         3.29071         3.29071     676.480E-03     676.480E-03
            1270         934.325         934.325         3.05916         3.05916     599.973E-03     599.973E-03
            1271         934.599         934.599         2.84289         2.84289     529.417E-03     529.417E-03
            1272         934.840         934.840         2.64300         2.64300     464.235E-03     464.235E-03
            1273         935.053         935.053         2.46038         2.46038     403.890E-03     403.890E-03
            1274         935.237         935.237         2.29574         2.29574     347.872E-03     347.872E-03
            1275         935.396         935.396         2.14962         2.14962     295.696E-03     295.696E-03
            1276         935.531         935.531         2.02242         2.02242     246.891E-03     246.891E-03
            1277         935.643         935.643         1.91445         1.91445     201.000E-03     201.000E-03
            1278         935.733         935.733         1.82593         1.82593     157.582E-03     157.582E-03
            1279         935.802         935.802         1.75703         1.75703     116.200E-03     116.200E-03
            1280         935.850         935.850         1.70785         1.70785     76.4335E-03     76.4335E-03
            1281         935.879         935.879         1.67841         1.67841     37.9594E-03     37.9594E-03
            1282         817.981         817.981         10.4752         10.4752         34.8132         34.8132
            1283         841.326         841.326         10.2490         10.2490         24.3900         24.3900
            1284         858.729         858.729         9.67146         9.67146         17.7555         17.7555
            1285         871.936         871.936         9.12050         9.12050         13.3076         13.3076
            1286         882.169         882.169         8.68239         8.68239         10.2079         10.2079
            1287         890.245         890.245         8.36169         8.36169         7.98665         7.98665
            1288         896.724         896.724         8.13807         8.13807         6.35588         6.35588
            1289         902.001         902.001         7.98454         7.98454         5.13611         5.13611
            1290         906.358         906.358         7.87594         7.87594         4.20773         4.20773
            1291         910.001         910.001         7.79061         7.79061         3.49091         3.49091
            1292         913.084         913.084         7.71159         7.71159         2.92966         2.92966
            1293         915.720         915.720         7.62598         7.62598         2.48469         2.48469
            1294         917.997         917.997         7.52476         7.52476         2.12744         2.12744
            1295         919.981         919.981         7.40205         7.40205         1.83719         1.83719
            1296         921.724         921.724         7.25464         7.25464         1.59850         1.59850
            1297         923.266         923.266         7.08142         7.08142         1.39989         1.39989
            1298         924.638         924.638         6.88294         6.88294         1.23268         1.23268
            1299         925.866         925.866         6.66099         6.66099         1.09033         1.09033
            1300         926.968         926.968         6.41822         6.41822     967.835E-03     967.835E-03
            1301         927.962         927.962         6.15788         6.15788     861.388E-03     861.388E-03
            1302         928.859         928.859         5.88355         5.88355     768.054E-03     768.054E-03
            1303         929.671         929.671         5.59896         5.59896     685.575E-03     685.575E-03
            1304         930.405         930.405         5.30783         5.30783     612.195E-03     612.195E-03
            1305         931.071         931.071         5.01374         5.01374     546.544E-03     546.544E-03
            1306         931.673         931.673         4.72007         4.72007     487.542E-03     487.542E-03
            1307         932.218         932.218         4.42993         4.42993     434.324E-03     434.324E-03
            1308         932.711         932.711         4.14613         4.14613     386.191E-03     386.191E-03
            1309         933.155         933.155         3.87115         3.87115     342.567E-03     342.567E-03
            1310         933.554         933.554         3.60719         3.60719     302.969E-03     302.969E-03
            1311         933.912         933.912         3.35610         3.35610     266.981E-03     266.981E-03
            1312         934.231         934.231         3.11946         3.11946     234.244E-03     234.244E-03
            1313         934.516         934.516         2.89859         2.89859     204.435E-03     204.435E-03
            1314         934.767         934.767         2.69456         2.69456     177.263E-03     177.263E-03
            1315         934.988         934.988         2.50824         2.50824     152.462E-03     152.462E-03
            1316         935.180         935.180         2.34031         2.34031     129.786E-03     129.786E-03
            1317         935.345         935.345         2.19128         2.19128     109.004E-03     109.004E-03
            1318         935.485         935.485         2.06157         2.06157     89.9022E-03     89.9022E-03
            1319         935.601         935.601         1.95146         1.95146     72.2777E-03     72.2777E-03
            1320         935.695         935.695         1.86117         1.86117     55.9410E-03     55.9410E-03
            1321         935.766         935.766         1.79084         1.79084     40.7150E-03     40.7150E-03
            1322         935.817         935.817         1.74058         1.74058     26.4358E-03     26.4358E-03
            1323         935.847         935.847         1.71041         1.71041     12.9850E-03     12.9850E-03
            1324         805.410         805.410         16.7676         16.7676        -2.36946        -2.36946
            1325         833.910         833.910         14.0318         14.0318        -2.06741        -2.06741
            1326         853.990         853.990         12.1114         12.1114        -1.75650        -1.75650
            1327         868.764         868.764         10.7666         10.7666        -1.49839        -1.49839
            1328         879.969         879.969         9.82682         9.82682        -1.28714        -1.28714
            1329         888.674         888.674         9.17849         9.17849        -1.11607        -1.11607
            1330         895.576         895.576         8.73192         8.73192    -975.982E-03    -975.982E-03
            1331         901.145         901.145         8.42413         8.42413    -861.100E-03    -861.100E-03
            1332         905.709         905.709         8.20568         8.20568    -765.929E-03    -765.929E-03
            1333         909.502         909.502         8.04136         8.04136    -686.759E-03    -686.759E-03
            1334         912.694         912.694         7.90437         7.90437    -620.353E-03    -620.353E-03
            1335         915.412         915.412         7.77595         7.77595    -564.331E-03    -564.331E-03
            1336         917.750         917.750         7.64264         7.64264    -516.674E-03    -516.674E-03
            1337         919.782         919.782         7.49574         7.49574    -475.808E-03    -475.808E-03
            1338         921.562         921.562         7.32990         7.32990    -440.412E-03    -440.412E-03
            1339         923.133         923.133         7.14254         7.14254    -409.429E-03    -409.429E-03
            1340         924.528         924.528         6.93310         6.93310    -381.981E-03    -381.981E-03
            1341         925.774         925.774         6.70257         6.70257    -357.361E-03    -357.361E-03
            1342         926.892         926.892         6.45302         6.45302    -334.992E-03    -334.992E-03
            1343         927.898         927.898         6.18726         6.18726    -314.416E-03    -314.416E-03
            1344         928.805         928.805         5.90854         5.90854    -295.265E-03    -295.265E-03
            1345         929.625         929.625         5.62035         5.62035    -277.257E-03    -277.257E-03
            1346         930.367         930.367         5.32622         5.32622    -260.170E-03    -260.170E-03
            1347         931.039         931.039         5.02960         5.02960    -243.841E-03    -243.841E-03
            1348         931.646         931.646         4.73379         4.73379    -228.145E-03    -228.145E-03
            1349         932.196         932.196         4.44179         4.44179    -212.995E-03    -212.995E-03
            1350         932.692         932.692         4.15639         4.15639    -198.328E-03    -198.328E-03
            1351         933.139         933.139         3.88001         3.88001    -184.096E-03    -184.096E-03
            1352         933.541         933.541         3.61482         3.61482    -170.269E-03    -170.269E-03
            1353         933.901         933.901         3.36264         3.36264    -156.819E-03    -156.819E-03
            1354         934.223         934.223         3.12505         3.12505    -143.726E-03    -143.726E-03
            1355         934.508         934.508         2.90335         2.90335    -130.965E-03    -130.965E-03
            1356         934.761         934.761         2.69858         2.69858    -118.513E-03    -118.513E-03
            1357         934.983         934.983         2.51161         2.51161    -106.337E-03    -106.337E-03
            1358         935.176         935.176         2.34310         2.34310    -94.4007E-03    -94.4007E-03
            1359         935.342         935.342         2.19357         2.19357    -82.6584E-03    -82.6584E-03
            1360         935.483         935.483         2.06341         2.06341    -71.0548E-03    -71.0548E-03
            1361         935.600         935.600         1.95290         1.95290    -59.5249E-03    -59.5249E-03
            1362         935.694         935.694         1.86225         1.86225    -47.9925E-03    -47.9925E-03
            1363         935.766         935.766         1.79160         1.79160    -36.3696E-03    -36.3696E-03
            1364         935.817         935.817         1.74103         1.74103    -24.5548E-03    -24.5548E-03
            1365         935.847         935.847         1.71054         1.71054    -12.4613E-03    -12.4613E-03
            1366         826.647         826.647         6.34096         6.34096        -40.0353        -40.0353
            1367         847.455         847.455         7.24616         7.24616        -28.9997        -28.9997
            1368         863.145         863.145         7.46260         7.46260        -21.7414        -21.7414
            1369         875.205         875.205         7.46459         7.46459        -16.7311        -16.7311
            1370         884.647         884.647         7.41813         7.41813        -13.1568        -13.1568
            1371         892.164         892.164         7.37977         7.37977        -10.5387        -10.5387
            1372         898.239         898.239         7.36435         7.36435        -8.58053        -8.58053
            1373         903.216         903.216         7.36654         7.36654        -7.08920        -7.08920
            1374         907.348         907.348         7.37644         7.37644        -5.93592        -5.93592
            1375         910.820         910.820         7.38231         7.38231        -5.03156        -5.03156
            1376         913.768         913.768         7.37432         7.37432        -4.31340        -4.31340
            1377         916.299         916.299         7.34446         7.34446        -3.73617        -3.73617
            1378         918.492         918.492         7.28735         7.28735        -3.26675        -3.26675
            1379         920.409         920.409         7.19973         7.19973        -2.88049        -2.88049
            1380         922.097         922.097         7.08039         7.08039        -2.55888        -2.55888
            1381         923.594         923.594         6.92973         6.92973        -2.28787        -2.28787
            1382         924.928         924.928         6.74949         6.74949        -2.05673        -2.05673
            1383         926.124         926.124         6.54235         6.54235        -1.85725        -1.85725
            1384         927.199         927.199         6.31171         6.31171        -1.68308        -1.68308
            1385         928.169         928.169         6.06137         6.06137        -1.52934        -1.52934
            1386         929.046         929.046         5.79538         5.79538        -1.39226        -1.39226
            1387         929.840         929.840         5.51782         5.51782        -1.26891        -1.26891
            1388         930.559         930.559         5.23269         5.23269        -1.15705        -1.15705
            1389         931.211         931.211         4.94380         4.94380        -1.05490        -1.05490
            1390         931.800         931.800         4.65470         4.65470    -961.099E-03    -961.099E-03
            1391         932.334         932.334         4.36863         4.36863    -874.569E-03    -874.569E-03
            1392         932.816         932.816         4.08850         4.08850    -794.447E-03    -794.447E-03
            1393         933.250         933.250         3.81687         3.81687    -720.038E-03    -720.038E-03
            1394         933.640         933.640         3.55598         3.55598    -650.765E-03    -650.765E-03
            1395         933.990         933.990         3.30772         3.30772    -586.138E-03    -586.138E-03
            1396         934.303         934.303         3.07370         3.07370    -525.727E-03    -525.727E-03
            1397         934.580         934.580         2.85525         2.85525    -469.145E-03    -469.145E-03
            1398         934.826         934.826         2.65344         2.65344    -416.028E-03    -416.028E-03
            1399         935.041         935.041         2.46913         2.46913    -366.032E-03    -366.032E-03
            1400         935.228         935.228         2.30299         2.30299    -318.817E-03    -318.817E-03
            1401         935.389         935.389         2.15556         2.15556    -274.048E-03    -274.048E-03
            1402         935.526         935.526         2.02720         2.02720    -231.387E-03    -231.387E-03
            1403         935.639         935.639         1.91820         1.91820    -190.490E-03    -190.490E-03
            1404         935.730         935.730         1.82875         1.82875    -151.008E-03    -151.008E-03
            1405         935.800         935.800         1.75899         1.75899    -112.581E-03    -112.581E-03
            1406         935.849         935.849         1.70900         1.70900    -74.8415E-03    -74.8415E-03
            1407         935.879         935.879         1.67875         1.67875    -37.5056E-03    -37.5056E-03
            1408         871.882         871.882        -14.1917        -14.1917        -59.3648        -59.3648
            1409         877.459         877.459        -6.94528        -6.94528        -45.4902        -45.4902
            1410         883.894         883.894        -2.60026        -2.60026        -35.3406        -35.3406
            1411         890.027         890.027     157.410E-03     157.410E-03        -27.8814        -27.8814
            1412         895.522         895.522         2.00346         2.00346        -22.3198        -22.3198
            1413         900.326         900.326         3.29885         3.29885        -18.1162        -18.1162
            1414         904.488         904.488         4.24066         4.24066        -14.8960        -14.8960
            1415         908.085         908.085         4.94349         4.94349        -12.3987        -12.3987
            1416         911.203         911.203         5.47317         5.47317        -10.4394        -10.4394
            1417         913.915         913.915         5.87010         5.87010        -8.88548        -8.88548
            1418         916.287         916.287         6.15919         6.15919        -7.63987        -7.63987
            1419         918.375         918.375         6.35731         6.35731        -6.63087        -6.63087
            1420         920.222         920.222         6.47641         6.47641        -5.80478        -5.80478
            1421         921.865         921.865         6.52601         6.52601        -5.12106        -5.12106
            1422         923.335         923.335         6.51422         6.51422        -4.54880        -4.54880
            1423         924.655         924.655         6.44843         6.44843        -4.06437        -4.06437
            1424         925.845         925.845         6.33563         6.33563        -3.64958        -3.64958
            1425         926.921         926.921         6.18250         6.18250        -3.29038        -3.29038
            1426         927.897         927.897         5.99550         5.99550        -2.97594        -2.97594
            1427         928.783         928.783         5.78079         5.78079        -2.69787        -2.69787
            1428         929.588         929.588         5.54422         5.54422        -2.44966        -2.44966
            1429         930.320         930.320         5.29126         5.29126        -2.22627        -2.22627
            1430         930.985         930.985         5.02698         5.02698        -2.02378        -2.02378
            1431         931.589         931.589         4.75601         4.75601        -1.83913        -1.83913
            1432         932.137         932.137         4.48250         4.48250        -1.66993        -1.66993
            1433         932.634         932.634         4.21018         4.21018        -1.51426        -1.51426
            1434         933.083         933.083         3.94229         3.94229        -1.37059        -1.37059
            1435         933.488         933.488         3.68166         3.68166        -1.23766        -1.23766
            1436         933.853         933.853         3.43072         3.43072        -1.11443        -1.11443
            1437         934.179         934.179         3.19149         3.19149    -999.989E-03    -999.989E-03
            1438         934.471         934.471         2.96568         2.96568    -893.537E-03    -893.537E-03
            1439         934.730         934.730         2.75467         2.75467    -794.348E-03    -794.348E-03
            1440         934.959         934.959         2.55961         2.55961    -701.743E-03    -701.743E-03
            1441         935.160         935.160         2.38136         2.38136    -615.076E-03    -615.076E-03
            1442         935.334         935.334         2.22063         2.22063    -533.720E-03    -533.720E-03
            1443         935.484         935.484         2.07795         2.07795    -457.055E-03    -457.055E-03
            1444         935.611         935.611         1.95370         1.95370    -384.470E-03    -384.470E-03
            1445         935.717         935.717         1.84817         1.84817    -315.349E-03    -315.349E-03
            1446         935.802         935.802         1.76155         1.76155    -249.076E-03    -249.076E-03
            1447         935.867         935.867         1.69396         1.69396    -185.029E-03    -185.029E-03
            1448         935.913         935.913         1.64549         1.64549    -122.584E-03    -122.584E-03
            1449         935.941         935.941         1.61612         1.61612    -61.2613E-03    -61.2613E-03
            1450         918.203         918.203        -31.4205        -31.4205        -55.9120        -55.9120
            1451         911.562         911.562        -20.9990        -20.9990        -47.0089        -47.0089
            1452         909.095         909.095        -13.6096        -13.6096        -38.9523        -38.9523
            1453         908.901         908.901        -8.39465        -8.39465        -32.1930        -32.1930
            1454         909.866         909.866        -4.64536        -4.64536        -26.6966        -26.6966
            1455         911.389         911.389        -1.89898        -1.89898        -22.2735        -22.2735
            1456         913.141         913.141     150.316E-03     150.316E-03        -18.7226        -18.7226
            1457         914.946         914.946         1.69950         1.69950        -15.8666        -15.8666
            1458         916.711         916.711         2.88002         2.88002        -13.5600        -13.5600
            1459         918.391         918.391         3.77950         3.77950        -11.6866        -11.6866
            1460         919.966         919.966         4.45895         4.45895        -10.1547        -10.1547
            1461         921.430         921.430         4.96154         4.96154        -8.89225        -8.89225
            1462         922.786         922.786         5.31933         5.31933        -7.84297        -7.84297
            1463         924.036         924.036         5.55686         5.55686        -6.96268        -6.96268
            1464         925.189         925.189         5.69378         5.69378        -6.21679        -6.21679
            1465         926.251         926.251         5.74629         5.74629        -5.57822        -5.57822
            1466         927.229         927.229         5.72821         5.72821        -5.02579        -5.02579
            1467         928.128         928.128         5.65148         5.65148        -4.54293        -4.54293
            1468         928.954         928.954         5.52667         5.52667        -4.11669        -4.11669
            1469         929.713         929.713         5.36310         5.36310        -3.73698        -3.73698
            1470         930.410         930.410         5.16908         5.16908        -3.39592        -3.39592
            1471         931.047         931.047         4.95199         4.95199        -3.08737        -3.08737
            1472         931.631         931.631         4.71835         4.71835        -2.80652        -2.80652
            1473         932.163         932.163         4.47390         4.47390        -2.54959        -2.54959
            1474         932.647         932.647         4.22366         4.22366        -2.31361        -2.31361
            1475         933.088         933.088         3.97197         3.97197        -2.09617        -2.09617
            1476         933.486         933.486         3.72258         3.72258        -1.89534        -1.89534
            1477         933.847         933.847         3.47864         3.47864        -1.70951        -1.70951
            1478         934.171         934.171         3.24285         3.24285        -1.53729        -1.53729
            1479         934.462         934.462         3.01741         3.01741        -1.37749        -1.37749
            1480         934.721         934.721         2.80416         2.80416        -1.22904        -1.22904
            1481         934.952         934.952         2.60459         2.60459        -1.09093        -1.09093
            1482         935.156         935.156         2.41987         2.41987    -962.233E-03    -962.233E-03
            1483         935.335         935.335         2.25094         2.25094    -842.044E-03    -842.044E-03
            1484         935.490         935.490         2.09852         2.09852    -729.485E-03    -729.485E-03
            1485         935.624         935.624         1.96316         1.96316    -623.687E-03    -623.687E-03
            1486         935.737         935.737         1.84525         1.84525    -523.790E-03    -523.790E-03
            1487         935.830         935.830         1.74508         1.74508    -428.932E-03    -428.932E-03
            1488         935.906         935.906         1.66286         1.66286    -338.253E-03    -338.253E-03
            1489         935.963         935.963         1.59870         1.59870    -250.888E-03    -250.888E-03
            1490         936.004         936.004         1.55270         1.55270    -165.974E-03    -165.974E-03
            1491         936.029         936.029         1.52483         1.52483    -82.8528E-03    -82.8528E-03
            1492         950.071         950.071        -38.1739        -38.1739        -40.0857        -40.0857
            1493         938.838         938.838        -29.1339        -29.1339        -37.9517        -37.9517
            1494         931.471         931.471        -21.4629        -21.4629        -34.2924        -34.2924
            1495         926.946         926.946        -15.3241        -15.3241        -30.2311        -30.2311
            1496         924.368         924.368        -10.5314        -10.5314        -26.3426        -26.3426
            1497         923.069         923.069        -6.80432        -6.80432        -22.8562        -22.8562
            1498         922.601         922.601        -3.90410        -3.90410        -19.8318        -19.8318
            1499         922.661         922.661        -1.64136        -1.64136        -17.2529        -17.2529
            1500         923.054         923.054     124.849E-03     124.849E-03        -15.0724        -15.0724
            1501         923.649         923.649         1.50041         1.50041        -13.2343        -13.2343
            1502         924.362         924.362         2.56407         2.56407        -11.6836        -11.6836
            1503         925.137         925.137         3.37588         3.37588        -10.3711        -10.3711
            1504         925.935         925.935         3.98210         3.98210        -9.25418        -9.25418
            1505         926.733         926.733         4.41933         4.41933        -8.29712        -8.29712
            1506         927.515         927.515         4.71702         4.71702        -7.47048        -7.47048
            1507         928.269         928.269         4.89944         4.89944        -6.75030        -6.75030
            1508         928.990         928.990         4.98683         4.98683        -6.11725        -6.11725
            1509         929.672         929.672         4.99635         4.99635        -5.55587        -5.55587
            1510         930.314         930.314         4.94267         4.94267        -5.05389        -5.05389
            1511         930.915         930.915         4.83840         4.83840        -4.60159        -4.60159
            1512         931.474         931.474         4.69441         4.69441        -4.19132        -4.19132
            1513         931.991         931.991         4.52007         4.52007        -3.81704        -3.81704
            1514         932.469         932.469         4.32346         4.32346        -3.47399        -3.47399
            1515         932.908         932.908         4.11151         4.11151        -3.15840        -3.15840
            1516         933.310         933.310         3.89013         3.89013        -2.86724        -2.86724
            1517         933.677         933.677         3.66434         3.66434        -2.59806        -2.59806
            1518         934.010         934.010         3.43838         3.43838        -2.34882        -2.34882
            1519         934.312         934.312         3.21578         3.21578        -2.11779        -2.11779
            1520         934.583         934.583         2.99948         2.99948        -1.90348        -1.90348
            1521         934.827         934.827         2.79190         2.79190        -1.70453        -1.70453
            1522         935.045         935.045         2.59500         2.59500        -1.51971        -1.51971
            1523         935.239         935.239         2.41033         2.41033        -1.34783        -1.34783
            1524         935.409         935.409         2.23916         2.23916        -1.18779        -1.18779
            1525         935.559         935.559         2.08246         2.08246        -1.03848        -1.03848
            1526         935.689         935.689         1.94096         1.94096    -898.824E-03    -898.824E-03
            1527         935.801         935.801         1.81522         1.81522    -767.744E-03    -767.744E-03
            1528         935.895         935.895         1.70567         1.70567    -644.168E-03    -644.168E-03
            1529         935.974         935.974         1.61258         1.61258    -527.023E-03    -527.023E-03
            1530         936.036         936.036         1.53618         1.53618    -415.232E-03    -415.232E-03
            1531         936.085         936.085         1.47659         1.47659    -307.717E-03    -307.717E-03
            1532         936.119         936.119         1.43390         1.43390    -203.399E-03    -203.399E-03
            1533         936.139         936.139         1.40811         1.40811    -101.469E-03    -101.469E-03
            1534         940.464         940.464     24.3345E-03     24.3345E-03        -3.19685        -3.19685
            1535         943.569         943.569     41.1043E-03     41.1043E-03        -5.69621        -5.69621
            1536         946.701         946.701     15.8092E-03     15.8092E-03        -7.52958        -7.52958
            1537         949.932         949.932    -117.686E-03    -117.686E-03        -8.93520        -8.93520
            1538         953.361         953.361    -455.890E-03    -455.890E-03        -10.0834        -10.0834
            1539         957.112         957.112        -1.13286        -1.13286        -11.0716        -11.0716
            1540         961.329         961.329        -2.33487        -2.33487        -11.9241        -11.9241
            1541         966.175         966.175        -4.32284        -4.32284        -12.5723        -12.5723
            1542         971.814         971.814        -7.45878        -7.45878        -12.8094        -12.8094
            1543         978.348         978.348        -12.2250        -12.2250        -12.1961        -12.1961
            1544         985.641         985.641        -19.1754        -19.1754        -9.92115        -9.92115
            1545         992.885         992.885        -28.7064        -28.7064        -4.63805        -4.63805
            1546         936.493         936.493     299.946E-03     299.946E-03        -2.94492        -2.94492
            1547         940.704         940.704     811.417E-03     811.417E-03        -5.26765        -5.26765
            1548         944.504         944.504         1.53983         1.53983        -7.02904        -7.02904
            1549         948.096         948.096         2.39155         2.39155        -8.48385        -8.48385
            1550         951.676         951.676         3.27309         3.27309        -9.82826        -9.82826
            1551         955.448         955.448         4.07696         4.07696        -11.2061        -11.2061
            1552         959.636         959.636         4.65898         4.65898        -12.7198        -12.7198
            1553         964.515         964.515         4.80350         4.80350        -14.4273        -14.4273
            1554         970.431         970.431         4.16643         4.16643        -16.3162        -16.3162
            1555         977.832         977.832         2.18173         2.18173        -18.2308        -18.2308
            1556         987.236         987.236        -2.07784        -2.07784        -19.6781        -19.6781
            1557         999.029         999.029        -10.0134        -10.0134        -19.4258        -19.4258
            1558         933.149         933.149     556.446E-03     556.446E-03        -2.22456        -2.22456
            1559         938.263         938.263         1.53101         1.53101        -3.98302        -3.98302
            1560         942.554         942.554         2.97245         2.97245        -5.34032        -5.34032
            1561         946.339         946.339         4.77502         4.77502        -6.51450        -6.51450
            1562         949.885         949.885         6.87260         6.87260        -7.68236        -7.68236
            1563         953.438         953.438         9.22373         9.22373        -8.99206        -8.99206
            1564         957.251         957.251         11.7947         11.7947        -10.5823        -10.5823
            1565         961.624         961.624         14.5364         14.5364        -12.5970        -12.5970
            1566         966.954         966.954         17.3452         17.3452        -15.1952        -15.1952
            1567         973.817         973.817         19.9830         19.9830        -18.5490        -18.5490
            1568         983.127         983.127         21.8916         21.8916        -22.7926        -22.7926
            1569         996.339         996.339         21.7431         21.7431        -27.8010        -27.8010
            1570         930.993         930.993     740.152E-03     740.152E-03        -1.11577        -1.11577
            1571         936.693         936.693         2.04753         2.04753        -1.98506        -1.98506
            1572         941.276         941.276         4.00498         4.00498        -2.65056        -2.65056
            1573         945.130         945.130         6.50464         6.50464        -3.24091        -3.24091
            1574         948.566         948.566         9.51186         9.51186        -3.86333        -3.86333
            1575         951.844         951.844         13.0538         13.0538        -4.61399        -4.61399
            1576         955.209         955.209         17.2148         17.2148        -5.59295        -5.59295
            1577         958.932         958.932         22.1393         22.1393        -6.92083        -6.92083
            1578         963.357         963.357         28.0419         28.0419        -8.76048        -8.76048
            1579         968.986         968.986         35.2233         35.2233        -11.3509        -11.3509
            1580         976.644         976.644         44.0816         44.0816        -15.0784        -15.0784
            1581         987.851         987.851         55.0472         55.0472        -20.6091        -20.6091
            1582         930.427         930.427     809.287E-03     809.287E-03     216.522E-03     216.522E-03
            1583         936.322         936.322         2.24225         2.24225     424.524E-03     424.524E-03
            1584         940.986         940.986         4.39514         4.39514     620.566E-03     620.566E-03
            1585         944.837         944.837         7.16013         7.16013     798.236E-03     798.236E-03
            1586         948.198         948.198         10.5158         10.5158     953.017E-03     953.017E-03
            1587         951.331         951.331         14.5182         14.5182         1.08141         1.08141
            1588         954.476         954.476         19.3017         19.3017         1.18082         1.18082
            1589         957.882         957.882         25.0962         25.0962         1.24962         1.24962
            1590         961.855         961.855         32.2640         32.2640         1.28689         1.28689
            1591         966.828         966.828         41.3713         41.3713         1.29267         1.29267
            1592         973.486         973.486         53.3420         53.3420         1.26809         1.26809
            1593         983.078         983.078         69.8385         69.8385         1.21360         1.21360
            1594         931.601         931.601     748.031E-03     748.031E-03         1.55610         1.55610
            1595         937.272         937.272         2.07029         2.07029         2.84785         2.84785
            1596         941.809         941.809         4.05103         4.05103         3.91092         3.91092
            1597         945.604         945.604         6.58102         6.58102         4.86109         4.86109
            1598         948.969         948.969         9.62426         9.62426         5.79665         5.79665
            1599         952.168         952.168         13.2066         13.2066         6.80673         6.80673
            1600         955.448         955.448         17.4112         17.4112         7.98638         7.98638
            1601         959.083         959.083         22.3813         22.3813         9.45286         9.45286
            1602         963.418         963.418         28.3306         28.3306         11.3676         11.3676
            1603         968.958         968.958         35.5590         35.5590         13.9693         13.9693
            1604         976.531         976.531         44.4629         44.4629         17.6458         17.6458
            1605         987.657         987.657         55.4728         55.4728         23.0678         23.0678
            1606         934.383         934.383     572.166E-03     572.166E-03         2.68672         2.68672
            1607         939.437         939.437         1.57644         1.57644         4.88698         4.88698
            1608         943.635         943.635         3.06437         3.06437         6.65826         6.65826
            1609         947.298         947.298         4.92746         4.92746         8.20572         8.20572
            1610         950.700         950.700         7.09685         7.09685         9.69731         9.69731
            1611         954.092         954.092         9.52848         9.52848         11.2744         11.2744
            1612         957.732         957.732         12.1862         12.1862         13.0707         13.0707
            1613         961.926         961.926         15.0186         15.0186         15.2271         15.2271
            1614         967.075         967.075         17.9200         17.9200         17.9015         17.9015
            1615         973.759         973.759         20.6508         20.6508         21.2663         21.2663
            1616         982.896         982.896         22.6519         22.6519         25.4566         25.4566
            1617         995.948         995.948         22.5911         22.5911         30.3497         30.3497
            1618         938.394         938.394     323.427E-03     323.427E-03         3.44343         3.44343
            1619         942.508         942.508     879.322E-03     879.322E-03         6.24014         6.24014
            1620         946.160         946.160         1.67727         1.67727         8.44275         8.44275
            1621         949.562         949.562         2.61942         2.61942         10.2931         10.2931
            1622         952.920         952.920         3.60816         3.60816         11.9788         11.9788
            1623         956.444         956.444         4.53201         4.53201         13.6369         13.6369
            1624         960.368         960.368         5.24309         5.24309         15.3654         15.3654
            1625         964.973         964.973         5.52226         5.52226         17.2196         17.2196
            1626         970.613         970.613         5.02238         5.02238         19.1862         19.1862
            1627         977.742         977.742         3.17498         3.17498         21.1107         21.1107
            1628         986.882         986.882    -949.174E-03    -949.174E-03         22.5025         22.5025
            1629         998.425         998.425        -8.75046        -8.75046         22.1291         22.1291
            1630         943.090         943.090     55.5054E-03     55.5054E-03         3.74622         3.74622
            1631         946.052         946.052     131.278E-03     131.278E-03         6.76445         6.76445
            1632         948.974         948.974     198.314E-03     198.314E-03         9.07699         9.07699
            1633         951.939         951.939     184.789E-03     184.789E-03         10.9091         10.9091
            1634         955.059         955.059    -11.4438E-03    -11.4438E-03         12.4226         12.4226
            1635         958.468         958.468    -529.809E-03    -529.809E-03         13.7087         13.7087
            1636         962.322         962.322        -1.56169        -1.56169         14.7876         14.7876
            1637         966.792         966.792        -3.37270        -3.37270         15.5886         15.5886
            1638         972.055         972.055        -6.32918        -6.32918         15.9046         15.9046
            1639         978.220         978.220        -10.9173        -10.9173         15.2983         15.2983
            1640         985.160         985.160        -17.6932        -17.6932         12.9633         12.9633
            1641         992.065         992.065        -27.0527        -27.0527         7.55807         7.55807
            1642         936.369         936.369         1.15147         1.15147     125.690E-03     125.690E-03
            1643         936.357         936.357         1.17280         1.17280     252.079E-03     252.079E-03
            1644         936.338         936.338         1.20825         1.20825     381.611E-03     381.611E-03
            1645         936.312         936.312         1.25780         1.25780     515.316E-03     515.316E-03
            1646         936.276         936.276         1.32138         1.32138     654.575E-03     654.575E-03
            1647         936.233         936.233         1.39884         1.39884     800.766E-03     800.766E-03
            1648         936.180         936.180         1.49000         1.49000     955.255E-03     955.255E-03
            1649         936.116         936.116         1.59456         1.59456         1.11940         1.11940
            1650         936.043         936.043         1.71213         1.71213         1.29454         1.29454
            1651         935.957         935.957         1.84214         1.84214         1.48199         1.48199
            1652         935.860         935.860         1.98384         1.98384         1.68307         1.68307
            1653         935.749         935.749         2.13627         2.13627         1.89906         1.89906
            1654         935.624         935.624         2.29812         2.29812         2.13122         2.13122
            1655         935.484         935.484         2.46777         2.46777         2.38081         2.38081
            1656         935.328         935.328         2.64311         2.64311         2.64907         2.64907
            1657         935.155         935.155         2.82156         2.82156         2.93727         2.93727
            1658         934.965         934.965         2.99986         2.99986         3.24670         3.24670
            1659         934.757         934.757         3.17403         3.17403         3.57870         3.57870
            1660         934.532         934.532         3.33920         3.33920         3.93474         3.93474
            1661         934.290         934.290         3.48949         3.48949         4.31645         4.31645
            1662         934.032         934.032         3.61778         3.61778         4.72570         4.72570
            1663         933.761         933.761         3.71557         3.71557         5.16472         5.16472
            1664         933.480         933.480         3.77272         3.77272         5.63617         5.63617
            1665         933.195         933.195         3.77721         3.77721         6.14332         6.14332
            1666         932.911         932.911         3.71485         3.71485         6.69015         6.69015
            1667         932.640         932.640         3.56895         3.56895         7.28150         7.28150
            1668         932.395         932.395         3.31994         3.31994         7.92316         7.92316
            1669         932.193         932.193         2.94492         2.94492         8.62187         8.62187
            1670         932.058         932.058         2.41721         2.41721         9.38519         9.38519
            1671         932.021         932.021         1.70572         1.70572         10.2210         10.2210
            1672         932.123         932.123     774.546E-03     774.546E-03         11.1368         11.1368
            1673         932.417         932.417    -417.873E-03    -417.873E-03         12.1377         12.1377
            1674         932.973         932.973        -1.91857        -1.91857         13.2237         13.2237
            1675         933.879         933.879        -3.78048        -3.78048         14.3850         14.3850
            1676         935.250         935.250        -6.05949        -6.05949         15.5940         15.5940
            1677         937.229         937.229        -8.81147        -8.81147         16.7940         16.7940
            1678         939.989         939.989        -12.0785        -12.0785         17.8812         17.8812
            1679         943.729         943.729        -15.8707        -15.8707         18.6833         18.6833
            1680         948.647         948.647        -20.1181        -20.1181         18.9283         18.9283
            1681         954.894         954.894        -24.6076        -24.6076         18.2359         18.2359
            1682         962.473         962.473        -28.8783        -28.8783         16.1210         16.1210
            1683         971.127         971.127        -32.1835        -32.1835         12.1352         12.1352
            1684         936.474         936.474         1.02365         1.02365     131.622E-03     131.622E-03
            1685         936.468         936.468         1.04284         1.04284     263.965E-03     263.965E-03
            1686         936.456         936.456         1.07475         1.07475     399.656E-03     399.656E-03
            1687         936.440         936.440         1.11935         1.11935     539.793E-03     539.793E-03
            1688         936.419         936.419         1.17657         1.17657     685.839E-03     685.839E-03
            1689         936.393         936.393         1.24629         1.24629     839.256E-03     839.256E-03
            1690         936.360         936.360         1.32832         1.32832         1.00149         1.00149
            1691         936.322         936.322         1.42240         1.42240         1.17398         1.17398
            1692         936.276         936.276         1.52814         1.52814         1.35811         1.35811
            1693         936.224         936.224         1.64501         1.64501         1.55529         1.55529
            1694         936.163         936.163         1.77230         1.77230         1.76684         1.76684
            1695         936.094         936.094         1.90905         1.90905         1.99407         1.99407
            1696         936.015         936.015         2.05401         2.05401         2.23825         2.23825
            1697         935.927         935.927         2.20559         2.20559         2.50057         2.50057
            1698         935.828         935.828         2.36171         2.36171         2.78218         2.78218
            1699         935.719         935.719         2.51980         2.51980         3.08420         3.08420
            1700         935.599         935.599         2.67662         2.67662         3.40766         3.40766
            1701         935.469         935.469         2.82816         2.82816         3.75357         3.75357
            1702         935.329         935.329         2.96950         2.96950         4.12290         4.12290
            1703         935.181         935.181         3.09465         3.09465         4.51663         4.51663
            1704         935.026         935.026         3.19633         3.19633         4.93577         4.93577
            1705         934.868         934.868         3.26580         3.26580         5.38139         5.38139
            1706         934.712         934.712         3.29262         3.29262         5.85466         5.85466
            1707         934.564         934.564         3.26435         3.26435         6.35693         6.35693
            1708         934.434         934.434         3.16632         3.16632         6.88971         6.88971
            1709         934.332         934.332         2.98133         2.98133         7.45467         7.45467
            1710         934.274         934.274         2.68931         2.68931         8.05357         8.05357
            1711         934.282         934.282         2.26706         2.26706         8.68803         8.68803
            1712         934.380         934.380         1.68797         1.68797         9.35912         9.35912
            1713         934.603         934.603     921.916E-03     921.916E-03         10.0665         10.0665
            1714         934.994         934.994    -64.8316E-03    -64.8316E-03         10.8073         10.8073
            1715         935.605         935.605        -1.30894        -1.30894         11.5738         11.5738
            1716         936.504         936.504        -2.84931        -2.84931         12.3501         12.3501
            1717         937.771         937.771        -4.72404        -4.72404         13.1074         13.1074
            1718         939.505         939.505        -6.96669        -6.96669         13.7971         13.7971
            1719         941.816         941.816        -9.59649        -9.59649         14.3402         14.3402
            1720         944.823         944.823        -12.6050        -12.6050         14.6173         14.6173
            1721         948.639         948.639        -15.9294        -15.9294         14.4530         14.4530
            1722         953.340         953.340        -19.4163        -19.4163         13.6136         13.6136
            1723         958.921         958.921        -22.7722        -22.7722         11.8092         11.8092
            1724         965.230         965.230        -25.5178        -25.5178         8.75346         8.75346
            1725         971.982         971.982        -27.0147        -27.0147         4.18801         4.18801
            1726         936.576         936.576     891.444E-03     891.444E-03     134.462E-03     134.462E-03
            1727         936.574         936.574     908.390E-03     908.390E-03     269.656E-03     269.656E-03
            1728         936.571         936.571     936.566E-03     936.566E-03     408.343E-03     408.343E-03
            1729         936.566         936.566     975.957E-03     975.957E-03     551.657E-03     551.657E-03
            1730         936.560         936.560         1.02649         1.02649     701.124E-03     701.124E-03
            1731         936.552         936.552         1.08807         1.08807     858.259E-03     858.259E-03
            1732         936.541         936.541         1.16052         1.16052         1.02456         1.02456
            1733         936.529         936.529         1.24359         1.24359         1.20151         1.20151
            1734         936.513         936.513         1.33694         1.33694         1.39056         1.39056
            1735         936.495         936.495         1.44007         1.44007         1.59310         1.59310
            1736         936.473         936.473         1.55233         1.55233         1.81051         1.81051
            1737         936.448         936.448         1.67280         1.67280         2.04406         2.04406
            1738         936.419         936.419         1.80031         1.80031         2.29500         2.29500
            1739         936.385         936.385         1.93333         1.93333         2.56444         2.56444
            1740         936.347         936.347         2.06990         2.06990         2.85341         2.85341
            1741         936.305         936.305         2.20751         2.20751         3.16281         3.16281
            1742         936.259         936.259         2.34304         2.34304         3.49341         3.49341
            1743         936.210         936.210         2.47257         2.47257         3.84581         3.84581
            1744         936.159         936.159         2.59130         2.59130         4.22044         4.22044
            1745         936.107         936.107         2.69331         2.69331         4.61755         4.61755
            1746         936.058         936.058         2.77142         2.77142         5.03718         5.03718
            1747         936.015         936.015         2.81697         2.81697         5.47914         5.47914
            1748         935.984         935.984         2.81959         2.81959         5.94301         5.94301
            1749         935.972         935.972         2.76691         2.76691         6.42803         6.42803
            1750         935.988         935.988         2.64441         2.64441         6.93311         6.93311
            1751         936.045         936.045         2.43509         2.43509         7.45661         7.45661
            1752         936.160         936.160         2.11932         2.11932         7.99618         7.99618
            1753         936.353         936.353         1.67472         1.67472         8.54836         8.54836
            1754         936.650         936.650         1.07615         1.07615         9.10795         9.10795
            1755         937.085         937.085     295.946E-03     295.946E-03         9.66716         9.66716
            1756         937.697         937.697    -695.317E-03    -695.317E-03         10.2140         10.2140
            1757         938.536         938.536        -1.92777        -1.92777         10.7305         10.7305
            1758         939.660         939.660        -3.42962        -3.42962         11.1892         11.1892
            1759         941.135         941.135        -5.22365        -5.22365         11.5497         11.5497
            1760         943.036         943.036        -7.32025        -7.32025         11.7524         11.7524
            1761         945.435         945.435        -9.70793        -9.70793         11.7138         11.7138
            1762         948.402         948.402        -12.3373        -12.3373         11.3188         11.3188
            1763         951.975         951.975        -15.0996        -15.0996         10.4204         10.4204
            1764         956.145         956.145        -17.8004        -17.8004         8.84191         8.84191
            1765         960.817         960.817        -20.1278        -20.1278         6.40293         6.40293
            1766         965.794         965.794        -21.6533        -21.6533         2.94995         2.94995
            1767         970.729         970.729        -21.7751        -21.7751        -1.62208        -1.62208
            1768         936.669         936.669     757.967E-03     757.967E-03     134.088E-03     134.088E-03
            1769         936.672         936.672     772.600E-03     772.600E-03     268.897E-03     268.897E-03
            1770         936.677         936.677     796.936E-03     796.936E-03     407.278E-03     407.278E-03
            1771         936.684         936.684     830.960E-03     830.960E-03     550.376E-03     550.376E-03
            1772         936.693         936.693     874.617E-03     874.617E-03     699.742E-03     699.742E-03
            1773         936.704         936.704     927.812E-03     927.812E-03     856.922E-03     856.922E-03
            1774         936.717         936.717     990.401E-03     990.401E-03         1.02344         1.02344
            1775         936.731         936.731         1.06217         1.06217         1.20079         1.20079
            1776         936.747         936.747         1.14280         1.14280         1.39044         1.39044
            1777         936.764         936.764         1.23187         1.23187         1.59380         1.59380
            1778         936.783         936.783         1.32876         1.32876         1.81221         1.81221
            1779         936.803         936.803         1.43266         1.43266         2.04694         2.04694
            1780         936.825         936.825         1.54249         1.54249         2.29915         2.29915
            1781         936.849         936.849         1.65684         1.65684         2.56989         2.56989
            1782         936.874         936.874         1.77389         1.77389         2.86004         2.86004
            1783         936.901         936.901         1.89130         1.89130         3.17028         3.17028
            1784         936.932         936.932         2.00616         2.00616         3.50108         3.50108
            1785         936.966         936.966         2.11477         2.11477         3.85265         3.85265
            1786         937.005         937.005         2.21259         2.21259         4.22486         4.22486
            1787         937.053         937.053         2.29401         2.29401         4.61723         4.61723
            1788         937.110         937.110         2.35219         2.35219         5.02884         5.02884
            1789         937.182         937.182         2.37886         2.37886         5.45825         5.45825
            1790         937.274         937.274         2.36410         2.36410         5.90342         5.90342
            1791         937.394         937.394         2.29613         2.29613         6.36159         6.36159
            1792         937.549         937.549         2.16110         2.16110         6.82911         6.82911
            1793         937.754         937.754         1.94294         1.94294         7.30121         7.30121
            1794         938.023         938.023         1.62326         1.62326         7.77169         7.77169
            1795         938.376         938.376         1.18142         1.18142         8.23247         8.23247
            1796         938.836         938.836     594.729E-03     594.729E-03         8.67294         8.67294
            1797         939.434         939.434    -160.823E-03    -160.823E-03         9.07899         9.07899
            1798         940.204         940.204        -1.10958        -1.10958         9.43183         9.43183
            1799         941.187         941.187        -2.27414        -2.27414         9.70606         9.70606
            1800         942.430         942.430        -3.67242        -3.67242         9.86762         9.86762
            1801         943.980         943.980        -5.31279        -5.31279         9.87069         9.87069
            1802         945.887         945.887        -7.18720        -7.18720         9.65520         9.65520
            1803         948.193         948.193        -9.26117        -9.26117         9.14346         9.14346
            1804         950.919         950.919        -11.4602        -11.4602         8.24066         8.24066
            1805         954.058         954.058        -13.6544        -13.6544         6.83716         6.83716
            1806         957.547         957.547        -15.6392        -15.6392         4.82143         4.82143
            1807         961.256         961.256        -17.1288        -17.1288         2.10061         2.10061
            1808         964.962         964.962        -17.7373        -17.7373        -1.37523        -1.37523
            1809         968.326         968.326        -16.9862        -16.9862        -5.54757        -5.54757
            1810         936.749         936.749     626.439E-03     626.439E-03     130.431E-03     130.431E-03
            1811         936.757         936.757     638.741E-03     638.741E-03     261.550E-03     261.550E-03
            1812         936.770         936.770     659.205E-03     659.205E-03     396.246E-03     396.246E-03
            1813         936.789         936.789     687.820E-03     687.820E-03     535.646E-03     535.646E-03
            1814         936.814         936.814     724.540E-03     724.540E-03     681.299E-03     681.299E-03
            1815         936.844         936.844     769.289E-03     769.289E-03     834.743E-03     834.743E-03
            1816         936.879         936.879     821.948E-03     821.948E-03     997.497E-03     997.497E-03
            1817         936.921         936.921     882.335E-03     882.335E-03         1.17105         1.17105
            1818         936.968         936.968     950.186E-03     950.186E-03         1.35685         1.35685
            1819         937.022         937.022         1.02512         1.02512         1.55628         1.55628
            1820         937.082         937.082         1.10662         1.10662         1.77066         1.77066
            1821         937.150         937.150         1.19397         1.19397         2.00122         2.00122
            1822         937.224         937.224         1.28622         1.28622         2.24905         2.24905
            1823         937.305         937.305         1.38211         1.38211         2.51509         2.51509
            1824         937.395         937.395         1.48002         1.48002         2.80007         2.80007
            1825         937.494         937.494         1.57787         1.57787         3.10449         3.10449
            1826         937.602         937.602         1.67301         1.67301         3.42854         3.42854
            1827         937.722         937.722         1.76211         1.76211         3.77205         3.77205
            1828         937.854         937.854         1.84102         1.84102         4.13440         4.13440
            1829         938.001         938.001         1.90465         1.90465         4.51444         4.51444
            1830         938.165         938.165         1.94672         1.94672         4.91036         4.91036
            1831         938.352         938.352         1.95966         1.95966         5.31962         5.31962
            1832         938.565         938.565         1.93437         1.93437         5.73872         5.73872
            1833         938.811         938.811         1.86007         1.86007         6.16311         6.16311
            1834         939.099         939.099         1.72411         1.72411         6.58688         6.58688
            1835         939.440         939.440         1.51192         1.51192         7.00252         7.00252
            1836         939.846         939.846         1.20697         1.20697         7.40058         7.40058
            1837         940.334         940.334     791.023E-03     791.023E-03         7.76915         7.76915
            1838         940.925         940.925     244.535E-03     244.535E-03         8.09329         8.09329
            1839         941.642         941.642    -452.477E-03    -452.477E-03         8.35429         8.35429
            1840         942.514         942.514        -1.31893        -1.31893         8.52861         8.52861
            1841         943.569         943.569        -2.37049        -2.37049         8.58679         8.58679
            1842         944.842         944.842        -3.61610        -3.61610         8.49199         8.49199
            1843         946.364         946.364        -5.05314        -5.05314         8.19893         8.19893
            1844         948.160         948.160        -6.66084        -6.66084         7.65269         7.65269
            1845         950.245         950.245        -8.39141        -8.39141         6.78957         6.78957
            1846         952.612         952.612        -10.1603        -10.1603         5.53936         5.53936
            1847         955.220         955.220        -11.8342        -11.8342         3.83282         3.83282
            1848         957.987         957.987        -13.2242        -13.2242         1.61454         1.61454
            1849         960.768         960.768        -14.0776        -14.0776        -1.14025        -1.14025
            1850         963.356         963.356        -14.0847        -14.0847        -4.39046        -4.39046
            1851         965.482         965.482        -12.9025        -12.9025        -7.99445        -7.99445
            1852         936.810         936.810     500.111E-03     500.111E-03     123.494E-03     123.494E-03
            1853         936.823         936.823     510.116E-03     510.116E-03     247.615E-03     247.615E-03
            1854         936.844         936.844     526.764E-03     526.764E-03     375.240E-03     375.240E-03
            1855         936.875         936.875     550.047E-03     550.047E-03     507.447E-03     507.447E-03
            1856         936.915         936.915     579.930E-03     579.930E-03     645.744E-03     645.744E-03
            1857         936.964         936.964     616.354E-03     616.354E-03     791.632E-03     791.632E-03
            1858         937.022         937.022     659.228E-03     659.228E-03     946.589E-03     946.589E-03
            1859         937.091         937.091     708.405E-03     708.405E-03         1.11206         1.11206
            1860         937.171         937.171     763.672E-03     763.672E-03         1.28946         1.28946
            1861         937.261         937.261     824.718E-03     824.718E-03         1.48013         1.48013
            1862         937.363         937.363     891.109E-03     891.109E-03         1.68533         1.68533
            1863         937.477         937.477     962.250E-03     962.250E-03         1.90623         1.90623
            1864         937.604         937.604         1.03734         1.03734         2.14384         2.14384
            1865         937.744         937.744         1.11531         1.11531         2.39902         2.39902
            1866         937.899         937.899         1.19479         1.19479         2.67236         2.67236
            1867         938.070         938.070         1.27397         1.27397         2.96420         2.96420
            1868         938.257         938.257         1.35059         1.35059         3.27451         3.27451
            1869         938.463         938.463         1.42176         1.42176         3.60279         3.60279
            1870         938.688         938.688         1.48388         1.48388         3.94804         3.94804
            1871         938.935         938.935         1.53249         1.53249         4.30856         4.30856
            1872         939.207         939.207         1.56212         1.56212         4.68185         4.68185
            1873         939.507         939.507         1.56613         1.56613         5.06446         5.06446
            1874         939.839         939.839         1.53656         1.53656         5.45176         5.45176
            1875         940.209         940.209         1.46395         1.46395         5.83774         5.83774
            1876         940.623         940.623         1.33729         1.33729         6.21472         6.21472
            1877         941.090         941.090         1.14391         1.14391         6.57309         6.57309
            1878         941.620         941.620     869.619E-03     869.619E-03         6.90089         6.90089
            1879         942.224         942.224     498.983E-03     498.983E-03         7.18340         7.18340
            1880         942.919         942.919     15.8416E-03     15.8416E-03         7.40271         7.40271
            1881         943.721         943.721    -595.653E-03    -595.653E-03         7.53708         7.53708
            1882         944.649         944.649        -1.34953        -1.34953         7.56045         7.56045
            1883         945.723         945.723        -2.25561        -2.25561         7.44184         7.44184
            1884         946.961         946.961        -3.31623        -3.31623         7.14503         7.14503
            1885         948.380         948.380        -4.52180        -4.52180         6.62848         6.62848
            1886         949.986         949.986        -5.84487        -5.84487         5.84643         5.84643
            1887         951.775         951.775        -7.23372        -7.23372         4.75111         4.75111
            1888         953.720         953.720        -8.60428        -8.60428         3.29754         3.29754
            1889         955.768         955.768        -9.83492        -9.83492         1.45189         1.45189
            1890         957.827         957.827        -10.7609        -10.7609    -797.597E-03    -797.597E-03
            1891         959.769         959.769        -11.1776        -11.1776        -3.42115        -3.42115
            1892         961.423         961.423        -10.8531        -10.8531        -6.32793        -6.32793
            1893         962.593         962.593        -9.55638        -9.55638        -9.33934        -9.33934
            1894         936.847         936.847     382.195E-03     382.195E-03     113.355E-03     113.355E-03
            1895         936.865         936.865     389.993E-03     389.993E-03     227.243E-03     227.243E-03
            1896         936.895         936.895     402.977E-03     402.977E-03     344.480E-03     344.480E-03
            1897         936.936         936.936     421.137E-03     421.137E-03     466.057E-03     466.057E-03
            1898         936.991         936.991     444.448E-03     444.448E-03     593.405E-03     593.405E-03
            1899         937.059         937.059     472.872E-03     472.872E-03     727.949E-03     727.949E-03
            1900         937.140         937.140     506.339E-03     506.339E-03     871.092E-03     871.092E-03
            1901         937.235         937.235     544.741E-03     544.741E-03         1.02421         1.02421
            1902         937.345         937.345     587.916E-03     587.916E-03         1.18864         1.18864
            1903         937.471         937.471     635.621E-03     635.621E-03         1.36564         1.36564
            1904         937.614         937.614     687.518E-03     687.518E-03         1.55643         1.55643
            1905         937.775         937.775     743.135E-03     743.135E-03         1.76208         1.76208
            1906         937.954         937.954     801.832E-03     801.832E-03         1.98354         1.98354
            1907         938.153         938.153     862.757E-03     862.757E-03         2.22157         2.22157
            1908         938.373         938.373     924.790E-03     924.790E-03         2.47666         2.47666
            1909         938.615         938.615     986.477E-03     986.477E-03         2.74903         2.74903
            1910         938.881         938.881         1.04596         1.04596         3.03848         3.03848
            1911         939.173         939.173         1.10087         1.10087         3.34432         3.34432
            1912         939.492         939.492         1.14824         1.14824         3.66528         3.66528
            1913         939.840         939.840         1.18440         1.18440         3.99929         3.99929
            1914         940.219         940.219         1.20480         1.20480         4.34342         4.34342
            1915         940.632         940.632         1.20393         1.20393         4.69362         4.69362
            1916         941.083         941.083         1.17517         1.17517         5.04449         5.04449
            1917         941.574         941.574         1.11068         1.11068         5.38909         5.38909
            1918         942.111         942.111         1.00131         1.00131         5.71859         5.71859
            1919         942.698         942.698     836.623E-03     836.623E-03         6.02201         6.02201
            1920         943.342         943.342     605.013E-03     605.013E-03         6.28582         6.28582
            1921         944.051         944.051     294.000E-03     294.000E-03         6.49366         6.49366
            1922         944.833         944.833    -109.161E-03    -109.161E-03         6.62593         6.62593
            1923         945.697         945.697    -616.535E-03    -616.535E-03         6.65956         6.65956
            1924         946.653         946.653        -1.23800        -1.23800         6.56773         6.56773
            1925         947.709         947.709        -1.97910        -1.97910         6.32005         6.32005
            1926         948.872         948.872        -2.83813        -2.83813         5.88283         5.88283
            1927         950.144         950.144        -3.80226        -3.80226         5.22032         5.22032
            1928         951.517         951.517        -4.84315        -4.84315         4.29668         4.29668
            1929         952.974         952.974        -5.91155        -5.91155         3.07955         3.07955
            1930         954.477         954.477        -6.93304        -6.93304         1.54576         1.54576
            1931         955.969         955.969        -7.80390        -7.80390    -311.377E-03    -311.377E-03
            1932         957.369         957.369        -8.39162        -8.39162        -2.47040        -2.47040
            1933         958.568         958.568        -8.54024        -8.54024        -4.87015        -4.87015
            1934         959.443         959.443        -8.08491        -8.08491        -7.39438        -7.39438
            1935         959.865         959.865        -6.87990        -6.87990        -9.86149        -9.86149
            1936         936.856         936.856     275.787E-03     275.787E-03     100.170E-03     100.170E-03
            1937         936.878         936.878     281.533E-03     281.533E-03     200.750E-03     200.750E-03
            1938         936.915         936.915     291.104E-03     291.104E-03     304.428E-03     304.428E-03
            1939         936.968         936.968     304.490E-03     304.490E-03     412.078E-03     412.078E-03
            1940         937.036         937.036     321.677E-03     321.677E-03     525.013E-03     525.013E-03
            1941         937.122         937.122     342.640E-03     342.640E-03     644.539E-03     644.539E-03
            1942         937.224         937.224     367.333E-03     367.333E-03     771.946E-03     771.946E-03
            1943         937.345         937.345     395.683E-03     395.683E-03     908.499E-03     908.499E-03
            1944         937.484         937.484     427.573E-03     427.573E-03         1.05543         1.05543
            1945         937.645         937.645     462.831E-03     462.831E-03         1.21390         1.21390
            1946         937.827         937.827     501.207E-03     501.207E-03         1.38503         1.38503
            1947         938.032         938.032     542.354E-03     542.354E-03         1.56980         1.56980
            1948         938.262         938.262     585.795E-03     585.795E-03         1.76908         1.76908
            1949         938.518         938.518     630.891E-03     630.891E-03         1.98354         1.98354
            1950         938.802         938.802     676.796E-03     676.796E-03         2.21362         2.21362
            1951         939.115         939.115     722.408E-03     722.408E-03         2.45944         2.45944
            1952         939.459         939.459     766.304E-03     766.304E-03         2.72074         2.72074
            1953         939.837         939.837     806.674E-03     806.674E-03         2.99673         2.99673
            1954         940.249         940.249     841.232E-03     841.232E-03         3.28602         3.28602
            1955         940.697         940.697     867.132E-03     867.132E-03         3.58645         3.58645
            1956         941.184         941.184     880.858E-03     880.858E-03         3.89489         3.89489
            1957         941.712         941.712     878.127E-03     878.127E-03         4.20706         4.20706
            1958         942.281         942.281     853.783E-03     853.783E-03         4.51731         4.51731
            1959         942.894         942.894     801.720E-03     801.720E-03         4.81831         4.81831
            1960         943.553         943.553     714.823E-03     714.823E-03         5.10082         5.10082
            1961         944.260         944.260     585.003E-03     585.003E-03         5.35334         5.35334
            1962         945.017         945.017     403.310E-03     403.310E-03         5.56185         5.56185
            1963         945.826         945.826     160.233E-03     160.233E-03         5.70947         5.70947
            1964         946.689         946.689    -153.783E-03    -153.783E-03         5.77634         5.77634
            1965         947.606         947.606    -547.476E-03    -547.476E-03         5.73945         5.73945
            1966         948.579         948.579        -1.02749        -1.02749         5.57285         5.57285
            1967         949.603         949.603        -1.59661        -1.59661         5.24809         5.24809
            1968         950.675         950.675        -2.25130        -2.25130         4.73525         4.73525
            1969         951.784         951.784        -2.97888        -2.97888         4.00468         4.00468
            1970         952.911         952.911        -3.75390        -3.75390         3.02975         3.02975
            1971         954.029         954.029        -4.53495        -4.53495         1.79096         1.79096
            1972         955.097         955.097        -5.26133        -5.26133     281.213E-03     281.213E-03
            1973         956.061         956.061        -5.85207        -5.85207        -1.48664        -1.48664
            1974         956.853         956.853        -6.20738        -6.20738        -3.47212        -3.47212
            1975         957.393         957.393        -6.21514        -6.21514        -5.59762        -5.59762
            1976         957.598         957.598        -5.76478        -5.76478        -7.74197        -7.74197
            1977         957.396         957.396        -4.76693        -4.76693        -9.73717        -9.73717
            1978         936.832         936.832     183.788E-03     183.788E-03     84.1888E-03     84.1888E-03
            1979         936.858         936.858     187.699E-03     187.699E-03     168.617E-03     168.617E-03
            1980         936.902         936.902     194.217E-03     194.217E-03     255.805E-03     255.805E-03
            1981         936.964         936.964     203.333E-03     203.333E-03     346.458E-03     346.458E-03
            1982         937.046         937.046     215.033E-03     215.033E-03     441.728E-03     441.728E-03
            1983         937.147         937.147     229.308E-03     229.308E-03     542.764E-03     542.764E-03
            1984         937.269         937.269     246.136E-03     246.136E-03     650.694E-03     650.694E-03
            1985         937.413         937.413     265.468E-03     265.468E-03     766.631E-03     766.631E-03
            1986         937.580         937.580     287.230E-03     287.230E-03     891.660E-03     891.660E-03
            1987         937.772         937.772     311.307E-03     311.307E-03         1.02682         1.02682
            1988         937.991         937.991     337.533E-03     337.533E-03         1.17309         1.17309
            1989         938.239         938.239     365.675E-03     365.675E-03         1.33136         1.33136
            1990         938.517         938.517     395.408E-03     395.408E-03         1.50238         1.50238
            1991         938.828         938.828     426.294E-03     426.294E-03         1.68677         1.68677
            1992         939.173         939.173     457.751E-03     457.751E-03         1.88489         1.88489
            1993         939.555         939.555     489.011E-03     489.011E-03         2.09686         2.09686
            1994         939.976         939.976     519.085E-03     519.085E-03         2.32239         2.32239
            1995         940.437         940.437     546.700E-03     546.700E-03         2.56075         2.56075
            1996         940.942         940.942     570.250E-03     570.250E-03         2.81060         2.81060
            1997         941.491         941.491     587.719E-03     587.719E-03         3.06987         3.06987
            1998         942.086         942.086     596.617E-03     596.617E-03         3.33558         3.33558
            1999         942.728         942.728     593.894E-03     593.894E-03         3.60364         3.60364
            2000         943.419         943.419     575.875E-03     575.875E-03         3.86861         3.86861
            2001         944.157         944.157     538.197E-03     538.197E-03         4.12347         4.12347
            2002         944.943         944.943     475.782E-03     475.782E-03         4.35930         4.35930
            2003         945.774         945.774     382.855E-03     382.855E-03         4.56507         4.56507
            2004         946.650         946.650     253.056E-03     253.056E-03         4.72729         4.72729
            2005         947.565         947.565     79.6641E-03     79.6641E-03         4.82989         4.82989
            2006         948.516         948.516    -143.982E-03    -143.982E-03         4.85403         4.85403
            2007         949.494         949.494    -423.823E-03    -423.823E-03         4.77822         4.77822
            2008         950.490         950.490    -764.123E-03    -764.123E-03         4.57864         4.57864
            2009         951.490         951.490        -1.16608        -1.16608         4.22989         4.22989
            2010         952.479         952.479        -1.62615        -1.62615         3.70630         3.70630
            2011         953.434         953.434        -2.13381        -2.13381         2.98395         2.98395
            2012         954.328         954.328        -2.66937        -2.66937         2.04374         2.04374
            2013         955.125         955.125        -3.20150        -3.20150     875.224E-03     875.224E-03
            2014         955.784         955.784        -3.68580        -3.68580    -518.109E-03    -518.109E-03
            2015         956.256         956.256        -4.06437        -4.06437        -2.11323        -2.11323
            2016         956.486         956.486        -4.26796        -4.26796        -3.86100        -3.86100
            2017         956.421         956.421        -4.22178        -4.22178        -5.68116        -5.68116
            2018         956.015         956.015        -3.85501        -3.85501        -7.45952        -7.45952
            2019         955.238         955.238        -3.11586        -3.11586        -9.04941        -9.04941
            2020         936.771         936.771     108.804E-03     108.804E-03     65.7384E-03     65.7384E-03
            2021         936.801         936.801     111.174E-03     111.174E-03     131.520E-03     131.520E-03
            2022         936.851         936.851     115.124E-03     115.124E-03     199.600E-03     199.600E-03
            2023         936.921         936.921     120.620E-03     120.620E-03     270.503E-03     270.503E-03
            2024         937.013         937.013     127.675E-03     127.675E-03     345.176E-03     345.176E-03
            2025         937.128         937.128     136.295E-03     136.295E-03     424.541E-03     424.541E-03
            2026         937.267         937.267     146.461E-03     146.461E-03     509.525E-03     509.525E-03
            2027         937.432         937.432     158.148E-03     158.148E-03     601.045E-03     601.045E-03
            2028         937.624         937.624     171.314E-03     171.314E-03     699.995E-03     699.995E-03
            2029         937.845         937.845     185.891E-03     185.891E-03     807.238E-03     807.238E-03
            2030         938.098         938.098     201.784E-03     201.784E-03     923.589E-03     923.589E-03
            2031         938.384         938.384     218.853E-03     218.853E-03         1.04979         1.04979
            2032         938.707         938.707     236.905E-03     236.905E-03         1.18650         1.18650
            2033         939.068         939.068     255.674E-03     255.674E-03         1.33422         1.33422
            2034         939.472         939.472     274.808E-03     274.808E-03         1.49328         1.49328
            2035         939.919         939.919     293.839E-03     293.839E-03         1.66380         1.66380
            2036         940.413         940.413     312.159E-03     312.159E-03         1.84556         1.84556
            2037         940.957         940.957     328.984E-03     328.984E-03         2.03794         2.03794
            2038         941.552         941.552     343.318E-03     343.318E-03         2.23984         2.23984
            2039         942.201         942.201     353.911E-03     353.911E-03         2.44951         2.44951
            2040         942.905         942.905     359.205E-03     359.205E-03         2.66441         2.66441
            2041         943.665         943.665     357.294E-03     357.294E-03         2.88102         2.88102
            2042         944.480         944.480     345.869E-03     345.869E-03         3.09467         3.09467
            2043         945.349         945.349     322.186E-03     322.186E-03         3.29926         3.29926
            2044         946.269         946.269     283.042E-03     283.042E-03         3.48704         3.48704
            2045         947.237         947.237     224.798E-03     224.798E-03         3.64838         3.64838
            2046         948.245         948.245     143.440E-03     143.440E-03         3.77152         3.77152
            2047         949.284         949.284     34.7488E-03     34.7488E-03         3.84243         3.84243
            2048         950.342         950.342    -105.436E-03    -105.436E-03         3.84472         3.84472
            2049         951.404         951.404    -280.775E-03    -280.775E-03         3.75982         3.75982
            2050         952.450         952.450    -493.778E-03    -493.778E-03         3.56733         3.56733
            2051         953.457         953.457    -744.951E-03    -744.951E-03         3.24586         3.24586
            2052         954.396         954.396        -1.03161        -1.03161         2.77438         2.77438
            2053         955.234         955.234        -1.34664        -1.34664         2.13416         2.13416
            2054         955.932         955.932        -1.67688        -1.67688         1.31159         1.31159
            2055         956.449         956.449        -2.00199        -2.00199     301.785E-03     301.785E-03
            2056         956.739         956.739        -2.29343        -2.29343    -887.232E-03    -887.232E-03
            2057         956.757         956.757        -2.51468        -2.51468        -2.22970        -2.22970
            2058         956.460         956.460        -2.62301        -2.62301        -3.67793        -3.67793
            2059         955.816         955.816        -2.57324        -2.57324        -5.15896        -5.15896
            2060         954.806         954.806        -2.32418        -2.32418        -6.57420        -6.57420
            2061         953.437         953.437        -1.84679        -1.84679        -7.80291        -7.80291
            2062         936.670         936.670     53.0782E-03     53.0782E-03     45.2800E-03     45.2800E-03
            2063         936.702         936.702     54.2915E-03     54.2915E-03     90.2921E-03     90.2921E-03
            2064         936.757         936.757     56.2419E-03     56.2419E-03     137.082E-03     137.082E-03
            2065         936.834         936.834     58.9396E-03     58.9396E-03     185.927E-03     185.927E-03
            2066         936.935         936.935     62.4239E-03     62.4239E-03     237.470E-03     237.470E-03
            2067         937.061         937.061     66.6827E-03     66.6827E-03     292.378E-03     292.378E-03
            2068         937.214         937.214     71.7082E-03     71.7082E-03     351.327E-03     351.327E-03
            2069         937.396         937.396     77.4890E-03     77.4890E-03     414.981E-03     414.981E-03
            2070         937.609         937.609     84.0040E-03     84.0040E-03     483.993E-03     483.993E-03
            2071         937.854         937.854     91.2224E-03     91.2224E-03     558.999E-03     558.999E-03
            2072         938.136         938.136     99.0967E-03     99.0967E-03     640.600E-03     640.600E-03
            2073         938.457         938.457     107.559E-03     107.559E-03     729.354E-03     729.354E-03
            2074         938.819         938.819     116.515E-03     116.515E-03     825.752E-03     825.752E-03
            2075         939.227         939.227     125.834E-03     125.834E-03     930.193E-03     930.193E-03
            2076         939.683         939.683     135.340E-03     135.340E-03         1.04295         1.04295
            2077         940.191         940.191     144.800E-03     144.800E-03         1.16413         1.16413
            2078         940.754         940.754     153.909E-03     153.909E-03         1.29361         1.29361
            2079         941.376         941.376     162.274E-03     162.274E-03         1.43098         1.43098
            2080         942.060         942.060     169.393E-03     169.393E-03         1.57548         1.57548
            2081         942.807         942.807     174.631E-03     174.631E-03         1.72585         1.72585
            2082         943.620         943.620     177.198E-03     177.198E-03         1.88025         1.88025
            2083         944.499         944.499     176.123E-03     176.123E-03         2.03611         2.03611
            2084         945.443         945.443     170.225E-03     170.225E-03         2.18997         2.18997
            2085         946.452         946.452     158.098E-03     158.098E-03         2.33731         2.33731
            2086         947.519         947.519     138.099E-03     138.099E-03         2.47233         2.47233
            2087         948.639         948.639     108.351E-03     108.351E-03         2.58778         2.58778
            2088         949.801         949.801     66.7918E-03     66.7918E-03         2.67477         2.67477
            2089         950.991         950.991     11.2429E-03     11.2429E-03         2.72267         2.72267
            2090         952.192         952.192    -60.4343E-03    -60.4343E-03         2.71904         2.71904
            2091         953.378         953.378    -150.110E-03    -150.110E-03         2.64976         2.64976
            2092         954.523         954.523    -259.053E-03    -259.053E-03         2.49939         2.49939
            2093         955.590         955.590    -387.448E-03    -387.448E-03         2.25179         2.25179
            2094         956.539         956.539    -533.838E-03    -533.838E-03         1.89128         1.89128
            2095         957.323         957.323    -694.372E-03    -694.372E-03         1.40417         1.40417
            2096         957.893         957.893    -862.129E-03    -862.129E-03     781.066E-03     781.066E-03
            2097         958.193         958.193        -1.02638        -1.02638     19.5603E-03     19.5603E-03
            2098         958.172         958.172        -1.17229        -1.17229    -872.429E-03    -872.429E-03
            2099         957.781         957.781        -1.28101        -1.28101        -1.87337        -1.87337
            2100         956.982         956.982        -1.33069        -1.33069        -2.94507        -2.94507
            2101         955.755         955.755        -1.29879        -1.29879        -4.03093        -4.03093
            2102         954.104         954.104        -1.16501        -1.16501        -5.05626        -5.05626
            2103         952.062         952.062    -914.999E-03    -914.999E-03        -5.93065        -5.93065
            2104         936.525         936.525     18.3450E-03     18.3450E-03     23.3284E-03     23.3284E-03
            2105         936.560         936.560     18.8107E-03     18.8107E-03     46.1683E-03     46.1683E-03
            2106         936.617         936.617     19.4534E-03     19.4534E-03     70.1693E-03     70.1693E-03
            2107         936.699         936.699     20.3786E-03     20.3786E-03     95.2498E-03     95.2498E-03
            2108         936.807         936.807     21.5835E-03     21.5835E-03     121.753E-03     121.753E-03
            2109         936.941         936.941     23.0529E-03     23.0529E-03     150.048E-03     150.048E-03
            2110         937.105         937.105     24.7897E-03     24.7897E-03     180.494E-03     180.494E-03
            2111         937.299         937.299     26.7861E-03     26.7861E-03     213.449E-03     213.449E-03
            2112         937.528         937.528     29.0369E-03     29.0369E-03     249.267E-03     249.267E-03
            2113         937.793         937.793     31.5302E-03     31.5302E-03     288.292E-03     288.292E-03
            2114         938.098         938.098     34.2501E-03     34.2501E-03     330.855E-03     330.855E-03
            2115         938.446         938.446     37.1728E-03     37.1728E-03     377.263E-03     377.263E-03
            2116         938.842         938.842     40.2651E-03     40.2651E-03     427.791E-03     427.791E-03
            2117         939.289         939.289     43.4813E-03     43.4813E-03     482.669E-03     482.669E-03
            2118         939.792         939.792     46.7600E-03     46.7600E-03     542.061E-03     542.061E-03
            2119         940.354         940.354     50.0192E-03     50.0192E-03     606.043E-03     606.043E-03
            2120         940.981         940.981     53.1517E-03     53.1517E-03     674.577E-03     674.577E-03
            2121         941.675         941.675     56.0190E-03     56.0190E-03     747.470E-03     747.470E-03
            2122         942.442         942.442     58.4436E-03     58.4436E-03     824.331E-03     824.331E-03
            2123         943.285         943.285     60.2012E-03     60.2012E-03     904.517E-03     904.517E-03
            2124         944.206         944.206     61.0116E-03     61.0116E-03     987.063E-03     987.063E-03
            2125         945.206         945.206     60.5297E-03     60.5297E-03         1.07061         1.07061
            2126         946.286         946.286     58.3349E-03     58.3349E-03         1.15330         1.15330
            2127         947.443         947.443     53.9265E-03     53.9265E-03         1.23269         1.23269
            2128         948.672         948.672     46.7153E-03     46.7153E-03         1.30563         1.30563
            2129         949.965         949.965     36.0323E-03     36.0323E-03         1.36816         1.36816
            2130         951.310         951.310     21.1344E-03     21.1344E-03         1.41540         1.41540
            2131         952.689         952.689     1.24324E-03     1.24324E-03         1.44147         1.44147
            2132         954.079         954.079    -24.4121E-03    -24.4121E-03         1.43947         1.43947
            2133         955.448         955.448    -56.5004E-03    -56.5004E-03         1.40155         1.40155
            2134         956.760         956.760    -95.4733E-03    -95.4733E-03         1.31908         1.31908
            2135         957.967         957.967    -141.393E-03    -141.393E-03         1.18302         1.18302
            2136         959.015         959.015    -193.709E-03    -193.709E-03     984.595E-03     984.595E-03
            2137         959.843         959.843    -251.029E-03    -251.029E-03     716.168E-03     716.168E-03
            2138         960.381         960.381    -310.805E-03    -310.805E-03     372.490E-03     372.490E-03
            2139         960.560         960.560    -369.163E-03    -369.163E-03    -47.6481E-03    -47.6481E-03
            2140         960.310         960.310    -420.702E-03    -420.702E-03    -539.670E-03    -539.670E-03
            2141         959.570         959.570    -458.633E-03    -458.633E-03        -1.09128        -1.09128
            2142         958.295         958.295    -475.146E-03    -475.146E-03        -1.68086        -1.68086
            2143         956.465         956.465    -462.156E-03    -462.156E-03        -2.27672        -2.27672
            2144         954.092         954.092    -412.819E-03    -412.819E-03        -2.83727        -2.83727
            2145         951.235         951.235    -321.727E-03    -321.727E-03        -3.31204        -3.31204
            2146         887.120         887.120         256.247         256.247        -68.7316        -68.7316
            2147         896.709         896.709         233.115         233.115        -68.2780        -68.2780
            2148         906.023         906.023         209.915         209.915        -65.9673        -65.9673
            2149         914.728         914.728         187.225         187.225        -62.4824        -62.4824
            2150         922.620         922.620         165.473         165.473        -57.9953        -57.9953
            2151         929.545         929.545         145.008         145.008        -52.6903        -52.6903
            2152         935.398         935.398         126.103         126.103        -46.8400        -46.8400
            2153         940.194         940.194         108.896         108.896        -40.6971        -40.6971
            2154         943.951         943.951         93.4507         93.4507        -34.5040        -34.5040
            2155         946.788         946.788         79.7354         79.7354        -28.4683        -28.4683
            2156         948.796         948.796         67.6689         67.6689        -22.7342        -22.7342
            2157         950.116         950.116         57.1339         57.1339        -17.4172        -17.4172
            2158         950.856         950.856         47.9897         47.9897        -12.5694        -12.5694
            2159         951.133         951.133         40.1002         40.1002        -8.22634        -8.22634
            2160         951.037         951.037         33.3210         33.3210        -4.38158        -4.38158
            2161         950.654         950.654         27.5270         27.5270        -1.02162        -1.02162
            2162         950.048         950.048         22.5928         22.5928         1.88829         1.88829
            2163         949.277         949.277         18.4124         18.4124         4.38450         4.38450
            2164         948.383         948.383         14.8831         14.8831         6.51150         6.51150
            2165         947.404         947.404         11.9173         11.9173         8.31238         8.31238
            2166         946.368         946.368         9.43156         9.43156         9.83168         9.83168
            2167         945.299         945.299         7.35316         7.35316         11.1112         11.1112
            2168         944.218         944.218         5.61278         5.61278         12.1914         12.1914
            2169         943.143         943.143         4.14828         4.14828         13.1099         13.1099
            2170         942.090         942.090         2.89981         2.89981         13.9018         13.9018
            2171         941.077         941.077         1.81166         1.81166         14.5999         14.5999
            2172         940.122         940.122     829.141E-03     829.141E-03         15.2351         15.2351
            2173         939.245         939.245    -100.848E-03    -100.848E-03         15.8358         15.8358
            2174         938.474         938.474        -1.03190        -1.03190         16.4288         16.4288
            2175         937.840         937.840        -2.01830        -2.01830         17.0386         17.0386
            2176         937.385         937.385        -3.11643        -3.11643         17.6869         17.6869
            2177         937.160         937.160        -4.38545        -4.38545         18.3911         18.3911
            2178         937.235         937.235        -5.88780        -5.88780         19.1617         19.1617
            2179         937.697         937.697        -7.68958        -7.68958         19.9976         19.9976
            2180         938.659         938.659        -9.85805        -9.85805         20.8785         20.8785
            2181         940.263         940.263        -12.4587        -12.4587         21.7540         21.7540
            2182         942.680         942.680        -15.5417        -15.5417         22.5249         22.5249
            2183         946.106         946.106        -19.1240        -19.1240         23.0231         23.0231
            2184         950.739         950.739        -23.1407        -23.1407         22.9797         22.9797
            2185         956.724         956.724        -27.3829        -27.3829         22.0169         22.0169
            2186         964.062         964.062        -31.3916        -31.3916         19.6515         19.6515
            2187         972.492         972.492        -34.4192        -34.4192         15.4382         15.4382
            2188         889.723         889.723         255.688         255.688        -78.5731        -78.5731
            2189         899.800         899.800         231.216         231.216        -77.9887        -77.9887
            2190         909.462         909.462         206.680         206.680        -75.1228        -75.1228
            2191         918.395         918.395         182.761         182.761        -70.8520        -70.8520
            2192         926.322         926.322         159.993         159.993        -65.3352        -65.3352
            2193         933.059         933.059         138.814         138.814        -58.9087        -58.9087
            2194         938.572         938.572         119.485         119.485        -51.8913        -51.8913
            2195         942.845         942.845         102.161         102.161        -44.6317        -44.6317
            2196         946.025         946.025         86.8346         86.8346        -37.4306        -37.4306
            2197         948.216         948.216         73.4298         73.4298        -30.5075        -30.5075
            2198         949.611         949.611         61.8040         61.8040        -24.0429        -24.0429
            2199         950.346         950.346         51.7810         51.7810        -18.1199        -18.1199
            2200         950.579         950.579         43.1903         43.1903        -12.8017        -12.8017
            2201         950.423         950.423         35.8495         35.8495        -8.08610        -8.08610
            2202         949.984         949.984         29.6071         29.6071        -3.96420        -3.96420
            2203         949.340         949.340         24.3099         24.3099    -394.770E-03    -394.770E-03
            2204         948.556         948.556         19.8354         19.8354         2.66380         2.66380
            2205         947.681         947.681         16.0640         16.0640         5.26511         5.26511
            2206         946.751         946.751         12.8990         12.8990         7.45996         7.45996
            2207         945.797         945.797         10.2478         10.2478         9.30123         9.30123
            2208         944.839         944.839         8.03330         8.03330         10.8377         10.8377
            2209         943.896         943.896         6.18202         6.18202         12.1162         12.1162
            2210         942.983         942.983         4.63026         4.63026         13.1791         13.1791
            2211         942.112         942.112         3.31709         3.31709         14.0655         14.0655
            2212         941.298         941.298         2.18714         2.18714         14.8105         14.8105
            2213         940.553         940.553         1.18653         1.18653         15.4458         15.4458
            2214         939.896         939.896     264.077E-03     264.077E-03         15.9993         15.9993
            2215         939.346         939.346    -631.186E-03    -631.186E-03         16.4959         16.4959
            2216         938.930         938.930        -1.54963        -1.54963         16.9565         16.9565
            2217         938.678         938.678        -2.54239        -2.54239         17.3981         17.3981
            2218         938.633         938.633        -3.66122        -3.66122         17.8326         17.8326
            2219         938.847         938.847        -4.95856        -4.95856         18.2648         18.2648
            2220         939.383         939.383        -6.48682        -6.48682         18.6898         18.6898
            2221         940.322         940.322        -8.29581        -8.29581         19.0876         19.0876
            2222         941.757         941.757        -10.4290        -10.4290         19.4170         19.4170
            2223         943.799         943.799        -12.9142        -12.9142         19.6053         19.6053
            2224         946.564         946.564        -15.7499        -15.7499         19.5382         19.5382
            2225         950.162         950.162        -18.8791        -18.8791         19.0441         19.0441
            2226         954.667         954.667        -22.1531        -22.1531         17.8930         17.8930
            2227         960.071         960.071        -25.2819        -25.2819         15.7976         15.7976
            2228         966.219         966.219        -27.7882        -27.7882         12.4747         12.4747
            2229         972.821         972.821        -29.0363        -29.0363         7.67044         7.67044
            2230         893.134         893.134         255.004         255.004        -88.9570        -88.9570
            2231         903.706         903.706         228.893         228.893        -88.1418        -88.1418
            2232         913.819         913.819         202.673         202.673        -84.6250        -84.6250
            2233         922.951         922.951         177.249         177.249        -79.3018        -79.3018
            2234         930.801         930.801         153.312         153.312        -72.5552        -72.5552
            2235         937.229         937.229         131.336         131.336        -64.7529        -64.7529
            2236         942.146         942.146         111.648         111.648        -56.3926        -56.3926
            2237         945.725         945.725         94.3060         94.3060        -47.9055        -47.9055
            2238         948.076         948.076         79.2596         79.2596        -39.6293        -39.6293
            2239         949.472         949.472         66.3337         66.3337        -31.8448        -31.8448
            2240         950.090         950.090         55.3016         55.3016        -24.6817        -24.6817
            2241         950.151         950.151         45.9422         45.9422        -18.2455        -18.2455
            2242         949.801         949.801         38.0149         38.0149        -12.5379        -12.5379
            2243         949.180         949.180         31.3302         31.3302        -7.55582        -7.55582
            2244         948.383         948.383         25.6942         25.6942        -3.24740        -3.24740
            2245         947.485         947.485         20.9612         20.9612     436.888E-03     436.888E-03
            2246         946.542         946.542         16.9880         16.9880         3.56350         3.56350
            2247         945.590         945.590         13.6656         13.6656         6.19385         6.19385
            2248         944.658         944.658         10.8892         10.8892         8.39186         8.39186
            2249         943.764         943.764         8.57614         8.57614         10.2155         10.2155
            2250         942.922         942.922         6.64787         6.64787         11.7199         11.7199
            2251         942.141         942.141         5.03904         5.03904         12.9540         12.9540
            2252         941.429         941.429         3.68760         3.68760         13.9624         13.9624
            2253         940.793         940.793         2.53898         2.53898         14.7842         14.7842
            2254         940.242         940.242         1.54060         1.54060         15.4535         15.4535
            2255         939.786         939.786     643.744E-03     643.744E-03         15.9999         15.9999
            2256         939.438         939.438    -199.550E-03    -199.550E-03         16.4481         16.4481
            2257         939.215         939.215        -1.03563        -1.03563         16.8182         16.8182
            2258         939.141         939.141        -1.91086        -1.91086         17.1254         17.1254
            2259         939.245         939.245        -2.87096        -2.87096         17.3794         17.3794
            2260         939.565         939.565        -3.96126        -3.96126         17.5830         17.5830
            2261         940.145         940.145        -5.22543        -5.22543         17.7310         17.7310
            2262         941.040         941.040        -6.70348        -6.70348         17.8066         17.8066
            2263         942.315         942.315        -8.42820        -8.42820         17.7781         17.7781
            2264         944.041         944.041        -10.4186        -10.4186         17.5937         17.5937
            2265         946.289         946.289        -12.6704        -12.6704         17.1757         17.1757
            2266         949.123         949.123        -15.1404        -15.1404         16.4140         16.4140
            2267         952.583         952.583        -17.7246        -17.7246         15.1659         15.1659
            2268         956.655         956.655        -20.2326        -20.2326         13.2581         13.2581
            2269         961.243         961.243        -22.3559        -22.3559         10.5132         10.5132
            2270         966.147         966.147        -23.6687        -23.6687         6.78088         6.78088
            2271         971.018         971.018        -23.5742        -23.5742         1.96007         1.96007
            2272         897.487         897.487         254.227         254.227        -99.9586        -99.9586
            2273         908.798         908.798         225.981         225.981        -98.8881        -98.8881
            2274         919.331         919.331         197.661         197.661        -94.4076        -94.4076
            2275         928.606         928.606         170.422         170.422        -87.8062        -87.8062
            2276         936.250         936.250         145.109         145.109        -79.4347        -79.4347
            2277         942.031         942.031         122.372         122.372        -69.9923        -69.9923
            2278         946.129         946.129         102.413         102.413        -60.0830        -60.0830
            2279         948.634         948.634         85.2714         85.2714        -50.2397        -50.2397
            2280         949.947         949.947         70.7304         70.7304        -40.9056        -40.9056
            2281         950.301         950.301         58.4945         58.4945        -32.2840        -32.2840
            2282         950.017         950.017         48.2649         48.2649        -24.5485        -24.5485
            2283         949.298         949.298         39.7109         39.7109        -17.7016        -17.7016
            2284         948.327         948.327         32.5877         32.5877        -11.7474        -11.7474
            2285         947.225         947.225         26.6408         26.6408        -6.61550        -6.61550
            2286         946.083         946.083         21.6926         21.6926        -2.24347        -2.24347
            2287         944.961         944.961         17.5667         17.5667         1.45414         1.45414
            2288         943.898         943.898         14.1376         14.1376         4.55387         4.55387
            2289         942.918         942.918         11.2847         11.2847         7.13449         7.13449
            2290         942.033         942.033         8.91815         8.91815         9.26635         9.26635
            2291         941.250         941.250         6.95287         6.95287         11.0150         11.0150
            2292         940.571         940.571         5.32167         5.32167         12.4383         12.4383
            2293         939.997         939.997         3.96118         3.96118         13.5877         13.5877
            2294         939.528         939.528         2.81792         2.81792         14.5079         14.5079
            2295         939.162         939.162         1.84088         1.84088         15.2373         15.2373
            2296         938.904         938.904     984.243E-03     984.243E-03         15.8083         15.8083
            2297         938.757         938.757     203.394E-03     203.394E-03         16.2474         16.2474
            2298         938.731         938.731    -543.808E-03    -543.808E-03         16.5757         16.5757
            2299         938.838         938.838        -1.29909        -1.29909         16.8084         16.8084
            2300         939.096         939.096        -2.10287        -2.10287         16.9552         16.9552
            2301         939.529         939.529        -2.99484        -2.99484         17.0189         17.0189
            2302         940.167         940.167        -4.01260        -4.01260         16.9956         16.9956
            2303         941.047         941.047        -5.19035        -5.19035         16.8719         16.8719
            2304         942.211         942.211        -6.55585        -6.55585         16.6243         16.6243
            2305         943.704         943.704        -8.12596        -8.12596         16.2155         16.2155
            2306         945.572         945.572        -9.89980        -9.89980         15.5926         15.5926
            2307         947.853         947.853        -11.8490        -11.8490         14.6837         14.6837
            2308         950.568         950.568        -13.9040        -13.9040         13.3988         13.3988
            2309         953.706         953.706        -15.9394        -15.9394         11.6323         11.6323
            2310         957.204         957.204        -17.7537        -17.7537         9.27597         9.27597
            2311         960.928         960.928        -19.0644        -19.0644         6.23981         6.23981
            2312         964.656         964.656        -19.4886        -19.4886         2.47677         2.47677
            2313         968.048         968.048        -18.5523        -18.5523        -1.95388        -1.95388
            2314         903.387         903.387         253.227         253.227        -111.802        -111.802
            2315         915.356         915.356         222.304         222.304        -110.200        -110.200
            2316         926.424         926.424         191.303         191.303        -104.560        -104.560
            2317         935.703         935.703         161.817         161.817        -96.0862        -96.0862
            2318         942.721         942.721         135.069         135.069        -85.7152        -85.7152
            2319         947.571         947.571         111.594         111.594        -74.2480        -74.2480
            2320         950.261         950.261         91.6663         91.6663        -62.5547        -62.5547
            2321         951.393         951.393         75.0298         75.0298        -51.3499        -51.3499
            2322         951.278         951.278         61.3004         61.3004        -40.9635        -40.9635
            2323         950.409         950.409         50.0544         50.0544        -31.6870        -31.6870
            2324         949.073         949.073         40.8159         40.8159        -23.5141        -23.5141
            2325         947.522         947.522         33.2588         33.2588        -16.4569        -16.4569
            2326         945.914         945.914         27.0362         27.0362        -10.4111        -10.4111
            2327         944.358         944.358         21.9278         21.9278        -5.29276        -5.29276
            2328         942.919         942.919         17.7097         17.7097    -987.460E-03    -987.460E-03
            2329         941.633         941.633         14.2365         14.2365         2.60361         2.60361
            2330         940.519         940.519         11.3658         11.3658         5.57947         5.57947
            2331         939.578         939.578         8.99952         8.99952         8.02705         8.02705
            2332         938.810         938.810         7.04439         7.04439         10.0252         10.0252
            2333         938.203         938.203         5.43121         5.43121         11.6431         11.6431
            2334         937.749         937.749         4.09492         4.09492         12.9406         12.9406
            2335         937.438         937.438         2.98348         2.98348         13.9696         13.9696
            2336         937.260         937.260         2.04758         2.04758         14.7738         14.7738
            2337         937.207         937.207         1.24474         1.24474         15.3898         15.3898
            2338         937.276         937.276     533.953E-03     533.953E-03         15.8471         15.8471
            2339         937.464         937.464    -122.443E-03    -122.443E-03         16.1692         16.1692
            2340         937.776         937.776    -761.466E-03    -761.466E-03         16.3728         16.3728
            2341         938.217         938.217        -1.41841        -1.41841         16.4687         16.4687
            2342         938.800         938.800        -2.12786        -2.12786         16.4612         16.4612
            2343         939.542         939.542        -2.92244        -2.92244         16.3481         16.3481
            2344         940.463         940.463        -3.83217        -3.83217         16.1195         16.1195
            2345         941.589         941.589        -4.88209        -4.88209         15.7577         15.7577
            2346         942.948         942.948        -6.08927        -6.08927         15.2356         15.2356
            2347         944.567         944.567        -7.45797        -7.45797         14.5158         14.5158
            2348         946.470         946.470        -8.97331        -8.97331         13.5502         13.5502
            2349         948.668         948.668        -10.5924        -10.5924         12.2805         12.2805
            2350         951.152         951.152        -12.2349        -12.2349         10.6408         10.6408
            2351         953.880         953.880        -13.7707        -13.7707         8.56569         8.56569
            2352         956.767         956.767        -15.0143        -15.0143         6.00263         6.00263
            2353         959.669         959.669        -15.7151        -15.7151         2.92941         2.92941
            2354         962.377         962.377        -15.5665        -15.5665    -611.153E-03    -611.153E-03
            2355         964.623         964.623        -14.2270        -14.2270        -4.47741        -4.47741
            2356         911.091         911.091         252.057         252.057        -124.549        -124.549
            2357         924.211         924.211         217.466         217.466        -122.369        -122.369
            2358         935.627         935.627         183.002         183.002        -114.745        -114.745
            2359         944.490         944.490         150.947         150.947        -103.922        -103.922
            2360         950.526         950.526         122.592         122.592        -90.8227        -90.8227
            2361         953.510         953.510         98.7947         98.7947        -76.9124        -76.9124
            2362         954.355         954.355         79.3039         79.3039        -63.3665        -63.3665
            2363         953.465         953.465         63.6447         63.6447        -50.7602        -50.7602
            2364         951.651         951.651         51.1788         51.1788        -39.6060        -39.6060
            2365         949.337         949.337         41.1802         41.1802        -29.8622        -29.8622
            2366         946.880         946.880         33.2029         33.2029        -21.5464        -21.5464
            2367         944.493         944.493         26.7549         26.7549        -14.4927        -14.4927
            2368         942.296         942.296         21.5598         21.5598        -8.57832        -8.57832
            2369         940.364         940.364         17.3273         17.3273        -3.64470        -3.64470
            2370         938.720         938.720         13.8871         13.8871     440.777E-03     440.777E-03
            2371         937.370         937.370         11.0697         11.0697         3.80463         3.80463
            2372         936.302         936.302         8.76758         8.76758         6.55630         6.55630
            2373         935.498         935.498         6.87780         6.87780         8.79117         8.79117
            2374         934.933         934.933         5.32929         5.32929         10.5922         10.5922
            2375         934.585         934.585         4.05527         4.05527         12.0294         12.0294
            2376         934.430         934.430         3.00543         3.00543         13.1631         13.1631
            2377         934.447         934.447         2.13252         2.13252         14.0429         14.0429
            2378         934.617         934.617         1.39771         1.39771         14.7108         14.7108
            2379         934.926         934.926     763.922E-03     763.922E-03         15.2000         15.2000
            2380         935.362         935.362     198.235E-03     198.235E-03         15.5370         15.5370
            2381         935.917         935.917    -331.471E-03    -331.471E-03         15.7412         15.7412
            2382         936.589         936.589    -855.260E-03    -855.260E-03         15.8254         15.8254
            2383         937.376         937.376        -1.40263        -1.40263         15.7960         15.7960
            2384         938.285         938.285        -2.00140        -2.00140         15.6529         15.6529
            2385         939.323         939.323        -2.67770        -2.67770         15.3897         15.3897
            2386         940.502         940.502        -3.45415        -3.45415         14.9928         14.9928
            2387         941.836         941.836        -4.34813        -4.34813         14.4419         14.4419
            2388         943.339         943.339        -5.36826        -5.36826         13.7097         13.7097
            2389         945.024         945.024        -6.51044        -6.51044         12.7619         12.7619
            2390         946.893         946.893        -7.75178        -7.75178         11.5586         11.5586
            2391         948.941         948.941        -9.04448        -9.04448         10.0570         10.0570
            2392         951.138         951.138        -10.3077        -10.3077         8.21603         8.21603
            2393         953.430         953.430        -11.4226        -11.4226         6.00500         6.00500
            2394         955.726         955.726        -12.2267        -12.2267         3.41470         3.41470
            2395         957.896         957.896        -12.5177        -12.5177     476.862E-03     476.862E-03
            2396         959.770         959.770        -12.0651        -12.0651        -2.71652        -2.71652
            2397         961.153         961.153        -10.6388        -10.6388        -5.98642        -5.98642
            2398         922.176         922.176         250.333         250.333        -138.722        -138.722
            2399         936.042         936.042         210.903         210.903        -135.042        -135.042
            2400         947.687         947.687         172.012         172.012        -124.973        -124.973
            2401         955.681         955.681         136.728         136.728        -110.415        -110.415
            2402         959.247         959.247         107.294         107.294        -93.8657        -93.8657
            2403         959.722         959.722         83.6767         83.6767        -77.2566        -77.2566
            2404         957.563         957.563         65.4097         65.4097        -61.7058        -61.7058
            2405         954.222         954.222         51.4510         51.4510        -48.1842        -48.1842
            2406         950.377         950.377         40.6065         40.6065        -36.5415        -36.5415
            2407         946.534         946.534         32.2500         32.2500        -26.7854        -26.7854
            2408         942.981         942.981         25.6572         25.6572        -18.6353        -18.6353
            2409         939.844         939.844         20.4795         20.4795        -11.8971        -11.8971
            2410         937.193         937.193         16.3343         16.3343        -6.34437        -6.34437
            2411         935.025         935.025         13.0239         13.0239        -1.79239        -1.79239
            2412         933.325         933.325         10.3454         10.3454         1.92191         1.92191
            2413         932.051         932.051         8.18221         8.18221         4.93855         4.93855
            2414         931.163         931.163         6.42109         6.42109         7.37252         7.37252
            2415         930.615         930.615         4.98991         4.98991         9.32375         9.32375
            2416         930.365         930.365         3.82070         3.82070         10.8730         10.8730
            2417         930.373         930.373         2.86560         2.86560         12.0900         12.0900
            2418         930.603         930.603         2.07989         2.07989         13.0306         13.0306
            2419         931.023         931.023         1.42887         1.42887         13.7424         13.7424
            2420         931.607         931.607     879.694E-03     879.694E-03         14.2624         14.2624
            2421         932.333         932.333     404.451E-03     404.451E-03         14.6207         14.6207
            2422         933.183         933.183    -23.8993E-03    -23.8993E-03         14.8394         14.8394
            2423         934.142         934.142    -430.040E-03    -430.040E-03         14.9340         14.9340
            2424         935.201         935.201    -838.222E-03    -838.222E-03         14.9134         14.9134
            2425         936.353         936.353        -1.27125        -1.27125         14.7802         14.7802
            2426         937.597         937.597        -1.75101        -1.75101         14.5306         14.5306
            2427         938.931         938.931        -2.29713        -2.29713         14.1552         14.1552
            2428         940.358         940.358        -2.92615        -2.92615         13.6382         13.6382
            2429         941.881         941.881        -3.64916        -3.64916         12.9587         12.9587
            2430         943.501         943.501        -4.46932        -4.46932         12.0907         12.0907
            2431         945.216         945.216        -5.37780        -5.37780         11.0047         11.0047
            2432         947.017         947.017        -6.34980        -6.34980         9.66994         9.66994
            2433         948.884         948.884        -7.33889        -7.33889         8.05834         8.05834
            2434         950.779         950.779        -8.27322        -8.27322         6.14996         6.14996
            2435         952.645         952.645        -9.05105        -9.05105         3.94074         3.94074
            2436         954.399         954.399        -9.54182        -9.54182         1.45416         1.45416
            2437         955.936         955.936        -9.59086        -9.59086        -1.24718        -1.24718
            2438         957.131         957.131        -9.03461        -9.03461        -4.04597        -4.04597
            2439         957.857         957.857        -7.72714        -7.72714        -6.76014        -6.76014
            2440         937.227         937.227         248.077         248.077        -154.134        -154.134
            2441         952.847         952.847         201.522         201.522        -148.863        -148.863
            2442         964.021         964.021         156.497         156.497        -133.809        -133.809
            2443         968.897         968.897         118.424         118.424        -114.368        -114.368
            2444         969.052         969.052         88.3557         88.3557        -93.5304        -93.5304
            2445         964.739         964.739         66.3688         66.3688        -73.7797        -73.7797
            2446         958.852         958.852         50.5815         50.5815        -57.1506        -57.1506
            2447         952.577         952.577         38.8193         38.8193        -43.1731        -43.1731
            2448         946.610         946.610         30.1917         30.1917        -31.7809        -31.7809
            2449         941.344         941.344         23.5908         23.5908        -22.4806        -22.4806
            2450         936.861         936.861         18.5829         18.5829        -14.9407        -14.9407
            2451         933.210         933.210         14.6616         14.6616        -8.83450        -8.83450
            2452         930.324         930.324         11.6018         11.6018        -3.89589        -3.89589
            2453         928.149         928.149         9.16403         9.16403     84.3004E-03     84.3004E-03
            2454         926.593         926.593         7.22473         7.22473         3.28692         3.28692
            2455         925.584         925.584         5.66227         5.66227         5.84849         5.84849
            2456         925.040         925.040         4.40511         4.40511         7.88869         7.88869
            2457         924.896         924.896         3.38599         3.38599         9.49859         9.49859
            2458         925.088         925.088         2.56050         2.56050         10.7576         10.7576
            2459         925.563         925.563         1.88760         1.88760         11.7269         11.7269
            2460         926.274         926.274         1.33720         1.33720         12.4591         12.4591
            2461         927.182         927.182     881.220E-03     881.220E-03         12.9944         12.9944
            2462         928.252         928.252     496.884E-03     496.884E-03         13.3661         13.3661
            2463         929.456         929.456     162.397E-03     162.397E-03         13.5986         13.5986
            2464         930.771         930.771    -141.514E-03    -141.514E-03         13.7103         13.7103
            2465         932.176         932.176    -433.753E-03    -433.753E-03         13.7122         13.7122
            2466         933.658         933.658    -731.935E-03    -731.935E-03         13.6099         13.6099
            2467         935.202         935.202        -1.05326        -1.05326         13.4026         13.4026
            2468         936.800         936.800        -1.41357        -1.41357         13.0841         13.0841
            2469         938.443         938.443        -1.82716        -1.82716         12.6429         12.6429
            2470         940.123         940.123        -2.30529        -2.30529         12.0623         12.0623
            2471         941.834         941.834        -2.85477        -2.85477         11.3219         11.3219
            2472         943.565         943.565        -3.47543        -3.47543         10.3980         10.3980
            2473         945.303         945.303        -4.15751        -4.15751         9.26635         9.26635
            2474         947.029         947.029        -4.87796        -4.87796         7.90442         7.90442
            2475         948.713         948.713        -5.59749        -5.59749         6.29608         6.29608
            2476         950.316         950.316        -6.25707        -6.25707         4.43685         4.43685
            2477         951.784         951.784        -6.77733        -6.77733         2.34162         2.34162
            2478         953.049         953.049        -7.05963        -7.05963     52.2982E-03     52.2982E-03
            2479         954.034         954.034        -6.99305        -6.99305        -2.35239        -2.35239
            2480         954.657         954.657        -6.46755        -6.46755        -4.75055        -4.75055
            2481         954.849         954.849        -5.39395        -5.39395        -6.97315        -6.97315
            2482         961.330         961.330         243.841         243.841        -172.435        -172.435
            2483         976.910         976.910         186.793         186.793        -161.593        -161.593
            2484         984.954         984.954         134.950         134.950        -140.145        -140.145
            2485         985.350         985.350         93.7235         93.7235        -113.109        -113.109
            2486         977.082         977.082         66.0269         66.0269        -86.7609        -86.7609
            2487         966.668         966.668         48.0967         48.0967        -65.8727        -65.8727
            2488         956.422         956.422         35.4302         35.4302        -49.0278        -49.0278
            2489         947.167         947.167         26.7819         26.7819        -35.8468        -35.8468
            2490         939.402         939.402         20.4108         20.4108        -25.4524        -25.4524
            2491         933.039         933.039         15.7959         15.7959        -17.2435        -17.2435
            2492         928.050         928.050         12.2809         12.2809        -10.7554        -10.7554
            2493         924.238         924.238         9.61794         9.61794        -5.59743        -5.59743
            2494         921.471         921.471         7.53742         7.53742        -1.50906        -1.50906
            2495         919.580         919.580         5.91280         5.91280         1.74271         1.74271
            2496         918.437         918.437         4.62110         4.62110         4.31409         4.31409
            2497         917.915         917.915         3.59380         3.59380         6.34573         6.34573
            2498         917.912         917.912         2.76849         2.76849         7.93616         7.93616
            2499         918.336         918.336         2.10554         2.10554         9.17302         9.17302
            2500         919.113         919.113         1.56957         1.56957         10.1204         10.1204
            2501         920.177         920.177         1.13564         1.13564         10.8340         10.8340
            2502         921.474         921.474     781.144E-03     781.144E-03         11.3557         11.3557
            2503         922.957         922.957     488.528E-03     488.528E-03         11.7204         11.7204
            2504         924.589         924.589     241.321E-03     241.321E-03         11.9539         11.9539
            2505         926.336         926.336     25.4785E-03     25.4785E-03         12.0762         12.0762
            2506         928.172         928.172    -172.668E-03    -172.668E-03         12.1005         12.1005
            2507         930.072         930.072    -365.630E-03    -365.630E-03         12.0346         12.0346
            2508         932.017         932.017    -565.770E-03    -565.770E-03         11.8806         11.8806
            2509         933.989         933.989    -784.634E-03    -784.634E-03         11.6357         11.6357
            2510         935.971         935.971        -1.03318        -1.03318         11.2918         11.2918
            2511         937.948         937.948        -1.32087        -1.32087         10.8367         10.8367
            2512         939.903         939.903        -1.65507        -1.65507         10.2541         10.2541
            2513         941.820         941.820        -2.03955        -2.03955         9.52465         9.52465
            2514         943.678         943.678        -2.47301        -2.47301         8.62780         8.62780
            2515         945.455         945.455        -2.94678        -2.94678         7.54369         7.54369
            2516         947.121         947.121        -3.44280        -3.44280         6.25642         6.25642
            2517         948.643         948.643        -3.93105        -3.93105         4.75808         4.75808
            2518         949.979         949.979        -4.36833        -4.36833         3.05408         3.05408
            2519         951.083         951.083        -4.69762        -4.69762         1.16888         1.16888
            2520         951.903         951.903        -4.85058        -4.85058    -847.362E-03    -847.362E-03
            2521         952.387         952.387        -4.75306        -4.75306        -2.91382        -2.91382
            2522         952.493         952.493        -4.33499        -4.33499        -4.91571        -4.91571
            2523         952.195         952.195        -3.54471        -3.54471        -6.70542        -6.70542
            2524         996.566         996.566         236.506         236.506        -190.907        -190.907
            2525     1.01256E+03     1.01256E+03         163.393         163.393        -174.215        -174.215
            2526     1.01508E+03     1.01508E+03         100.710         100.710        -137.622        -137.622
            2527         998.547         998.547         63.2449         63.2449        -99.7211        -99.7211
            2528         979.325         979.325         43.2246         43.2246        -72.7937        -72.7937
            2529         962.355         962.355         29.9390         29.9390        -52.6559        -52.6559
            2530         947.973         947.973         21.7847         21.7847        -37.7659        -37.7659
            2531         936.616         936.616         16.0471         16.0471        -26.6267        -26.6267
            2532         927.720         927.720         12.1340         12.1340        -18.1134        -18.1134
            2533         921.034         921.034         9.25703         9.25703        -11.6095        -11.6095
            2534         916.118         916.118         7.15209         7.15209        -6.54400        -6.54400
            2535         912.696         912.696         5.54993         5.54993        -2.61614        -2.61614
            2536         910.477         910.477         4.32411         4.32411     466.093E-03     466.093E-03
            2537         909.249         909.249         3.36688         3.36688         2.86816         2.86816
            2538         908.823         908.823         2.61462         2.61462         4.74844         4.74844
            2539         909.049         909.049         2.01731         2.01731         6.20562         6.20562
            2540         909.800         909.800         1.54105         1.54105         7.33125         7.33125
            2541         910.975         910.975         1.15926         1.15926         8.18729         8.18729
            2542         912.486         912.486     852.393E-03     852.393E-03         8.82937         8.82937
            2543         914.266         914.266     604.378E-03     604.378E-03         9.29721         9.29721
            2544         916.254         916.254     402.652E-03     402.652E-03         9.62517         9.62517
            2545         918.404         918.404     236.101E-03     236.101E-03         9.83809         9.83809
            2546         920.674         920.674     95.4408E-03     95.4408E-03         9.95614         9.95614
            2547         923.030         923.030    -28.1378E-03    -28.1378E-03         9.99297         9.99297
            2548         925.444         925.444    -142.520E-03    -142.520E-03         9.95794         9.95794
            2549         927.890         927.890    -255.526E-03    -255.526E-03         9.85526         9.85526
            2550         930.344         930.344    -374.452E-03    -374.452E-03         9.68503         9.68503
            2551         932.786         932.786    -506.486E-03    -506.486E-03         9.44288         9.44288
            2552         935.192         935.192    -658.154E-03    -658.154E-03         9.12059         9.12059
            2553         937.542         937.542    -835.259E-03    -835.259E-03         8.70624         8.70624
            2554         939.810         939.810        -1.04203        -1.04203         8.18497         8.18497
            2555         941.971         941.971        -1.28054        -1.28054         7.53985         7.53985
            2556         943.994         943.994        -1.54934        -1.54934         6.75347         6.75347
            2557         945.847         945.847        -1.84243        -1.84243         5.80999         5.80999
            2558         947.493         947.493        -2.14757        -2.14757         4.69804         4.69804
            2559         948.891         948.891        -2.44522        -2.44522         3.41448         3.41448
            2560         949.998         949.998        -2.70744        -2.70744         1.96861         1.96861
            2561         950.773         950.773        -2.89834        -2.89834     387.113E-03     387.113E-03
            2562         951.177         951.177        -2.97559        -2.97559        -1.28176        -1.28176
            2563         951.180         951.180        -2.89448        -2.89448        -2.96472        -2.96472
            2564         950.770         950.770        -2.61436        -2.61436        -4.56318        -4.56318
            2565         949.958         949.958        -2.10701        -2.10701        -5.95563        -5.95563
            2566     1.06732E+03     1.06732E+03         218.026         218.026        -217.859        -217.859
            2567     1.07384E+03     1.07384E+03         112.820         112.820        -168.557        -168.557
            2568     1.03666E+03     1.03666E+03         55.6657         55.6657        -109.268        -109.268
            2569         998.673         998.673         34.8611         34.8611        -73.9317        -73.9317
            2570         970.062         970.062         21.9691         21.9691        -51.1399        -51.1399
            2571         947.854         947.854         15.1781         15.1781        -35.4038        -35.4038
            2572         931.578         931.578         10.6996         10.6996        -24.5676        -24.5676
            2573         919.530         919.530         7.83828         7.83828        -16.5765        -16.5765
            2574         910.909         910.909         5.85197         5.85197        -10.7575        -10.7575
            2575         904.869         904.869         4.43810         4.43810        -6.32173        -6.32173
            2576         900.878         900.878         3.40964         3.40964        -2.98016        -2.98016
            2577         898.475         898.475         2.63160         2.63160    -394.268E-03    -394.268E-03
            2578         897.333         897.333         2.04324         2.04324         1.58469         1.58469
            2579         897.179         897.179         1.58291         1.58291         3.11897         3.11897
            2580         897.809         897.809         1.22483         1.22483         4.29364         4.29364
            2581         899.055         899.055     939.779E-03     939.779E-03         5.19460         5.19460
            2582         900.785         900.785     714.086E-03     714.086E-03         5.87377         5.87377
            2583         902.892         902.892     532.996E-03     532.996E-03         6.38042         6.38042
            2584         905.290         905.290     388.028E-03     388.028E-03         6.74740         6.74740
            2585         907.909         907.909     270.940E-03     270.940E-03         7.00430         7.00430
            2586         910.693         910.693     175.810E-03     175.810E-03         7.17185         7.17185
            2587         913.595         913.595     97.2920E-03     97.2920E-03         7.26766         7.26766
            2588         916.577         916.577     30.7507E-03     30.7507E-03         7.30379         7.30379
            2589         919.606         919.606    -27.9544E-03    -27.9544E-03         7.28934         7.28934
            2590         922.655         922.655    -82.8691E-03    -82.8691E-03         7.22930         7.22930
            2591         925.698         925.698    -137.704E-03    -137.704E-03         7.12580         7.12580
            2592         928.711         928.711    -196.232E-03    -196.232E-03         6.97745         6.97745
            2593         931.671         931.671    -261.925E-03    -261.925E-03         6.78006         6.78006
            2594         934.551         934.551    -338.155E-03    -338.155E-03         6.52635         6.52635
            2595         937.324         937.324    -427.732E-03    -427.732E-03         6.20655         6.20655
            2596         939.960         939.960    -532.820E-03    -532.820E-03         5.80869         5.80869
            2597         942.422         942.422    -654.285E-03    -654.285E-03         5.31950         5.31950
            2598         944.671         944.671    -791.322E-03    -791.322E-03         4.72554         4.72554
            2599         946.663         946.663    -940.567E-03    -940.567E-03         4.01489         4.01489
            2600         948.350         948.350        -1.09558        -1.09558         3.17955         3.17955
            2601         949.683         949.683        -1.24597        -1.24597         2.21810         2.21810
            2602         950.613         950.613        -1.37724        -1.37724         1.13921         1.13921
            2603         951.097         951.097        -1.47077        -1.47077    -35.1291E-03    -35.1291E-03
            2604         951.102         951.102        -1.50498        -1.50498        -1.26642        -1.26642
            2605         950.614         950.614        -1.45748        -1.45748        -2.49800        -2.49800
            2606         949.642         949.642        -1.30827        -1.30827        -3.65527        -3.65527
            2607         948.225         948.225        -1.04405        -1.04405        -4.64782        -4.64782
            2608     1.20330E+03     1.20330E+03         147.949         147.949        -191.349        -191.349
            2609     1.10257E+03     1.10257E+03         41.7569         41.7569        -103.779        -103.779
            2610     1.02344E+03     1.02344E+03         22.2335         22.2335        -59.5319        -59.5319
            2611         975.711         975.711         12.4326         12.4326        -38.9740        -38.9740
            2612         942.896         942.896         7.76908         7.76908        -25.4100        -25.4100
            2613         920.867         920.867         5.30330         5.30330        -17.3261        -17.3261
            2614         905.657         905.657         3.64279         3.64279        -11.4875        -11.4875
            2615         895.397         895.397         2.70256         2.70256        -7.53855        -7.53855
            2616         888.652         888.652         1.97062         1.97062        -4.56855        -4.56855
            2617         884.529         884.529         1.51746         1.51746        -2.41926        -2.41926
            2618         882.368         882.368         1.14628         1.14628    -771.720E-03    -771.720E-03
            2619         881.700         881.700     895.487E-03     895.487E-03     460.889E-03     460.889E-03
            2620         882.174         882.174     687.846E-03     687.846E-03         1.41028         1.41028
            2621         883.525         883.525     537.349E-03     537.349E-03         2.12767         2.12767
            2622         885.548         885.548     413.186E-03     413.186E-03         2.67556         2.67556
            2623         888.083         888.083     318.716E-03     318.716E-03         3.08542         3.08542
            2624         891.007         891.007     241.349E-03     241.349E-03         3.39055         3.39055
            2625         894.220         894.220     180.677E-03     180.677E-03         3.61083         3.61083
            2626         897.644         897.644     131.278E-03     131.278E-03         3.76551         3.76551
            2627         901.218         901.218     91.7011E-03     91.7011E-03         3.86725         3.86725
            2628         904.891         904.891     59.3164E-03     59.3164E-03         3.92749         3.92749
            2629         908.623         908.623     32.5297E-03     32.5297E-03         3.95393         3.95393
            2630         912.383         912.383     9.75322E-03     9.75322E-03         3.95292         3.95292
            2631         916.143         916.143    -10.5340E-03    -10.5340E-03         3.92830         3.92830
            2632         919.879         919.879    -29.5863E-03    -29.5863E-03         3.88248         3.88248
            2633         923.568         923.568    -48.8446E-03    -48.8446E-03         3.81587         3.81587
            2634         927.189         927.189    -69.4850E-03    -69.4850E-03         3.72739         3.72739
            2635         930.719         930.719    -92.8519E-03    -92.8519E-03         3.61418         3.61418
            2636         934.129         934.129    -120.025E-03    -120.025E-03         3.47191         3.47191
            2637         937.389         937.389    -152.084E-03    -152.084E-03         3.29476         3.29476
            2638         940.462         940.462    -189.708E-03    -189.708E-03         3.07579         3.07579
            2639         943.303         943.303    -233.255E-03    -233.255E-03         2.80732         2.80732
            2640         945.863         945.863    -282.344E-03    -282.344E-03         2.48160         2.48160
            2641         948.084         948.084    -335.796E-03    -335.796E-03         2.09184         2.09184
            2642         949.904         949.904    -391.181E-03    -391.181E-03         1.63338         1.63338
            2643         951.257         951.257    -444.788E-03    -444.788E-03         1.10549         1.10549
            2644         952.083         952.083    -491.281E-03    -491.281E-03     513.012E-03     513.012E-03
            2645         952.326         952.326    -524.016E-03    -524.016E-03    -131.527E-03    -131.527E-03
            2646         951.948         951.948    -535.172E-03    -535.172E-03    -806.462E-03    -806.462E-03
            2647         950.936         950.936    -516.854E-03    -516.854E-03        -1.48006        -1.48006
            2648         949.311         949.311    -462.131E-03    -462.131E-03        -2.11083        -2.11083
            2649         947.137         947.137    -366.306E-03    -366.306E-03        -2.64822        -2.64822
            2650         991.539         991.539        -30.9986        -30.9986         2.10736         2.10736
            2651         985.191         985.191        -21.5218        -21.5218         8.12180         8.12180
            2652         978.364         978.364        -14.3136        -14.3136         11.0397         11.0397
            2653         972.033         972.033        -9.16953        -9.16953         12.1301         12.1301
            2654         966.454         966.454        -5.65073        -5.65073         12.2112         12.2112
            2655         961.606         961.606        -3.32571        -3.32571         11.7624         11.7624
            2656         957.368         957.368        -1.84531        -1.84531         11.0293         11.0293
            2657         953.599         953.599    -945.814E-03    -945.814E-03         10.1079         10.1079
            2658         950.164         950.164    -433.767E-03    -433.767E-03         8.99221         8.99221
            2659         946.949         946.949    -168.238E-03    -168.238E-03         7.59553         7.59553
            2660         943.862         943.862    -48.0670E-03    -48.0670E-03         5.75354         5.75354
            2661         940.840         940.840    -6.17042E-03    -6.17042E-03         3.22914         3.22914
            2662         998.435         998.435        -18.3957        -18.3957         14.9911         14.9911
            2663         987.834         987.834        -8.93843        -8.93843         17.3005         17.3005
            2664         978.777         978.777        -3.07146        -3.07146         17.1529         17.1529
            2665         971.360         971.360     283.645E-03     283.645E-03         15.9861         15.9861
            2666         965.316         965.316         1.99310         1.99310         14.4983         14.4983
            2667         960.296         960.296         2.66195         2.66195         12.9918         12.9918
            2668         955.992         955.992         2.69136         2.69136         11.5643         11.5643
            2669         952.143         952.143         2.34572         2.34572         10.2055         10.2055
            2670         948.530         948.530         1.80568         1.80568         8.83888         8.83888
            2671         944.956         944.956         1.20418         1.20418         7.33300         7.33300
            2672         941.229         941.229     650.122E-03     650.122E-03         5.49517         5.49517
            2673         937.157         937.157     244.272E-03     244.272E-03         3.06802         3.06802
            2674         999.333         999.333         4.61152         4.61152         25.8728         25.8728
            2675         986.051         986.051         9.99698         9.99698         23.1542         23.1542
            2676         976.178         976.178         11.8257         11.8257         19.8372         19.8372
            2677         968.742         968.742         11.7456         11.7456         16.7618         16.7618
            2678         962.952         962.952         10.6859         10.6859         14.1654         14.1654
            2679         958.238         958.238         9.15922         9.15922         12.0377         12.0377
            2680         954.187         954.187         7.44584         7.44584         10.2901         10.2901
            2681         950.485         950.485         5.70814         5.70814         8.80699         8.80699
            2682         946.865         946.865         4.05179         4.05179         7.45777         7.45777
            2683         943.080         943.080         2.56310         2.56310         6.09134         6.09134
            2684         938.860         938.860         1.33561         1.33561         4.52063         4.52063
            2685         933.897         933.897     489.324E-03     489.324E-03         2.51111         2.51111
            2686         993.799         993.799         34.7016         34.7016         28.3758         28.3758
            2687         980.722         980.722         31.5970         31.5970         22.0148         22.0148
            2688         971.737         971.737         27.2933         27.2933         17.1048         17.1048
            2689         965.227         965.227         22.8672         22.8672         13.4477         13.4477
            2690         960.214         960.214         18.7128         18.7128         10.7368         10.7368
            2691         956.096         956.096         14.9370         14.9370         8.71239         8.71239
            2692         952.471         952.471         11.5535         11.5535         7.17189         7.17189
            2693         949.033         949.033         8.54929         8.54929         5.95538         5.95538
            2694         945.513         945.513         5.91809         5.91809         4.92610         4.92610
            2695         941.640         941.640         3.67898         3.67898         3.95435         3.95435
            2696         937.102         937.102         1.89376         1.89376         2.90024         2.90024
            2697         931.505         931.505     686.909E-03     686.909E-03         1.60011         1.60011
            2698         985.915         985.915         61.5447         61.5447         17.9920         17.9920
            2699         975.094         975.094         48.8684         48.8684         12.3748         12.3748
            2700         967.772         967.772         38.7602         38.7602         8.72161         8.72161
            2701         962.411         962.411         30.6827         30.6827         6.27730         6.27730
            2702         958.196         958.196         24.1204         24.1204         4.59919         4.59919
            2703         954.633         954.633         18.6983         18.6983         3.42824         3.42824
            2704         951.386         951.386         14.1512         14.1512         2.59937         2.59937
            2705         948.186         948.186         10.3018         10.3018         1.99951         1.99951
            2706         944.785         944.785         7.04488         7.04488         1.54639         1.54639
            2707         940.912         940.912         4.34174         4.34174         1.17351         1.17351
            2708         936.240         936.240         2.22351         2.22351     822.313E-03     822.313E-03
            2709         930.341         930.341     805.313E-03     805.313E-03     438.047E-03     438.047E-03
            2710         982.779         982.779         70.7460         70.7460        -3.09762        -3.09762
            2711         973.277         973.277         53.9593         53.9593        -3.33963        -3.33963
            2712         966.688         966.688         41.7738         41.7738        -3.33753        -3.33753
            2713         961.770         961.770         32.5234         32.5234        -3.24753        -3.24753
            2714         957.838         957.838         25.2582         25.2582        -3.10925        -3.10925
            2715         954.466         954.466         19.3967         19.3967        -2.93989        -2.93989
            2716         951.350         951.350         14.5677         14.5677        -2.74266        -2.74266
            2717         948.243         948.243         10.5353         10.5353        -2.51264        -2.51264
            2718         944.908         944.908         7.16147         7.16147        -2.23739        -2.23739
            2719         941.084         941.084         4.38811         4.38811        -1.89375        -1.89375
            2720         936.454         936.454         2.23462         2.23462        -1.44227        -1.44227
            2721         930.610         930.610     805.299E-03     805.299E-03    -818.618E-03    -818.618E-03
            2722         987.967         987.967         54.5118         54.5118        -23.5942        -23.5942
            2723         976.919         976.919         43.3032         43.3032        -18.5122        -18.5122
            2724         969.350         969.350         34.4623         34.4623        -15.0097        -15.0097
            2725         963.785         963.785         27.3578         27.3578        -12.4833        -12.4833
            2726         959.421         959.421         21.5454         21.5454        -10.5948        -10.5948
            2727         955.762         955.762         16.7096         16.7096        -9.12669        -9.12669
            2728         952.468         952.468         12.6325         12.6325        -7.92771        -7.92771
            2729         949.271         949.271         9.17113         9.17113        -6.88102        -6.88102
            2730         945.930         945.930         6.24341         6.24341        -5.88381        -5.88381
            2731         942.194         942.194         3.82322         3.82322        -4.82952        -4.82952
            2732         937.775         937.775         1.94268         1.94268        -3.58817        -3.58817
            2733         932.324         932.324     698.188E-03     698.188E-03        -1.99543        -1.99543
            2734         996.120         996.120         21.7095         21.7095        -30.3361        -30.3361
            2735         983.184         983.184         21.4420         21.4420        -25.5653        -25.5653
            2736         974.114         974.114         19.3873         19.3873        -21.5341        -21.5341
            2737         967.449         967.449         16.7394         16.7394        -18.2999        -18.2999
            2738         962.294         962.294         13.9730         13.9730        -15.7166        -15.7166
            2739         958.089         958.089         11.2940         11.2940        -13.6206        -13.6206
            2740         954.441         954.441         8.79395         8.79395        -11.8591        -11.8591
            2741         951.057         951.057         6.51832         6.51832        -10.2934        -10.2934
            2742         947.690         947.690         4.50089         4.50089        -8.78687        -8.78687
            2743         944.108         944.108         2.78256         2.78256        -7.18926        -7.18926
            2744         940.067         940.067         1.42430         1.42430        -5.31629        -5.31629
            2745         935.297         935.297     515.815E-03     515.815E-03        -2.94129        -2.94129
            2746         998.397         998.397        -9.26745        -9.26745        -21.9210        -21.9210
            2747         986.911         986.911        -1.67485        -1.67485        -22.2858        -22.2858
            2748         977.848         977.848         2.34889         2.34889        -20.9635        -20.9635
            2749         970.779         970.779         4.18929         4.18929        -19.1353        -19.1353
            2750         965.175         965.175         4.74536         4.74536        -17.2605        -17.2605
            2751         960.592         960.592         4.55650         4.55650        -15.4807        -15.4807
            2752         956.686         956.686         3.95376         3.95376        -13.8075        -13.8075
            2753         953.187         953.187         3.14688         3.14688        -12.1846        -12.1846
            2754         949.875         949.875         2.27760         2.27760        -10.5131        -10.5131
            2755         946.556         946.556         1.45153         1.45153        -8.65283        -8.65283
            2756         943.051         943.051     757.151E-03     757.151E-03        -6.41252        -6.41252
            2757         939.184         939.184     277.426E-03     277.426E-03        -3.54744        -3.54744
            2758         991.935         991.935        -27.2579        -27.2579        -7.38034        -7.38034
            2759         985.049         985.049        -17.9672        -17.9672        -12.7727        -12.7727
            2760         978.157         978.157        -11.2497        -11.2497        -15.1222        -15.1222
            2761         972.042         972.042        -6.69086        -6.69086        -15.7639        -15.7639
            2762         966.824         966.824        -3.73314        -3.73314        -15.4927        -15.4927
            2763         962.387         962.387        -1.89513        -1.89513        -14.7359        -14.7359
            2764         958.562         958.562    -819.241E-03    -819.241E-03        -13.6940        -13.6940
            2765         955.183         955.183    -246.371E-03    -246.371E-03        -12.4354        -12.4354
            2766         952.103         952.103     9.41110E-03     9.41110E-03        -10.9384        -10.9384
            2767         949.198         949.198     82.1455E-03     82.1455E-03        -9.11195        -9.11195
            2768         946.371         946.371     68.0247E-03     68.0247E-03        -6.79499        -6.79499
            2769         943.554         943.554     31.3977E-03     31.3977E-03        -3.76632        -3.76632
            2770         883.157         883.157         257.230         257.230         47.8390         47.8390
            2771         892.002         892.002         236.181         236.181         47.5709         47.5709
            2772         900.659         900.659         215.113         215.113         46.1152         46.1152
            2773         908.908         908.908         194.423         194.423         43.9467         43.9467
            2774         916.600         916.600         174.389         174.389         41.1433         41.1433
            2775         923.610         923.610         155.260         155.260         37.7986         37.7986
            2776         929.842         929.842         137.243         137.243         34.0505         34.0505
            2777         935.251         935.251         120.483         120.483         30.0367         30.0367
            2778         939.818         939.818         105.078         105.078         25.9020         25.9020
            2779         943.571         943.571         91.0634         91.0634         21.7752         21.7752
            2780         946.546         946.546         78.4365         78.4365         17.7643         17.7643
            2781         948.812         948.812         67.1563         67.1563         13.9567         13.9567
            2782         950.437         950.437         57.1570         57.1570         10.4100         10.4100
            2783         951.498         951.498         48.3570         48.3570         7.16519         7.16519
            2784         952.069         952.069         40.6633         40.6633         4.23757         4.23757
            2785         952.219         952.219         33.9811         33.9811         1.63216         1.63216
            2786         952.013         952.013         28.2126         28.2126    -662.800E-03    -662.800E-03
            2787         951.509         951.509         23.2650         23.2650        -2.66397        -2.66397
            2788         950.756         950.756         19.0469         19.0469        -4.39710        -4.39710
            2789         949.798         949.798         15.4739         15.4739        -5.88921        -5.88921
            2790         948.674         948.674         12.4648         12.4648        -7.17136        -7.17136
            2791         947.415         947.415         9.94533         9.94533        -8.27404        -8.27404
            2792         946.048         946.048         7.84472         7.84472        -9.22916        -9.22916
            2793         944.597         944.597         6.09789         6.09789        -10.0676        -10.0676
            2794         943.081         943.081         4.64310         4.64310        -10.8208        -10.8208
            2795         941.517         941.517         3.42263         3.42263        -11.5196        -11.5196
            2796         939.921         939.921         2.38119         2.38119        -12.1959        -12.1959
            2797         938.306         938.306         1.46576         1.46576        -12.8823        -12.8823
            2798         936.688         936.688     624.106E-03     624.106E-03        -13.6134        -13.6134
            2799         935.083         935.083    -196.073E-03    -196.073E-03        -14.4266        -14.4266
            2800         933.512         933.512        -1.04902        -1.04902        -15.3630        -15.3630
            2801         932.003         932.003        -1.99292        -1.99292        -16.4683        -16.4683
            2802         930.594         930.594        -3.09293        -3.09293        -17.7937        -17.7937
            2803         929.342         929.342        -4.42541        -4.42541        -19.3958        -19.3958
            2804         928.333         928.333        -6.08325        -6.08325        -21.3356        -21.3356
            2805         927.697         927.697        -8.18439        -8.18439        -23.6744        -23.6744
            2806         927.629         927.629        -10.8801        -10.8801        -26.4636        -26.4636
            2807         928.427         928.427        -14.3685        -14.3685        -29.7230        -29.7230
            2808         930.542         930.542        -18.8955        -18.8955        -33.3953        -33.3953
            2809         934.638         934.638        -24.7478        -24.7478        -37.2527        -37.2527
            2810         941.609         941.609        -32.1174        -32.1174        -40.7207        -40.7207
            2811         952.481         952.481        -40.8469        -40.8469        -42.6765        -42.6765
            2812         881.725         881.725         257.619         257.619         36.7545         36.7545
            2813         890.282         890.282         237.356         237.356         36.5371         36.5371
            2814         898.673         898.673         217.093         217.093         35.4356         35.4356
            2815         906.723         906.723         197.165         197.165         33.8241         33.8241
            2816         914.297         914.297         177.806         177.806         31.7424         31.7424
            2817         921.283         921.283         159.228         159.228         29.2656         29.2656
            2818         927.597         927.597         141.611         141.611         26.4760         26.4760
            2819         933.176         933.176         125.097         125.097         23.4761         23.4761
            2820         937.997         937.997         109.782         109.782         20.3636         20.3636
            2821         942.055         942.055         95.7232         95.7232         17.2333         17.2333
            2822         945.374         945.374         82.9386         82.9386         14.1676         14.1676
            2823         947.992         947.992         71.4142         71.4142         11.2317         11.2317
            2824         949.962         949.962         61.1107         61.1107         8.47746         8.47746
            2825         951.342         951.342         51.9691         51.9691         5.93622         5.93622
            2826         952.195         952.195         43.9186         43.9186         3.62899         3.62899
            2827         952.581         952.581         36.8787         36.8787         1.56018         1.56018
            2828         952.561         952.561         30.7664         30.7664    -272.137E-03    -272.137E-03
            2829         952.190         952.190         25.4960         25.4960        -1.88064        -1.88064
            2830         951.518         951.518         20.9843         20.9843        -3.28091        -3.28091
            2831         950.589         950.589         17.1494         17.1494        -4.49442        -4.49442
            2832         949.444         949.444         13.9138         13.9138        -5.54336        -5.54336
            2833         948.116         948.116         11.2035         11.2035        -6.45268        -6.45268
            2834         946.633         946.633         8.94923         8.94923        -7.24716        -7.24716
            2835         945.020         945.020         7.08575         7.08575        -7.95291        -7.95291
            2836         943.294         943.294         5.55240         5.55240        -8.59596        -8.59596
            2837         941.471         941.471         4.29214         4.29214        -9.20359        -9.20359
            2838         939.561         939.561         3.25180         3.25180        -9.80402        -9.80402
            2839         937.572         937.572         2.38103         2.38103        -10.4278        -10.4278
            2840         935.507         935.507         1.63203         1.63203        -11.1082        -11.1082
            2841         933.369         933.369     958.330E-03     958.330E-03        -11.8834        -11.8834
            2842         931.156         931.156     313.665E-03     313.665E-03        -12.7971        -12.7971
            2843         928.869         928.869    -349.923E-03    -349.923E-03        -13.9018        -13.9018
            2844         926.510         926.510        -1.08491        -1.08491        -15.2607        -15.2607
            2845         924.086         924.086        -1.95226        -1.95226        -16.9519        -16.9519
            2846         921.619         921.619        -3.02831        -3.02831        -19.0720        -19.0720
            2847         919.153         919.153        -4.41391        -4.41391        -21.7416        -21.7416
            2848         916.780         916.780        -6.25181        -6.25181        -25.1098        -25.1098
            2849         914.676         914.676        -8.74864        -8.74864        -29.3567        -29.3567
            2850         913.168         913.168        -12.2185        -12.2185        -34.6857        -34.6857
            2851         912.857         912.857        -17.1314        -17.1314        -41.2883        -41.2883
            2852         914.853         914.853        -24.2028        -24.2028        -49.2001        -49.2001
            2853         921.057         921.057        -34.2954        -34.2954        -57.9696        -57.9696
            2854         880.741         880.741         257.907         257.907         25.9975         25.9975
            2855         889.085         889.085         238.199         238.199         25.8115         25.8115
            2856         897.289         897.289         218.500         218.500         25.0209         25.0209
            2857         905.188         905.188         199.110         199.110         23.8830         23.8830
            2858         912.666         912.666         180.233         180.233         22.4331         22.4331
            2859         919.620         919.620         162.055         162.055         20.7104         20.7104
            2860         925.967         925.967         144.740         144.740         18.7764         18.7764
            2861         931.649         931.649         128.419         128.419         16.6918         16.6918
            2862         936.624         936.624         113.193         113.193         14.5252         14.5252
            2863         940.883         940.883         99.1254         99.1254         12.3387         12.3387
            2864         944.429         944.429         86.2498         86.2498         10.1884         10.1884
            2865         947.290         947.290         74.5684         74.5684         8.12196         8.12196
            2866         949.500         949.500         64.0593         64.0593         6.17401         6.17401
            2867         951.109         951.109         54.6812         54.6812         4.37128         4.37128
            2868         952.166         952.166         46.3770         46.3770         2.72719         2.72719
            2869         952.728         952.728         39.0804         39.0804         1.24955         1.24955
            2870         952.849         952.849         32.7169         32.7169    -64.0783E-03    -64.0783E-03
            2871         952.582         952.582         27.2097         27.2097        -1.21924        -1.21924
            2872         951.975         951.975         22.4801         22.4801        -2.22796        -2.22796
            2873         951.075         951.075         18.4509         18.4509        -3.10346        -3.10346
            2874         949.919         949.919         15.0465         15.0465        -3.86250        -3.86250
            2875         948.543         948.543         12.1949         12.1949        -4.52200        -4.52200
            2876         946.976         946.976         9.82768         9.82768        -5.10070        -5.10070
            2877         945.240         945.240         7.88087         7.88087        -5.61727        -5.61727
            2878         943.353         943.353         6.29466         6.29466        -6.09165        -6.09165
            2879         941.327         941.327         5.01390         5.01390        -6.54424        -6.54424
            2880         939.168         939.168         3.98763         3.98763        -6.99715        -6.99715
            2881         936.875         936.875         3.16926         3.16926        -7.47428        -7.47428
            2882         934.441         934.441         2.51605         2.51605        -8.00279        -8.00279
            2883         931.853         931.853         1.98884         1.98884        -8.61406        -8.61406
            2884         929.088         929.088         1.55140         1.55140        -9.34585        -9.34585
            2885         926.116         926.116         1.16951         1.16951        -10.2445        -10.2445
            2886         922.896         922.896     809.529E-03     809.529E-03        -11.3689        -11.3689
            2887         919.376         919.376     435.786E-03     435.786E-03        -12.7949        -12.7949
            2888         915.493         915.493     7.04327E-03     7.04327E-03        -14.6233        -14.6233
            2889         911.171         911.171    -531.143E-03    -531.143E-03        -16.9897        -16.9897
            2890         906.328         906.328        -1.25666        -1.25666        -20.0818        -20.0818
            2891         900.882         900.882        -2.29436        -2.29436        -24.1621        -24.1621
            2892         894.785         894.785        -3.85023        -3.85023        -29.6070        -29.6070
            2893         888.086         888.086        -6.29291        -6.29291        -36.9579        -36.9579
            2894         881.120         881.120        -10.3051        -10.3051        -47.0090        -47.0090
            2895         875.046         875.046        -17.2078        -17.2078        -60.7953        -60.7953
            2896         880.120         880.120         258.100         258.100         15.4619         15.4619
            2897         888.333         888.333         238.744         238.744         15.3011         15.3011
            2898         896.416         896.416         219.401         219.401         14.7864         14.7864
            2899         904.217         904.217         200.352         200.352         14.0797         14.0797
            2900         911.630         911.630         181.781         181.781         13.1945         13.1945
            2901         918.557         918.557         163.858         163.858         12.1612         12.1612
            2902         924.920         924.920         146.737         146.737         11.0087         11.0087
            2903         930.655         930.655         130.546         130.546         9.77674         9.77674
            2904         935.722         935.722         115.383         115.383         8.50079         8.50079
            2905         940.099         940.099         101.317         101.317         7.21797         7.21797
            2906         943.785         943.785         88.3902         88.3902         5.96005         5.96005
            2907         946.794         946.794         76.6140         76.6140         4.75333         4.75333
            2908         949.155         949.155         65.9779         65.9779         3.61935         3.61935
            2909         950.906         950.906         56.4508         56.4508         2.57133         2.57133
            2910         952.095         952.095         47.9860         47.9860         1.61918         1.61918
            2911         952.770         952.770         40.5244         40.5244     765.084E-03     765.084E-03
            2912         952.983         952.983         33.9995         33.9995     9.43958E-03     9.43958E-03
            2913         952.784         952.784         28.3388         28.3388    -652.961E-03    -652.961E-03
            2914         952.222         952.222         23.4682         23.4682        -1.22790        -1.22790
            2915         951.340         951.340         19.3126         19.3126        -1.72457        -1.72457
            2916         950.179         950.179         15.7987         15.7987        -2.15204        -2.15204
            2917         948.773         948.773         12.8557         12.8557        -2.52120        -2.52120
            2918         947.151         947.151         10.4162         10.4162        -2.84259        -2.84259
            2919         945.336         945.336         8.41688         8.41688        -3.12778        -3.12778
            2920         943.343         943.343         6.79911         6.79911        -3.38818        -3.38818
            2921         941.183         941.183         5.50892         5.50892        -3.63607        -3.63607
            2922         938.857         938.857         4.49745         4.49745        -3.88423        -3.88423
            2923         936.359         936.359         3.72092         3.72092        -4.14686        -4.14686
            2924         933.675         933.675         3.14080         3.14080        -4.43977        -4.43977
            2925         930.777         930.777         2.72384         2.72384        -4.78159        -4.78159
            2926         927.628         927.628         2.44219         2.44219        -5.19472        -5.19472
            2927         924.173         924.173         2.27347         2.27347        -5.70718        -5.70718
            2928         920.337         920.337         2.20064         2.20064        -6.35491        -6.35491
            2929         916.018         916.018         2.21212         2.21212        -7.18563        -7.18563
            2930         911.080         911.080         2.30082         2.30082        -8.26401        -8.26401
            2931         905.339         905.339         2.46389         2.46389        -9.68089        -9.68089
            2932         898.543         898.543         2.69872         2.69872        -11.5664        -11.5664
            2933         890.347         890.347         2.99996         2.99996        -14.1149        -14.1149
            2934         880.264         880.264         3.34369         3.34369        -17.6235        -17.6235
            2935         867.600         867.600         3.66551         3.66551        -22.5729        -22.5729
            2936         851.339         851.339         3.79267         3.79267        -29.7764        -29.7764
            2937         829.988         829.988         3.24395         3.24395        -40.7649        -40.7649
            2938         879.820         879.820         258.195         258.195         5.06753         5.06753
            2939         887.970         887.970         239.005         239.005         4.93458         4.93458
            2940         895.997         895.997         219.830         219.830         4.69400         4.69400
            2941         903.753         903.753         200.941         200.941         4.39639         4.39639
            2942         911.135         911.135         182.511         182.511         4.05415         4.05415
            2943         918.051         918.051         164.707         164.707         3.67357         3.67357
            2944         924.421         924.421         147.675         147.675         3.27007         3.27007
            2945         930.182         930.182         131.540         131.540         2.85326         2.85326
            2946         935.290         935.290         116.404         116.404         2.43723         2.43723
            2947         939.722         939.722         102.336         102.336         2.03169         2.03169
            2948         943.471         943.471         89.3822         89.3822         1.64614         1.64614
            2949         946.549         946.549         77.5593         77.5593         1.28794         1.28794
            2950         948.978         948.978         66.8616         66.8616     961.190E-03     961.190E-03
            2951         950.796         950.796         57.2633         57.2633     669.786E-03     669.786E-03
            2952         952.043         952.043         48.7219         48.7219     413.549E-03     413.549E-03
            2953         952.769         952.769         41.1827         41.1827     193.159E-03     193.159E-03
            2954         953.024         953.024         34.5819         34.5819     5.84716E-03     5.84716E-03
            2955         952.855         952.855         28.8497         28.8497    -149.904E-03    -149.904E-03
            2956         952.313         952.313         23.9135         23.9135    -277.961E-03    -277.961E-03
            2957         951.439         951.439         19.6997         19.6997    -380.958E-03    -380.958E-03
            2958         950.276         950.276         16.1356         16.1356    -462.878E-03    -462.878E-03
            2959         948.856         948.856         13.1510         13.1510    -526.667E-03    -526.667E-03
            2960         947.210         947.210         10.6787         10.6787    -575.932E-03    -575.932E-03
            2961         945.360         945.360         8.65574         8.65574    -613.481E-03    -613.481E-03
            2962         943.321         943.321         7.02383         7.02383    -642.397E-03    -642.397E-03
            2963         941.102         941.102         5.72946         5.72946    -665.192E-03    -665.192E-03
            2964         938.704         938.704         4.72456         4.72456    -684.479E-03    -684.479E-03
            2965         936.119         936.119         3.96644         3.96644    -702.508E-03    -702.508E-03
            2966         933.327         933.327         3.41837         3.41837    -721.600E-03    -721.600E-03
            2967         930.299         930.299         3.04953         3.04953    -743.889E-03    -743.889E-03
            2968         926.987         926.987         2.83578         2.83578    -771.660E-03    -771.660E-03
            2969         923.328         923.328         2.75974         2.75974    -807.179E-03    -807.179E-03
            2970         919.230         919.230         2.81205         2.81205    -853.063E-03    -853.063E-03
            2971         914.573         914.573         2.99157         2.99157    -912.082E-03    -912.082E-03
            2972         909.186         909.186         3.30787         3.30787    -987.794E-03    -987.794E-03
            2973         902.837         902.837         3.78130         3.78130        -1.08406        -1.08406
            2974         895.198         895.198         4.44860         4.44860        -1.20650        -1.20650
            2975         885.797         885.797         5.36189         5.36189        -1.36085        -1.36085
            2976         873.937         873.937         6.60168         6.60168        -1.55629        -1.55629
            2977         858.544         858.544         8.27353         8.27353        -1.79929        -1.79929
            2978         837.878         837.878         10.5415         10.5415        -2.09553        -2.09553
            2979         808.817         808.817         13.6395         13.6395        -2.38273        -2.38273
            2980         879.820         879.820         258.195         258.195        -5.26562        -5.26562
            2981         887.974         887.974         238.997         238.997        -5.34602        -5.34602
            2982         896.006         896.006         219.814         219.814        -5.30163        -5.30163
            2983         903.768         903.768         200.914         200.914        -5.17604        -5.17604
            2984         911.156         911.156         182.472         182.472        -4.97512        -4.97512
            2985         918.077         918.077         164.653         164.653        -4.69971        -4.69971
            2986         924.451         924.451         147.607         147.607        -4.36172        -4.36172
            2987         930.215         930.215         131.459         131.459        -3.96914        -3.96914
            2988         935.324         935.324         116.310         116.310        -3.53675        -3.53675
            2989         939.755         939.755         102.233         102.233        -3.07669        -3.07669
            2990         943.500         943.500         89.2717         89.2717        -2.60253        -2.60253
            2991         946.573         946.573         77.4441         77.4441        -2.12666        -2.12666
            2992         948.996         948.996         66.7447         66.7447        -1.65885        -1.65885
            2993         950.805         950.805         57.1471         57.1471        -1.20873        -1.20873
            2994         952.045         952.045         48.6087         48.6087    -781.549E-03    -781.549E-03
            2995         952.763         952.763         41.0744         41.0744    -382.939E-03    -382.939E-03
            2996         953.010         953.010         34.4797         34.4797    -14.2347E-03    -14.2347E-03
            2997         952.835         952.835         28.7545         28.7545     322.734E-03     322.734E-03
            2998         952.287         952.287         23.8256         23.8256     629.476E-03     629.476E-03
            2999         951.411         951.411         19.6191         19.6191     907.094E-03     907.094E-03
            3000         950.247         950.247         16.0619         16.0619         1.15898         1.15898
            3001         948.829         948.829         13.0832         13.0832         1.38831         1.38831
            3002         947.187         947.187         10.6157         10.6157         1.59978         1.59978
            3003         945.345         945.345         8.59588         8.59588         1.79817         1.79817
            3004         943.318         943.318         6.96504         6.96504         1.98945         1.98945
            3005         941.116         941.116         5.66925         5.66925         2.18008         2.18008
            3006         938.740         938.740         4.65971         4.65971         2.37787         2.37787
            3007         936.184         936.184         3.89302         3.89302         2.59184         2.59184
            3008         933.431         933.431         3.33127         3.33127         2.83311         2.83311
            3009         930.451         930.451         2.94228         2.94228         3.11532         3.11532
            3010         927.204         927.204         2.69971         2.69971         3.45593         3.45593
            3011         923.629         923.629         2.58345         2.58345         3.87749         3.87749
            3012         919.646         919.646         2.57972         2.57972         4.41021         4.41021
            3013         915.141         915.141         2.68155         2.68155         5.09482         5.09482
            3014         909.966         909.966         2.88873         2.88873         5.98871         5.98871
            3015         903.914         903.914         3.20804         3.20804         7.17288         7.17288
            3016         896.704         896.704         3.65198         3.65198         8.76811         8.76811
            3017         887.939         887.939         4.23666         4.23666         10.9549         10.9549
            3018         877.057         877.057         4.97321         4.97321         14.0223         14.0223
            3019         863.238         863.238         5.84899         5.84899         18.4411         18.4411
            3020         845.259         845.259         6.77090         6.77090         25.0512         25.0512
            3021         821.368         821.368         7.35325         7.35325         35.4575         35.4575
            3022         880.119         880.119         258.104         258.104        -15.6309        -15.6309
            3023         888.345         888.345         238.729         238.729        -15.6491        -15.6491
            3024         896.442         896.442         219.364         219.364        -15.3002        -15.3002
            3025         904.258         904.258         200.286         200.286        -14.7382        -14.7382
            3026         911.686         911.686         181.681         181.681        -13.9711        -13.9711
            3027         918.627         918.627         163.723         163.723        -13.0246        -13.0246
            3028         925.001         925.001         146.564         146.564        -11.9246        -11.9246
            3029         930.743         930.743         130.337         130.337        -10.7098        -10.7098
            3030         935.812         935.812         115.142         115.142        -9.41663        -9.41663
            3031         940.185         940.185         101.050         101.050        -8.08459        -8.08459
            3032         943.862         943.862         88.1040         88.1040        -6.74919        -6.74919
            3033         946.857         946.857         76.3160         76.3160        -5.44125        -5.44125
            3034         949.201         949.201         65.6753         65.6753        -4.18727        -4.18727
            3035         950.932         950.932         56.1503         56.1503        -3.00534        -3.00534
            3036         952.100         952.100         47.6934         47.6934        -1.91002        -1.91002
            3037         952.753         952.753         40.2444         40.2444    -907.498E-03    -907.498E-03
            3038         952.947         952.947         33.7355         33.7355    -1.62121E-03    -1.62121E-03
            3039         952.731         952.731         28.0929         28.0929     810.207E-03     810.207E-03
            3040         952.156         952.156         23.2414         23.2414         1.53182         1.53182
            3041         951.266         951.266         19.1047         19.1047         2.17127         2.17127
            3042         950.103         950.103         15.6086         15.6086         2.73712         2.73712
            3043         948.701         948.701         12.6810         12.6810         3.24049         3.24049
            3044         947.091         947.091         10.2540         10.2540         3.69278         3.69278
            3045         945.296         945.296         8.26295         8.26295         4.10706         4.10706
            3046         943.334         943.334         6.64831         6.64831         4.49693         4.49693
            3047         941.216         941.216         5.35484         5.35484         4.87766         4.87766
            3048         938.947         938.947         4.33213         4.33213         5.26588         5.26588
            3049         936.524         936.524         3.53437         3.53437         5.68073         5.68073
            3050         933.935         933.935         2.92041         2.92041         6.14437         6.14437
            3051         931.163         931.163         2.45339         2.45339         6.68358         6.68358
            3052         928.176         928.176         2.10050         2.10050         7.33124         7.33124
            3053         924.934         924.934         1.83237         1.83237         8.12914         8.12914
            3054         921.381         921.381         1.62209         1.62209         9.13125         9.13125
            3055         917.443         917.443         1.44360         1.44360         10.4095         10.4095
            3056         913.026         913.026         1.26857         1.26857         12.0607         12.0607
            3057         908.011         908.011         1.06161         1.06161         14.2203         14.2203
            3058         902.251         902.251     769.882E-03     769.882E-03         17.0785         17.0785
            3059         895.570         895.570     306.705E-03     306.705E-03         20.9139         20.9139
            3060         887.774         887.774    -486.472E-03    -486.472E-03         26.1361         26.1361
            3061         878.694         878.694        -1.90826        -1.90826         33.3738         33.3738
            3062         868.336         868.336        -4.57079        -4.57079         43.5914         43.5914
            3063         857.338         857.338        -9.73092        -9.73092         58.1880         58.1880
            3064         880.742         880.742         257.914         257.914        -26.1278        -26.1278
            3065         889.102         889.102         238.185         238.185        -26.0764        -26.0764
            3066         897.325         897.325         218.456         218.456        -25.4103        -25.4103
            3067         905.243         905.243         199.029         199.029        -24.3805        -24.3805
            3068         912.741         912.741         180.108         180.108        -23.0175        -23.0175
            3069         919.713         919.713         161.882         161.882        -21.3568        -21.3568
            3070         926.074         926.074         144.518         144.518        -19.4579        -19.4579
            3071         931.764         931.764         128.150         128.150        -17.3811        -17.3811
            3072         936.741         936.741         112.884         112.884        -15.1962        -15.1962
            3073         940.994         940.994         98.7837         98.7837        -12.9676        -12.9676
            3074         944.527         944.527         85.8843         85.8843        -10.7550        -10.7550
            3075         947.369         947.369         74.1887         74.1887        -8.60953        -8.60953
            3076         949.556         949.556         63.6748         63.6748        -6.56995        -6.56995
            3077         951.137         951.137         54.3004         54.3004        -4.66680        -4.66680
            3078         952.167         952.167         46.0072         46.0072        -2.91682        -2.91682
            3079         952.701         952.701         38.7273         38.7273        -1.33083        -1.33083
            3080         952.797         952.797         32.3847         32.3847     91.3238E-03     91.3238E-03
            3081         952.508         952.508         26.9010         26.9010         1.35332         1.35332
            3082         951.885         951.885         22.1960         22.1960         2.46598         2.46598
            3083         950.973         950.973         18.1911         18.1911         3.44175         3.44175
            3084         949.815         949.815         14.8094         14.8094         4.29714         4.29714
            3085         948.444         948.444         11.9778         11.9778         5.04921         5.04921
            3086         946.891         946.891         9.62675         9.62675         5.71725         5.71725
            3087         945.181         945.181         7.69111         7.69111         6.32086         6.32086
            3088         943.332         943.332         6.10981         6.10981         6.88128         6.88128
            3089         941.359         941.359         4.82628         4.82628         7.42061         7.42061
            3090         939.269         939.269         3.78778         3.78778         7.96309         7.96309
            3091         937.066         937.066         2.94548         2.94548         8.53526         8.53526
            3092         934.749         934.749         2.25364         2.25364         9.16749         9.16749
            3093         932.310         932.310         1.66918         1.66918         9.89505         9.89505
            3094         929.738         929.738         1.15049         1.15049         10.7604         10.7604
            3095         927.017         927.017     655.977E-03     655.977E-03         11.8155         11.8155
            3096         924.127         924.127     141.758E-03     141.758E-03         13.1258         13.1258
            3097         921.045         921.045    -442.240E-03    -442.240E-03         14.7745         14.7745
            3098         917.751         917.751        -1.15774        -1.15774         16.8701         16.8701
            3099         914.236         914.236        -2.08886        -2.08886         19.5543         19.5543
            3100         910.515         910.515        -3.35645        -3.35645         23.0159         23.0159
            3101         906.663         906.663        -5.14911        -5.14911         27.5037         27.5037
            3102         902.872         902.872        -7.76395        -7.76395         33.3453         33.3453
            3103         899.583         899.583        -11.6993        -11.6993         40.9434         40.9434
            3104         897.744         897.744        -17.7724        -17.7724         50.7169         50.7169
            3105         899.224         899.224        -27.2284        -27.2284         62.8432         62.8432
            3106         881.724         881.724         257.627         257.627        -36.8452        -36.8452
            3107         890.298         890.298         237.343         237.343        -36.7184        -36.7184
            3108         898.707         898.707         217.051         217.051        -35.6991        -35.6991
            3109         906.776         906.776         197.087         197.087        -34.1588        -34.1588
            3110         914.369         914.369         177.686         177.686        -32.1330        -32.1330
            3111         921.371         921.371         159.062         159.062        -29.6944        -29.6944
            3112         927.697         927.697         141.399         141.399        -26.9237        -26.9237
            3113         933.283         933.283         124.842         124.842        -23.9240        -23.9240
            3114         938.104         938.104         109.490         109.490        -20.7940        -20.7940
            3115         942.154         942.154         95.4018         95.4018        -17.6308        -17.6308
            3116         945.460         945.460         82.5966         82.5966        -14.5196        -14.5196
            3117         948.057         948.057         71.0610         71.0610        -11.5285        -11.5285
            3118         950.004         950.004         60.7550         60.7550        -8.71212        -8.71212
            3119         951.357         951.357         51.6186         51.6186        -6.10437        -6.10437
            3120         952.183         952.183         43.5799         43.5799        -3.72852        -3.72852
            3121         952.543         952.543         36.5568         36.5568        -1.59068        -1.59068
            3122         952.499         952.499         30.4649         30.4649     309.617E-03     309.617E-03
            3123         952.107         952.107         25.2170         25.2170         1.98412         1.98412
            3124         951.420         951.420         20.7287         20.7287         3.44771         3.44771
            3125         950.482         950.482         16.9167         16.9167         4.72152         4.72152
            3126         949.334         949.334         13.7026         13.7026         5.82763         5.82763
            3127         948.011         948.011         11.0112         11.0112         6.79111         6.79111
            3128         946.542         946.542         8.77246         8.77246         7.63701         7.63701
            3129         944.951         944.951         6.92012         6.92012         8.39189         8.39189
            3130         943.259         943.259         5.39256         5.39256         9.08235         9.08235
            3131         941.482         941.482         4.13158         4.13158         9.73636         9.73636
            3132         939.633         939.633         3.08264         3.08264         10.3829         10.3829
            3133         937.721         937.721         2.19368         2.19368         11.0534         11.0534
            3134         935.755         935.755         1.41466         1.41466         11.7821         11.7821
            3135         933.743         933.743     696.215E-03     696.215E-03         12.6077         12.6077
            3136         931.691         931.691    -11.7241E-03    -11.7241E-03         13.5749         13.5749
            3137         929.610         929.610    -762.157E-03    -762.157E-03         14.7361         14.7361
            3138         927.516         927.516        -1.61427        -1.61427         16.1537         16.1537
            3139         925.438         925.438        -2.63778        -2.63778         17.9030         17.9030
            3140         923.425         923.425        -3.92068        -3.92068         20.0739         20.0739
            3141         921.563         921.563        -5.57836        -5.57836         22.7737         22.7737
            3142         919.999         919.999        -7.77189        -7.77189         26.1247         26.1247
            3143         918.984         918.984        -10.7259        -10.7259         30.2571         30.2571
            3144         918.947         918.947        -14.7675        -14.7675         35.2788         35.2788
            3145         920.596         920.596        -20.3402        -20.3402         41.2036         41.2036
            3146         925.072         925.072        -28.0135        -28.0135         47.7655         47.7655
            3147         934.067         934.067        -38.2803        -38.2803         54.1365         54.1365
            3148         883.154         883.154         257.235         257.235        -47.8878        -47.8878
            3149         892.009         892.009         236.171         236.171        -47.6635        -47.6635
            3150         900.678         900.678         215.084         215.084        -46.2475        -46.2475
            3151         908.938         908.938         194.371         194.371        -44.1134        -44.1134
            3152         916.643         916.643         174.310         174.310        -41.3366        -41.3366
            3153         923.662         923.662         155.152         155.152        -38.0089        -38.0089
            3154         929.901         929.901         137.106         137.106        -34.2679        -34.2679
            3155         935.313         935.313         120.321         120.321        -30.2514        -30.2514
            3156         939.879         939.879         104.893         104.893        -26.1053        -26.1053
            3157         943.625         943.625         90.8617         90.8617        -21.9598        -21.9598
            3158         946.590         946.590         78.2236         78.2236        -17.9244        -17.9244
            3159         948.844         948.844         66.9379         66.9379        -14.0882        -14.0882
            3160         950.453         950.453         56.9384         56.9384        -10.5103        -10.5103
            3161         951.497         951.497         48.1431         48.1431        -7.23288        -7.23288
            3162         952.050         952.050         40.4577         40.4577        -4.27225        -4.27225
            3163         952.185         952.185         33.7868         33.7868        -1.63435        -1.63435
            3164         951.964         951.964         28.0315         28.0315     692.152E-03     692.152E-03
            3165         951.447         951.447         23.0983         23.0983         2.72343         2.72343
            3166         950.685         950.685         18.8950         18.8950         4.48507         4.48507
            3167         949.721         949.721         15.3363         15.3363         6.00394         6.00394
            3168         948.596         948.596         12.3407         12.3407         7.31110         7.31110
            3169         947.340         947.340         9.83301         9.83301         8.43712         8.43712
            3170         945.981         945.981         7.74218         7.74218         9.41400         9.41400
            3171         944.544         944.544         6.00258         6.00258         10.2728         10.2728
            3172         943.048         943.048         4.55189         4.55189         11.0450         11.0450
            3173         941.511         941.511         3.33183         3.33183         11.7617         11.7617
            3174         939.949         939.949         2.28635         2.28635         12.4548         12.4548
            3175         938.379         938.379         1.36159         1.36159         13.1569         13.1569
            3176         936.817         936.817     504.180E-03     504.180E-03         13.9027         13.9027
            3177         935.284         935.284    -339.571E-03    -339.571E-03         14.7289         14.7289
            3178         933.802         933.802        -1.22566        -1.22566         15.6760         15.6760
            3179         932.405         932.405        -2.21450        -2.21450         16.7880         16.7880
            3180         931.138         931.138        -3.37385        -3.37385         18.1136         18.1136
            3181         930.068         930.068        -4.78329        -4.78329         19.7047         19.7047
            3182         929.291         929.291        -6.53875        -6.53875         21.6148         21.6148
            3183         928.950         928.950        -8.76112        -8.76112         23.8920         23.8920
            3184         929.258         929.258        -11.6012        -11.6012         26.5666         26.5666
            3185         930.527         930.527        -15.2508        -15.2508         29.6244         29.6244
            3186         933.211         933.211        -19.9304        -19.9304         32.9551         32.9551
            3187         937.940         937.940        -25.8663        -25.8663         36.2618         36.2618
            3188         945.502         945.502        -33.1321        -33.1321         38.9143         38.9143
            3189         956.718         956.718        -41.4121        -41.4121         39.7768         39.7768
            3190         972.648         972.648        -34.3480        -34.3480        -15.3490        -15.3490
            3191         964.233         964.233        -31.4054        -31.4054        -19.6335        -19.6335
            3192         956.851         956.851        -27.4121        -27.4121        -22.0538        -22.0538
            3193         950.815         950.815        -23.1579        -23.1579        -23.0375        -23.0375
            3194         946.143         946.143        -19.1248        -19.1248        -23.0803        -23.0803
            3195         942.692         942.692        -15.5311        -15.5311        -22.5713        -22.5713
            3196         940.263         940.263        -12.4427        -12.4427        -21.7880        -21.7880
            3197         938.654         938.654        -9.84093        -9.84093        -20.9019        -20.9019
            3198         937.691         937.691        -7.67355        -7.67355        -20.0129        -20.0129
            3199         937.229         937.229        -5.87394        -5.87394        -19.1712        -19.1712
            3200         937.156         937.156        -4.37399        -4.37399        -18.3967        -18.3967
            3201         937.382         937.382        -3.10729        -3.10729        -17.6898        -17.6898
            3202         937.839         937.839        -2.01117        -2.01117        -17.0397        -17.0397
            3203         938.474         938.474        -1.02645        -1.02645        -16.4289        -16.4289
            3204         939.245         939.245    -96.7290E-03    -96.7290E-03        -15.8352        -15.8352
            3205         940.122         940.122     832.218E-03     832.218E-03        -15.2341        -15.2341
            3206         941.078         941.078         1.81397         1.81397        -14.5987        -14.5987
            3207         942.091         942.091         2.90154         2.90154        -13.9004        -13.9004
            3208         943.144         943.144         4.14961         4.14961        -13.1084        -13.1084
            3209         944.219         944.219         5.61384         5.61384        -12.1899        -12.1899
            3210         945.300         945.300         7.35405         7.35405        -11.1097        -11.1097
            3211         946.368         946.368         9.43235         9.43235        -9.83006        -9.83006
            3212         947.404         947.404         11.9180         11.9180        -8.31070        -8.31070
            3213         948.383         948.383         14.8838         14.8838        -6.50973        -6.50973
            3214         949.277         949.277         18.4131         18.4131        -4.38264        -4.38264
            3215         950.048         950.048         22.5934         22.5934        -1.88632        -1.88632
            3216         950.653         950.653         27.5276         27.5276         1.02370         1.02370
            3217         951.036         951.036         33.3214         33.3214         4.38378         4.38378
            3218         951.132         951.132         40.1004         40.1004         8.22864         8.22864
            3219         950.855         950.855         47.9898         47.9898         12.5719         12.5719
            3220         950.115         950.115         57.1336         57.1336         17.4197         17.4197
            3221         948.795         948.795         67.6684         67.6684         22.7368         22.7368
            3222         946.787         946.787         79.7343         79.7343         28.4710         28.4710
            3223         943.950         943.950         93.4492         93.4492         34.5067         34.5067
            3224         940.193         940.193         108.893         108.893         40.6997         40.6997
            3225         935.397         935.397         126.100         126.100         46.8425         46.8425
            3226         929.544         929.544         145.004         145.004         52.6926         52.6926
            3227         922.620         922.620         165.468         165.468         57.9972         57.9972
            3228         914.729         914.729         187.218         187.218         62.4836         62.4836
            3229         906.025         906.025         209.908         209.908         65.9672         65.9672
            3230         896.712         896.712         233.106         233.106         68.2758         68.2758
            3231         887.123         887.123         256.241         256.241         68.7259         68.7259
            3232         972.863         972.863        -28.9283        -28.9283        -7.63449        -7.63449
            3233         966.303         966.303        -27.7499        -27.7499        -12.4447        -12.4447
            3234         960.158         960.158        -25.2795        -25.2795        -15.7967        -15.7967
            3235         954.735         954.735        -22.1594        -22.1594        -17.9138        -17.9138
            3236         950.207         950.207        -18.8823        -18.8823        -19.0742        -19.0742
            3237         946.589         946.589        -15.7471        -15.7471        -19.5687        -19.5687
            3238         943.812         943.812        -12.9068        -12.9068        -19.6315        -19.6315
            3239         941.763         941.763        -10.4194        -10.4194        -19.4375        -19.4375
            3240         940.323         940.323        -8.28563        -8.28563        -19.1028        -19.1028
            3241         939.383         939.383        -6.47721        -6.47721        -18.7006        -18.7006
            3242         938.846         938.846        -4.95013        -4.95013        -18.2722        -18.2722
            3243         938.633         938.633        -3.65414        -3.65414        -17.8375        -17.8375
            3244         938.678         938.678        -2.53666        -2.53666        -17.4012        -17.4012
            3245         938.930         938.930        -1.54509        -1.54509        -16.9584        -16.9584
            3246         939.347         939.347    -627.664E-03    -627.664E-03        -16.4969        -16.4969
            3247         939.897         939.897     266.782E-03     266.782E-03        -15.9998        -15.9998
            3248         940.554         940.554         1.18859         1.18859        -15.4459        -15.4459
            3249         941.298         941.298         2.18872         2.18872        -14.8104        -14.8104
            3250         942.113         942.113         3.31831         3.31831        -14.0652        -14.0652
            3251         942.984         942.984         4.63124         4.63124        -13.1787        -13.1787
            3252         943.897         943.897         6.18283         6.18283        -12.1157        -12.1157
            3253         944.839         944.839         8.03400         8.03400        -10.8371        -10.8371
            3254         945.797         945.797         10.2485         10.2485        -9.30047        -9.30047
            3255         946.751         946.751         12.8996         12.8996        -7.45910        -7.45910
            3256         947.681         947.681         16.0646         16.0646        -5.26413        -5.26413
            3257         948.556         948.556         19.8359         19.8359        -2.66272        -2.66272
            3258         949.339         949.339         24.3103         24.3103     395.995E-03     395.995E-03
            3259         949.983         949.983         29.6074         29.6074         3.96555         3.96555
            3260         950.422         950.422         35.8497         35.8497         8.08760         8.08760
            3261         950.578         950.578         43.1903         43.1903         12.8033         12.8033
            3262         950.346         950.346         51.7807         51.7807         18.1217         18.1217
            3263         949.611         949.611         61.8034         61.8034         24.0448         24.0448
            3264         948.216         948.216         73.4287         73.4287         30.5095         30.5095
            3265         946.025         946.025         86.8330         86.8330         37.4326         37.4326
            3266         942.844         942.844         102.159         102.159         44.6336         44.6336
            3267         938.572         938.572         119.482         119.482         51.8932         51.8932
            3268         933.059         933.059         138.810         138.810         58.9103         58.9103
            3269         926.323         926.323         159.988         159.988         65.3363         65.3363
            3270         918.397         918.397         182.756         182.756         70.8524         70.8524
            3271         909.464         909.464         206.674         206.674         75.1220         75.1220
            3272         899.803         899.803         231.211         231.211         77.9859         77.9859
            3273         889.725         889.725         255.684         255.684         78.5684         78.5684
            3274         971.021         971.021        -23.4897        -23.4897        -1.97584        -1.97584
            3275         966.181         966.181        -23.6177        -23.6177        -6.77221        -6.77221
            3276         961.292         961.292        -22.3341        -22.3341        -10.5077        -10.5077
            3277         956.703         956.703        -20.2262        -20.2262        -13.2632        -13.2632
            3278         952.621         952.621        -17.7229        -17.7229        -15.1794        -15.1794
            3279         949.151         949.151        -15.1384        -15.1384        -16.4312        -16.4312
            3280         946.306         946.306        -12.6666        -12.6666        -17.1929        -17.1929
            3281         944.052         944.052        -10.4131        -10.4131        -17.6088        -17.6088
            3282         942.322         942.322        -8.42194        -8.42194        -17.7904        -17.7904
            3283         941.044         941.044        -6.69717        -6.69717        -17.8159        -17.8159
            3284         940.147         940.147        -5.21956        -5.21956        -17.7379        -17.7379
            3285         939.566         939.566        -3.95611        -3.95611        -17.5879        -17.5879
            3286         939.246         939.246        -2.86662        -2.86662        -17.3826        -17.3826
            3287         939.142         939.142        -1.90732        -1.90732        -17.1275        -17.1275
            3288         939.216         939.216        -1.03281        -1.03281        -16.8194        -16.8194
            3289         939.438         939.438    -197.335E-03    -197.335E-03        -16.4487        -16.4487
            3290         939.786         939.786     645.470E-03     645.470E-03        -16.0000        -16.0000
            3291         940.243         940.243         1.54194         1.54194        -15.4533        -15.4533
            3292         940.794         940.794         2.54004         2.54004        -14.7838        -14.7838
            3293         941.430         941.430         3.68844         3.68844        -13.9619        -13.9619
            3294         942.141         942.141         5.03974         5.03974        -12.9533        -12.9533
            3295         942.922         942.922         6.64847         6.64847        -11.7191        -11.7191
            3296         943.764         943.764         8.57667         8.57667        -10.2146        -10.2146
            3297         944.658         944.658         10.8897         10.8897        -8.39083        -8.39083
            3298         945.590         945.590         13.6660         13.6660        -6.19273        -6.19273
            3299         946.541         946.541         16.9884         16.9884        -3.56226        -3.56226
            3300         947.485         947.485         20.9615         20.9615    -435.548E-03    -435.548E-03
            3301         948.382         948.382         25.6944         25.6944         3.24886         3.24886
            3302         949.180         949.180         31.3302         31.3302         7.55738         7.55738
            3303         949.801         949.801         38.0148         38.0148         12.5395         12.5395
            3304         950.150         950.150         45.9418         45.9418         18.2472         18.2472
            3305         950.090         950.090         55.3009         55.3009         24.6835         24.6835
            3306         949.471         949.471         66.3326         66.3326         31.8466         31.8466
            3307         948.076         948.076         79.2580         79.2580         39.6311         39.6311
            3308         945.725         945.725         94.3039         94.3039         47.9072         47.9072
            3309         942.146         942.146         111.646         111.646         56.3941         56.3941
            3310         937.230         937.230         131.332         131.332         64.7540         64.7540
            3311         930.802         930.802         153.308         153.308         72.5559         72.5559
            3312         922.952         922.952         177.244         177.244         79.3017         79.3017
            3313         913.821         913.821         202.669         202.669         84.6237         84.6237
            3314         903.708         903.708         228.889         228.889         88.1391         88.1391
            3315         893.136         893.136         255.002         255.002         88.9532         88.9532
            3316         968.048         968.048        -18.5066        -18.5066         1.91378         1.91378
            3317         964.669         964.669        -19.4482        -19.4482        -2.48750        -2.48750
            3318         960.953         960.953        -19.0386        -19.0386        -6.24100        -6.24100
            3319         957.233         957.233        -17.7402        -17.7402        -9.27786        -9.27786
            3320         953.735         953.735        -15.9328        -15.9328        -11.6381        -11.6381
            3321         950.591         950.591        -13.9002        -13.9002        -13.4078        -13.4078
            3322         947.870         947.870        -11.8456        -11.8456        -14.6940        -14.6940
            3323         945.584         945.584        -9.89613        -9.89613        -15.6026        -15.6026
            3324         943.712         943.712        -8.12194        -8.12194        -16.2244        -16.2244
            3325         942.216         942.216        -6.55173        -6.55173        -16.6316        -16.6316
            3326         941.051         941.051        -5.18641        -5.18641        -16.8776        -16.8776
            3327         940.170         940.170        -4.00903        -4.00903        -16.9997        -16.9997
            3328         939.531         939.531        -2.99174        -2.99174        -17.0219        -17.0219
            3329         939.097         939.097        -2.10027        -2.10027        -16.9571        -16.9571
            3330         938.839         938.839        -1.29696        -1.29696        -16.8096        -16.8096
            3331         938.732         938.732    -542.100E-03    -542.100E-03        -16.5762        -16.5762
            3332         938.758         938.758     204.746E-03     204.746E-03        -16.2475        -16.2475
            3333         938.905         938.905     985.313E-03     985.313E-03        -15.8081        -15.8081
            3334         939.163         939.163         1.84173         1.84173        -15.2369        -15.2369
            3335         939.528         939.528         2.81861         2.81861        -14.5073        -14.5073
            3336         939.998         939.998         3.96175         3.96175        -13.5869        -13.5869
            3337         940.571         940.571         5.32216         5.32216        -12.4374        -12.4374
            3338         941.250         941.250         6.95330         6.95330        -11.0139        -11.0139
            3339         942.032         942.032         8.91853         8.91853        -9.26521        -9.26521
            3340         942.917         942.917         11.2851         11.2851        -7.13324        -7.13324
            3341         943.898         943.898         14.1379         14.1379        -4.55253        -4.55253
            3342         944.961         944.961         17.5669         17.5669        -1.45271        -1.45271
            3343         946.083         946.083         21.6927         21.6927         2.24498         2.24498
            3344         947.225         947.225         26.6408         26.6408         6.61708         6.61708
            3345         948.326         948.326         32.5875         32.5875         11.7491         11.7491
            3346         949.298         949.298         39.7104         39.7104         17.7033         17.7033
            3347         950.017         950.017         48.2641         48.2641         24.5501         24.5501
            3348         950.301         950.301         58.4934         58.4934         32.2856         32.2856
            3349         949.947         949.947         70.7289         70.7289         40.9072         40.9072
            3350         948.634         948.634         85.2695         85.2695         50.2411         50.2411
            3351         946.129         946.129         102.411         102.411         60.0842         60.0842
            3352         942.032         942.032         122.369         122.369         69.9931         69.9931
            3353         936.251         936.251         145.105         145.105         79.4350         79.4350
            3354         928.608         928.608         170.418         170.418         87.8057         87.8057
            3355         919.333         919.333         197.658         197.658         94.4062         94.4062
            3356         908.800         908.800         225.978         225.978         98.8857         98.8857
            3357         897.488         897.488         254.225         254.225         99.9555         99.9555
            3358         964.632         964.632        -14.2144        -14.2144         4.43442         4.43442
            3359         962.386         962.386        -15.5429        -15.5429     590.915E-03     590.915E-03
            3360         959.682         959.682        -15.6942        -15.6942        -2.93735        -2.93735
            3361         956.784         956.784        -14.9996        -14.9996        -6.00616        -6.00616
            3362         953.899         953.899        -13.7615        -13.7615        -8.56919        -8.56919
            3363         951.170         951.170        -12.2292        -12.2292        -10.6456        -10.6456
            3364         948.683         948.683        -10.5884        -10.5884        -12.2864        -12.2864
            3365         946.482         946.482        -8.97009        -8.97009        -13.5565        -13.5565
            3366         944.576         944.576        -7.45503        -7.45503        -14.5218        -14.5218
            3367         942.954         942.954        -6.08647        -6.08647        -15.2407        -15.2407
            3368         941.593         941.593        -4.87946        -4.87946        -15.7619        -15.7619
            3369         940.466         940.466        -3.82977        -3.82977        -16.1227        -16.1227
            3370         939.544         939.544        -2.92033        -2.92033        -16.3504        -16.3504
            3371         938.802         938.802        -2.12605        -2.12605        -16.4627        -16.4627
            3372         938.218         938.218        -1.41690        -1.41690        -16.4695        -16.4695
            3373         937.776         937.776    -760.234E-03    -760.234E-03        -16.3731        -16.3731
            3374         937.465         937.465    -121.449E-03    -121.449E-03        -16.1691        -16.1691
            3375         937.276         937.276     534.751E-03     534.751E-03        -15.8468        -15.8468
            3376         937.207         937.207         1.24539         1.24539        -15.3891        -15.3891
            3377         937.260         937.260         2.04811         2.04811        -14.7730        -14.7730
            3378         937.438         937.438         2.98392         2.98392        -13.9687        -13.9687
            3379         937.749         937.749         4.09530         4.09530        -12.9395        -12.9395
            3380         938.203         938.203         5.43154         5.43154        -11.6419        -11.6419
            3381         938.809         938.809         7.04468         7.04468        -10.0240        -10.0240
            3382         939.578         939.578         8.99977         8.99977        -8.02573        -8.02573
            3383         940.519         940.519         11.3660         11.3660        -5.57807        -5.57807
            3384         941.633         941.633         14.2366         14.2366        -2.60214        -2.60214
            3385         942.919         942.919         17.7098         17.7098     988.988E-03     988.988E-03
            3386         944.357         944.357         21.9277         21.9277         5.29433         5.29433
            3387         945.914         945.914         27.0359         27.0359         10.4127         10.4127
            3388         947.522         947.522         33.2584         33.2584         16.4585         16.4585
            3389         949.073         949.073         40.8152         40.8152         23.5157         23.5157
            3390         950.410         950.410         50.0534         50.0534         31.6885         31.6885
            3391         951.278         951.278         61.2991         61.2991         40.9648         40.9648
            3392         951.393         951.393         75.0281         75.0281         51.3510         51.3510
            3393         950.262         950.262         91.6643         91.6643         62.5555         62.5555
            3394         947.572         947.572         111.592         111.592         74.2485         74.2485
            3395         942.723         942.723         135.066         135.066         85.7151         85.7151
            3396         935.704         935.704         161.814         161.814         96.0855         96.0855
            3397         926.426         926.426         191.300         191.300         104.559         104.559
            3398         915.358         915.358         222.302         222.302         110.197         110.197
            3399         903.388         903.388         253.226         253.226         111.800         111.800
            3400         961.169         961.169        -10.6464        -10.6464         5.95201         5.95201
            3401         959.779         959.779        -12.0564        -12.0564         2.69520         2.69520
            3402         957.905         957.905        -12.5043        -12.5043    -488.087E-03    -488.087E-03
            3403         955.737         955.737        -12.2144        -12.2144        -3.42043        -3.42043
            3404         953.442         953.442        -11.4132        -11.4132        -6.00859        -6.00859
            3405         951.150         951.150        -10.3012        -10.3012        -8.21935        -8.21935
            3406         948.952         948.952        -9.04000        -9.04000        -10.0606        -10.0606
            3407         946.902         946.902        -7.74857        -7.74857        -11.5625        -11.5625
            3408         945.031         945.031        -6.50794        -6.50794        -12.7656        -12.7656
            3409         943.345         943.345        -5.36618        -5.36618        -13.7131        -13.7131
            3410         941.840         941.840        -4.34632        -4.34632        -14.4447        -14.4447
            3411         940.505         940.505        -3.45257        -3.45257        -14.9949        -14.9949
            3412         939.325         939.325        -2.67632        -2.67632        -15.3912        -15.3912
            3413         938.286         938.286        -2.00022        -2.00022        -15.6539        -15.6539
            3414         937.377         937.377        -1.40163        -1.40163        -15.7964        -15.7964
            3415         936.589         936.589    -854.432E-03    -854.432E-03        -15.8254        -15.8254
            3416         935.918         935.918    -330.792E-03    -330.792E-03        -15.7409        -15.7409
            3417         935.362         935.362     198.790E-03     198.790E-03        -15.5365        -15.5365
            3418         934.926         934.926     764.376E-03     764.376E-03        -15.1993        -15.1993
            3419         934.617         934.617         1.39809         1.39809        -14.7099        -14.7099
            3420         934.447         934.447         2.13284         2.13284        -14.0419        -14.0419
            3421         934.430         934.430         3.00571         3.00571        -13.1620        -13.1620
            3422         934.585         934.585         4.05551         4.05551        -12.0282        -12.0282
            3423         934.933         934.933         5.32950         5.32950        -10.5909        -10.5909
            3424         935.497         935.497         6.87798         6.87798        -8.78982        -8.78982
            3425         936.302         936.302         8.76771         8.76771        -6.55489        -6.55489
            3426         937.370         937.370         11.0698         11.0698        -3.80317        -3.80317
            3427         938.719         938.719         13.8871         13.8871    -439.274E-03    -439.274E-03
            3428         940.364         940.364         17.3272         17.3272         3.64623         3.64623
            3429         942.296         942.296         21.5596         21.5596         8.57984         8.57984
            3430         944.493         944.493         26.7545         26.7545         14.4942         14.4942
            3431         946.880         946.880         33.2022         33.2022         21.5479         21.5479
            3432         949.338         949.338         41.1794         41.1794         29.8635         29.8635
            3433         951.652         951.652         51.1777         51.1777         39.6072         39.6072
            3434         953.466         953.466         63.6433         63.6433         50.7611         50.7611
            3435         954.356         954.356         79.3022         79.3022         63.3671         63.3671
            3436         953.511         953.511         98.7927         98.7927         76.9126         76.9126
            3437         950.527         950.527         122.590         122.590         90.8224         90.8224
            3438         944.491         944.491         150.945         150.945         103.921         103.921
            3439         935.629         935.629         183.000         183.000         114.743         114.743
            3440         924.212         924.212         217.465         217.465         122.367         122.367
            3441         911.092         911.092         252.056         252.056         124.547         124.547
            3442         957.875         957.875        -7.74401        -7.74401         6.73721         6.73721
            3443         957.141         957.141        -9.03548        -9.03548         4.02847         4.02847
            3444         955.943         955.943        -9.58411        -9.58411         1.23576         1.23576
            3445         954.406         954.406        -9.53296        -9.53296        -1.46103        -1.46103
            3446         952.652         952.652        -9.04301        -9.04301        -3.94502        -3.94502
            3447         950.787         950.787        -8.26692        -8.26692        -6.15303        -6.15303
            3448         948.891         948.891        -7.33436        -7.33436        -8.06098        -8.06098
            3449         947.024         947.024        -6.34661        -6.34661        -9.67240        -9.67240
            3450         945.221         945.221        -5.37556        -5.37556        -11.0069        -11.0069
            3451         943.505         943.505        -4.46765        -4.46765        -12.0927        -12.0927
            3452         941.884         941.884        -3.64788        -3.64788        -12.9604        -12.9604
            3453         940.360         940.360        -2.92511        -2.92511        -13.6395        -13.6395
            3454         938.932         938.932        -2.29627        -2.29627        -14.1560        -14.1560
            3455         937.598         937.598        -1.75028        -1.75028        -14.5310        -14.5310
            3456         936.354         936.354        -1.27064        -1.27064        -14.7802        -14.7802
            3457         935.201         935.201    -837.711E-03    -837.711E-03        -14.9132        -14.9132
            3458         934.142         934.142    -429.615E-03    -429.615E-03        -14.9336        -14.9336
            3459         933.182         933.182    -23.5466E-03    -23.5466E-03        -14.8387        -14.8387
            3460         932.333         932.333     404.745E-03     404.745E-03        -14.6199        -14.6199
            3461         931.607         931.607     879.943E-03     879.943E-03        -14.2614        -14.2614
            3462         931.023         931.023         1.42908         1.42908        -13.7413        -13.7413
            3463         930.602         930.602         2.08008         2.08008        -13.0295        -13.0295
            3464         930.372         930.372         2.86576         2.86576        -12.0887        -12.0887
            3465         930.365         930.365         3.82084         3.82084        -10.8717        -10.8717
            3466         930.615         930.615         4.99003         4.99003        -9.32241        -9.32241
            3467         931.163         931.163         6.42117         6.42117        -7.37114        -7.37114
            3468         932.050         932.050         8.18224         8.18224        -4.93713        -4.93713
            3469         933.325         933.325         10.3454         10.3454        -1.92048        -1.92048
            3470         935.025         935.025         13.0238         13.0238         1.79383         1.79383
            3471         937.193         937.193         16.3340         16.3340         6.34578         6.34578
            3472         939.844         939.844         20.4791         20.4791         11.8984         11.8984
            3473         942.982         942.982         25.6566         25.6566         18.6366         18.6366
            3474         946.534         946.534         32.2493         32.2493         26.7866         26.7866
            3475         950.378         950.378         40.6056         40.6056         36.5425         36.5425
            3476         954.223         954.223         51.4499         51.4499         48.1849         48.1849
            3477         957.564         957.564         65.4083         65.4083         61.7062         61.7062
            3478         959.723         959.723         83.6752         83.6752         77.2566         77.2566
            3479         959.249         959.249         107.292         107.292         93.8652         93.8652
            3480         955.683         955.683         136.727         136.727         110.415         110.415
            3481         947.688         947.688         172.010         172.010         124.972         124.972
            3482         936.043         936.043         210.902         210.902         135.041         135.041
            3483         922.177         922.177         250.332         250.332         138.720         138.720
            3484         954.865         954.865        -5.41278        -5.41278         6.96057         6.96057
            3485         954.666         954.666        -6.47287        -6.47287         4.73816         4.73816
            3486         954.039         954.039        -6.99057        -6.99057         2.34258         2.34258
            3487         953.053         953.053        -7.05387        -7.05387    -59.3180E-03    -59.3180E-03
            3488         951.788         951.788        -6.77108        -6.77108        -2.34637        -2.34637
            3489         950.320         950.320        -6.25173        -6.25173        -4.44010        -4.44010
            3490         948.717         948.717        -5.59341        -5.59341        -6.29840        -6.29840
            3491         947.033         947.033        -4.87508        -4.87508        -7.90619        -7.90619
            3492         945.306         945.306        -4.15554        -4.15554        -9.26774        -9.26774
            3493         943.568         943.568        -3.47410        -3.47410        -10.3991        -10.3991
            3494         941.836         941.836        -2.85384        -2.85384        -11.3227        -11.3227
            3495         940.125         940.125        -2.30462        -2.30462        -12.0628        -12.0628
            3496         938.444         938.444        -1.82665        -1.82665        -12.6431        -12.6431
            3497         936.800         936.800        -1.41316        -1.41316        -13.0841        -13.0841
            3498         935.202         935.202        -1.05292        -1.05292        -13.4023        -13.4023
            3499         933.657         933.657    -731.653E-03    -731.653E-03        -13.6094        -13.6094
            3500         932.176         932.176    -433.516E-03    -433.516E-03        -13.7116        -13.7116
            3501         930.770         930.770    -141.313E-03    -141.313E-03        -13.7095        -13.7095
            3502         929.455         929.455     162.569E-03     162.569E-03        -13.5977        -13.5977
            3503         928.251         928.251     497.033E-03     497.033E-03        -13.3651        -13.3651
            3504         927.181         927.181     881.352E-03     881.352E-03        -12.9933        -12.9933
            3505         926.273         926.273         1.33732         1.33732        -12.4579        -12.4579
            3506         925.562         925.562         1.88771         1.88771        -11.7257        -11.7257
            3507         925.087         925.087         2.56059         2.56059        -10.7563        -10.7563
            3508         924.895         924.895         3.38606         3.38606        -9.49732        -9.49732
            3509         925.040         925.040         4.40516         4.40516        -7.88739        -7.88739
            3510         925.583         925.583         5.66228         5.66228        -5.84717        -5.84717
            3511         926.593         926.593         7.22469         7.22469        -3.28559        -3.28559
            3512         928.149         928.149         9.16392         9.16392    -82.9859E-03    -82.9859E-03
            3513         930.325         930.325         11.6017         11.6017         3.89717         3.89717
            3514         933.211         933.211         14.6613         14.6613         8.83571         8.83571
            3515         936.861         936.861         18.5824         18.5824         14.9418         14.9418
            3516         941.345         941.345         23.5903         23.5903         22.4816         22.4816
            3517         946.611         946.611         30.1910         30.1910         31.7817         31.7817
            3518         952.578         952.578         38.8185         38.8185         43.1736         43.1736
            3519         958.853         958.853         50.5805         50.5805         57.1509         57.1509
            3520         964.740         964.740         66.3677         66.3677         73.7795         73.7795
            3521         969.053         969.053         88.3545         88.3545         93.5298         93.5298
            3522         968.898         968.898         118.423         118.423         114.367         114.367
            3523         964.023         964.023         156.496         156.496         133.807         133.807
            3524         952.848         952.848         201.521         201.521         148.861         148.861
            3525         937.228         937.228         248.077         248.077         154.133         154.133
            3526         952.206         952.206        -3.56120        -3.56120         6.70047         6.70047
            3527         952.499         952.499        -4.34097        -4.34097         4.90779         4.90779
            3528         952.391         952.391        -4.75257        -4.75257         2.90592         2.90592
            3529         951.905         951.905        -4.84698        -4.84698     840.797E-03     840.797E-03
            3530         951.085         951.085        -4.69317        -4.69317        -1.17376        -1.17376
            3531         949.981         949.981        -4.36422        -4.36422        -3.05744        -3.05744
            3532         948.645         948.645        -3.92782        -3.92782        -4.76029        -4.76029
            3533         947.123         947.123        -3.44047        -3.44047        -6.25783        -6.25783
            3534         945.456         945.456        -2.94521        -2.94521        -7.54455        -7.54455
            3535         943.679         943.679        -2.47199        -2.47199        -8.62827        -8.62827
            3536         941.820         941.820        -2.03890        -2.03890        -9.52484        -9.52484
            3537         939.903         939.903        -1.65465        -1.65465        -10.2540        -10.2540
            3538         937.947         937.947        -1.32059        -1.32059        -10.8365        -10.8365
            3539         935.970         935.970        -1.03298        -1.03298        -11.2914        -11.2914
            3540         933.988         933.988    -784.473E-03    -784.473E-03        -11.6351        -11.6351
            3541         932.016         932.016    -565.636E-03    -565.636E-03        -11.8800        -11.8800
            3542         930.071         930.071    -365.516E-03    -365.516E-03        -12.0339        -12.0339
            3543         928.170         928.170    -172.569E-03    -172.569E-03        -12.0997        -12.0997
            3544         926.335         926.335     25.5662E-03     25.5662E-03        -12.0753        -12.0753
            3545         924.588         924.588     241.400E-03     241.400E-03        -11.9529        -11.9529
            3546         922.956         922.956     488.600E-03     488.600E-03        -11.7194        -11.7194
            3547         921.473         921.473     781.211E-03     781.211E-03        -11.3546        -11.3546
            3548         920.176         920.176         1.13570         1.13570        -10.8329        -10.8329
            3549         919.113         919.113         1.56962         1.56962        -10.1193        -10.1193
            3550         918.336         918.336         2.10558         2.10558        -9.17187        -9.17187
            3551         917.911         917.911         2.76852         2.76852        -7.93499        -7.93499
            3552         917.914         917.914         3.59380         3.59380        -6.34455        -6.34455
            3553         918.437         918.437         4.62106         4.62106        -4.31292        -4.31292
            3554         919.580         919.580         5.91271         5.91271        -1.74156        -1.74156
            3555         921.471         921.471         7.53727         7.53727         1.51017         1.51017
            3556         924.238         924.238         9.61772         9.61772         5.59847         5.59847
            3557         928.050         928.050         12.2806         12.2806         10.7563         10.7563
            3558         933.040         933.040         15.7955         15.7955         17.2443         17.2443
            3559         939.403         939.403         20.4103         20.4103         25.4531         25.4531
            3560         947.168         947.168         26.7812         26.7812         35.8472         35.8472
            3561         956.423         956.423         35.4295         35.4295         49.0279         49.0279
            3562         966.669         966.669         48.0959         48.0959         65.8726         65.8726
            3563         977.083         977.083         66.0261         66.0261         86.7603         86.7603
            3564         985.351         985.351         93.7227         93.7227         113.108         113.108
            3565         984.955         984.955         134.950         134.950         140.143         140.143
            3566         976.911         976.911         186.793         186.793         161.592         161.592
            3567         961.331         961.331         243.841         243.841         172.434         172.434
            3568         949.964         949.964        -2.11880        -2.11880         5.95506         5.95506
            3569         950.774         950.774        -2.61869        -2.61869         4.55801         4.55801
            3570         951.182         951.182        -2.89444        -2.89444         2.95831         2.95831
            3571         951.178         951.178        -2.97343        -2.97343         1.27588         1.27588
            3572         950.773         950.773        -2.89545        -2.89545    -391.700E-03    -391.700E-03
            3573         949.998         949.998        -2.70470        -2.70470        -1.97183        -1.97183
            3574         948.890         948.890        -2.44298        -2.44298        -3.41650        -3.41650
            3575         947.492         947.492        -2.14595        -2.14595        -4.69917        -4.69917
            3576         945.846         945.846        -1.84134        -1.84134        -5.81049        -5.81049
            3577         943.993         943.993        -1.54866        -1.54866        -6.75356        -6.75356
            3578         941.969         941.969        -1.28013        -1.28013        -7.53967        -7.53967
            3579         939.808         939.808        -1.04180        -1.04180        -8.18461        -8.18461
            3580         937.540         937.540    -835.119E-03    -835.119E-03        -8.70575        -8.70575
            3581         935.190         935.190    -658.067E-03    -658.067E-03        -9.12002        -9.12002
            3582         932.784         932.784    -506.424E-03    -506.424E-03        -9.44223        -9.44223
            3583         930.342         930.342    -374.403E-03    -374.403E-03        -9.68434        -9.68434
            3584         927.888         927.888    -255.484E-03    -255.484E-03        -9.85452        -9.85452
            3585         925.442         925.442    -142.481E-03    -142.481E-03        -9.95716        -9.95716
            3586         923.028         923.028    -28.1006E-03    -28.1006E-03        -9.99215        -9.99215
            3587         920.672         920.672     95.4766E-03     95.4766E-03        -9.95529        -9.95529
            3588         918.402         918.402     236.135E-03     236.135E-03        -9.83721        -9.83721
            3589         916.253         916.253     402.686E-03     402.686E-03        -9.62427        -9.62427
            3590         914.265         914.265     604.410E-03     604.410E-03        -9.29629        -9.29629
            3591         912.485         912.485     852.420E-03     852.420E-03        -8.82843        -8.82843
            3592         910.974         910.974         1.15928         1.15928        -8.18634        -8.18634
            3593         909.799         909.799         1.54106         1.54106        -7.33028        -7.33028
            3594         909.048         909.048         2.01730         2.01730        -6.20464        -6.20464
            3595         908.823         908.823         2.61460         2.61460        -4.74747        -4.74747
            3596         909.250         909.250         3.36683         3.36683        -2.86721        -2.86721
            3597         910.477         910.477         4.32402         4.32402    -465.186E-03    -465.186E-03
            3598         912.697         912.697         5.54979         5.54979         2.61699         2.61699
            3599         916.119         916.119         7.15190         7.15190         6.54475         6.54475
            3600         921.035         921.035         9.25678         9.25678         11.6101         11.6101
            3601         927.721         927.721         12.1337         12.1337         18.1138         18.1138
            3602         936.617         936.617         16.0468         16.0468         26.6269         26.6269
            3603         947.974         947.974         21.7842         21.7842         37.7659         37.7659
            3604         962.357         962.357         29.9385         29.9385         52.6557         52.6557
            3605         979.327         979.327         43.2241         43.2241         72.7932         72.7932
            3606         998.549         998.549         63.2443         63.2443         99.7203         99.7203
            3607     1.01508E+03     1.01508E+03         100.709         100.709         137.621         137.621
            3608     1.01256E+03     1.01256E+03         163.392         163.392         174.214         174.214
            3609         996.567         996.567         236.505         236.505         190.906         190.906
            3610         948.228         948.228        -1.05034        -1.05034         4.64823         4.64823
            3611         949.644         949.644        -1.31029        -1.31029         3.65121         3.65121
            3612         950.616         950.616        -1.45739        -1.45739         2.49281         2.49281
            3613         951.103         951.103        -1.50381        -1.50381         1.26162         1.26162
            3614         951.096         951.096        -1.46920        -1.46920     31.3354E-03     31.3354E-03
            3615         950.611         950.611        -1.37573        -1.37573        -1.14183        -1.14183
            3616         949.681         949.681        -1.24474        -1.24474        -2.21970        -2.21970
            3617         948.347         948.347        -1.09468        -1.09468        -3.18034        -3.18034
            3618         946.660         946.660    -939.971E-03    -939.971E-03        -4.01513        -4.01513
            3619         944.668         944.668    -790.953E-03    -790.953E-03        -4.72540        -4.72540
            3620         942.418         942.418    -654.076E-03    -654.076E-03        -5.31916        -5.31916
            3621         939.956         939.956    -532.707E-03    -532.707E-03        -5.80822        -5.80822
            3622         937.321         937.321    -427.676E-03    -427.676E-03        -6.20601        -6.20601
            3623         934.547         934.547    -338.126E-03    -338.126E-03        -6.52577        -6.52577
            3624         931.667         931.667    -261.908E-03    -261.908E-03        -6.77946        -6.77946
            3625         928.708         928.708    -196.219E-03    -196.219E-03        -6.97684        -6.97684
            3626         925.695         925.695    -137.692E-03    -137.692E-03        -7.12517        -7.12517
            3627         922.652         922.652    -82.8574E-03    -82.8574E-03        -7.22867        -7.22867
            3628         919.603         919.603    -27.9418E-03    -27.9418E-03        -7.28869        -7.28869
            3629         916.574         916.574     30.7640E-03     30.7640E-03        -7.30314        -7.30314
            3630         913.593         913.593     97.3059E-03     97.3059E-03        -7.26700        -7.26700
            3631         910.691         910.691     175.824E-03     175.824E-03        -7.17118        -7.17118
            3632         907.907         907.907     270.954E-03     270.954E-03        -7.00361        -7.00361
            3633         905.288         905.288     388.040E-03     388.040E-03        -6.74670        -6.74670
            3634         902.891         902.891     533.005E-03     533.005E-03        -6.37972        -6.37972
            3635         900.784         900.784     714.091E-03     714.091E-03        -5.87306        -5.87306
            3636         899.055         899.055     939.776E-03     939.776E-03        -5.19388        -5.19388
            3637         897.809         897.809         1.22481         1.22481        -4.29293        -4.29293
            3638         897.180         897.180         1.58288         1.58288        -3.11828        -3.11828
            3639         897.333         897.333         2.04319         2.04319        -1.58403        -1.58403
            3640         898.476         898.476         2.63153         2.63153     394.878E-03     394.878E-03
            3641         900.879         900.879         3.40954         3.40954         2.98070         2.98070
            3642         904.870         904.870         4.43797         4.43797         6.32217         6.32217
            3643         910.911         910.911         5.85181         5.85181         10.7578         10.7578
            3644         919.531         919.531         7.83808         7.83808         16.5767         16.5767
            3645         931.580         931.580         10.6993         10.6993         24.5676         24.5676
            3646         947.856         947.856         15.1778         15.1778         35.4036         35.4036
            3647         970.064         970.064         21.9688         21.9688         51.1394         51.1394
            3648         998.674         998.674         34.8608         34.8608         73.9311         73.9311
            3649     1.03666E+03     1.03666E+03         55.6654         55.6654         109.267         109.267
            3650     1.07384E+03     1.07384E+03         112.820         112.820         168.556         168.556
            3651     1.06732E+03     1.06732E+03         218.026         218.026         217.858         217.858
            3652         947.143         947.143    -368.325E-03    -368.325E-03         2.64785         2.64785
            3653         949.316         949.316    -462.646E-03    -462.646E-03         2.10800         2.10800
            3654         950.939         950.939    -516.764E-03    -516.764E-03         1.47684         1.47684
            3655         951.948         951.948    -534.710E-03    -534.710E-03     803.563E-03     803.563E-03
            3656         952.324         952.324    -523.414E-03    -523.414E-03     129.281E-03     129.281E-03
            3657         952.079         952.079    -490.711E-03    -490.711E-03    -514.546E-03    -514.546E-03
            3658         951.253         951.253    -444.317E-03    -444.317E-03        -1.10637        -1.10637
            3659         949.898         949.898    -390.841E-03    -390.841E-03        -1.63378        -1.63378
            3660         948.078         948.078    -335.568E-03    -335.568E-03        -2.09189        -2.09189
            3661         945.857         945.857    -282.208E-03    -282.208E-03        -2.48145        -2.48145
            3662         943.298         943.298    -233.178E-03    -233.178E-03        -2.80704        -2.80704
            3663         940.456         940.456    -189.669E-03    -189.669E-03        -3.07546        -3.07546
            3664         937.384         937.384    -152.066E-03    -152.066E-03        -3.29440        -3.29440
            3665         934.124         934.124    -120.018E-03    -120.018E-03        -3.47154        -3.47154
            3666         930.714         930.714    -92.8491E-03    -92.8491E-03        -3.61381        -3.61381
            3667         927.185         927.185    -69.4827E-03    -69.4827E-03        -3.72703        -3.72703
            3668         923.564         923.564    -48.8427E-03    -48.8427E-03        -3.81551        -3.81551
            3669         919.875         919.875    -29.5834E-03    -29.5834E-03        -3.88212        -3.88212
            3670         916.140         916.140    -10.5308E-03    -10.5308E-03        -3.92793        -3.92793
            3671         912.380         912.380     9.75727E-03     9.75727E-03        -3.95256        -3.95256
            3672         908.621         908.621     32.5340E-03     32.5340E-03        -3.95356        -3.95356
            3673         904.888         904.888     59.3211E-03     59.3211E-03        -3.92712        -3.92712
            3674         901.216         901.216     91.7057E-03     91.7057E-03        -3.86688        -3.86688
            3675         897.643         897.643     131.283E-03     131.283E-03        -3.76513        -3.76513
            3676         894.219         894.219     180.680E-03     180.680E-03        -3.61045        -3.61045
            3677         891.006         891.006     241.350E-03     241.350E-03        -3.39016        -3.39016
            3678         888.083         888.083     318.715E-03     318.715E-03        -3.08503        -3.08503
            3679         885.548         885.548     413.181E-03     413.181E-03        -2.67518        -2.67518
            3680         883.526         883.526     537.339E-03     537.339E-03        -2.12730        -2.12730
            3681         882.175         882.175     687.829E-03     687.829E-03        -1.40993        -1.40993
            3682         881.701         881.701     895.461E-03     895.461E-03    -460.560E-03    -460.560E-03
            3683         882.369         882.369         1.14624         1.14624     772.010E-03     772.010E-03
            3684         884.531         884.531         1.51741         1.51741         2.41950         2.41950
            3685         888.654         888.654         1.97056         1.97056         4.56872         4.56872
            3686         895.399         895.399         2.70249         2.70249         7.53864         7.53864
            3687         905.659         905.659         3.64271         3.64271         11.4875         11.4875
            3688         920.869         920.869         5.30321         5.30321         17.3260         17.3260
            3689         942.898         942.898         7.76898         7.76898         25.4098         25.4098
            3690         975.713         975.713         12.4325         12.4325         38.9736         38.9736
            3691     1.02344E+03     1.02344E+03         22.2333         22.2333         59.5314         59.5314
            3692     1.10257E+03     1.10257E+03         41.7568         41.7568         103.779         103.779
            3693     1.20330E+03     1.20330E+03         147.949         147.949         191.348         191.348
            3694         55.2380         55.2380        -419.598        -419.598        -52.2776        -52.2776
            3695         199.726         199.726        -171.205        -171.205        -136.442        -136.442
            3696         387.859         387.859        -53.4743        -53.4743        -148.171        -148.171
            3697         564.367         564.367        -8.94526        -8.94526        -122.318        -122.318
            3698         702.165         702.165         3.15039         3.15039        -86.5575        -86.5575
            3699         175.729         175.729        -310.435        -310.435        -119.691        -119.691
            3700         386.854         386.854        -171.825        -171.825        -238.429        -238.429
            3701         574.523         574.523        -101.203        -101.203        -236.628        -236.628
            3702         714.178         714.178        -62.8431        -62.8431        -183.866        -183.866
            3703         807.332         807.332        -39.7155        -39.7155        -124.900        -124.900
            3704         375.993         375.993        -178.125        -178.125        -198.148        -198.148
            3705         637.863         637.863        -173.390        -173.390        -279.607        -279.607
            3706         791.444         791.444        -145.151        -145.151        -242.681        -242.681
            3707         871.010         871.010        -106.536        -106.536        -173.800        -173.800
            3708         909.624         909.624        -71.6154        -71.6154        -111.604        -111.604
            3709         639.286         639.286        -60.6537        -60.6537        -264.572        -264.572
            3710         884.668         884.668        -166.895        -166.895        -253.690        -253.690
            3711         967.510         967.510        -160.113        -160.113        -187.632        -187.632
            3712         982.408         982.408        -119.531        -119.531        -122.710        -122.710
            3713         975.290         975.290        -79.2910        -79.2910        -73.9068        -73.9068
            3714     1.05326E+03     1.05326E+03         118.370         118.370         42.3614         42.3614
            3715     1.14000E+03     1.14000E+03         182.182         182.182         49.5323         49.5323
            3716     1.29553E+03     1.29553E+03         247.833         247.833         35.1444         35.1444
            3717     1.56590E+03     1.56590E+03         282.032         282.032        -27.8735        -27.8735
            3718     2.00584E+03     2.00584E+03         231.810         231.810        -169.777        -169.777
            3719     1.06519E+03     1.06519E+03         43.8850         43.8850         50.7113         50.7113
            3720     1.14576E+03     1.14576E+03         80.2849         80.2849         60.1433         60.1433
            3721     1.27278E+03     1.27278E+03         132.375         132.375         40.3161         40.3161
            3722     1.47240E+03     1.47240E+03         191.473         191.473        -55.3692        -55.3692
            3723     1.78412E+03     1.78412E+03         228.338         228.338        -290.516        -290.516
            3724     1.06160E+03     1.06160E+03        -23.1913        -23.1913         27.0310         27.0310
            3725     1.13274E+03     1.13274E+03        -20.1939        -20.1939         29.2521         29.2521
            3726     1.22980E+03     1.22980E+03         2.63892         2.63892         6.84290         6.84290
            3727     1.34944E+03     1.34944E+03         67.9805         67.9805        -88.2549        -88.2549
            3728     1.49040E+03     1.49040E+03         195.656         195.656        -342.839        -342.839
            3729     1.03948E+03     1.03948E+03        -59.2182        -59.2182        -6.39526        -6.39526
            3730     1.09608E+03     1.09608E+03        -82.3051        -82.3051        -18.9084        -18.9084
            3731     1.16466E+03     1.16466E+03        -93.6822        -93.6822        -50.9069        -50.9069
            3732     1.21746E+03     1.21746E+03        -52.0913        -52.0913        -133.400        -133.400
            3733     1.19030E+03     1.19030E+03         123.586         123.586        -339.790        -339.790
            3734         683.313         683.313        -42.7403        -42.7403         274.514         274.514
            3735         922.337         922.337        -165.290        -165.290         246.921         246.921
            3736         992.699         992.699        -161.027        -161.027         176.934         176.934
            3737         997.467         997.467        -120.142        -120.142         113.416         113.416
            3738         983.739         983.739        -79.3917        -79.3917         67.2658         67.2658
            3739         454.509         454.509        -135.811        -135.811         223.186         223.186
            3740         722.881         722.881        -173.536        -173.536         280.961         280.961
            3741         858.117         858.117        -155.551        -155.551         232.188         232.188
            3742         916.045         916.045        -115.985        -115.985         161.235         161.235
            3743         937.529         937.529        -77.9835        -77.9835         101.206         101.206
            3744         262.937         262.937        -246.318        -246.318         157.913         157.913
            3745         505.930         505.930        -173.649        -173.649         270.011         270.011
            3746         683.445         683.445        -126.326        -126.326         252.999         252.999
            3747         796.312         796.312        -88.9418        -88.9418         189.494         189.494
            3748         862.536         862.536        -59.4372        -59.4372         125.395         125.395
            3749         123.628         123.628        -356.226        -356.226         94.2645         94.2645
            3750         310.628         310.628        -172.650        -172.650         211.930         211.930
            3751         501.226         501.226        -84.0395        -84.0395         219.346         219.346
            3752         657.183         657.183        -43.9297        -43.9297         175.463         175.463
            3753         768.254         768.254        -25.0893        -25.0893         121.533         121.533
            3754         41.4621         41.4621        -439.195        -439.195         42.0239         42.0239
            3755         175.330         175.330        -173.226        -173.226         116.302         116.302
            3756         360.844         360.844        -46.9905        -46.9905         128.358         128.358
            3757         540.803         540.803    -144.132E-03    -144.132E-03         107.298         107.298
            3758         684.653         684.653         10.7492         10.7492         76.7144         76.7144
            3759     1.04061E+03     1.04061E+03        -60.8171        -60.8171         8.56178         8.56178
            3760     1.09712E+03     1.09712E+03        -83.6760        -83.6760         20.5481         20.5481
            3761     1.16560E+03     1.16560E+03        -94.7998        -94.7998         52.1317         52.1317
            3762     1.21853E+03     1.21853E+03        -52.9619        -52.9619         134.350         134.350
            3763     1.19167E+03     1.19167E+03         123.009         123.009         340.603         340.603
            3764     1.06244E+03     1.06244E+03        -24.4046        -24.4046        -24.9796        -24.9796
            3765     1.13353E+03     1.13353E+03        -21.1691        -21.1691        -27.6823        -27.6823
            3766     1.23054E+03     1.23054E+03         1.96044         1.96044        -5.66430        -5.66430
            3767     1.35029E+03     1.35029E+03         67.6297         67.6297         89.1084         89.1084
            3768     1.49171E+03     1.49171E+03         195.762         195.762         343.605         343.605
            3769     1.06573E+03     1.06573E+03         43.1092         43.1092        -48.7331        -48.7331
            3770     1.14625E+03     1.14625E+03         79.7361         79.7361        -58.5654        -58.5654
            3771     1.27322E+03     1.27322E+03         132.115         132.115        -39.0800        -39.0800
            3772     1.47296E+03     1.47296E+03         191.565         191.565         56.3449         56.3449
            3773     1.78519E+03     1.78519E+03         228.660         228.660         291.337         291.337
            3774     1.05352E+03     1.05352E+03         118.010         118.010        -40.3929        -40.3929
            3775     1.14022E+03     1.14022E+03         181.967         181.967        -47.8860        -47.8860
            3776     1.29571E+03     1.29571E+03         247.817         247.817        -33.7530        -33.7530
            3777     1.56617E+03     1.56617E+03         282.208         282.208         29.0447         29.0447
            3778     2.00646E+03     2.00646E+03         232.035         232.035         170.612         170.612
            3779     1.14269E+03     1.14269E+03         111.129         111.129        -337.599        -337.599
            3780     1.19649E+03     1.19649E+03        -70.5342        -70.5342        -141.812        -141.812
            3781     1.15397E+03     1.15397E+03        -107.772        -107.772        -61.8679        -61.8679
            3782     1.09017E+03     1.09017E+03        -91.3655        -91.3655        -28.4963        -28.4963
            3783     1.03632E+03     1.03632E+03        -64.9731        -64.9731        -13.9791        -13.9791
            3784     1.38989E+03     1.38989E+03         178.724         178.724        -350.016        -350.016
            3785     1.30715E+03     1.30715E+03         26.1568         26.1568        -102.109        -102.109
            3786     1.21225E+03     1.21225E+03        -36.4408        -36.4408        -10.8125        -10.8125
            3787     1.12489E+03     1.12489E+03        -48.4686        -48.4686         12.8608         12.8608
            3788     1.05779E+03     1.05779E+03        -41.5067        -41.5067         14.0759         14.0759
            3789     1.64561E+03     1.64561E+03         218.924         218.924        -329.083        -329.083
            3790     1.41487E+03     1.41487E+03         133.224         133.224        -71.6334        -71.6334
            3791     1.25558E+03     1.25558E+03         65.8439         65.8439         28.1953         28.1953
            3792     1.14411E+03     1.14411E+03         25.4051         25.4051         48.7326         48.7326
            3793     1.06771E+03     1.06771E+03         5.28662         5.28662         40.7690         40.7690
            3794     1.87601E+03     1.87601E+03         232.370         232.370        -261.772        -261.772
            3795     1.51123E+03     1.51123E+03         228.713         228.713        -47.7238        -47.7238
            3796     1.28386E+03     1.28386E+03         176.984         176.984         42.7412         42.7412
            3797     1.14617E+03     1.14617E+03         117.805         117.805         62.1758         62.1758
            3798     1.06318E+03     1.06318E+03         70.0855         70.0855         52.1393         52.1393
            3799     2.03927E+03     2.03927E+03         230.224         230.224        -146.570        -146.570
            3800     1.58076E+03     1.58076E+03         293.112         293.112        -24.8922        -24.8922
            3801     1.29942E+03     1.29942E+03         264.134         264.134         30.0897         30.0897
            3802     1.13888E+03     1.13888E+03         197.808         197.808         43.0325         43.0325
            3803     1.05091E+03     1.05091E+03         130.414         130.414         36.6912         36.6912
            3804     1.03930E+03     1.03930E+03        -59.4044        -59.4044         6.58294         6.58294
            3805     1.09583E+03     1.09583E+03        -82.5733        -82.5733         19.1907         19.1907
            3806     1.16430E+03     1.16430E+03        -94.0025        -94.0025         51.2778         51.2778
            3807     1.21706E+03     1.21706E+03        -52.5153        -52.5153         133.787         133.787
            3808     1.18991E+03     1.18991E+03         122.884         122.884         339.892         339.892
            3809     1.06150E+03     1.06150E+03        -23.4715        -23.4715        -26.8465        -26.8465
            3810     1.13258E+03     1.13258E+03        -20.5373        -20.5373        -28.9688        -28.9688
            3811     1.22952E+03     1.22952E+03         2.27766         2.27766        -6.46875        -6.46875
            3812     1.34896E+03     1.34896E+03         67.5968         67.5968         88.5627         88.5627
            3813     1.48973E+03     1.48973E+03         195.403         195.403         342.863         342.863
            3814     1.06519E+03     1.06519E+03         43.5242         43.5242        -50.5398        -50.5398
            3815     1.14569E+03     1.14569E+03         79.9143         79.9143        -59.8425        -59.8425
            3816     1.27254E+03     1.27254E+03         132.030         132.030        -39.9530        -39.9530
            3817     1.47186E+03     1.47186E+03         191.218         191.218         55.7236         55.7236
            3818     1.78308E+03     1.78308E+03         228.164         228.164         290.682         290.682
            3819     1.05338E+03     1.05338E+03         117.965         117.965        -42.2616        -42.2616
            3820     1.14005E+03     1.14005E+03         181.749         181.749        -49.2880        -49.2880
            3821     1.29534E+03     1.29534E+03         247.543         247.543        -34.7568        -34.7568
            3822     1.56534E+03     1.56534E+03         282.032         282.032         28.2555         28.2555
            3823     2.00449E+03     2.00449E+03         231.982         231.982         169.918         169.918
            3824         684.540         684.540        -43.3213        -43.3213         275.068         275.068
            3825         923.861         923.861        -166.452        -166.452         247.618         247.618
            3826         994.293         994.293        -162.437        -162.437         177.862         177.862
            3827         999.174         999.174        -121.797        -121.797         114.720         114.720
            3828         985.616         985.616        -81.3771        -81.3771         69.1237         69.1237
            3829         455.389         455.389        -136.802        -136.802         223.639         223.639
            3830         724.231         724.231        -174.901        -174.901         281.700         281.700
            3831         859.681         859.681        -157.112        -157.112         233.097         233.097
            3832         917.820         917.820        -117.767        -117.767         162.394         162.394
            3833         939.594         939.594        -80.1033        -80.1033         102.788         102.788
            3834         263.472         263.472        -247.763        -247.763         158.236         158.236
            3835         506.961         506.961        -175.173        -175.173         270.732         270.732
            3836         684.838         684.838        -127.968        -127.968         253.862         253.862
            3837         798.050         798.050        -90.7971        -90.7971         190.499         190.499
            3838         864.703         864.703        -61.6503        -61.6503         126.682         126.682
            3839         123.863         123.863        -358.120        -358.120         94.4702         94.4702
            3840         311.286         311.286        -174.288        -174.288         212.533         212.533
            3841         502.340         502.340        -85.6906        -85.6906         220.073         220.073
            3842         658.782         658.782        -45.7911        -45.7911         176.256         176.256
            3843         770.428         770.428        -27.3403        -27.3403         122.479         122.479
            3844         41.4919         41.4919        -441.435        -441.435         42.1430         42.1430
            3845         175.673         175.673        -174.936        -174.936         116.684         116.684
            3846         361.682         361.682        -48.6120        -48.6120         128.817         128.817
            3847         542.227         542.227        -1.96756        -1.96756         107.775         107.775
            3848         686.773         686.773         8.50555         8.50555         77.2454         77.2454
            3849         977.127         977.127        -81.2667        -81.2667        -75.7081        -75.7081
            3850         983.991         983.991        -121.143        -121.143        -123.988        -123.988
            3851         968.843         968.843        -161.443        -161.443        -188.534        -188.534
            3852         885.807         885.807        -168.033        -168.033        -254.234        -254.234
            3853         640.160         640.160        -61.4926        -61.4926        -264.795        -264.795
            3854         911.653         911.653        -73.7365        -73.7365        -113.049        -113.049
            3855         872.626         872.626        -108.286        -108.286        -174.867        -174.867
            3856         792.720         792.720        -146.683        -146.683        -243.487        -243.487
            3857         638.838         638.838        -174.839        -174.839        -280.184        -280.184
            3858         376.503         376.503        -179.509        -179.509        -198.331        -198.331
            3859         809.420         809.420        -41.9083        -41.9083        -125.934        -125.934
            3860         715.695         715.695        -64.6454        -64.6454        -184.663        -184.663
            3861         575.569         575.569        -102.810        -102.810        -237.284        -237.284
            3862         387.462         387.462        -173.443        -173.443        -238.915        -238.915
            3863         175.917         175.917        -312.320        -312.320        -119.764        -119.764
            3864         704.234         704.234     938.408E-03     938.408E-03        -87.0873        -87.0873
            3865         565.739         565.739        -10.7386        -10.7386        -122.735        -122.735
            3866         388.643         388.643        -55.0754        -55.0754        -148.519        -148.519
            3867         200.020         200.020        -172.915        -172.915        -136.686        -136.686
            3868         55.2285         55.2285        -421.858        -421.858        -52.2672        -52.2672


  Minimum               -15.5242        -15.5242        -662.837        -662.837        -527.302        -527.302
         At Node              28              28              28              28             590             590

  Maximum            2.39215E+03     2.39215E+03         315.312         315.312         524.166         524.166
         At Node              27              27             585             585             574             574

           Total     3.63567E+06     3.63567E+06     58.5901E+03     58.5901E+03     1.74896E+03     1.74896E+03


