********************************************************************************
Field Output Report, written Sat Feb 24 11:10:48 2024

Source 1
---------

   ODB: C:/Users/Isabel Haycock/OneDrive - Imperial College London/Fourth Year/FYP/Isabel Haycock/06 - FE models/Specimen_2/Plate_hole_1.odb
   Step: load
   Frame: Increment     10: Step Time =   0.7143

Loc 1 : Nodal values at shell < composite > < elset = ASSEMBLY_PLATE_1-1_COMPOSITELAYUP-1-1 > from source 1 : SNEG, (fraction = -1.0), Layer = 1
Loc 2 : Nodal values at shell < composite > < elset = ASSEMBLY_PLATE_1-1_COMPOSITELAYUP-1-1 > from source 1 : SPOS, (fraction = 1.0), Layer = 8

Output sorted by column "Node Label".

Field Output reported at nodes for part: PLATE_1-1
   Computation algorithm: EXTRAPOLATE_COMPUTE_AVERAGE
   Averaged at nodes
   Averaging regions: ODB_REGIONS

      Node Label           S.S11           S.S11           S.S22           S.S22           S.S12           S.S12
                          @Loc 1          @Loc 2          @Loc 1          @Loc 2          @Loc 1          @Loc 2
-----------------------------------------------------------------------------------------------------------------
               1     1.22927E+03     1.22927E+03        -57.0143        -57.0143        -25.4814        -25.4814
               2     1.16951E+03     1.16951E+03         1.57404         1.57404    -72.2939E-03    -72.2939E-03
               3     1.16971E+03     1.16971E+03     7.92419E-03     7.92419E-03    -8.12394E-03    -8.12394E-03
               4     1.18275E+03     1.18275E+03    -72.9328E-03    -72.9328E-03         2.46446         2.46446
               5     1.22977E+03     1.22977E+03        -56.8140        -56.8140         24.5688         24.5688
               6     1.16951E+03     1.16951E+03         1.57427         1.57427     72.2872E-03     72.2872E-03
               7         942.539         942.539         26.0835         26.0835        -3.61576        -3.61576
               8     1.17847E+03     1.17847E+03    -89.1541E-03    -89.1541E-03        -2.07583        -2.07583
               9     1.23177E+03     1.23177E+03        -59.3754        -59.3754         27.9118         27.9118
              10     1.25147E+03     1.25147E+03         122.805         122.805         1.39387         1.39387
              11     1.18298E+03     1.18298E+03    -76.0027E-03    -76.0027E-03        -2.46414        -2.46414
              12     1.16971E+03     1.16971E+03     7.92595E-03     7.92595E-03     8.12575E-03     8.12575E-03
              13     1.09966E+03     1.09966E+03         334.374         334.374        -72.8422        -72.8422
              14     1.78706E+03     1.78706E+03         246.931         246.931        -288.646        -288.646
              15     1.23043E+03     1.23043E+03        -59.7482        -59.7482        -29.5450        -29.5450
              16     1.17862E+03     1.17862E+03    -93.0423E-03    -93.0423E-03         2.07779         2.07779
              17     1.25101E+03     1.25101E+03         124.353         124.353        -3.54690        -3.54690
              18     1.09967E+03     1.09967E+03         334.364         334.364         72.8253         72.8253
              19         946.026         946.026         22.7101         22.7101        -3.61095        -3.61095
              20     1.78706E+03     1.78706E+03         246.931         246.931         288.645         288.645
              21        -19.3070        -19.3070        -822.504        -822.504     681.517E-03     681.517E-03
              22         970.829         970.829         223.965         223.965        -476.895        -476.895
              23     2.98080E+03     2.98080E+03         188.266         188.266     333.138E-03     333.138E-03
              24         985.817         985.817         230.442         230.442         483.523         483.523
              25         987.585         987.585         230.714         230.714         484.473         484.473
              26         953.252         953.252         220.915         220.915        -471.866        -471.866
              27     2.98663E+03     2.98663E+03         186.205         186.205         13.9371         13.9371
              28        -19.4430        -19.4430        -826.060        -826.060     742.397E-03     742.397E-03
              29     1.20640E+03     1.20640E+03        -45.7305        -45.7305        -29.7177        -29.7177
              30     1.19311E+03     1.19311E+03        -38.4535        -38.4535        -32.5218        -32.5218
              31     1.18259E+03     1.18259E+03        -30.8208        -30.8208        -32.6009        -32.6009
              32     1.17477E+03     1.17477E+03        -23.8255        -23.8255        -31.0615        -31.0615
              33     1.16921E+03     1.16921E+03        -17.8049        -17.8049        -28.7264        -28.7264
              34     1.16541E+03     1.16541E+03        -12.7970        -12.7970        -26.1219        -26.1219
              35     1.16291E+03     1.16291E+03        -8.69979        -8.69979        -23.5416        -23.5416
              36     1.16137E+03     1.16137E+03        -5.38321        -5.38321        -21.1304        -21.1304
              37     1.16050E+03     1.16050E+03        -2.71855        -2.71855        -18.9488        -18.9488
              38     1.16013E+03     1.16013E+03    -594.468E-03    -594.468E-03        -17.0093        -17.0093
              39     1.16009E+03     1.16009E+03         1.08294         1.08294        -15.3009        -15.3009
              40     1.16029E+03     1.16029E+03         2.39085         2.39085        -13.8010        -13.8010
              41     1.16065E+03     1.16065E+03         3.39290         3.39290        -12.4834        -12.4834
              42     1.16112E+03     1.16112E+03         4.14159         4.14159        -11.3222        -11.3222
              43     1.16165E+03     1.16165E+03         4.68058         4.68058        -10.2938        -10.2938
              44     1.16222E+03     1.16222E+03         5.04643         5.04643        -9.37731        -9.37731
              45     1.16280E+03     1.16280E+03         5.26997         5.26997        -8.55523        -8.55523
              46     1.16338E+03     1.16338E+03         5.37731         5.37731        -7.81296        -7.81296
              47     1.16394E+03     1.16394E+03         5.39064         5.39064        -7.13864        -7.13864
              48     1.16448E+03     1.16448E+03         5.32888         5.32888        -6.52266        -6.52266
              49     1.16500E+03     1.16500E+03         5.20814         5.20814        -5.95733        -5.95733
              50     1.16549E+03     1.16549E+03         5.04210         5.04210        -5.43651        -5.43651
              51     1.16594E+03     1.16594E+03         4.84240         4.84240        -4.95529        -4.95529
              52     1.16636E+03     1.16636E+03         4.61886         4.61886        -4.50969        -4.50969
              53     1.16675E+03     1.16675E+03         4.37973         4.37973        -4.09649        -4.09649
              54     1.16710E+03     1.16710E+03         4.13195         4.13195        -3.71297        -3.71297
              55     1.16743E+03     1.16743E+03         3.88126         3.88126        -3.35684        -3.35684
              56     1.16772E+03     1.16772E+03         3.63241         3.63241        -3.02608        -3.02608
              57     1.16799E+03     1.16799E+03         3.38930         3.38930        -2.71885        -2.71885
              58     1.16823E+03     1.16823E+03         3.15508         3.15508        -2.43345        -2.43345
              59     1.16844E+03     1.16844E+03         2.93229         2.93229        -2.16828        -2.16828
              60     1.16863E+03     1.16863E+03         2.72294         2.72294        -1.92175        -1.92175
              61     1.16879E+03     1.16879E+03         2.52862         2.52862        -1.69234        -1.69234
              62     1.16894E+03     1.16894E+03         2.35055         2.35055        -1.47850        -1.47850
              63     1.16907E+03     1.16907E+03         2.18965         2.18965        -1.27870        -1.27870
              64     1.16917E+03     1.16917E+03         2.04664         2.04664        -1.09140        -1.09140
              65     1.16927E+03     1.16927E+03         1.92200         1.92200    -915.076E-03    -915.076E-03
              66     1.16934E+03     1.16934E+03         1.81610         1.81610    -748.159E-03    -748.159E-03
              67     1.16940E+03     1.16940E+03         1.72920         1.72920    -589.095E-03    -589.095E-03
              68     1.16945E+03     1.16945E+03         1.66146         1.66146    -436.320E-03    -436.320E-03
              69     1.16948E+03     1.16948E+03         1.61298         1.61298    -288.268E-03    -288.268E-03
              70     1.16950E+03     1.16950E+03         1.58381         1.58381    -143.761E-03    -143.761E-03
              71     1.16964E+03     1.16964E+03         1.41714         1.41714    -78.3517E-03    -78.3517E-03
              72     1.16977E+03     1.16977E+03         1.25984         1.25984    -82.0427E-03    -82.0427E-03
              73     1.16990E+03     1.16990E+03         1.09717         1.09717    -83.8314E-03    -83.8314E-03
              74     1.17001E+03     1.17001E+03     932.961E-03     932.961E-03    -83.6217E-03    -83.6217E-03
              75     1.17011E+03     1.17011E+03     771.164E-03     771.164E-03    -81.3771E-03    -81.3771E-03
              76     1.17018E+03     1.17018E+03     615.778E-03     615.778E-03    -77.0946E-03    -77.0946E-03
              77     1.17022E+03     1.17022E+03     470.747E-03     470.747E-03    -70.8300E-03    -70.8300E-03
              78     1.17023E+03     1.17023E+03     339.870E-03     339.870E-03    -62.6729E-03    -62.6729E-03
              79     1.17020E+03     1.17020E+03     226.693E-03     226.693E-03    -52.7953E-03    -52.7953E-03
              80     1.17012E+03     1.17012E+03     134.417E-03     134.417E-03    -41.3748E-03    -41.3748E-03
              81     1.16999E+03     1.16999E+03     65.7299E-03     65.7299E-03    -28.7577E-03    -28.7577E-03
              82     1.16981E+03     1.16981E+03     22.7509E-03     22.7509E-03    -15.1747E-03    -15.1747E-03
              83     1.16973E+03     1.16973E+03     8.08821E-03     8.08821E-03    -14.8995E-03    -14.8995E-03
              84     1.16977E+03     1.16977E+03     8.32189E-03     8.32189E-03    -29.1902E-03    -29.1902E-03
              85     1.16984E+03     1.16984E+03     8.55606E-03     8.55606E-03    -44.4606E-03    -44.4606E-03
              86     1.16995E+03     1.16995E+03     8.95323E-03     8.95323E-03    -60.3829E-03    -60.3829E-03
              87     1.17008E+03     1.17008E+03     9.46453E-03     9.46453E-03    -77.2412E-03    -77.2412E-03
              88     1.17025E+03     1.17025E+03     10.0876E-03     10.0876E-03    -95.2690E-03    -95.2690E-03
              89     1.17046E+03     1.17046E+03     10.8249E-03     10.8249E-03    -114.706E-03    -114.706E-03
              90     1.17071E+03     1.17071E+03     11.6697E-03     11.6697E-03    -135.789E-03    -135.789E-03
              91     1.17100E+03     1.17100E+03     12.6221E-03     12.6221E-03    -158.751E-03    -158.751E-03
              92     1.17134E+03     1.17134E+03     13.6740E-03     13.6740E-03    -183.824E-03    -183.824E-03
              93     1.17173E+03     1.17173E+03     14.8196E-03     14.8196E-03    -211.227E-03    -211.227E-03
              94     1.17218E+03     1.17218E+03     16.0467E-03     16.0467E-03    -241.170E-03    -241.170E-03
              95     1.17269E+03     1.17269E+03     17.3409E-03     17.3409E-03    -273.841E-03    -273.841E-03
              96     1.17327E+03     1.17327E+03     18.6810E-03     18.6810E-03    -309.400E-03    -309.400E-03
              97     1.17392E+03     1.17392E+03     20.0392E-03     20.0392E-03    -347.967E-03    -347.967E-03
              98     1.17465E+03     1.17465E+03     21.3794E-03     21.3794E-03    -389.607E-03    -389.607E-03
              99     1.17546E+03     1.17546E+03     22.6527E-03     22.6527E-03    -434.309E-03    -434.309E-03
             100     1.17637E+03     1.17637E+03     23.7990E-03     23.7990E-03    -481.965E-03    -481.965E-03
             101     1.17738E+03     1.17738E+03     24.7368E-03     24.7368E-03    -532.339E-03    -532.339E-03
             102     1.17848E+03     1.17848E+03     25.3708E-03     25.3708E-03    -585.029E-03    -585.029E-03
             103     1.17970E+03     1.17970E+03     25.5706E-03     25.5706E-03    -639.420E-03    -639.420E-03
             104     1.18102E+03     1.18102E+03     25.1923E-03     25.1923E-03    -694.638E-03    -694.638E-03
             105     1.18245E+03     1.18245E+03     24.0371E-03     24.0371E-03    -749.479E-03    -749.479E-03
             106     1.18398E+03     1.18398E+03     21.9011E-03     21.9011E-03    -802.346E-03    -802.346E-03
             107     1.18562E+03     1.18562E+03     18.4996E-03     18.4996E-03    -851.166E-03    -851.166E-03
             108     1.18735E+03     1.18735E+03     13.5684E-03     13.5684E-03    -893.315E-03    -893.315E-03
             109     1.18915E+03     1.18915E+03     6.73836E-03     6.73836E-03    -925.544E-03    -925.544E-03
             110     1.19101E+03     1.19101E+03    -2.28344E-03    -2.28344E-03    -943.918E-03    -943.918E-03
             111     1.19288E+03     1.19288E+03    -13.8968E-03    -13.8968E-03    -943.800E-03    -943.800E-03
             112     1.19472E+03     1.19472E+03    -28.3253E-03    -28.3253E-03    -919.872E-03    -919.872E-03
             113     1.19649E+03     1.19649E+03    -45.8348E-03    -45.8348E-03    -866.285E-03    -866.285E-03
             114     1.19812E+03     1.19812E+03    -66.3735E-03    -66.3735E-03    -776.863E-03    -776.863E-03
             115     1.19953E+03     1.19953E+03    -89.7339E-03    -89.7339E-03    -645.598E-03    -645.598E-03
             116     1.20063E+03     1.20063E+03    -115.253E-03    -115.253E-03    -467.167E-03    -467.167E-03
             117     1.20133E+03     1.20133E+03    -141.746E-03    -141.746E-03    -237.942E-03    -237.942E-03
             118     1.20152E+03     1.20152E+03    -167.543E-03    -167.543E-03     43.1058E-03     43.1058E-03
             119     1.20111E+03     1.20111E+03    -190.052E-03    -190.052E-03     372.959E-03     372.959E-03
             120     1.20000E+03     1.20000E+03    -206.437E-03    -206.437E-03     743.429E-03     743.429E-03
             121     1.19813E+03     1.19813E+03    -212.941E-03    -212.941E-03         1.13997         1.13997
             122     1.19547E+03     1.19547E+03    -206.218E-03    -206.218E-03         1.54109         1.54109
             123     1.19204E+03     1.19204E+03    -183.183E-03    -183.183E-03         1.91895         1.91895
             124     1.18792E+03     1.18792E+03    -141.726E-03    -141.726E-03         2.23854         2.23854
             125     1.18376E+03     1.18376E+03    -212.825E-03    -212.825E-03         4.54509         4.54509
             126     1.18601E+03     1.18601E+03    -621.703E-03    -621.703E-03         8.17427         8.17427
             127     1.18865E+03     1.18865E+03        -1.29553        -1.29553         10.8633         10.8633
             128     1.19164E+03     1.19164E+03        -2.27786        -2.27786         12.8311         12.8311
             129     1.19499E+03     1.19499E+03        -3.66880        -3.66880         14.2188         14.2188
             130     1.19876E+03     1.19876E+03        -5.62035        -5.62035         15.0709         15.0709
             131     1.20300E+03     1.20300E+03        -8.33641        -8.33641         15.3241         15.3241
             132     1.20774E+03     1.20774E+03        -12.0688        -12.0688         14.7841         14.7841
             133     1.21292E+03     1.21292E+03        -17.0996        -17.0996         13.0754         13.0754
             134     1.21826E+03     1.21826E+03        -23.6669        -23.6669         9.59791         9.59791
             135     1.22304E+03     1.22304E+03        -31.8180        -31.8180         3.49927         3.49927
             136     1.22578E+03     1.22578E+03        -41.0692        -41.0692        -6.12083        -6.12083
             137     1.20702E+03     1.20702E+03        -45.6092        -45.6092         28.8031         28.8031
             138     1.19383E+03     1.19383E+03        -38.4947        -38.4947         31.7732         31.7732
             139     1.18333E+03     1.18333E+03        -30.9811        -30.9811         32.0427         32.0427
             140     1.17547E+03     1.17547E+03        -24.0455        -24.0455         30.6837         30.6837
             141     1.16983E+03     1.16983E+03        -18.0367        -18.0367         28.4930         28.4930
             142     1.16593E+03     1.16593E+03        -13.0120        -13.0120         25.9927         25.9927
             143     1.16334E+03     1.16334E+03        -8.88624        -8.88624         23.4815         23.4815
             144     1.16171E+03     1.16171E+03        -5.53924        -5.53924         21.1148         21.1148
             145     1.16078E+03     1.16078E+03        -2.84626        -2.84626         18.9605         18.9605
             146     1.16035E+03     1.16035E+03    -697.874E-03    -697.874E-03         17.0371         17.0371
             147     1.16028E+03     1.16028E+03     999.715E-03     999.715E-03         15.3373         15.3373
             148     1.16044E+03     1.16044E+03         2.32392         2.32392         13.8413         13.8413
             149     1.16078E+03     1.16078E+03         3.33897         3.33897         12.5248         12.5248
             150     1.16122E+03     1.16122E+03         4.09792         4.09792         11.3628         11.3628
             151     1.16174E+03     1.16174E+03         4.64499         4.64499         10.3324         10.3324
             152     1.16229E+03     1.16229E+03         5.01720         5.01720         9.41339         9.41339
             153     1.16286E+03     1.16286E+03         5.24575         5.24575         8.58846         8.58846
             154     1.16343E+03     1.16343E+03         5.35707         5.35707         7.84323         7.84323
             155     1.16398E+03     1.16398E+03         5.37358         5.37358         7.16596         7.16596
             156     1.16452E+03     1.16452E+03         5.31439         5.31439         6.54712         6.54712
             157     1.16503E+03     1.16503E+03         5.19574         5.19574         5.97909         5.97909
             158     1.16551E+03     1.16551E+03         5.03145         5.03145         5.45574         5.45574
             159     1.16596E+03     1.16596E+03         4.83320         4.83320         4.97218         4.97218
             160     1.16638E+03     1.16638E+03         4.61090         4.61090         4.52444         4.52444
             161     1.16676E+03     1.16676E+03         4.37284         4.37284         4.10928         4.10928
             162     1.16712E+03     1.16712E+03         4.12599         4.12599         3.72400         3.72400
             163     1.16744E+03     1.16744E+03         3.87612         3.87612         3.36629         3.36629
             164     1.16773E+03     1.16773E+03         3.62799         3.62799         3.03411         3.03411
             165     1.16799E+03     1.16799E+03         3.38551         3.38551         2.72563         2.72563
             166     1.16823E+03     1.16823E+03         3.15185         3.15185         2.43913         2.43913
             167     1.16844E+03     1.16844E+03         2.92955         2.92955         2.17299         2.17299
             168     1.16863E+03     1.16863E+03         2.72064         2.72064         1.92562         1.92562
             169     1.16880E+03     1.16880E+03         2.52671         2.52671         1.69548         1.69548
             170     1.16894E+03     1.16894E+03         2.34899         2.34899         1.48101         1.48101
             171     1.16907E+03     1.16907E+03         2.18840         2.18840         1.28068         1.28068
             172     1.16918E+03     1.16918E+03         2.04565         2.04565         1.09293         1.09293
             173     1.16927E+03     1.16927E+03         1.92126         1.92126     916.229E-03     916.229E-03
             174     1.16934E+03     1.16934E+03         1.81558         1.81558     749.000E-03     749.000E-03
             175     1.16940E+03     1.16940E+03         1.72888         1.72888     589.681E-03     589.681E-03
             176     1.16945E+03     1.16945E+03         1.66133         1.66133     436.699E-03     436.699E-03
             177     1.16948E+03     1.16948E+03         1.61303         1.61303     288.476E-03     288.476E-03
             178     1.16950E+03     1.16950E+03         1.58398         1.58398     143.822E-03     143.822E-03
             179     1.16936E+03     1.16936E+03         1.73331         1.73331     63.2833E-03     63.2833E-03
             180     1.16923E+03     1.16923E+03         1.87681         1.87681     51.7101E-03     51.7101E-03
             181     1.16912E+03     1.16912E+03         1.98911         1.98911     38.3188E-03     38.3188E-03
             182     1.16904E+03     1.16904E+03         2.06625         2.06625     23.5791E-03     23.5791E-03
             183     1.16901E+03     1.16901E+03         2.10550         2.10550     8.00586E-03     8.00586E-03
             184     1.16901E+03     1.16901E+03         2.10547         2.10547    -7.85687E-03    -7.85687E-03
             185     1.16905E+03     1.16905E+03         2.06617         2.06617    -23.4519E-03    -23.4519E-03
             186     1.16912E+03     1.16912E+03         1.98900         1.98900    -38.2384E-03    -38.2384E-03
             187     1.16923E+03     1.16923E+03         1.87665         1.87665    -51.6811E-03    -51.6811E-03
             188     1.16936E+03     1.16936E+03         1.73310         1.73310    -63.2712E-03    -63.2712E-03
             189         968.375         968.375         13.5766         13.5766         63.9337         63.9337
             190     1.03779E+03     1.03779E+03        -18.0190        -18.0190         100.561         100.561
             191     1.11455E+03     1.11455E+03        -47.8344        -47.8344         102.490         102.490
             192     1.17402E+03     1.17402E+03        -63.6776        -63.6776         81.6580         81.6580
             193     1.20940E+03     1.20940E+03        -65.0496        -65.0496         53.7558         53.7558
             194     1.20294E+03     1.20294E+03        -64.9341        -64.9341        -59.2975        -59.2975
             195     1.15198E+03     1.15198E+03        -58.2252        -58.2252        -90.5757        -90.5757
             196     1.06987E+03     1.06987E+03        -30.7743        -30.7743        -102.794        -102.794
             197         983.652         983.652         6.53739         6.53739        -72.0726        -72.0726
             198     1.17958E+03     1.17958E+03    -260.164E-03    -260.164E-03        -3.78991        -3.78991
             199     1.18207E+03     1.18207E+03    -758.762E-03    -758.762E-03        -6.71042        -6.71042
             200     1.18506E+03     1.18506E+03        -1.57301        -1.57301        -8.75016        -8.75016
             201     1.18848E+03     1.18848E+03        -2.73760        -2.73760        -10.1444        -10.1444
             202     1.19233E+03     1.19233E+03        -4.34391        -4.34391        -11.0444        -11.0444
             203     1.19664E+03     1.19664E+03        -6.53550        -6.53550        -11.5018        -11.5018
             204     1.20146E+03     1.20146E+03        -9.50841        -9.50841        -11.4580        -11.4580
             205     1.20679E+03     1.20679E+03        -13.5068        -13.5068        -10.7208        -10.7208
             206     1.21256E+03     1.21256E+03        -18.8060        -18.8060        -8.91408        -8.91408
             207     1.21847E+03     1.21847E+03        -25.6375        -25.6375        -5.43392        -5.43392
             208     1.22379E+03     1.22379E+03        -34.0422        -34.0422     578.459E-03     578.459E-03
             209     1.22703E+03     1.22703E+03        -43.5371        -43.5371         10.0441         10.0441
             210     1.25725E+03     1.25725E+03        -52.0072        -52.0072         2.87069         2.87069
             211     1.27348E+03     1.27348E+03        -24.0321        -24.0321        -24.5420        -24.5420
             212     1.27348E+03     1.27348E+03         30.9259         30.9259        -44.2144        -44.2144
             213     1.26007E+03     1.26007E+03         93.7474         93.7474        -36.0931        -36.0931
             214     1.25976E+03     1.25976E+03         94.2856         94.2856         38.9054         38.9054
             215     1.27285E+03     1.27285E+03         32.0176         32.0176         47.1129         47.1129
             216     1.27250E+03     1.27250E+03        -22.3949        -22.3949         27.6040         27.6040
             217     1.25591E+03     1.25591E+03        -49.8611        -49.8611     420.768E-03     420.768E-03
             218     1.17629E+03     1.17629E+03     30.1822E-03     30.1822E-03         2.52693         2.52693
             219     1.16955E+03     1.16955E+03     151.436E-03     151.436E-03         2.32147         2.32147
             220     1.16382E+03     1.16382E+03     263.699E-03     263.699E-03         1.80888         1.80888
             221     1.15986E+03     1.15986E+03     342.988E-03     342.988E-03         1.04361         1.04361
             222     1.15822E+03     1.15822E+03     370.670E-03     370.670E-03     137.029E-03     137.029E-03
             223     1.15909E+03     1.15909E+03     339.624E-03     339.624E-03    -764.815E-03    -764.815E-03
             224     1.16226E+03     1.16226E+03     256.984E-03     256.984E-03        -1.51585        -1.51585
             225     1.16715E+03     1.16715E+03     141.441E-03     141.441E-03        -2.00476        -2.00476
             226     1.17296E+03     1.17296E+03     16.9212E-03     16.9212E-03        -2.17703        -2.17703
             227     1.22558E+03     1.22558E+03        -41.1542        -41.1542         6.25366         6.25366
             228     1.22289E+03     1.22289E+03        -31.9064        -31.9064        -3.40320        -3.40320
             229     1.21815E+03     1.21815E+03        -23.7616        -23.7616        -9.51552        -9.51552
             230     1.21285E+03     1.21285E+03        -17.2009        -17.2009        -13.0023        -13.0023
             231     1.20770E+03     1.20770E+03        -12.1729        -12.1729        -14.7220        -14.7220
             232     1.20298E+03     1.20298E+03        -8.43632        -8.43632        -15.2749        -15.2749
             233     1.19877E+03     1.19877E+03        -5.70890        -5.70890        -15.0346        -15.0346
             234     1.19502E+03     1.19502E+03        -3.74055        -3.74055        -14.1930        -14.1930
             235     1.19170E+03     1.19170E+03        -2.33034        -2.33034        -12.8125        -12.8125
             236     1.18874E+03     1.18874E+03        -1.32886        -1.32886        -10.8492        -10.8492
             237     1.18615E+03     1.18615E+03    -639.249E-03    -639.249E-03        -8.16369        -8.16369
             238     1.18396E+03     1.18396E+03    -219.800E-03    -219.800E-03        -4.54059        -4.54059
             239     1.18798E+03     1.18798E+03    -141.545E-03    -141.545E-03        -2.23605        -2.23605
             240     1.19210E+03     1.19210E+03    -183.347E-03    -183.347E-03        -1.91583        -1.91583
             241     1.19553E+03     1.19553E+03    -206.241E-03    -206.241E-03        -1.53789        -1.53789
             242     1.19818E+03     1.19818E+03    -213.003E-03    -213.003E-03        -1.13677        -1.13677
             243     1.20004E+03     1.20004E+03    -206.374E-03    -206.374E-03    -740.303E-03    -740.303E-03
             244     1.20115E+03     1.20115E+03    -189.980E-03    -189.980E-03    -370.031E-03    -370.031E-03
             245     1.20155E+03     1.20155E+03    -167.414E-03    -167.414E-03    -40.4298E-03    -40.4298E-03
             246     1.20136E+03     1.20136E+03    -141.606E-03    -141.606E-03     240.305E-03     240.305E-03
             247     1.20065E+03     1.20065E+03    -115.106E-03    -115.106E-03     469.213E-03     469.213E-03
             248     1.19955E+03     1.19955E+03    -89.5890E-03    -89.5890E-03     647.325E-03     647.325E-03
             249     1.19814E+03     1.19814E+03    -66.2472E-03    -66.2472E-03     778.301E-03     778.301E-03
             250     1.19650E+03     1.19650E+03    -45.7192E-03    -45.7192E-03     867.465E-03     867.465E-03
             251     1.19473E+03     1.19473E+03    -28.2345E-03    -28.2345E-03     920.836E-03     920.836E-03
             252     1.19288E+03     1.19288E+03    -13.8172E-03    -13.8172E-03     944.584E-03     944.584E-03
             253     1.19101E+03     1.19101E+03    -2.22463E-03    -2.22463E-03     944.559E-03     944.559E-03
             254     1.18916E+03     1.18916E+03     6.78936E-03     6.78936E-03     926.070E-03     926.070E-03
             255     1.18736E+03     1.18736E+03     13.6049E-03     13.6049E-03     893.751E-03     893.751E-03
             256     1.18563E+03     1.18563E+03     18.5319E-03     18.5319E-03     851.529E-03     851.529E-03
             257     1.18399E+03     1.18399E+03     21.9241E-03     21.9241E-03     802.653E-03     802.653E-03
             258     1.18245E+03     1.18245E+03     24.0582E-03     24.0582E-03     749.740E-03     749.740E-03
             259     1.18102E+03     1.18102E+03     25.2077E-03     25.2077E-03     694.861E-03     694.861E-03
             260     1.17970E+03     1.17970E+03     25.5851E-03     25.5851E-03     639.612E-03     639.612E-03
             261     1.17848E+03     1.17848E+03     25.3817E-03     25.3817E-03     585.195E-03     585.195E-03
             262     1.17738E+03     1.17738E+03     24.7474E-03     24.7474E-03     532.484E-03     532.484E-03
             263     1.17637E+03     1.17637E+03     23.8072E-03     23.8072E-03     482.091E-03     482.091E-03
             264     1.17546E+03     1.17546E+03     22.6606E-03     22.6606E-03     434.418E-03     434.418E-03
             265     1.17465E+03     1.17465E+03     21.3858E-03     21.3858E-03     389.702E-03     389.702E-03
             266     1.17392E+03     1.17392E+03     20.0453E-03     20.0453E-03     348.050E-03     348.050E-03
             267     1.17327E+03     1.17327E+03     18.6859E-03     18.6859E-03     309.472E-03     309.472E-03
             268     1.17269E+03     1.17269E+03     17.3457E-03     17.3457E-03     273.903E-03     273.903E-03
             269     1.17218E+03     1.17218E+03     16.0507E-03     16.0507E-03     241.224E-03     241.224E-03
             270     1.17173E+03     1.17173E+03     14.8234E-03     14.8234E-03     211.274E-03     211.274E-03
             271     1.17134E+03     1.17134E+03     13.6772E-03     13.6772E-03     183.864E-03     183.864E-03
             272     1.17100E+03     1.17100E+03     12.6251E-03     12.6251E-03     158.786E-03     158.786E-03
             273     1.17071E+03     1.17071E+03     11.6724E-03     11.6724E-03     135.818E-03     135.818E-03
             274     1.17046E+03     1.17046E+03     10.8275E-03     10.8275E-03     114.731E-03     114.731E-03
             275     1.17025E+03     1.17025E+03     10.0898E-03     10.0898E-03     95.2893E-03     95.2893E-03
             276     1.17008E+03     1.17008E+03     9.46668E-03     9.46668E-03     77.2577E-03     77.2577E-03
             277     1.16995E+03     1.16995E+03     8.95522E-03     8.95522E-03     60.3957E-03     60.3957E-03
             278     1.16984E+03     1.16984E+03     8.55800E-03     8.55800E-03     44.4700E-03     44.4700E-03
             279     1.16977E+03     1.16977E+03     8.32374E-03     8.32374E-03     29.1964E-03     29.1964E-03
             280     1.16972E+03     1.16972E+03     8.09003E-03     8.09003E-03     14.9027E-03     14.9027E-03
             281     1.16981E+03     1.16981E+03     22.7559E-03     22.7559E-03     15.1780E-03     15.1780E-03
             282     1.16999E+03     1.16999E+03     65.7442E-03     65.7442E-03     28.7638E-03     28.7638E-03
             283     1.17012E+03     1.17012E+03     134.446E-03     134.446E-03     41.3836E-03     41.3836E-03
             284     1.17020E+03     1.17020E+03     226.742E-03     226.742E-03     52.8063E-03     52.8063E-03
             285     1.17023E+03     1.17023E+03     339.942E-03     339.942E-03     62.6858E-03     62.6858E-03
             286     1.17022E+03     1.17022E+03     470.845E-03     470.845E-03     70.8443E-03     70.8443E-03
             287     1.17018E+03     1.17018E+03     615.906E-03     615.906E-03     77.1100E-03     77.1100E-03
             288     1.17010E+03     1.17010E+03     771.323E-03     771.323E-03     81.3927E-03     81.3927E-03
             289     1.17001E+03     1.17001E+03     933.149E-03     933.149E-03     83.6373E-03     83.6373E-03
             290     1.16990E+03     1.16990E+03         1.09739         1.09739     83.8446E-03     83.8446E-03
             291     1.16977E+03     1.16977E+03         1.26008         1.26008     82.0544E-03     82.0544E-03
             292     1.16964E+03     1.16964E+03         1.41738         1.41738     78.3398E-03     78.3398E-03
             293     1.10542E+03     1.10542E+03         320.690         320.690        -73.3080        -73.3080
             294     1.11695E+03     1.11695E+03         293.138         293.138        -72.8910        -72.8910
             295     1.12816E+03     1.12816E+03         265.553         265.553        -70.5508        -70.5508
             296     1.13877E+03     1.13877E+03         238.504         238.504        -67.0707        -67.0707
             297     1.14853E+03     1.14853E+03         212.430         212.430        -62.5389        -62.5389
             298     1.15726E+03     1.15726E+03         187.709         187.709        -57.1743        -57.1743
             299     1.16488E+03     1.16488E+03         164.622         164.622        -51.1839        -51.1839
             300     1.17130E+03     1.17130E+03         143.376         143.376        -44.8326        -44.8326
             301     1.17656E+03     1.17656E+03         124.057         124.057        -38.3512        -38.3512
             302     1.18071E+03     1.18071E+03         106.689         106.689        -31.9483        -31.9483
             303     1.18387E+03     1.18387E+03         91.2195         91.2195        -25.7981        -25.7981
             304     1.18613E+03     1.18613E+03         77.5535         77.5535        -20.0154        -20.0154
             305     1.18763E+03     1.18763E+03         65.5689         65.5689        -14.6923        -14.6923
             306     1.18846E+03     1.18846E+03         55.1218         55.1218        -9.86343        -9.86343
             307     1.18876E+03     1.18876E+03         46.0731         46.0731        -5.55313        -5.55313
             308     1.18860E+03     1.18860E+03         38.2738         38.2738        -1.74579        -1.74579
             309     1.18808E+03     1.18808E+03         31.5926         31.5926         1.57625         1.57625
             310     1.18726E+03     1.18726E+03         25.8950         25.8950         4.45311         4.45311
             311     1.18622E+03     1.18622E+03         21.0658         21.0658         6.92278         6.92278
             312     1.18500E+03     1.18500E+03         16.9900         16.9900         9.03367         9.03367
             313     1.18364E+03     1.18364E+03         13.5687         13.5687         10.8304         10.8304
             314     1.18218E+03     1.18218E+03         10.7049         10.7049         12.3614         12.3614
             315     1.18064E+03     1.18064E+03         8.31352         8.31352         13.6709         13.6709
             316     1.17907E+03     1.17907E+03         6.31170         6.31170         14.8039         14.8039
             317     1.17748E+03     1.17748E+03         4.62464         4.62464         15.8023         15.8023
             318     1.17588E+03     1.17588E+03         3.17894         3.17894         16.7076         16.7076
             319     1.17432E+03     1.17432E+03         1.90598         1.90598         17.5594         17.5594
             320     1.17280E+03     1.17280E+03     737.103E-03     737.103E-03         18.3974         18.3974
             321     1.17136E+03     1.17136E+03    -394.952E-03    -394.952E-03         19.2607         19.2607
             322     1.17004E+03     1.17004E+03        -1.55971        -1.55971         20.1889         20.1889
             323     1.16887E+03     1.16887E+03        -2.82920        -2.82920         21.2213         21.2213
             324     1.16792E+03     1.16792E+03        -4.28118        -4.28118         22.3974         22.3974
             325     1.16727E+03     1.16727E+03        -6.00103        -6.00103         23.7534         23.7534
             326     1.16702E+03     1.16702E+03        -8.08464        -8.08464         25.3196         25.3196
             327     1.16731E+03     1.16731E+03        -10.6416        -10.6416         27.1120         27.1120
             328     1.16835E+03     1.16835E+03        -13.7948        -13.7948         29.1191         29.1191
             329     1.17039E+03     1.17039E+03        -17.6806        -17.6806         31.2789         31.2789
             330     1.17379E+03     1.17379E+03        -22.4284        -22.4284         33.4408         33.4408
             331     1.17897E+03     1.17897E+03        -28.1315        -28.1315         35.3096         35.3096
             332     1.18641E+03     1.18641E+03        -34.7378        -34.7378         36.3656         36.3656
             333     1.19652E+03     1.19652E+03        -41.9027        -41.9027         35.8136         35.8136
             334     1.20934E+03     1.20934E+03        -48.6461        -48.6461         32.5815         32.5815
             335     1.18276E+03     1.18276E+03    -160.433E-03    -160.433E-03        -1.81086        -1.81086
             336     1.18600E+03     1.18600E+03    -204.037E-03    -204.037E-03        -1.45021        -1.45021
             337     1.18846E+03     1.18846E+03    -229.337E-03    -229.337E-03        -1.02634        -1.02634
             338     1.19005E+03     1.19005E+03    -238.088E-03    -238.088E-03    -574.295E-03    -574.295E-03
             339     1.19074E+03     1.19074E+03    -233.827E-03    -233.827E-03    -121.851E-03    -121.851E-03
             340     1.19056E+03     1.19056E+03    -219.322E-03    -219.322E-03     309.523E-03     309.523E-03
             341     1.18955E+03     1.18955E+03    -198.972E-03    -198.972E-03     705.254E-03     705.254E-03
             342     1.18781E+03     1.18781E+03    -174.759E-03    -174.759E-03         1.05711         1.05711
             343     1.18541E+03     1.18541E+03    -150.243E-03    -150.243E-03         1.36193         1.36193
             344     1.18246E+03     1.18246E+03    -125.740E-03    -125.740E-03         1.62053         1.62053
             345     1.17903E+03     1.17903E+03    -104.029E-03    -104.029E-03         1.83617         1.83617
             346     1.17522E+03     1.17522E+03    -83.5305E-03    -83.5305E-03         2.01375         2.01375
             347     1.17109E+03     1.17109E+03    -67.1641E-03    -67.1641E-03         2.15862         2.15862
             348     1.16669E+03     1.16669E+03    -51.2116E-03    -51.2116E-03         2.27616         2.27616
             349     1.16209E+03     1.16209E+03    -40.0486E-03    -40.0486E-03         2.37122         2.37122
             350     1.15731E+03     1.15731E+03    -27.0852E-03    -27.0852E-03         2.44784         2.44784
             351     1.15240E+03     1.15240E+03    -19.8522E-03    -19.8522E-03         2.50912         2.50912
             352     1.14738E+03     1.14738E+03    -7.29429E-03    -7.29429E-03         2.55710         2.55710
             353     1.14228E+03     1.14228E+03    -2.56684E-03    -2.56684E-03         2.59276         2.59276
             354     1.13712E+03     1.13712E+03     12.8110E-03     12.8110E-03         2.61593         2.61593
             355     1.13192E+03     1.13192E+03     16.0771E-03     16.0771E-03         2.62541         2.62541
             356     1.12673E+03     1.12673E+03     38.3337E-03     38.3337E-03         2.61869         2.61869
             357     1.12156E+03     1.12156E+03     40.4825E-03     40.4825E-03         2.59227         2.59227
             358     1.11647E+03     1.11647E+03     75.2493E-03     75.2493E-03         2.54084         2.54084
             359     1.11152E+03     1.11152E+03     75.5966E-03     75.5966E-03         2.45829         2.45829
             360     1.10676E+03     1.10676E+03     131.592E-03     131.592E-03         2.33528         2.33528
             361     1.10230E+03     1.10230E+03     127.872E-03     127.872E-03         2.16235         2.16235
             362     1.09824E+03     1.09824E+03     219.950E-03     219.950E-03         1.92314         1.92314
             363     1.09474E+03     1.09474E+03     207.165E-03     207.165E-03         1.60368         1.60368
             364     1.09197E+03     1.09197E+03     363.046E-03     363.046E-03         1.17303         1.17303
             365     1.09019E+03     1.09019E+03     330.672E-03     330.672E-03     611.619E-03     611.619E-03
             366     1.08970E+03     1.08970E+03     607.766E-03     607.766E-03    -146.620E-03    -146.620E-03
             367     1.09094E+03     1.09094E+03     531.763E-03     531.763E-03        -1.12488        -1.12488
             368     1.09447E+03     1.09447E+03         1.06576         1.06576        -2.48611        -2.48611
             369     1.10111E+03     1.10111E+03     882.197E-03     882.197E-03        -4.23924        -4.23924
             370     1.11202E+03     1.11202E+03         2.05270         2.05270        -6.85436        -6.85436
             371     1.12895E+03     1.12895E+03         1.55960         1.55960        -10.2381        -10.2381
             372     1.15482E+03     1.15482E+03         4.69498         4.69498        -16.0323        -16.0323
             373     1.19421E+03     1.19421E+03         3.13181         3.13181        -23.6381        -23.6381
             374     1.25787E+03     1.25787E+03         14.8911         14.8911        -40.9135        -40.9135
             375     1.36339E+03     1.36339E+03         8.72626         8.72626        -64.9055        -64.9055
             376     1.60803E+03     1.60803E+03         114.933         114.933        -181.885        -181.885
             377     1.56462E+03     1.56462E+03         300.652         300.652        -307.110        -307.110
             378     1.30659E+03     1.30659E+03         347.017         347.017        -287.227        -287.227
             379     1.23570E+03     1.23570E+03         340.846         340.846        -241.606        -241.606
             380     1.18713E+03     1.18713E+03         340.490         340.490        -217.220        -217.220
             381     1.16117E+03     1.16117E+03         338.107         338.107        -192.045        -192.045
             382     1.14217E+03     1.14217E+03         336.917         336.917        -173.042        -173.042
             383     1.12992E+03     1.12992E+03         335.944         335.944        -154.729        -154.729
             384     1.12058E+03     1.12058E+03         335.283         335.283        -139.044        -139.044
             385     1.11401E+03     1.11401E+03         334.901         334.901        -124.084        -124.084
             386     1.10886E+03     1.10886E+03         334.604         334.604        -110.506        -110.506
             387     1.10506E+03     1.10506E+03         334.481         334.481        -97.5119        -97.5119
             388     1.10205E+03     1.10205E+03         334.371         334.371        -85.3375        -85.3375
             389     1.22654E+03     1.22654E+03        -43.7327        -43.7327        -10.6692        -10.6692
             390     1.22350E+03     1.22350E+03        -34.3791        -34.3791        -1.16902        -1.16902
             391     1.21835E+03     1.21835E+03        -26.0515        -26.0515         4.94981         4.94981
             392     1.21256E+03     1.21256E+03        -19.2267        -19.2267         8.56031         8.56031
             393     1.20685E+03     1.20685E+03        -13.8851        -13.8851         10.4858         10.4858
             394     1.20154E+03     1.20154E+03        -9.82068        -9.82068         11.3154         11.3154
             395     1.19673E+03     1.19673E+03        -6.77732        -6.77732         11.4241         11.4241
             396     1.19242E+03     1.19242E+03        -4.52022        -4.52022         11.0097         11.0097
             397     1.18856E+03     1.18856E+03        -2.85732        -2.85732         10.1361         10.1361
             398     1.18514E+03     1.18514E+03        -1.64598        -1.64598         8.75596         8.75596
             399     1.18217E+03     1.18217E+03    -795.227E-03    -795.227E-03         6.72042         6.72042
             400     1.17971E+03     1.17971E+03    -272.496E-03    -272.496E-03         3.79582         3.79582
             401     1.17349E+03     1.17349E+03     3.82175E-03     3.82175E-03         2.19618         2.19618
             402     1.16809E+03     1.16809E+03     116.685E-03     116.685E-03         2.08348         2.08348
             403     1.16332E+03     1.16332E+03     227.484E-03     227.484E-03         1.70190         1.70190
             404     1.15982E+03     1.15982E+03     315.341E-03     315.341E-03         1.08112         1.08112
             405     1.15811E+03     1.15811E+03     369.876E-03     369.876E-03     289.004E-03     289.004E-03
             406     1.15849E+03     1.15849E+03     368.484E-03     368.484E-03    -565.230E-03    -565.230E-03
             407     1.16094E+03     1.16094E+03     318.977E-03     318.977E-03        -1.35662        -1.35662
             408     1.16519E+03     1.16519E+03     238.254E-03     238.254E-03        -1.99091        -1.99091
             409     1.17073E+03     1.17073E+03     129.868E-03     129.868E-03        -2.39835        -2.39835
             410     1.17697E+03     1.17697E+03     18.7629E-03     18.7629E-03        -2.54439        -2.54439
             411     1.25712E+03     1.25712E+03         104.864         104.864         32.6986         32.6986
             412     1.27027E+03     1.27027E+03         53.5487         53.5487         47.0810         47.0810
             413     1.27674E+03     1.27674E+03    -223.670E-03    -223.670E-03         37.7449         37.7449
             414     1.27040E+03     1.27040E+03        -37.6187        -37.6187         15.4970         15.4970
             415     1.25398E+03     1.25398E+03        -55.0873        -55.0873        -7.30606        -7.30606
             416     1.25575E+03     1.25575E+03        -50.0626        -50.0626    -231.035E-03    -231.035E-03
             417     1.27242E+03     1.27242E+03        -22.7791        -22.7791        -27.4060        -27.4060
             418     1.27292E+03     1.27292E+03         31.4221         31.4221        -47.0149        -47.0149
             419     1.25999E+03     1.25999E+03         93.5669         93.5669        -39.0687        -39.0687
             420     1.10543E+03     1.10543E+03         320.683         320.683         73.2873         73.2873
             421     1.11696E+03     1.11696E+03         293.137         293.137         72.8610         72.8610
             422     1.12815E+03     1.12815E+03         265.559         265.559         70.5105         70.5105
             423     1.13876E+03     1.13876E+03         238.520         238.520         67.0212         67.0212
             424     1.14851E+03     1.14851E+03         212.457         212.457         62.4820         62.4820
             425     1.15725E+03     1.15725E+03         187.747         187.747         57.1131         57.1131
             426     1.16486E+03     1.16486E+03         164.671         164.671         51.1211         51.1211
             427     1.17128E+03     1.17128E+03         143.434         143.434         44.7716         44.7716
             428     1.17655E+03     1.17655E+03         124.123         124.123         38.2942         38.2942
             429     1.18070E+03     1.18070E+03         106.761         106.761         31.8977         31.8977
             430     1.18386E+03     1.18386E+03         91.2950         91.2950         25.7554         25.7554
             431     1.18612E+03     1.18612E+03         77.6307         77.6307         19.9817         19.9817
             432     1.18763E+03     1.18763E+03         65.6458         65.6458         14.6683         14.6683
             433     1.18847E+03     1.18847E+03         55.1967         55.1967         9.84919         9.84919
             434     1.18877E+03     1.18877E+03         46.1449         46.1449         5.54876         5.54876
             435     1.18861E+03     1.18861E+03         38.3412         38.3412         1.75081         1.75081
             436     1.18810E+03     1.18810E+03         31.6553         31.6553        -1.56205        -1.56205
             437     1.18729E+03     1.18729E+03         25.9524         25.9524        -4.43043        -4.43043
             438     1.18625E+03     1.18625E+03         21.1180         21.1180        -6.89198        -6.89198
             439     1.18503E+03     1.18503E+03         17.0370         17.0370        -8.99547        -8.99547
             440     1.18367E+03     1.18367E+03         13.6110         13.6110        -10.7852        -10.7852
             441     1.18221E+03     1.18221E+03         10.7430         10.7430        -12.3098        -12.3098
             442     1.18067E+03     1.18067E+03         8.34835         8.34835        -13.6134        -13.6134
             443     1.17909E+03     1.17909E+03         6.34408         6.34408        -14.7410        -14.7410
             444     1.17749E+03     1.17749E+03         4.65582         4.65582        -15.7345        -15.7345
             445     1.17589E+03     1.17589E+03         3.21023         3.21023        -16.6353        -16.6353
             446     1.17431E+03     1.17431E+03         1.93910         1.93910        -17.4833        -17.4833
             447     1.17278E+03     1.17278E+03     773.945E-03     773.945E-03        -18.3181        -18.3181
             448     1.17132E+03     1.17132E+03    -351.968E-03    -351.968E-03        -19.1791        -19.1791
             449     1.16998E+03     1.16998E+03        -1.50784        -1.50784        -20.1064        -20.1064
             450     1.16878E+03     1.16878E+03        -2.76503        -2.76503        -21.1400        -21.1400
             451     1.16779E+03     1.16779E+03        -4.20087        -4.20087        -22.3202        -22.3202
             452     1.16709E+03     1.16709E+03        -5.90001        -5.90001        -23.6852        -23.6852
             453     1.16678E+03     1.16678E+03        -7.95826        -7.95826        -25.2678        -25.2678
             454     1.16700E+03     1.16700E+03        -10.4851        -10.4851        -27.0878        -27.0878
             455     1.16795E+03     1.16795E+03        -13.6057        -13.6057        -29.1398        -29.1398
             456     1.16990E+03     1.16990E+03        -17.4598        -17.4598        -31.3690        -31.3690
             457     1.17319E+03     1.17319E+03        -22.1872        -22.1872        -33.6352        -33.6352
             458     1.17828E+03     1.17828E+03        -27.8971        -27.8971        -35.6479        -35.6479
             459     1.18567E+03     1.18567E+03        -34.5578        -34.5578        -36.8828        -36.8828
             460     1.19580E+03     1.19580E+03        -41.8351        -41.8351        -36.5157        -36.5157
             461     1.20873E+03     1.20873E+03        -48.7349        -48.7349        -33.4369        -33.4369
             462     1.20555E+03     1.20555E+03        -67.8466        -67.8466        -62.1672        -62.1672
             463     1.15502E+03     1.15502E+03        -61.3552        -61.3552        -92.8566        -92.8566
             464     1.07318E+03     1.07318E+03        -34.0485        -34.0485        -104.392        -104.392
             465         987.089         987.089         3.19300         3.19300        -72.8882        -72.8882
             466         971.871         971.871         10.1971         10.1971         64.6870         64.6870
             467     1.04123E+03     1.04123E+03        -21.3649        -21.3649         101.968         101.968
             468     1.11782E+03     1.11782E+03        -51.0886        -51.0886         104.479         104.479
             469     1.17700E+03     1.17700E+03        -66.7770        -66.7770         84.1687         84.1687
             470     1.21198E+03     1.21198E+03        -67.9446        -67.9446         56.7315         56.7315
             471     1.09759E+03     1.09759E+03         334.362         334.362        -59.4281        -59.4281
             472     1.09600E+03     1.09600E+03         334.384         334.384        -45.6952        -45.6952
             473     1.09490E+03     1.09490E+03         334.405         334.405        -32.3926        -32.3926
             474     1.09421E+03     1.09421E+03         334.430         334.430        -19.3431        -19.3431
             475     1.09388E+03     1.09388E+03         334.438         334.438        -6.47480        -6.47480
             476     1.09388E+03     1.09388E+03         334.432         334.432         6.36486         6.36486
             477     1.09422E+03     1.09422E+03         334.416         334.416         19.2465         19.2465
             478     1.09491E+03     1.09491E+03         334.387         334.387         32.3159         32.3159
             479     1.09601E+03     1.09601E+03         334.364         334.364         45.6413         45.6413
             480     1.09760E+03     1.09760E+03         334.347         334.347         59.3957         59.3957
             481     1.10205E+03     1.10205E+03         334.366         334.366         85.3276         85.3276
             482     1.10507E+03     1.10507E+03         334.479         334.479         97.5051         97.5051
             483     1.10887E+03     1.10887E+03         334.603         334.603         110.501         110.501
             484     1.11401E+03     1.11401E+03         334.900         334.900         124.080         124.080
             485     1.12058E+03     1.12058E+03         335.283         335.283         139.040         139.040
             486     1.12993E+03     1.12993E+03         335.944         335.944         154.726         154.726
             487     1.14217E+03     1.14217E+03         336.917         336.917         173.039         173.039
             488     1.16117E+03     1.16117E+03         338.107         338.107         192.043         192.043
             489     1.18713E+03     1.18713E+03         340.491         340.491         217.218         217.218
             490     1.23570E+03     1.23570E+03         340.846         340.846         241.604         241.604
             491     1.30659E+03     1.30659E+03         347.017         347.017         287.225         287.225
             492     1.56462E+03     1.56462E+03         300.652         300.652         307.109         307.109
             493     1.60803E+03     1.60803E+03         114.933         114.933         181.885         181.885
             494     1.36339E+03     1.36339E+03         8.72622         8.72622         64.9051         64.9051
             495     1.25787E+03     1.25787E+03         14.8910         14.8910         40.9132         40.9132
             496     1.19422E+03     1.19422E+03         3.13176         3.13176         23.6379         23.6379
             497     1.15483E+03     1.15483E+03         4.69494         4.69494         16.0321         16.0321
             498     1.12895E+03     1.12895E+03         1.55956         1.55956         10.2380         10.2380
             499     1.11203E+03     1.11203E+03         2.05266         2.05266         6.85435         6.85435
             500     1.10112E+03     1.10112E+03     882.164E-03     882.164E-03         4.23929         4.23929
             501     1.09448E+03     1.09448E+03         1.06573         1.06573         2.48622         2.48622
             502     1.09094E+03     1.09094E+03     531.742E-03     531.742E-03         1.12504         1.12504
             503     1.08970E+03     1.08970E+03     607.749E-03     607.749E-03     146.812E-03     146.812E-03
             504     1.09019E+03     1.09019E+03     330.660E-03     330.660E-03    -611.401E-03    -611.401E-03
             505     1.09197E+03     1.09197E+03     363.038E-03     363.038E-03        -1.17279        -1.17279
             506     1.09474E+03     1.09474E+03     207.161E-03     207.161E-03        -1.60343        -1.60343
             507     1.09824E+03     1.09824E+03     219.948E-03     219.948E-03        -1.92289        -1.92289
             508     1.10230E+03     1.10230E+03     127.872E-03     127.872E-03        -2.16209        -2.16209
             509     1.10676E+03     1.10676E+03     131.593E-03     131.593E-03        -2.33503        -2.33503
             510     1.11151E+03     1.11151E+03     75.5979E-03     75.5979E-03        -2.45803        -2.45803
             511     1.11647E+03     1.11647E+03     75.2522E-03     75.2522E-03        -2.54059        -2.54059
             512     1.12156E+03     1.12156E+03     40.4838E-03     40.4838E-03        -2.59202        -2.59202
             513     1.12672E+03     1.12672E+03     38.3377E-03     38.3377E-03        -2.61844        -2.61844
             514     1.13192E+03     1.13192E+03     16.0775E-03     16.0775E-03        -2.62517        -2.62517
             515     1.13711E+03     1.13711E+03     12.8160E-03     12.8160E-03        -2.61569        -2.61569
             516     1.14227E+03     1.14227E+03    -2.56802E-03    -2.56802E-03        -2.59251        -2.59251
             517     1.14738E+03     1.14738E+03    -7.28819E-03    -7.28819E-03        -2.55685        -2.55685
             518     1.15240E+03     1.15240E+03    -19.8554E-03    -19.8554E-03        -2.50887        -2.50887
             519     1.15731E+03     1.15731E+03    -27.0775E-03    -27.0775E-03        -2.44758        -2.44758
             520     1.16208E+03     1.16208E+03    -40.0529E-03    -40.0529E-03        -2.37096        -2.37096
             521     1.16669E+03     1.16669E+03    -51.1995E-03    -51.1995E-03        -2.27590        -2.27590
             522     1.17108E+03     1.17108E+03    -67.1624E-03    -67.1624E-03        -2.15835        -2.15835
             523     1.17521E+03     1.17521E+03    -83.5034E-03    -83.5034E-03        -2.01349        -2.01349
             524     1.17903E+03     1.17903E+03    -103.998E-03    -103.998E-03        -1.83596        -1.83596
             525     1.18245E+03     1.18245E+03    -125.670E-03    -125.670E-03        -1.62039        -1.62039
             526     1.18540E+03     1.18540E+03    -150.135E-03    -150.135E-03        -1.36195        -1.36195
             527     1.18780E+03     1.18780E+03    -174.603E-03    -174.603E-03        -1.05736        -1.05736
             528     1.18955E+03     1.18955E+03    -198.738E-03    -198.738E-03    -705.868E-03    -705.868E-03
             529     1.19055E+03     1.19055E+03    -219.075E-03    -219.075E-03    -310.587E-03    -310.587E-03
             530     1.19074E+03     1.19074E+03    -233.513E-03    -233.513E-03     120.250E-03     120.250E-03
             531     1.19005E+03     1.19005E+03    -237.898E-03    -237.898E-03     572.205E-03     572.205E-03
             532     1.18846E+03     1.18846E+03    -229.233E-03    -229.233E-03         1.02396         1.02396
             533     1.18601E+03     1.18601E+03    -204.204E-03    -204.204E-03         1.44788         1.44788
             534     1.18278E+03     1.18278E+03    -161.045E-03    -161.045E-03         1.80994         1.80994
             535         18.9650         18.9650        -580.871        -580.871        -2.75116        -2.75116
             536         161.245         161.245        -214.636        -214.636        -7.34742        -7.34742
             537         388.711         388.711        -40.2738        -40.2738        -8.34810        -8.34810
             538         622.628         622.628         21.4329         21.4329        -7.26151        -7.26151
             539         816.443         816.443         31.3355         31.3355        -5.22622        -5.22622
             540     1.26278E+03     1.26278E+03        -90.9507        -90.9507        -47.4958        -47.4958
             541     1.30870E+03     1.30870E+03        -136.722        -136.722        -85.1103        -85.1103
             542     1.35201E+03     1.35201E+03        -178.750        -178.750        -145.830        -145.830
             543     1.34168E+03     1.34168E+03        -165.012        -165.012        -240.692        -240.692
             544     1.14210E+03     1.14210E+03         44.8105         44.8105        -387.554        -387.554
             545         575.964         575.964         44.8817         44.8817        -307.824        -307.824
             546         268.712         268.712        -214.773        -214.773        -143.053        -143.053
             547         87.4197         87.4197        -500.713        -500.713        -26.4951        -26.4951
             548         3.19959         3.19959        -727.956        -727.956         14.9255         14.9255
             549     1.30595E+03     1.30595E+03         189.653         189.653         1.22548         1.22548
             550     1.41781E+03     1.41781E+03         281.787         281.787         1.05010         1.05010
             551     1.62824E+03     1.62824E+03         366.325         366.325     917.402E-03     917.402E-03
             552     2.00223E+03     2.00223E+03         390.994         390.994     777.437E-03     777.437E-03
             553     2.61005E+03     2.61005E+03         284.142         284.142     513.920E-03     513.920E-03
             554     2.84069E+03     2.84069E+03         221.008         221.008        -330.519        -330.519
             555     2.46463E+03     2.46463E+03         294.412         294.412        -565.103        -565.103
             556     1.95673E+03     1.95673E+03         346.184         346.184        -655.199        -655.199
             557     1.43199E+03     1.43199E+03         323.380         323.380        -609.652        -609.652
             558     1.15527E+03     1.15527E+03         48.6558         48.6558         389.880         389.880
             559     1.35066E+03     1.35066E+03        -164.124        -164.124         237.834         237.834
             560     1.35707E+03     1.35707E+03        -178.244        -178.244         142.400         142.400
             561     1.31127E+03     1.31127E+03        -136.259        -136.259         82.4602         82.4602
             562     1.26400E+03     1.26400E+03        -90.5378        -90.5378         45.7162         45.7162
             563        -4.76116        -4.76116        -766.862        -766.862        -17.4715        -17.4715
             564         47.5917         47.5917        -595.915        -595.915     617.712E-03     617.712E-03
             565         159.136         159.136        -362.719        -362.719         72.5312         72.5312
             566         350.299         350.299        -120.935        -120.935         192.510         192.510
             567         630.808         630.808         84.5112         84.5112         336.115         336.115
             568     1.26602E+03     1.26602E+03        -92.7406        -92.7406         48.2238         48.2238
             569     1.31320E+03     1.31320E+03        -138.060        -138.060         84.1877         84.1877
             570     1.35894E+03     1.35894E+03        -179.704        -179.704         143.548         143.548
             571     1.35259E+03     1.35259E+03        -165.200        -165.200         238.610         238.610
             572     1.15714E+03     1.15714E+03         48.3727         48.3727         390.679         390.679
             573     1.43387E+03     1.43387E+03         322.902         322.902         610.612         610.612
             574     1.95880E+03     1.95880E+03         346.667         346.667         656.241         656.241
             575     2.46647E+03     2.46647E+03         294.852         294.852         566.057         566.057
             576     2.84178E+03     2.84178E+03         221.253         221.253         331.278         331.278
             577     1.12963E+03     1.12963E+03         40.3241         40.3241        -386.075        -386.075
             578     1.33626E+03     1.33626E+03        -170.150        -170.150        -243.799        -243.799
             579     1.34950E+03     1.34950E+03        -182.481        -182.481        -149.927        -149.927
             580     1.30787E+03     1.30787E+03        -139.589        -139.589        -89.0534        -89.0534
             581     1.26310E+03     1.26310E+03        -93.5841        -93.5841        -51.4171        -51.4171
             582     1.30557E+03     1.30557E+03         191.560         191.560        -3.83068        -3.83068
             583     1.41788E+03     1.41788E+03         283.785         283.785        -4.04523        -4.04523
             584     1.62929E+03     1.62929E+03         367.831         367.831        -2.80023        -2.80023
             585     2.00475E+03     2.00475E+03         391.523         391.523         1.04733         1.04733
             586     2.61464E+03     2.61464E+03         283.108         283.108         8.84708         8.84708
             587     2.89653E+03     2.89653E+03         208.643         208.643        -284.074        -284.074
             588     2.62126E+03     2.62126E+03         268.613         268.613        -508.777        -508.777
             589     2.22625E+03     2.22625E+03         329.667         329.667        -636.410        -636.410
             590     1.78090E+03     1.78090E+03         353.506         353.506        -660.211        -660.211
             591     1.34835E+03     1.34835E+03         317.168         317.168        -597.213        -597.213
             592     1.43148E+03     1.43148E+03         322.281         322.281         609.458         609.458
             593     1.95581E+03     1.95581E+03         346.055         346.055         655.003         655.003
             594     2.46299E+03     2.46299E+03         294.185         294.185         565.088         565.088
             595     2.83826E+03     2.83826E+03         221.281         221.281         330.468         330.468
             596         819.013         819.013         28.5772         28.5772        -5.19506        -5.19506
             597         624.271         624.271         19.2118         19.2118        -7.19900        -7.19900
             598         389.576         389.576        -42.2545        -42.2545        -8.25789        -8.25789
             599         161.487         161.487        -216.791        -216.791        -7.24799        -7.24799
             600         18.8861         18.8861        -583.833        -583.833        -2.67190        -2.67190
             601        -4.83934        -4.83934        -770.139        -770.139        -17.5652        -17.5652
             602         47.6378         47.6378        -598.522        -598.522     504.960E-03     504.960E-03
             603         159.439         159.439        -364.464        -364.464         72.5561         72.5561
             604         350.970         350.970        -121.833        -121.833         192.823         192.823
             605         632.013         632.013         84.3352         84.3352         336.727         336.727
             606         576.797         576.797         44.1266         44.1266        -307.938        -307.938
             607         268.959         268.959        -216.434        -216.434        -142.934        -142.934
             608         87.4067         87.4067        -503.308        -503.308        -26.2184        -26.2184
             609         3.07767         3.07767        -731.267        -731.267         15.1626         15.1626
             610     1.21321E+03     1.21321E+03        -40.1078        -40.1078        -15.2384        -15.2384
             611     1.20240E+03     1.20240E+03        -36.0360        -36.0360        -20.2526        -20.2526
             612     1.19288E+03     1.19288E+03        -30.7061        -30.7061        -22.9214        -22.9214
             613     1.18501E+03     1.18501E+03        -25.0814        -25.0814        -23.7814        -23.7814
             614     1.17883E+03     1.17883E+03        -19.7603        -19.7603        -23.4512        -23.4512
             615     1.17414E+03     1.17414E+03        -15.0172        -15.0172        -22.4184        -22.4184
             616     1.17068E+03     1.17068E+03        -10.9391        -10.9391        -21.0321        -21.0321
             617     1.16821E+03     1.16821E+03        -7.50966        -7.50966        -19.5104        -19.5104
             618     1.16651E+03     1.16651E+03        -4.67338        -4.67338        -17.9832        -17.9832
             619     1.16538E+03     1.16538E+03        -2.35871        -2.35871        -16.5203        -16.5203
             620     1.16470E+03     1.16470E+03    -494.692E-03    -494.692E-03        -15.1551        -15.1551
             621     1.16433E+03     1.16433E+03     985.242E-03     985.242E-03        -13.8987        -13.8987
             622     1.16421E+03     1.16421E+03         2.14009         2.14009        -12.7506        -12.7506
             623     1.16426E+03     1.16426E+03         3.02174         3.02174        -11.7036        -11.7036
             624     1.16443E+03     1.16443E+03         3.67501         3.67501        -10.7482        -10.7482
             625     1.16469E+03     1.16469E+03         4.13863         4.13863        -9.87412        -9.87412
             626     1.16499E+03     1.16499E+03         4.44579         4.44579        -9.07183        -9.07183
             627     1.16533E+03     1.16533E+03         4.62498         4.62498        -8.33274        -8.33274
             628     1.16569E+03     1.16569E+03         4.70054         4.70054        -7.64956        -7.64956
             629     1.16604E+03     1.16604E+03         4.69321         4.69321        -7.01617        -7.01617
             630     1.16640E+03     1.16640E+03         4.62063         4.62063        -6.42757        -6.42757
             631     1.16673E+03     1.16673E+03         4.49772         4.49772        -5.87966        -5.87966
             632     1.16705E+03     1.16705E+03         4.33708         4.33708        -5.36906        -5.36906
             633     1.16736E+03     1.16736E+03         4.14927         4.14927        -4.89299        -4.89299
             634     1.16764E+03     1.16764E+03         3.94310         3.94310        -4.44909        -4.44909
             635     1.16789E+03     1.16789E+03         3.72589         3.72589        -4.03530        -4.03530
             636     1.16813E+03     1.16813E+03         3.50367         3.50367        -3.64980        -3.64980
             637     1.16835E+03     1.16835E+03         3.28139         3.28139        -3.29086        -3.29086
             638     1.16854E+03     1.16854E+03         3.06305         3.06305        -2.95688        -2.95688
             639     1.16871E+03     1.16871E+03         2.85189         2.85189        -2.64627        -2.64627
             640     1.16887E+03     1.16887E+03         2.65048         2.65048        -2.35746        -2.35746
             641     1.16901E+03     1.16901E+03         2.46085         2.46085        -2.08887        -2.08887
             642     1.16913E+03     1.16913E+03         2.28459         2.28459        -1.83892        -1.83892
             643     1.16923E+03     1.16923E+03         2.12291         2.12291        -1.60599        -1.60599
             644     1.16933E+03     1.16933E+03         1.97673         1.97673        -1.38846        -1.38846
             645     1.16940E+03     1.16940E+03         1.84673         1.84673        -1.18466        -1.18466
             646     1.16947E+03     1.16947E+03         1.73341         1.73341    -992.916E-03    -992.916E-03
             647     1.16952E+03     1.16952E+03         1.63712         1.63712    -811.537E-03    -811.537E-03
             648     1.16957E+03     1.16957E+03         1.55810         1.55810    -638.816E-03    -638.816E-03
             649     1.16960E+03     1.16960E+03         1.49652         1.49652    -473.034E-03    -473.034E-03
             650     1.16962E+03     1.16962E+03         1.45247         1.45247    -312.470E-03    -312.470E-03
             651     1.16964E+03     1.16964E+03         1.42599         1.42599    -155.814E-03    -155.814E-03
             652     1.21421E+03     1.21421E+03        -33.6561        -33.6561        -5.34301        -5.34301
             653     1.20578E+03     1.20578E+03        -31.8115        -31.8115        -11.0346        -11.0346
             654     1.19788E+03     1.19788E+03        -28.4001        -28.4001        -14.8568        -14.8568
             655     1.19088E+03     1.19088E+03        -24.2090        -24.2090        -17.1115        -17.1115
             656     1.18498E+03     1.18498E+03        -19.8482        -19.8482        -18.1491        -18.1491
             657     1.18019E+03     1.18019E+03        -15.6916        -15.6916        -18.3367        -18.3367
             658     1.17643E+03     1.17643E+03        -11.9339        -11.9339        -17.9705        -17.9705
             659     1.17354E+03     1.17354E+03        -8.65328        -8.65328        -17.2736        -17.2736
             660     1.17137E+03     1.17137E+03        -5.85885        -5.85885        -16.3964        -16.3964
             661     1.16979E+03     1.16979E+03        -3.52520        -3.52520        -15.4380        -15.4380
             662     1.16868E+03     1.16868E+03        -1.60948        -1.60948        -14.4586        -14.4586
             663     1.16792E+03     1.16792E+03    -63.4318E-03    -63.4318E-03        -13.4938        -13.4938
             664     1.16743E+03     1.16743E+03         1.16185         1.16185        -12.5629        -12.5629
             665     1.16716E+03     1.16716E+03         2.11234         2.11234        -11.6751        -11.6751
             666     1.16704E+03     1.16704E+03         2.83021         2.83021        -10.8338        -10.8338
             667     1.16703E+03     1.16703E+03         3.35307         3.35307        -10.0390        -10.0390
             668     1.16710E+03     1.16710E+03         3.71411         3.71411        -9.28938        -9.28938
             669     1.16723E+03     1.16723E+03         3.94221         3.94221        -8.58263        -8.58263
             670     1.16739E+03     1.16739E+03         4.06235         4.06235        -7.91651        -7.91651
             671     1.16758E+03     1.16758E+03         4.09595         4.09595        -7.28885        -7.28885
             672     1.16777E+03     1.16777E+03         4.06124         4.06124        -6.69768        -6.69768
             673     1.16797E+03     1.16797E+03         3.97368         3.97368        -6.14131        -6.14131
             674     1.16816E+03     1.16816E+03         3.84624         3.84624        -5.61822        -5.61822
             675     1.16835E+03     1.16835E+03         3.68979         3.68979        -5.12704        -5.12704
             676     1.16852E+03     1.16852E+03         3.51335         3.51335        -4.66649        -4.66649
             677     1.16868E+03     1.16868E+03         3.32436         3.32436        -4.23532        -4.23532
             678     1.16883E+03     1.16883E+03         3.12892         3.12892        -3.83229        -3.83229
             679     1.16897E+03     1.16897E+03         2.93200         2.93200        -3.45613        -3.45613
             680     1.16909E+03     1.16909E+03         2.73762         2.73762        -3.10551        -3.10551
             681     1.16920E+03     1.16920E+03         2.54897         2.54897        -2.77905        -2.77905
             682     1.16930E+03     1.16930E+03         2.36859         2.36859        -2.47529        -2.47529
             683     1.16938E+03     1.16938E+03         2.19848         2.19848        -2.19273        -2.19273
             684     1.16946E+03     1.16946E+03         2.04017         2.04017        -1.92976        -1.92976
             685     1.16952E+03     1.16952E+03         1.89485         1.89485        -1.68477        -1.68477
             686     1.16958E+03     1.16958E+03         1.76339         1.76339        -1.45607        -1.45607
             687     1.16963E+03     1.16963E+03         1.64644         1.64644        -1.24192        -1.24192
             688     1.16967E+03     1.16967E+03         1.54448         1.54448        -1.04058        -1.04058
             689     1.16970E+03     1.16970E+03         1.45783         1.45783    -850.246E-03    -850.246E-03
             690     1.16973E+03     1.16973E+03         1.38672         1.38672    -669.118E-03    -669.118E-03
             691     1.16975E+03     1.16975E+03         1.33129         1.33129    -495.369E-03    -495.369E-03
             692     1.16976E+03     1.16976E+03         1.29166         1.29166    -327.167E-03    -327.167E-03
             693     1.16977E+03     1.16977E+03         1.26782         1.26782    -163.133E-03    -163.133E-03
             694     1.21263E+03     1.21263E+03        -27.1409        -27.1409         1.90322         1.90322
             695     1.20646E+03     1.20646E+03        -26.9913        -26.9913        -3.79125        -3.79125
             696     1.20023E+03     1.20023E+03        -25.0942        -25.0942        -8.09523        -8.09523
             697     1.19438E+03     1.19438E+03        -22.1926        -22.1926        -11.1364        -11.1364
             698     1.18915E+03     1.18915E+03        -18.8194        -18.8194        -13.1002        -13.1002
             699     1.18467E+03     1.18467E+03        -15.3681        -15.3681        -14.2103        -14.2103
             700     1.18096E+03     1.18096E+03        -12.0842        -12.0842        -14.6892        -14.6892
             701     1.17796E+03     1.17796E+03        -9.10438        -9.10438        -14.7226        -14.7226
             702     1.17558E+03     1.17558E+03        -6.49014        -6.49014        -14.4557        -14.4557
             703     1.17374E+03     1.17374E+03        -4.25513        -4.25513        -13.9936        -13.9936
             704     1.17234E+03     1.17234E+03        -2.38562        -2.38562        -13.4107        -13.4107
             705     1.17129E+03     1.17129E+03    -852.646E-03    -852.646E-03        -12.7576        -12.7576
             706     1.17053E+03     1.17053E+03     379.433E-03     379.433E-03        -12.0681        -12.0681
             707     1.16999E+03     1.16999E+03         1.34844         1.34844        -11.3646        -11.3646
             708     1.16962E+03     1.16962E+03         2.09127         2.09127        -10.6617        -10.6617
             709     1.16938E+03     1.16938E+03         2.64251         2.64251        -9.96906        -9.96906
             710     1.16923E+03     1.16923E+03         3.03351         3.03351        -9.29291        -9.29291
             711     1.16916E+03     1.16916E+03         3.29223         3.29223        -8.63745        -8.63745
             712     1.16914E+03     1.16914E+03         3.44310         3.44310        -8.00553        -8.00553
             713     1.16916E+03     1.16916E+03         3.50729         3.50729        -7.39910        -7.39910
             714     1.16920E+03     1.16920E+03         3.50288         3.50288        -6.81946        -6.81946
             715     1.16925E+03     1.16925E+03         3.44523         3.44523        -6.26748        -6.26748
             716     1.16931E+03     1.16931E+03         3.34725         3.34725        -5.74367        -5.74367
             717     1.16938E+03     1.16938E+03         3.21970         3.21970        -5.24820        -5.24820
             718     1.16944E+03     1.16944E+03         3.07149         3.07149        -4.78099        -4.78099
             719     1.16950E+03     1.16950E+03         2.90995         2.90995        -4.34170        -4.34170
             720     1.16956E+03     1.16956E+03         2.74108         2.74108        -3.92977        -3.92977
             721     1.16961E+03     1.16961E+03         2.56969         2.56969        -3.54441        -3.54441
             722     1.16966E+03     1.16966E+03         2.39968         2.39968        -3.18464        -3.18464
             723     1.16970E+03     1.16970E+03         2.23414         2.23414        -2.84933        -2.84933
             724     1.16974E+03     1.16974E+03         2.07551         2.07551        -2.53718        -2.53718
             725     1.16977E+03     1.16977E+03         1.92567         1.92567        -2.24676        -2.24676
             726     1.16980E+03     1.16980E+03         1.78608         1.78608        -1.97654        -1.97654
             727     1.16982E+03     1.16982E+03         1.65786         1.65786        -1.72489        -1.72489
             728     1.16984E+03     1.16984E+03         1.54182         1.54182        -1.49011        -1.49011
             729     1.16985E+03     1.16985E+03         1.43856         1.43856        -1.27044        -1.27044
             730     1.16987E+03     1.16987E+03         1.34852         1.34852        -1.06406        -1.06406
             731     1.16988E+03     1.16988E+03         1.27200         1.27200    -869.128E-03    -869.128E-03
             732     1.16988E+03     1.16988E+03         1.20921         1.20921    -683.771E-03    -683.771E-03
             733     1.16989E+03     1.16989E+03         1.16027         1.16027    -506.092E-03    -506.092E-03
             734     1.16989E+03     1.16989E+03         1.12526         1.12526    -334.187E-03    -334.187E-03
             735     1.16990E+03     1.16990E+03         1.10421         1.10421    -166.635E-03    -166.635E-03
             736     1.20963E+03     1.20963E+03        -21.1834        -21.1834         6.81443         6.81443
             737     1.20541E+03     1.20541E+03        -22.1159        -22.1159         1.61389         1.61389
             738     1.20077E+03     1.20077E+03        -21.3567        -21.3567        -2.71749        -2.71749
             739     1.19613E+03     1.19613E+03        -19.4985        -19.4985        -6.10754        -6.10754
             740     1.19176E+03     1.19176E+03        -17.0211        -17.0211        -8.61705        -8.61705
             741     1.18782E+03     1.18782E+03        -14.2809        -14.2809        -10.3603        -10.3603
             742     1.18441E+03     1.18441E+03        -11.5351        -11.5351        -11.4766        -11.4766
             743     1.18152E+03     1.18152E+03        -8.94660        -8.94660        -12.1037        -12.1037
             744     1.17914E+03     1.17914E+03        -6.60862        -6.60862        -12.3610        -12.3610
             745     1.17720E+03     1.17720E+03        -4.56397        -4.56397        -12.3463        -12.3463
             746     1.17565E+03     1.17565E+03        -2.82229        -2.82229        -12.1349        -12.1349
             747     1.17442E+03     1.17442E+03        -1.37275        -1.37275        -11.7843        -11.7843
             748     1.17346E+03     1.17346E+03    -192.627E-03    -192.627E-03        -11.3368        -11.3368
             749     1.17271E+03     1.17271E+03     746.533E-03     746.533E-03        -10.8240        -10.8240
             750     1.17214E+03     1.17214E+03         1.47526         1.47526        -10.2694        -10.2694
             751     1.17170E+03     1.17170E+03         2.02362         2.02362        -9.69041        -9.69041
             752     1.17136E+03     1.17136E+03         2.41996         2.41996        -9.10008        -9.10008
             753     1.17111E+03     1.17111E+03         2.69005         2.69005        -8.50843        -8.50843
             754     1.17091E+03     1.17091E+03         2.85683         2.85683        -7.92310        -7.92310
             755     1.17077E+03     1.17077E+03         2.94031         2.94031        -7.34995        -7.34995
             756     1.17065E+03     1.17065E+03         2.95775         2.95775        -6.79346        -6.79346
             757     1.17056E+03     1.17056E+03         2.92378         2.92378        -6.25702        -6.25702
             758     1.17049E+03     1.17049E+03         2.85076         2.85076        -5.74312        -5.74312
             759     1.17043E+03     1.17043E+03         2.74896         2.74896        -5.25350        -5.25350
             760     1.17038E+03     1.17038E+03         2.62687         2.62687        -4.78927        -4.78927
             761     1.17034E+03     1.17034E+03         2.49145         2.49145        -4.35100        -4.35100
             762     1.17030E+03     1.17030E+03         2.34837         2.34837        -3.93881        -3.93881
             763     1.17027E+03     1.17027E+03         2.20216         2.20216        -3.55241        -3.55241
             764     1.17023E+03     1.17023E+03         2.05649         2.05649        -3.19120        -3.19120
             765     1.17020E+03     1.17020E+03         1.91421         1.91421        -2.85428        -2.85428
             766     1.17018E+03     1.17018E+03         1.77760         1.77760        -2.54055        -2.54055
             767     1.17015E+03     1.17015E+03         1.64840         1.64840        -2.24869        -2.24869
             768     1.17013E+03     1.17013E+03         1.52794         1.52794        -1.97724        -1.97724
             769     1.17011E+03     1.17011E+03         1.41723         1.41723        -1.72461        -1.72461
             770     1.17009E+03     1.17009E+03         1.31701         1.31701        -1.48909        -1.48909
             771     1.17007E+03     1.17007E+03         1.22782         1.22782        -1.26894        -1.26894
             772     1.17005E+03     1.17005E+03         1.15004         1.15004        -1.06231        -1.06231
             773     1.17004E+03     1.17004E+03         1.08395         1.08395    -867.340E-03    -867.340E-03
             774     1.17003E+03     1.17003E+03         1.02971         1.02971    -682.121E-03    -682.121E-03
             775     1.17002E+03     1.17002E+03     987.444E-03     987.444E-03    -504.725E-03    -504.725E-03
             776     1.17001E+03     1.17001E+03     957.215E-03     957.215E-03    -333.214E-03    -333.214E-03
             777     1.17001E+03     1.17001E+03     939.038E-03     939.038E-03    -166.154E-03    -166.154E-03
             778     1.20608E+03     1.20608E+03        -16.0978        -16.0978         9.88550         9.88550
             779     1.20341E+03     1.20341E+03        -17.5681        -17.5681         5.38904         5.38904
             780     1.20016E+03     1.20016E+03        -17.5566        -17.5566         1.33688         1.33688
             781     1.19667E+03     1.19667E+03        -16.4906        -16.4906        -2.09625        -2.09625
             782     1.19321E+03     1.19321E+03        -14.7549        -14.7549        -4.85900        -4.85900
             783     1.18994E+03     1.18994E+03        -12.6651        -12.6651        -6.98188        -6.98188
             784     1.18697E+03     1.18697E+03        -10.4566        -10.4566        -8.53386        -8.53386
             785     1.18436E+03     1.18436E+03        -8.29675        -8.29675        -9.60171        -9.60171
             786     1.18211E+03     1.18211E+03        -6.29107        -6.29107        -10.2737        -10.2737
             787     1.18021E+03     1.18021E+03        -4.49928        -4.49928        -10.6299        -10.6299
             788     1.17862E+03     1.17862E+03        -2.94709        -2.94709        -10.7393        -10.7393
             789     1.17730E+03     1.17730E+03        -1.63750        -1.63750        -10.6586        -10.6586
             790     1.17621E+03     1.17621E+03    -559.096E-03    -559.096E-03        -10.4341        -10.4341
             791     1.17532E+03     1.17532E+03     307.875E-03     307.875E-03        -10.1023        -10.1023
             792     1.17458E+03     1.17458E+03     987.182E-03     987.182E-03        -9.69267        -9.69267
             793     1.17397E+03     1.17397E+03         1.50385         1.50385        -9.22851        -9.22851
             794     1.17346E+03     1.17346E+03         1.88232         1.88232        -8.72834        -8.72834
             795     1.17304E+03     1.17304E+03         2.14539         2.14539        -8.20694        -8.20694
             796     1.17268E+03     1.17268E+03         2.31366         2.31366        -7.67602        -7.67602
             797     1.17237E+03     1.17237E+03         2.40531         2.40531        -7.14488        -7.14488
             798     1.17211E+03     1.17211E+03         2.43608         2.43608        -6.62080        -6.62080
             799     1.17187E+03     1.17187E+03         2.41940         2.41940        -6.10943        -6.10943
             800     1.17167E+03     1.17167E+03         2.36659         2.36659        -5.61503        -5.61503
             801     1.17148E+03     1.17148E+03         2.28708         2.28708        -5.14077        -5.14077
             802     1.17132E+03     1.17132E+03         2.18862         2.18862        -4.68882        -4.68882
             803     1.17117E+03     1.17117E+03         2.07759         2.07759        -4.26058        -4.26058
             804     1.17104E+03     1.17104E+03         1.95911         1.95911        -3.85680        -3.85680
             805     1.17091E+03     1.17091E+03         1.83731         1.83731        -3.47766        -3.47766
             806     1.17080E+03     1.17080E+03         1.71549         1.71549        -3.12290        -3.12290
             807     1.17070E+03     1.17070E+03         1.59622         1.59622        -2.79186        -2.79186
             808     1.17061E+03     1.17061E+03         1.48151         1.48151        -2.48361        -2.48361
             809     1.17052E+03     1.17052E+03         1.37292         1.37292        -2.19696        -2.19696
             810     1.17045E+03     1.17045E+03         1.27161         1.27161        -1.93053        -1.93053
             811     1.17038E+03     1.17038E+03         1.17848         1.17848        -1.68279        -1.68279
             812     1.17032E+03     1.17032E+03         1.09417         1.09417        -1.45208        -1.45208
             813     1.17027E+03     1.17027E+03         1.01913         1.01913        -1.23666        -1.23666
             814     1.17023E+03     1.17023E+03     953.713E-03     953.713E-03        -1.03472        -1.03472
             815     1.17019E+03     1.17019E+03     898.123E-03     898.123E-03    -844.397E-03    -844.397E-03
             816     1.17016E+03     1.17016E+03     852.510E-03     852.510E-03    -663.800E-03    -663.800E-03
             817     1.17014E+03     1.17014E+03     816.967E-03     816.967E-03    -491.004E-03    -491.004E-03
             818     1.17012E+03     1.17012E+03     791.550E-03     791.550E-03    -324.076E-03    -324.076E-03
             819     1.17011E+03     1.17011E+03     776.271E-03     776.271E-03    -161.607E-03    -161.607E-03
             820     1.20247E+03     1.20247E+03        -11.9274        -11.9274         11.5809         11.5809
             821     1.20099E+03     1.20099E+03        -13.5423        -13.5423         7.82087         7.82087
             822     1.19891E+03     1.19891E+03        -13.9445        -13.9445         4.19448         4.19448
             823     1.19648E+03     1.19648E+03        -13.4225        -13.4225     923.397E-03     923.397E-03
             824     1.19389E+03     1.19389E+03        -12.2657        -12.2657        -1.87958        -1.87958
             825     1.19132E+03     1.19132E+03        -10.7290        -10.7290        -4.17731        -4.17731
             826     1.18889E+03     1.18889E+03        -9.01797        -9.01797        -5.98456        -5.98456
             827     1.18665E+03     1.18665E+03        -7.28454        -7.28454        -7.34381        -7.34381
             828     1.18463E+03     1.18463E+03        -5.63379        -5.63379        -8.31154        -8.31154
             829     1.18286E+03     1.18286E+03        -4.13027        -4.13027        -8.94785        -8.94785
             830     1.18131E+03     1.18131E+03        -2.80815        -2.80815        -9.31023        -9.31023
             831     1.17997E+03     1.17997E+03        -1.67924        -1.67924        -9.45081        -9.45081
             832     1.17881E+03     1.17881E+03    -740.468E-03    -740.468E-03        -9.41492        -9.41492
             833     1.17780E+03     1.17780E+03     20.5975E-03     20.5975E-03        -9.24135        -9.24135
             834     1.17693E+03     1.17693E+03     621.573E-03     621.573E-03        -8.96262        -8.96262
             835     1.17618E+03     1.17618E+03         1.08233         1.08233        -8.60583        -8.60583
             836     1.17552E+03     1.17552E+03         1.42308         1.42308        -8.19329        -8.19329
             837     1.17494E+03     1.17494E+03         1.66311         1.66311        -7.74330        -7.74330
             838     1.17442E+03     1.17442E+03         1.82016         1.82016        -7.27070        -7.27070
             839     1.17396E+03     1.17396E+03         1.90999         1.90999        -6.78743        -6.78743
             840     1.17354E+03     1.17354E+03         1.94634         1.94634        -6.30299        -6.30299
             841     1.17317E+03     1.17317E+03         1.94098         1.94098        -5.82483        -5.82483
             842     1.17283E+03     1.17283E+03         1.90383         1.90383        -5.35865        -5.35865
             843     1.17252E+03     1.17252E+03         1.84313         1.84313        -4.90872        -4.90872
             844     1.17224E+03     1.17224E+03         1.76570         1.76570        -4.47810        -4.47810
             845     1.17198E+03     1.17198E+03         1.67707         1.67707        -4.06886        -4.06886
             846     1.17175E+03     1.17175E+03         1.58171         1.58171        -3.68223        -3.68223
             847     1.17154E+03     1.17154E+03         1.48319         1.48319        -3.31878        -3.31878
             848     1.17135E+03     1.17135E+03         1.38435         1.38435        -2.97852        -2.97852
             849     1.17117E+03     1.17117E+03         1.28740         1.28740        -2.66102        -2.66102
             850     1.17101E+03     1.17101E+03         1.19406         1.19406        -2.36550        -2.36550
             851     1.17087E+03     1.17087E+03         1.10565         1.10565        -2.09088        -2.09088
             852     1.17074E+03     1.17074E+03         1.02315         1.02315        -1.83589        -1.83589
             853     1.17063E+03     1.17063E+03     947.298E-03     947.298E-03        -1.59906        -1.59906
             854     1.17053E+03     1.17053E+03     878.638E-03     878.638E-03        -1.37880        -1.37880
             855     1.17045E+03     1.17045E+03     817.549E-03     817.549E-03        -1.17342        -1.17342
             856     1.17037E+03     1.17037E+03     764.295E-03     764.295E-03    -981.176E-03    -981.176E-03
             857     1.17031E+03     1.17031E+03     719.055E-03     719.055E-03    -800.246E-03    -800.246E-03
             858     1.17026E+03     1.17026E+03     681.942E-03     681.942E-03    -628.787E-03    -628.787E-03
             859     1.17023E+03     1.17023E+03     653.027E-03     653.027E-03    -464.924E-03    -464.924E-03
             860     1.17020E+03     1.17020E+03     632.352E-03     632.352E-03    -306.776E-03    -306.776E-03
             861     1.17018E+03     1.17018E+03     619.928E-03     619.928E-03    -152.995E-03    -152.995E-03
             862     1.19906E+03     1.19906E+03        -8.58954        -8.58954         12.2474         12.2474
             863     1.19852E+03     1.19852E+03        -10.0921        -10.0921         9.16525         9.16525
             864     1.19741E+03     1.19741E+03        -10.6581        -10.6581         6.01429         6.01429
             865     1.19590E+03     1.19590E+03        -10.4709        -10.4709         3.02068         3.02068
             866     1.19414E+03     1.19414E+03        -9.73617        -9.73617     329.183E-03     329.183E-03
             867     1.19227E+03     1.19227E+03        -8.64855        -8.64855        -1.98415        -1.98415
             868     1.19038E+03     1.19038E+03        -7.37323        -7.37323        -3.89276        -3.89276
             869     1.18856E+03     1.18856E+03        -6.03974        -6.03974        -5.40526        -5.40526
             870     1.18684E+03     1.18684E+03        -4.74091        -4.74091        -6.55092        -6.55092
             871     1.18524E+03     1.18524E+03        -3.53827        -3.53827        -7.37045        -7.37045
             872     1.18379E+03     1.18379E+03        -2.46712        -2.46712        -7.90894        -7.90894
             873     1.18246E+03     1.18246E+03        -1.54341        -1.54341        -8.21127        -8.21127
             874     1.18127E+03     1.18127E+03    -769.135E-03    -769.135E-03        -8.31966        -8.31966
             875     1.18019E+03     1.18019E+03    -137.289E-03    -137.289E-03        -8.27217        -8.27217
             876     1.17921E+03     1.17921E+03     364.553E-03     364.553E-03        -8.10230        -8.10230
             877     1.17832E+03     1.17832E+03     751.505E-03     751.505E-03        -7.83886        -7.83886
             878     1.17752E+03     1.17752E+03         1.03952         1.03952        -7.50628        -7.50628
             879     1.17679E+03     1.17679E+03         1.24420         1.24420        -7.12494        -7.12494
             880     1.17612E+03     1.17612E+03         1.38003         1.38003        -6.71165        -6.71165
             881     1.17550E+03     1.17550E+03         1.46004         1.46004        -6.28005        -6.28005
             882     1.17494E+03     1.17494E+03         1.49561         1.49561        -5.84110        -5.84110
             883     1.17443E+03     1.17443E+03         1.49652         1.49652        -5.40341        -5.40341
             884     1.17395E+03     1.17395E+03         1.47102         1.47102        -4.97364        -4.97364
             885     1.17352E+03     1.17352E+03         1.42597         1.42597        -4.55679        -4.55679
             886     1.17312E+03     1.17312E+03         1.36699         1.36699        -4.15648        -4.15648
             887     1.17276E+03     1.17276E+03         1.29867         1.29867        -3.77524        -3.77524
             888     1.17243E+03     1.17243E+03         1.22470         1.22470        -3.41462        -3.41462
             889     1.17213E+03     1.17213E+03         1.14801         1.14801        -3.07545        -3.07545
             890     1.17185E+03     1.17185E+03         1.07090         1.07090        -2.75793        -2.75793
             891     1.17160E+03     1.17160E+03     995.193E-03     995.193E-03        -2.46180        -2.46180
             892     1.17138E+03     1.17138E+03     922.261E-03     922.261E-03        -2.18640        -2.18640
             893     1.17118E+03     1.17118E+03     853.165E-03     853.165E-03        -1.93076        -1.93076
             894     1.17101E+03     1.17101E+03     788.699E-03     788.699E-03        -1.69370        -1.69370
             895     1.17085E+03     1.17085E+03     729.444E-03     729.444E-03        -1.47386        -1.47386
             896     1.17071E+03     1.17071E+03     675.822E-03     675.822E-03        -1.26973        -1.26973
             897     1.17059E+03     1.17059E+03     628.130E-03     628.130E-03        -1.07971        -1.07971
             898     1.17049E+03     1.17049E+03     586.570E-03     586.570E-03    -902.142E-03    -902.142E-03
             899     1.17041E+03     1.17041E+03     551.275E-03     551.275E-03    -735.300E-03    -735.300E-03
             900     1.17034E+03     1.17034E+03     522.330E-03     522.330E-03    -577.432E-03    -577.432E-03
             901     1.17029E+03     1.17029E+03     499.781E-03     499.781E-03    -426.762E-03    -426.762E-03
             902     1.17025E+03     1.17025E+03     483.660E-03     483.660E-03    -281.503E-03    -281.503E-03
             903     1.17023E+03     1.17023E+03     473.978E-03     473.978E-03    -140.416E-03    -140.416E-03
             904     1.19597E+03     1.19597E+03        -5.95396        -5.95396         12.1049         12.1049
             905     1.19621E+03     1.19621E+03        -7.19879        -7.19879         9.61141         9.61141
             906     1.19594E+03     1.19594E+03        -7.75960        -7.75960         6.93320         6.93320
             907     1.19526E+03     1.19526E+03        -7.74870        -7.74870         4.28049         4.28049
             908     1.19426E+03     1.19426E+03        -7.30445        -7.30445         1.80434         1.80434
             909     1.19304E+03     1.19304E+03        -6.56660        -6.56660    -398.659E-03    -398.659E-03
             910     1.19170E+03     1.19170E+03        -5.65974        -5.65974        -2.27832        -2.27832
             911     1.19030E+03     1.19030E+03        -4.68482        -4.68482        -3.81892        -3.81892
             912     1.18888E+03     1.18888E+03        -3.71764        -3.71764        -5.02962        -5.02962
             913     1.18749E+03     1.18749E+03        -2.80987        -2.80987        -5.93509        -5.93509
             914     1.18615E+03     1.18615E+03        -1.99326        -1.99326        -6.56884        -6.56884
             915     1.18486E+03     1.18486E+03        -1.28359        -1.28359        -6.96813        -6.96813
             916     1.18365E+03     1.18365E+03    -685.229E-03    -685.229E-03        -7.17048        -7.17048
             917     1.18250E+03     1.18250E+03    -194.626E-03    -194.626E-03        -7.21151        -7.21151
             918     1.18142E+03     1.18142E+03     196.559E-03     196.559E-03        -7.12369        -7.12369
             919     1.18041E+03     1.18041E+03     499.279E-03     499.279E-03        -6.93574        -6.93574
             920     1.17946E+03     1.17946E+03     725.485E-03     725.485E-03        -6.67246        -6.67246
             921     1.17858E+03     1.17858E+03     887.066E-03     887.066E-03        -6.35484        -6.35484
             922     1.17776E+03     1.17776E+03     995.196E-03     995.196E-03        -6.00036        -6.00036
             923     1.17699E+03     1.17699E+03         1.05997         1.05997        -5.62330        -5.62330
             924     1.17628E+03     1.17628E+03         1.09026         1.09026        -5.23515        -5.23515
             925     1.17563E+03     1.17563E+03         1.09366         1.09366        -4.84498        -4.84498
             926     1.17502E+03     1.17502E+03         1.07661         1.07661        -4.45980        -4.45980
             927     1.17446E+03     1.17446E+03         1.04443         1.04443        -4.08489        -4.08489
             928     1.17395E+03     1.17395E+03         1.00149         1.00149        -3.72410        -3.72410
             929     1.17348E+03     1.17348E+03     951.340E-03     951.340E-03        -3.38010        -3.38010
             930     1.17305E+03     1.17305E+03     896.813E-03     896.813E-03        -3.05459        -3.05459
             931     1.17266E+03     1.17266E+03     840.160E-03     840.160E-03        -2.74851        -2.74851
             932     1.17231E+03     1.17231E+03     783.147E-03     783.147E-03        -2.46217        -2.46217
             933     1.17199E+03     1.17199E+03     727.144E-03     727.144E-03        -2.19538        -2.19538
             934     1.17170E+03     1.17170E+03     673.199E-03     673.199E-03        -1.94759        -1.94759
             935     1.17145E+03     1.17145E+03     622.107E-03     622.107E-03        -1.71794        -1.71794
             936     1.17122E+03     1.17122E+03     574.457E-03     574.457E-03        -1.50533        -1.50533
             937     1.17102E+03     1.17102E+03     530.682E-03     530.682E-03        -1.30853        -1.30853
             938     1.17085E+03     1.17085E+03     491.088E-03     491.088E-03        -1.12614        -1.12614
             939     1.17070E+03     1.17070E+03     455.891E-03     455.891E-03    -956.704E-03    -956.704E-03
             940     1.17057E+03     1.17057E+03     425.236E-03     425.236E-03    -798.673E-03    -798.673E-03
             941     1.17046E+03     1.17046E+03     399.212E-03     399.212E-03    -650.472E-03    -650.472E-03
             942     1.17038E+03     1.17038E+03     377.876E-03     377.876E-03    -510.489E-03    -510.489E-03
             943     1.17031E+03     1.17031E+03     361.259E-03     361.259E-03    -377.094E-03    -377.094E-03
             944     1.17027E+03     1.17027E+03     349.377E-03     349.377E-03    -248.652E-03    -248.652E-03
             945     1.17024E+03     1.17024E+03     342.246E-03     342.246E-03    -124.068E-03    -124.068E-03
             946     1.19326E+03     1.19326E+03        -3.89399        -3.89399         11.2577         11.2577
             947     1.19422E+03     1.19422E+03        -4.81613        -4.81613         9.26986         9.26986
             948     1.19472E+03     1.19472E+03        -5.27332        -5.27332         7.04774         7.04774
             949     1.19479E+03     1.19479E+03        -5.33063        -5.33063         4.77527         4.77527
             950     1.19450E+03     1.19450E+03        -5.07625        -5.07625         2.59501         2.59501
             951     1.19390E+03     1.19390E+03        -4.60359        -4.60359     606.730E-03     606.730E-03
             952     1.19307E+03     1.19307E+03        -3.99897        -3.99897        -1.12853        -1.12853
             953     1.19206E+03     1.19206E+03        -3.33474        -3.33474        -2.58236        -2.58236
             954     1.19094E+03     1.19094E+03        -2.66627        -2.66627        -3.75070        -3.75070
             955     1.18974E+03     1.18974E+03        -2.03271        -2.03271        -4.64688        -4.64688
             956     1.18850E+03     1.18850E+03        -1.45861        -1.45861        -5.29500        -5.29500
             957     1.18725E+03     1.18725E+03    -957.104E-03    -957.104E-03        -5.72511        -5.72511
             958     1.18600E+03     1.18600E+03    -532.601E-03    -532.601E-03        -5.96940        -5.96940
             959     1.18478E+03     1.18478E+03    -183.576E-03    -183.576E-03        -6.05969        -6.05969
             960     1.18359E+03     1.18359E+03     95.3220E-03     95.3220E-03        -6.02578        -6.02578
             961     1.18244E+03     1.18244E+03     311.528E-03     311.528E-03        -5.89452        -5.89452
             962     1.18135E+03     1.18135E+03     473.377E-03     473.377E-03        -5.68940        -5.68940
             963     1.18031E+03     1.18031E+03     589.263E-03     589.263E-03        -5.43048        -5.43048
             964     1.17933E+03     1.17933E+03     667.130E-03     667.130E-03        -5.13452        -5.13452
             965     1.17841E+03     1.17841E+03     714.183E-03     714.183E-03        -4.81526        -4.81526
             966     1.17755E+03     1.17755E+03     736.754E-03     736.754E-03        -4.48377        -4.48377
             967     1.17675E+03     1.17675E+03     740.283E-03     740.283E-03        -4.14877        -4.14877
             968     1.17600E+03     1.17600E+03     729.347E-03     729.347E-03        -3.81698        -3.81698
             969     1.17532E+03     1.17532E+03     707.741E-03     707.741E-03        -3.49348        -3.49348
             970     1.17469E+03     1.17469E+03     678.569E-03     678.569E-03        -3.18193        -3.18193
             971     1.17412E+03     1.17412E+03     644.335E-03     644.335E-03        -2.88488        -2.88488
             972     1.17359E+03     1.17359E+03     607.041E-03     607.041E-03        -2.60396        -2.60396
             973     1.17312E+03     1.17312E+03     568.265E-03     568.265E-03        -2.34007        -2.34007
             974     1.17269E+03     1.17269E+03     529.241E-03     529.241E-03        -2.09353        -2.09353
             975     1.17230E+03     1.17230E+03     490.920E-03     490.920E-03        -1.86419        -1.86419
             976     1.17196E+03     1.17196E+03     454.027E-03     454.027E-03        -1.65156        -1.65156
             977     1.17165E+03     1.17165E+03     419.107E-03     419.107E-03        -1.45488        -1.45488
             978     1.17138E+03     1.17138E+03     386.562E-03     386.562E-03        -1.27318        -1.27318
             979     1.17114E+03     1.17114E+03     356.684E-03     356.684E-03        -1.10535        -1.10535
             980     1.17093E+03     1.17093E+03     329.678E-03     329.678E-03    -950.166E-03    -950.166E-03
             981     1.17075E+03     1.17075E+03     305.687E-03     305.687E-03    -806.324E-03    -806.324E-03
             982     1.17060E+03     1.17060E+03     284.803E-03     284.803E-03    -672.469E-03    -672.469E-03
             983     1.17047E+03     1.17047E+03     267.087E-03     267.087E-03    -547.210E-03    -547.210E-03
             984     1.17037E+03     1.17037E+03     252.566E-03     252.566E-03    -429.138E-03    -429.138E-03
             985     1.17030E+03     1.17030E+03     241.254E-03     241.254E-03    -316.821E-03    -316.821E-03
             986     1.17024E+03     1.17024E+03     233.164E-03     233.164E-03    -208.821E-03    -208.821E-03
             987     1.17021E+03     1.17021E+03     228.310E-03     228.310E-03    -104.259E-03    -104.259E-03
             988     1.19100E+03     1.19100E+03        -2.30973        -2.30973         9.71185         9.71185
             989     1.19271E+03     1.19271E+03        -2.90505        -2.90505         8.17460         8.17460
             990     1.19396E+03     1.19396E+03        -3.21620        -3.21620         6.40553         6.40553
             991     1.19475E+03     1.19475E+03        -3.27874        -3.27874         4.55623         4.55623
             992     1.19512E+03     1.19512E+03        -3.14381        -3.14381         2.74941         2.74941
             993     1.19508E+03     1.19508E+03        -2.86778        -2.86778         1.07588         1.07588
             994     1.19471E+03     1.19471E+03        -2.50405        -2.50405    -405.152E-03    -405.152E-03
             995     1.19406E+03     1.19406E+03        -2.09818        -2.09818        -1.66179        -1.66179
             996     1.19318E+03     1.19318E+03        -1.68587        -1.68587        -2.68431        -2.68431
             997     1.19213E+03     1.19213E+03        -1.29252        -1.29252        -3.47903        -3.47903
             998     1.19095E+03     1.19095E+03    -934.570E-03    -934.570E-03        -4.06316        -4.06316
             999     1.18969E+03     1.18969E+03    -620.920E-03    -620.920E-03        -4.46021        -4.46021
            1000     1.18838E+03     1.18838E+03    -354.929E-03    -354.929E-03        -4.69659        -4.69659
            1001     1.18705E+03     1.18705E+03    -135.954E-03    -135.954E-03        -4.79909        -4.79909
            1002     1.18572E+03     1.18572E+03     39.1377E-03     39.1377E-03        -4.79320        -4.79320
            1003     1.18443E+03     1.18443E+03     174.927E-03     174.927E-03        -4.70213        -4.70213
            1004     1.18317E+03     1.18317E+03     276.609E-03     276.609E-03        -4.54633        -4.54633
            1005     1.18196E+03     1.18196E+03     349.458E-03     349.458E-03        -4.34330        -4.34330
            1006     1.18081E+03     1.18081E+03     398.483E-03     398.483E-03        -4.10767        -4.10767
            1007     1.17973E+03     1.17973E+03     428.227E-03     428.227E-03        -3.85143        -3.85143
            1008     1.17871E+03     1.17871E+03     442.684E-03     442.684E-03        -3.58420        -3.58420
            1009     1.17776E+03     1.17776E+03     445.277E-03     445.277E-03        -3.31354        -3.31354
            1010     1.17689E+03     1.17689E+03     438.883E-03     438.883E-03        -3.04525        -3.04525
            1011     1.17608E+03     1.17608E+03     425.879E-03     425.879E-03        -2.78368        -2.78368
            1012     1.17534E+03     1.17534E+03     408.204E-03     408.204E-03        -2.53197        -2.53197
            1013     1.17466E+03     1.17466E+03     387.415E-03     387.415E-03        -2.29225        -2.29225
            1014     1.17405E+03     1.17405E+03     364.754E-03     364.754E-03        -2.06590        -2.06590
            1015     1.17349E+03     1.17349E+03     341.196E-03     341.196E-03        -1.85365        -1.85365
            1016     1.17299E+03     1.17299E+03     317.498E-03     317.498E-03        -1.65575        -1.65575
            1017     1.17254E+03     1.17254E+03     294.242E-03     294.242E-03        -1.47204        -1.47204
            1018     1.17214E+03     1.17214E+03     271.870E-03     271.870E-03        -1.30210        -1.30210
            1019     1.17178E+03     1.17178E+03     250.711E-03     250.711E-03        -1.14529        -1.14529
            1020     1.17147E+03     1.17147E+03     231.006E-03     231.006E-03        -1.00078        -1.00078
            1021     1.17119E+03     1.17119E+03     212.929E-03     212.929E-03    -867.633E-03    -867.633E-03
            1022     1.17095E+03     1.17095E+03     196.601E-03     196.601E-03    -744.834E-03    -744.834E-03
            1023     1.17075E+03     1.17075E+03     182.105E-03     182.105E-03    -631.302E-03    -631.302E-03
            1024     1.17058E+03     1.17058E+03     169.494E-03     169.494E-03    -525.919E-03    -525.919E-03
            1025     1.17043E+03     1.17043E+03     158.801E-03     158.801E-03    -427.539E-03    -427.539E-03
            1026     1.17032E+03     1.17032E+03     150.049E-03     150.049E-03    -335.007E-03    -335.007E-03
            1027     1.17023E+03     1.17023E+03     143.229E-03     143.229E-03    -247.173E-03    -247.173E-03
            1028     1.17017E+03     1.17017E+03     138.329E-03     138.329E-03    -162.854E-03    -162.854E-03
            1029     1.17013E+03     1.17013E+03     135.388E-03     135.388E-03    -81.3985E-03    -81.3985E-03
            1030     1.18928E+03     1.18928E+03        -1.14512        -1.14512         7.38339         7.38339
            1031     1.19182E+03     1.19182E+03        -1.45713        -1.45713         6.28889         6.28889
            1032     1.19388E+03     1.19388E+03        -1.62508        -1.62508         5.00729         5.00729
            1033     1.19540E+03     1.19540E+03        -1.66572        -1.66572         3.65150         3.65150
            1034     1.19639E+03     1.19639E+03        -1.60424        -1.60424         2.31451         2.31451
            1035     1.19687E+03     1.19687E+03        -1.46885        -1.46885         1.06674         1.06674
            1036     1.19688E+03     1.19688E+03        -1.28681        -1.28681    -44.3267E-03    -44.3267E-03
            1037     1.19650E+03     1.19650E+03        -1.08173        -1.08173    -992.054E-03    -992.054E-03
            1038     1.19578E+03     1.19578E+03    -872.150E-03    -872.150E-03        -1.76673        -1.76673
            1039     1.19479E+03     1.19479E+03    -671.521E-03    -671.521E-03        -2.37156        -2.37156
            1040     1.19360E+03     1.19360E+03    -488.495E-03    -488.495E-03        -2.81839        -2.81839
            1041     1.19226E+03     1.19226E+03    -327.916E-03    -327.916E-03        -3.12444        -3.12444
            1042     1.19083E+03     1.19083E+03    -191.611E-03    -191.611E-03        -3.30937        -3.30937
            1043     1.18935E+03     1.18935E+03    -79.3643E-03    -79.3643E-03        -3.39337        -3.39337
            1044     1.18785E+03     1.18785E+03     10.4058E-03     10.4058E-03        -3.39577        -3.39577
            1045     1.18636E+03     1.18636E+03     80.0303E-03     80.0303E-03        -3.33419        -3.33419
            1046     1.18491E+03     1.18491E+03     132.181E-03     132.181E-03        -3.22416        -3.22416
            1047     1.18351E+03     1.18351E+03     169.574E-03     169.574E-03        -3.07893        -3.07893
            1048     1.18218E+03     1.18218E+03     194.789E-03     194.789E-03        -2.90957        -2.90957
            1049     1.18092E+03     1.18092E+03     210.165E-03     210.165E-03        -2.72509        -2.72509
            1050     1.17975E+03     1.17975E+03     217.753E-03     217.753E-03        -2.53269        -2.53269
            1051     1.17865E+03     1.17865E+03     219.311E-03     219.311E-03        -2.33799        -2.33799
            1052     1.17764E+03     1.17764E+03     216.309E-03     216.309E-03        -2.14528        -2.14528
            1053     1.17671E+03     1.17671E+03     209.962E-03     209.962E-03        -1.95774        -1.95774
            1054     1.17586E+03     1.17586E+03     201.253E-03     201.253E-03        -1.77763        -1.77763
            1055     1.17508E+03     1.17508E+03     190.976E-03     190.976E-03        -1.60649        -1.60649
            1056     1.17438E+03     1.17438E+03     179.756E-03     179.756E-03        -1.44527        -1.44527
            1057     1.17375E+03     1.17375E+03     168.085E-03     168.085E-03        -1.29447        -1.29447
            1058     1.17318E+03     1.17318E+03     156.344E-03     156.344E-03        -1.15420        -1.15420
            1059     1.17268E+03     1.17268E+03     144.825E-03     144.825E-03        -1.02434        -1.02434
            1060     1.17223E+03     1.17223E+03     133.746E-03     133.746E-03    -904.526E-03    -904.526E-03
            1061     1.17183E+03     1.17183E+03     123.272E-03     123.272E-03    -794.261E-03    -794.261E-03
            1062     1.17148E+03     1.17148E+03     113.522E-03     113.522E-03    -692.924E-03    -692.924E-03
            1063     1.17117E+03     1.17117E+03     104.581E-03     104.581E-03    -599.817E-03    -599.817E-03
            1064     1.17091E+03     1.17091E+03     96.5082E-03     96.5082E-03    -514.183E-03    -514.183E-03
            1065     1.17068E+03     1.17068E+03     89.3437E-03     89.3437E-03    -435.231E-03    -435.231E-03
            1066     1.17049E+03     1.17049E+03     83.1139E-03     83.1139E-03    -362.142E-03    -362.142E-03
            1067     1.17034E+03     1.17034E+03     77.8334E-03     77.8334E-03    -294.088E-03    -294.088E-03
            1068     1.17021E+03     1.17021E+03     73.5127E-03     73.5127E-03    -230.228E-03    -230.228E-03
            1069     1.17012E+03     1.17012E+03     70.1670E-03     70.1670E-03    -169.727E-03    -169.727E-03
            1070     1.17005E+03     1.17005E+03     67.7480E-03     67.7480E-03    -111.787E-03    -111.787E-03
            1071     1.17001E+03     1.17001E+03     66.2432E-03     66.2432E-03    -56.0581E-03    -56.0581E-03
            1072     1.18824E+03     1.18824E+03    -402.796E-03    -402.796E-03         4.12310         4.12310
            1073     1.19180E+03     1.19180E+03    -516.891E-03    -516.891E-03         3.52923         3.52923
            1074     1.19475E+03     1.19475E+03    -579.382E-03    -579.382E-03         2.82879         2.82879
            1075     1.19703E+03     1.19703E+03    -596.206E-03    -596.206E-03         2.08495         2.08495
            1076     1.19861E+03     1.19861E+03    -576.053E-03    -576.053E-03         1.34950         1.34950
            1077     1.19952E+03     1.19952E+03    -528.927E-03    -528.927E-03     661.927E-03     661.927E-03
            1078     1.19983E+03     1.19983E+03    -464.677E-03    -464.677E-03     49.0761E-03     49.0761E-03
            1079     1.19959E+03     1.19959E+03    -391.774E-03    -391.774E-03    -473.794E-03    -473.794E-03
            1080     1.19891E+03     1.19891E+03    -317.018E-03    -317.018E-03    -901.098E-03    -901.098E-03
            1081     1.19787E+03     1.19787E+03    -245.259E-03    -245.259E-03        -1.23442        -1.23442
            1082     1.19656E+03     1.19656E+03    -179.709E-03    -179.709E-03        -1.48041        -1.48041
            1083     1.19504E+03     1.19504E+03    -122.123E-03    -122.123E-03        -1.64863        -1.64863
            1084     1.19340E+03     1.19340E+03    -73.2054E-03    -73.2054E-03        -1.75012        -1.75012
            1085     1.19169E+03     1.19169E+03    -32.8863E-03    -32.8863E-03        -1.79616        -1.79616
            1086     1.18996E+03     1.18996E+03    -609.161E-06    -609.161E-06        -1.79753        -1.79753
            1087     1.18823E+03     1.18823E+03     24.4579E-03     24.4579E-03        -1.76407        -1.76407
            1088     1.18656E+03     1.18656E+03     43.2754E-03     43.2754E-03        -1.70436        -1.70436
            1089     1.18494E+03     1.18494E+03     56.8146E-03     56.8146E-03        -1.62574        -1.62574
            1090     1.18341E+03     1.18341E+03     66.0032E-03     66.0032E-03        -1.53428        -1.53428
            1091     1.18197E+03     1.18197E+03     71.6771E-03     71.6771E-03        -1.43491        -1.43491
            1092     1.18062E+03     1.18062E+03     74.5721E-03     74.5721E-03        -1.33154        -1.33154
            1093     1.17938E+03     1.17938E+03     75.3144E-03     75.3144E-03        -1.22721        -1.22721
            1094     1.17823E+03     1.17823E+03     74.4296E-03     74.4296E-03        -1.12420        -1.12420
            1095     1.17718E+03     1.17718E+03     72.3495E-03     72.3495E-03        -1.02422        -1.02422
            1096     1.17623E+03     1.17623E+03     69.4247E-03     69.4247E-03    -928.430E-03    -928.430E-03
            1097     1.17536E+03     1.17536E+03     65.9360E-03     65.9360E-03    -837.640E-03    -837.640E-03
            1098     1.17458E+03     1.17458E+03     62.1057E-03     62.1057E-03    -752.322E-03    -752.322E-03
            1099     1.17388E+03     1.17388E+03     58.1078E-03     58.1078E-03    -672.707E-03    -672.707E-03
            1100     1.17326E+03     1.17326E+03     54.0770E-03     54.0770E-03    -598.837E-03    -598.837E-03
            1101     1.17270E+03     1.17270E+03     50.1161E-03     50.1161E-03    -530.611E-03    -530.611E-03
            1102     1.17221E+03     1.17221E+03     46.3028E-03     46.3028E-03    -467.818E-03    -467.818E-03
            1103     1.17178E+03     1.17178E+03     42.6948E-03     42.6948E-03    -410.170E-03    -410.170E-03
            1104     1.17140E+03     1.17140E+03     39.3341E-03     39.3341E-03    -357.320E-03    -357.320E-03
            1105     1.17107E+03     1.17107E+03     36.2512E-03     36.2512E-03    -308.882E-03    -308.882E-03
            1106     1.17079E+03     1.17079E+03     33.4663E-03     33.4663E-03    -264.443E-03    -264.443E-03
            1107     1.17055E+03     1.17055E+03     30.9950E-03     30.9950E-03    -223.572E-03    -223.572E-03
            1108     1.17034E+03     1.17034E+03     28.8442E-03     28.8442E-03    -185.828E-03    -185.828E-03
            1109     1.17018E+03     1.17018E+03     27.0238E-03     27.0238E-03    -150.763E-03    -150.763E-03
            1110     1.17004E+03     1.17004E+03     25.5307E-03     25.5307E-03    -117.930E-03    -117.930E-03
            1111     1.16994E+03     1.16994E+03     24.3838E-03     24.3838E-03    -86.8685E-03    -86.8685E-03
            1112     1.16987E+03     1.16987E+03     23.5869E-03     23.5869E-03    -57.1511E-03    -57.1511E-03
            1113     1.16983E+03     1.16983E+03     23.0097E-03     23.0097E-03    -28.8779E-03    -28.8779E-03
            1114     1.19196E+03     1.19196E+03        -48.2342        -48.2342         46.4124         46.4124
            1115     1.17754E+03     1.17754E+03        -37.5175        -37.5175         45.0595         45.0595
            1116     1.16764E+03     1.16764E+03        -28.0919        -28.0919         41.4722         41.4722
            1117     1.16124E+03     1.16124E+03        -20.3488        -20.3488         37.0636         37.0636
            1118     1.15735E+03     1.15735E+03        -14.1985        -14.1985         32.6176         32.6176
            1119     1.15517E+03     1.15517E+03        -9.36455        -9.36455         28.5044         28.5044
            1120     1.15415E+03     1.15415E+03        -5.58050        -5.58050         24.8629         24.8629
            1121     1.15388E+03     1.15388E+03        -2.61784        -2.61784         21.7139         21.7139
            1122     1.15410E+03     1.15410E+03    -301.336E-03    -301.336E-03         19.0240         19.0240
            1123     1.15463E+03     1.15463E+03         1.50456         1.50456         16.7392         16.7392
            1124     1.15536E+03     1.15536E+03         2.90189         2.90189         14.8003         14.8003
            1125     1.15620E+03     1.15620E+03         3.96947         3.96947         13.1515         13.1515
            1126     1.15710E+03     1.15710E+03         4.76825         4.76825         11.7430         11.7430
            1127     1.15801E+03     1.15801E+03         5.34665         5.34665         10.5324         10.5324
            1128     1.15893E+03     1.15893E+03         5.74361         5.74361         9.48404         9.48404
            1129     1.15982E+03     1.15982E+03         5.99114         5.99114         8.56880         8.56880
            1130     1.16067E+03     1.16067E+03         6.11585         6.11585         7.76294         7.76294
            1131     1.16149E+03     1.16149E+03         6.14021         6.14021         7.04742         7.04742
            1132     1.16226E+03     1.16226E+03         6.08332         6.08332         6.40704         6.40704
            1133     1.16298E+03     1.16298E+03         5.96153         5.96153         5.82972         5.82972
            1134     1.16366E+03     1.16366E+03         5.78884         5.78884         5.30594         5.30594
            1135     1.16429E+03     1.16429E+03         5.57729         5.57729         4.82814         4.82814
            1136     1.16487E+03     1.16487E+03         5.33721         5.33721         4.39036         4.39036
            1137     1.16540E+03     1.16540E+03         5.07740         5.07740         3.98784         3.98784
            1138     1.16589E+03     1.16589E+03         4.80538         4.80538         3.61677         3.61677
            1139     1.16634E+03     1.16634E+03         4.52750         4.52750         3.27401         3.27401
            1140     1.16675E+03     1.16675E+03         4.24909         4.24909         2.95697         2.95697
            1141     1.16712E+03     1.16712E+03         3.97461         3.97461         2.66344         2.66344
            1142     1.16745E+03     1.16745E+03         3.70775         3.70775         2.39149         2.39149
            1143     1.16775E+03     1.16775E+03         3.45154         3.45154         2.13936         2.13936
            1144     1.16801E+03     1.16801E+03         3.20843         3.20843         1.90546         1.90546
            1145     1.16825E+03     1.16825E+03         2.98039         2.98039         1.68827         1.68827
            1146     1.16846E+03     1.16846E+03         2.76898         2.76898         1.48633         1.48633
            1147     1.16864E+03     1.16864E+03         2.57541         2.57541         1.29822         1.29822
            1148     1.16880E+03     1.16880E+03         2.40064         2.40064         1.12256         1.12256
            1149     1.16894E+03     1.16894E+03         2.24535         2.24535     957.959E-03     957.959E-03
            1150     1.16906E+03     1.16906E+03         2.11007         2.11007     803.041E-03     803.041E-03
            1151     1.16915E+03     1.16915E+03         1.99519         1.99519     656.433E-03     656.433E-03
            1152     1.16923E+03     1.16923E+03         1.90097         1.90097     516.764E-03     516.764E-03
            1153     1.16929E+03     1.16929E+03         1.82760         1.82760     382.659E-03     382.659E-03
            1154     1.16933E+03     1.16933E+03         1.77519         1.77519     252.747E-03     252.747E-03
            1155     1.16935E+03     1.16935E+03         1.74378         1.74378     125.976E-03     125.976E-03
            1156     1.16316E+03     1.16316E+03        -44.0722        -44.0722         64.8036         64.8036
            1157     1.15145E+03     1.15145E+03        -30.8803        -30.8803         56.6283         56.6283
            1158     1.14534E+03     1.14534E+03        -20.9397        -20.9397         48.2221         48.2221
            1159     1.14270E+03     1.14270E+03        -13.6373        -13.6373         40.6091         40.6091
            1160     1.14212E+03     1.14212E+03        -8.26903        -8.26903         34.1169         34.1169
            1161     1.14270E+03     1.14270E+03        -4.29000        -4.29000         28.7274         28.7274
            1162     1.14391E+03     1.14391E+03        -1.30308        -1.30308         24.3073         24.3073
            1163     1.14544E+03     1.14544E+03     959.690E-03     959.690E-03         20.6968         20.6968
            1164     1.14710E+03     1.14710E+03         2.68471         2.68471         17.7477         17.7477
            1165     1.14879E+03     1.14879E+03         3.99928         3.99928         15.3312         15.3312
            1166     1.15044E+03     1.15044E+03         4.99387         4.99387         13.3416         13.3416
            1167     1.15203E+03     1.15203E+03         5.73325         5.73325         11.6929         11.6929
            1168     1.15353E+03     1.15353E+03         6.26580         6.26580         10.3164         10.3164
            1169     1.15495E+03     1.15495E+03         6.62846         6.62846         9.15719         9.15719
            1170     1.15627E+03     1.15627E+03         6.85056         6.85056         8.17189         8.17189
            1171     1.15750E+03     1.15750E+03         6.95599         6.95599         7.32622         7.32622
            1172     1.15864E+03     1.15864E+03         6.96474         6.96474         6.59316         6.59316
            1173     1.15970E+03     1.15970E+03         6.89385         6.89385         5.95150         5.95150
            1174     1.16068E+03     1.16068E+03         6.75806         6.75806         5.38458         5.38458
            1175     1.16159E+03     1.16159E+03         6.57022         6.57022         4.87936         4.87936
            1176     1.16242E+03     1.16242E+03         6.34161         6.34161         4.42565         4.42565
            1177     1.16318E+03     1.16318E+03         6.08208         6.08208         4.01546         4.01546
            1178     1.16388E+03     1.16388E+03         5.80029         5.80029         3.64251         3.64251
            1179     1.16452E+03     1.16452E+03         5.50375         5.50375         3.30185         3.30185
            1180     1.16511E+03     1.16511E+03         5.19899         5.19899         2.98954         2.98954
            1181     1.16564E+03     1.16564E+03         4.89161         4.89161         2.70240         2.70240
            1182     1.16613E+03     1.16613E+03         4.58643         4.58643         2.43784         2.43784
            1183     1.16656E+03     1.16656E+03         4.28749         4.28749         2.19367         2.19367
            1184     1.16696E+03     1.16696E+03         3.99820         3.99820         1.96804         1.96804
            1185     1.16731E+03     1.16731E+03         3.72139         3.72139         1.75930         1.75930
            1186     1.16762E+03     1.16762E+03         3.45937         3.45937         1.56599         1.56599
            1187     1.16791E+03     1.16791E+03         3.21404         3.21404         1.38674         1.38674
            1188     1.16815E+03     1.16815E+03         2.98688         2.98688         1.22027         1.22027
            1189     1.16837E+03     1.16837E+03         2.77910         2.77910         1.06536         1.06536
            1190     1.16856E+03     1.16856E+03         2.59160         2.59160     920.813E-03     920.813E-03
            1191     1.16872E+03     1.16872E+03         2.42509         2.42509     785.463E-03     785.463E-03
            1192     1.16886E+03     1.16886E+03         2.28010         2.28010     658.161E-03     658.161E-03
            1193     1.16898E+03     1.16898E+03         2.15700         2.15700     537.769E-03     537.769E-03
            1194     1.16907E+03     1.16907E+03         2.05608         2.05608     423.155E-03     423.155E-03
            1195     1.16914E+03     1.16914E+03         1.97752         1.97752     313.192E-03     313.192E-03
            1196     1.16919E+03     1.16919E+03         1.92147         1.92147     206.758E-03     206.758E-03
            1197     1.16922E+03     1.16922E+03         1.88795         1.88795     102.997E-03     102.997E-03
            1198     1.11932E+03     1.11932E+03        -30.1193        -30.1193         76.1972         76.1972
            1199     1.11694E+03     1.11694E+03        -17.9387        -17.9387         60.9157         60.9157
            1200     1.11864E+03     1.11864E+03        -9.98217        -9.98217         48.5744         48.5744
            1201     1.12209E+03     1.12209E+03        -4.70637        -4.70637         38.9427         38.9427
            1202     1.12611E+03     1.12611E+03        -1.10197        -1.10197         31.4951         31.4951
            1203     1.13015E+03     1.13015E+03         1.44151         1.44151         25.7295         25.7295
            1204     1.13398E+03     1.13398E+03         3.28289         3.28289         21.2387         21.2387
            1205     1.13749E+03     1.13749E+03         4.64382         4.64382         17.7154         17.7154
            1206     1.14066E+03     1.14066E+03         5.65974         5.65974         14.9274         14.9274
            1207     1.14352E+03     1.14352E+03         6.41779         6.41779         12.7025         12.7025
            1208     1.14609E+03     1.14609E+03         6.97458         6.97458         10.9104         10.9104
            1209     1.14840E+03     1.14840E+03         7.36908         7.36908         9.45363         9.45363
            1210     1.15047E+03     1.15047E+03         7.62908         7.62908         8.25754         8.25754
            1211     1.15235E+03     1.15235E+03         7.77574         7.77574         7.26548         7.26548
            1212     1.15404E+03     1.15404E+03         7.82598         7.82598         6.43385         6.43385
            1213     1.15558E+03     1.15558E+03         7.79402         7.79402         5.72915         5.72915
            1214     1.15697E+03     1.15697E+03         7.69229         7.69229         5.12548         5.12548
            1215     1.15824E+03     1.15824E+03         7.53193         7.53193         4.60282         4.60282
            1216     1.15940E+03     1.15940E+03         7.32305         7.32305         4.14567         4.14567
            1217     1.16046E+03     1.16046E+03         7.07489         7.07489         3.74199         3.74199
            1218     1.16142E+03     1.16142E+03         6.79591         6.79591         3.38246         3.38246
            1219     1.16230E+03     1.16230E+03         6.49379         6.49379         3.05982         3.05982
            1220     1.16310E+03     1.16310E+03         6.17549         6.17549         2.76839         2.76839
            1221     1.16382E+03     1.16382E+03         5.84724         5.84724         2.50373         2.50373
            1222     1.16449E+03     1.16449E+03         5.51458         5.51458         2.26231         2.26231
            1223     1.16509E+03     1.16509E+03         5.18240         5.18240         2.04132         2.04132
            1224     1.16563E+03     1.16563E+03         4.85494         4.85494         1.83849         1.83849
            1225     1.16612E+03     1.16612E+03         4.53584         4.53584         1.65191         1.65191
            1226     1.16657E+03     1.16657E+03         4.22822         4.22822         1.47999         1.47999
            1227     1.16696E+03     1.16696E+03         3.93470         3.93470         1.32136         1.32136
            1228     1.16732E+03     1.16732E+03         3.65744         3.65744         1.17477         1.17477
            1229     1.16763E+03     1.16763E+03         3.39822         3.39822         1.03913         1.03913
            1230     1.16791E+03     1.16791E+03         3.15848         3.15848     913.397E-03     913.397E-03
            1231     1.16816E+03     1.16816E+03         2.93936         2.93936     796.596E-03     796.596E-03
            1232     1.16837E+03     1.16837E+03         2.74175         2.74175     687.793E-03     687.793E-03
            1233     1.16855E+03     1.16855E+03         2.56634         2.56634     586.083E-03     586.083E-03
            1234     1.16871E+03     1.16871E+03         2.41363         2.41363     490.581E-03     490.581E-03
            1235     1.16884E+03     1.16884E+03         2.28401         2.28401     400.419E-03     400.419E-03
            1236     1.16894E+03     1.16894E+03         2.17776         2.17776     314.741E-03     314.741E-03
            1237     1.16902E+03     1.16902E+03         2.09508         2.09508     232.698E-03     232.698E-03
            1238     1.16908E+03     1.16908E+03         2.03609         2.03609     153.455E-03     153.455E-03
            1239     1.16911E+03     1.16911E+03         2.00082         2.00082     76.3743E-03     76.3743E-03
            1240     1.06687E+03     1.06687E+03        -8.23253        -8.23253         71.0053         71.0053
            1241     1.08000E+03     1.08000E+03        -1.39104        -1.39104         52.7243         52.7243
            1242     1.09226E+03     1.09226E+03         2.33309         2.33309         39.9001         39.9001
            1243     1.10287E+03     1.10287E+03         4.49381         4.49381         30.7843         30.7843
            1244     1.11183E+03     1.11183E+03         5.84250         5.84250         24.1747         24.1747
            1245     1.11934E+03     1.11934E+03         6.74048         6.74048         19.2887         19.2887
            1246     1.12565E+03     1.12565E+03         7.37318         7.37318         15.6173         15.6173
            1247     1.13097E+03     1.13097E+03         7.83504         7.83504         12.8154         12.8154
            1248     1.13549E+03     1.13549E+03         8.17610         8.17610         10.6484         10.6484
            1249     1.13937E+03     1.13937E+03         8.42229         8.42229         8.95090         8.95090
            1250     1.14270E+03     1.14270E+03         8.58780         8.58780         7.60551         7.60551
            1251     1.14561E+03     1.14561E+03         8.68083         8.68083         6.52668         6.52668
            1252     1.14815E+03     1.14815E+03         8.70706         8.70706         5.65181         5.65181
            1253     1.15039E+03     1.15039E+03         8.67130         8.67130         4.93415         4.93415
            1254     1.15238E+03     1.15238E+03         8.57830         8.57830         4.33869         4.33869
            1255     1.15415E+03     1.15415E+03         8.43319         8.43319         3.83887         3.83887
            1256     1.15575E+03     1.15575E+03         8.24143         8.24143         3.41452         3.41452
            1257     1.15718E+03     1.15718E+03         8.00889         8.00889         3.05018         3.05018
            1258     1.15847E+03     1.15847E+03         7.74161         7.74161         2.73401         2.73401
            1259     1.15964E+03     1.15964E+03         7.44571         7.44571         2.45689         2.45689
            1260     1.16070E+03     1.16070E+03         7.12725         7.12725         2.21179         2.21179
            1261     1.16166E+03     1.16166E+03         6.79208         6.79208         1.99324         1.99324
            1262     1.16254E+03     1.16254E+03         6.44572         6.44572         1.79703         1.79703
            1263     1.16333E+03     1.16333E+03         6.09334         6.09334         1.61983         1.61983
            1264     1.16405E+03     1.16405E+03         5.73967         5.73967         1.45903         1.45903
            1265     1.16470E+03     1.16470E+03         5.38895         5.38895         1.31255         1.31255
            1266     1.16528E+03     1.16528E+03         5.04499         5.04499         1.17870         1.17870
            1267     1.16581E+03     1.16581E+03         4.71107         4.71107         1.05611         1.05611
            1268     1.16629E+03     1.16629E+03         4.39007         4.39007     943.613E-03     943.613E-03
            1269     1.16672E+03     1.16672E+03         4.08442         4.08442     840.210E-03     840.210E-03
            1270     1.16710E+03     1.16710E+03         3.79615         3.79615     745.026E-03     745.026E-03
            1271     1.16744E+03     1.16744E+03         3.52695         3.52695     657.275E-03     657.275E-03
            1272     1.16774E+03     1.16774E+03         3.27820         3.27820     576.236E-03     576.236E-03
            1273     1.16801E+03     1.16801E+03         3.05098         3.05098     501.238E-03     501.238E-03
            1274     1.16824E+03     1.16824E+03         2.84615         2.84615     431.643E-03     431.643E-03
            1275     1.16843E+03     1.16843E+03         2.66439         2.66439     366.843E-03     366.843E-03
            1276     1.16860E+03     1.16860E+03         2.50619         2.50619     306.251E-03     306.251E-03
            1277     1.16874E+03     1.16874E+03         2.37192         2.37192     249.296E-03     249.296E-03
            1278     1.16885E+03     1.16885E+03         2.26185         2.26185     195.424E-03     195.424E-03
            1279     1.16894E+03     1.16894E+03         2.17618         2.17618     144.093E-03     144.093E-03
            1280     1.16900E+03     1.16900E+03         2.11503         2.11503     94.7751E-03     94.7751E-03
            1281     1.16903E+03     1.16903E+03         2.07842         2.07842     47.0669E-03     47.0669E-03
            1282     1.02196E+03     1.02196E+03         13.0618         13.0618         43.3823         43.3823
            1283     1.05109E+03     1.05109E+03         12.7748         12.7748         30.3900         30.3900
            1284     1.07281E+03     1.07281E+03         12.0533         12.0533         22.1218         22.1218
            1285     1.08929E+03     1.08929E+03         11.3662         11.3662         16.5792         16.5792
            1286     1.10205E+03     1.10205E+03         10.8202         10.8202         12.7169         12.7169
            1287     1.11213E+03     1.11213E+03         10.4205         10.4205         9.94940         9.94940
            1288     1.12021E+03     1.12021E+03         10.1417         10.1417         7.91770         7.91770
            1289     1.12679E+03     1.12679E+03         9.95000         9.95000         6.39811         6.39811
            1290     1.13223E+03     1.13223E+03         9.81402         9.81402         5.24155         5.24155
            1291     1.13677E+03     1.13677E+03         9.70682         9.70682         4.34856         4.34856
            1292     1.14062E+03     1.14062E+03         9.60727         9.60727         3.64935         3.64935
            1293     1.14391E+03     1.14391E+03         9.49934         9.49934         3.09498         3.09498
            1294     1.14675E+03     1.14675E+03         9.37186         9.37186         2.64989         2.64989
            1295     1.14922E+03     1.14922E+03         9.21753         9.21753         2.28824         2.28824
            1296     1.15140E+03     1.15140E+03         9.03241         9.03241         1.99081         1.99081
            1297     1.15332E+03     1.15332E+03         8.81515         8.81515         1.74330         1.74330
            1298     1.15503E+03     1.15503E+03         8.56648         8.56648         1.53490         1.53490
            1299     1.15656E+03     1.15656E+03         8.28865         8.28865         1.35748         1.35748
            1300     1.15794E+03     1.15794E+03         7.98499         7.98499         1.20480         1.20480
            1301     1.15918E+03     1.15918E+03         7.65956         7.65956         1.07212         1.07212
            1302     1.16029E+03     1.16029E+03         7.31685         7.31685     955.785E-03     955.785E-03
            1303     1.16131E+03     1.16131E+03         6.96150         6.96150     852.985E-03     852.985E-03
            1304     1.16222E+03     1.16222E+03         6.59815         6.59815     761.535E-03     761.535E-03
            1305     1.16305E+03     1.16305E+03         6.23126         6.23126     679.729E-03     679.729E-03
            1306     1.16380E+03     1.16380E+03         5.86502         5.86502     606.218E-03     606.218E-03
            1307     1.16448E+03     1.16448E+03         5.50331         5.50331     539.927E-03     539.927E-03
            1308     1.16509E+03     1.16509E+03         5.14962         5.14962     479.984E-03     479.984E-03
            1309     1.16564E+03     1.16564E+03         4.80703         4.80703     425.671E-03     425.671E-03
            1310     1.16614E+03     1.16614E+03         4.47824         4.47824     376.382E-03     376.382E-03
            1311     1.16659E+03     1.16659E+03         4.16557         4.16557     331.602E-03     331.602E-03
            1312     1.16698E+03     1.16698E+03         3.87096         3.87096     290.879E-03     290.879E-03
            1313     1.16734E+03     1.16734E+03         3.59604         3.59604     253.809E-03     253.809E-03
            1314     1.16765E+03     1.16765E+03         3.34214         3.34214     220.031E-03     220.031E-03
            1315     1.16793E+03     1.16793E+03         3.11031         3.11031     189.211E-03     189.211E-03
            1316     1.16816E+03     1.16816E+03         2.90138         2.90138     161.041E-03     161.041E-03
            1317     1.16837E+03     1.16837E+03         2.71602         2.71602     135.233E-03     135.233E-03
            1318     1.16854E+03     1.16854E+03         2.55469         2.55469     111.519E-03     111.519E-03
            1319     1.16869E+03     1.16869E+03         2.41776         2.41776     89.6455E-03     89.6455E-03
            1320     1.16880E+03     1.16880E+03         2.30548         2.30548     69.3759E-03     69.3759E-03
            1321     1.16889E+03     1.16889E+03         2.21804         2.21804     50.4891E-03     50.4891E-03
            1322     1.16896E+03     1.16896E+03         2.15555         2.15555     32.7801E-03     32.7801E-03
            1323     1.16899E+03     1.16899E+03         2.11803         2.11803     16.1006E-03     16.1006E-03
            1324     1.00631E+03     1.00631E+03         20.8807         20.8807        -2.95240        -2.95240
            1325     1.04186E+03     1.04186E+03         17.4745         17.4745        -2.57567        -2.57567
            1326     1.06691E+03     1.06691E+03         15.0844         15.0844        -2.18819        -2.18819
            1327     1.08534E+03     1.08534E+03         13.4110         13.4110        -1.86652        -1.86652
            1328     1.09932E+03     1.09932E+03         12.2417         12.2417        -1.60331        -1.60331
            1329     1.11017E+03     1.11017E+03         11.4350         11.4350        -1.39019        -1.39019
            1330     1.11878E+03     1.11878E+03         10.8792         10.8792        -1.21566        -1.21566
            1331     1.12573E+03     1.12573E+03         10.4959         10.4959        -1.07256        -1.07256
            1332     1.13142E+03     1.13142E+03         10.2235         10.2235    -954.006E-03    -954.006E-03
            1333     1.13615E+03     1.13615E+03         10.0182         10.0182    -855.387E-03    -855.387E-03
            1334     1.14013E+03     1.14013E+03         9.84666         9.84666    -772.664E-03    -772.664E-03
            1335     1.14352E+03     1.14352E+03         9.68558         9.68558    -702.873E-03    -702.873E-03
            1336     1.14644E+03     1.14644E+03         9.51825         9.51825    -643.494E-03    -643.494E-03
            1337     1.14898E+03     1.14898E+03         9.33390         9.33390    -592.570E-03    -592.570E-03
            1338     1.15120E+03     1.15120E+03         9.12588         9.12588    -548.453E-03    -548.453E-03
            1339     1.15316E+03     1.15316E+03         8.89107         8.89107    -509.828E-03    -509.828E-03
            1340     1.15490E+03     1.15490E+03         8.62879         8.62879    -475.602E-03    -475.602E-03
            1341     1.15645E+03     1.15645E+03         8.34031         8.34031    -444.895E-03    -444.895E-03
            1342     1.15784E+03     1.15784E+03         8.02822         8.02822    -416.990E-03    -416.990E-03
            1343     1.15910E+03     1.15910E+03         7.69606         7.69606    -391.317E-03    -391.317E-03
            1344     1.16023E+03     1.16023E+03         7.34790         7.34790    -367.421E-03    -367.421E-03
            1345     1.16125E+03     1.16125E+03         6.98807         6.98807    -344.948E-03    -344.948E-03
            1346     1.16217E+03     1.16217E+03         6.62099         6.62099    -323.627E-03    -323.627E-03
            1347     1.16301E+03     1.16301E+03         6.25096         6.25096    -303.253E-03    -303.253E-03
            1348     1.16377E+03     1.16377E+03         5.88206         5.88206    -283.674E-03    -283.674E-03
            1349     1.16445E+03     1.16445E+03         5.51805         5.51805    -264.780E-03    -264.780E-03
            1350     1.16507E+03     1.16507E+03         5.16236         5.16236    -246.492E-03    -246.492E-03
            1351     1.16563E+03     1.16563E+03         4.81803         4.81803    -228.754E-03    -228.754E-03
            1352     1.16613E+03     1.16613E+03         4.48771         4.48771    -211.525E-03    -211.525E-03
            1353     1.16657E+03     1.16657E+03         4.17370         4.17370    -194.775E-03    -194.775E-03
            1354     1.16697E+03     1.16697E+03         3.87790         3.87790    -178.474E-03    -178.474E-03
            1355     1.16733E+03     1.16733E+03         3.60194         3.60194    -162.595E-03    -162.595E-03
            1356     1.16764E+03     1.16764E+03         3.34712         3.34712    -147.106E-03    -147.106E-03
            1357     1.16792E+03     1.16792E+03         3.11448         3.11448    -131.968E-03    -131.968E-03
            1358     1.16816E+03     1.16816E+03         2.90484         2.90484    -117.134E-03    -117.134E-03
            1359     1.16837E+03     1.16837E+03         2.71885         2.71885    -102.548E-03    -102.548E-03
            1360     1.16854E+03     1.16854E+03         2.55697         2.55697    -88.1395E-03    -88.1395E-03
            1361     1.16869E+03     1.16869E+03         2.41955         2.41955    -73.8281E-03    -73.8281E-03
            1362     1.16880E+03     1.16880E+03         2.30683         2.30683    -59.5184E-03    -59.5184E-03
            1363     1.16889E+03     1.16889E+03         2.21898         2.21898    -45.1003E-03    -45.1003E-03
            1364     1.16896E+03     1.16896E+03         2.15610         2.15610    -30.4475E-03    -30.4475E-03
            1365     1.16899E+03     1.16899E+03         2.11819         2.11819    -15.4512E-03    -15.4512E-03
            1366     1.03275E+03     1.03275E+03         7.92266         7.92266        -49.8968        -49.8968
            1367     1.05872E+03     1.05872E+03         9.04286         9.04286        -36.1384        -36.1384
            1368     1.07830E+03     1.07830E+03         9.30851         9.30851        -27.0909        -27.0909
            1369     1.09335E+03     1.09335E+03         9.30880         9.30880        -20.8463        -20.8463
            1370     1.10514E+03     1.10514E+03         9.24958         9.24958        -16.3920        -16.3920
            1371     1.11452E+03     1.11452E+03         9.20079         9.20079        -13.1296        -13.1296
            1372     1.12210E+03     1.12210E+03         9.18068         9.18068        -10.6897        -10.6897
            1373     1.12831E+03     1.12831E+03         9.18244         9.18244        -8.83158        -8.83158
            1374     1.13346E+03     1.13346E+03         9.19368         9.19368        -7.39470        -7.39470
            1375     1.13779E+03     1.13779E+03         9.19976         9.19976        -6.26796        -6.26796
            1376     1.14147E+03     1.14147E+03         9.18842         9.18842        -5.37320        -5.37320
            1377     1.14463E+03     1.14463E+03         9.14974         9.14974        -4.65399        -4.65399
            1378     1.14736E+03     1.14736E+03         9.07703         9.07703        -4.06908        -4.06908
            1379     1.14976E+03     1.14976E+03         8.96627         8.96627        -3.58774        -3.58774
            1380     1.15186E+03     1.15186E+03         8.81600         8.81600        -3.18693        -3.18693
            1381     1.15373E+03     1.15373E+03         8.62675         8.62675        -2.84914        -2.84914
            1382     1.15539E+03     1.15539E+03         8.40072         8.40072        -2.56102        -2.56102
            1383     1.15688E+03     1.15688E+03         8.14128         8.14128        -2.31232        -2.31232
            1384     1.15822E+03     1.15822E+03         7.85267         7.85267        -2.09517        -2.09517
            1385     1.15943E+03     1.15943E+03         7.53967         7.53967        -1.90348        -1.90348
            1386     1.16053E+03     1.16053E+03         7.20731         7.20731        -1.73255        -1.73255
            1387     1.16152E+03     1.16152E+03         6.86069         6.86069        -1.57876        -1.57876
            1388     1.16241E+03     1.16241E+03         6.50480         6.50480        -1.43929        -1.43929
            1389     1.16322E+03     1.16322E+03         6.14437         6.14437        -1.31195        -1.31195
            1390     1.16396E+03     1.16396E+03         5.78382         5.78382        -1.19504        -1.19504
            1391     1.16462E+03     1.16462E+03         5.42718         5.42718        -1.08721        -1.08721
            1392     1.16522E+03     1.16522E+03         5.07806         5.07806    -987.386E-03    -987.386E-03
            1393     1.16576E+03     1.16576E+03         4.73964         4.73964    -894.706E-03    -894.706E-03
            1394     1.16625E+03     1.16625E+03         4.41468         4.41468    -808.449E-03    -808.449E-03
            1395     1.16668E+03     1.16668E+03         4.10554         4.10554    -728.002E-03    -728.002E-03
            1396     1.16707E+03     1.16707E+03         3.81419         3.81419    -652.830E-03    -652.830E-03
            1397     1.16742E+03     1.16742E+03         3.54228         3.54228    -582.447E-03    -582.447E-03
            1398     1.16772E+03     1.16772E+03         3.29114         3.29114    -516.400E-03    -516.400E-03
            1399     1.16799E+03     1.16799E+03         3.06182         3.06182    -454.256E-03    -454.256E-03
            1400     1.16822E+03     1.16822E+03         2.85514         2.85514    -395.592E-03    -395.592E-03
            1401     1.16842E+03     1.16842E+03         2.67175         2.67175    -339.988E-03    -339.988E-03
            1402     1.16859E+03     1.16859E+03         2.51211         2.51211    -287.020E-03    -287.020E-03
            1403     1.16873E+03     1.16873E+03         2.37656         2.37656    -236.261E-03    -236.261E-03
            1404     1.16885E+03     1.16885E+03         2.26535         2.26535    -187.272E-03    -187.272E-03
            1405     1.16893E+03     1.16893E+03         2.17861         2.17861    -139.605E-03    -139.605E-03
            1406     1.16900E+03     1.16900E+03         2.11646         2.11646    -92.8013E-03    -92.8013E-03
            1407     1.16903E+03     1.16903E+03         2.07885         2.07885    -46.5044E-03    -46.5044E-03
            1408     1.08908E+03     1.08908E+03        -17.6092        -17.6092        -74.0390        -74.0390
            1409     1.09608E+03     1.09608E+03        -8.59951        -8.59951        -56.7204        -56.7204
            1410     1.10413E+03     1.10413E+03        -3.19895        -3.19895        -44.0572        -44.0572
            1411     1.11180E+03     1.11180E+03     227.874E-03     227.874E-03        -34.7535        -34.7535
            1412     1.11867E+03     1.11867E+03         2.52142         2.52142        -27.8182        -27.8182
            1413     1.12467E+03     1.12467E+03         4.13051         4.13051        -22.5772        -22.5772
            1414     1.12987E+03     1.12987E+03         5.30006         5.30006        -18.5628        -18.5628
            1415     1.13437E+03     1.13437E+03         6.17249         6.17249        -15.4499        -15.4499
            1416     1.13826E+03     1.13826E+03         6.82955         6.82955        -13.0079        -13.0079
            1417     1.14164E+03     1.14164E+03         7.32147         7.32147        -11.0712        -11.0712
            1418     1.14461E+03     1.14461E+03         7.67918         7.67918        -9.51874        -9.51874
            1419     1.14721E+03     1.14721E+03         7.92366         7.92366        -8.26117        -8.26117
            1420     1.14952E+03     1.14952E+03         8.06979         8.06979        -7.23152        -7.23152
            1421     1.15157E+03     1.15157E+03         8.12945         8.12945        -6.37926        -6.37926
            1422     1.15340E+03     1.15340E+03         8.11272         8.11272        -5.66589        -5.66589
            1423     1.15505E+03     1.15505E+03         8.02886         8.02886        -5.06195        -5.06195
            1424     1.15653E+03     1.15653E+03         7.88656         7.88656        -4.54477        -4.54477
            1425     1.15788E+03     1.15788E+03         7.69419         7.69419        -4.09689        -4.09689
            1426     1.15909E+03     1.15909E+03         7.45978         7.45978        -3.70479        -3.70479
            1427     1.16020E+03     1.16020E+03         7.19104         7.19104        -3.35803        -3.35803
            1428     1.16120E+03     1.16120E+03         6.89523         6.89523        -3.04852        -3.04852
            1429     1.16211E+03     1.16211E+03         6.57919         6.57919        -2.76997        -2.76997
            1430     1.16294E+03     1.16294E+03         6.24922         6.24922        -2.51751        -2.51751
            1431     1.16369E+03     1.16369E+03         5.91107         5.91107        -2.28732        -2.28732
            1432     1.16438E+03     1.16438E+03         5.56992         5.56992        -2.07643        -2.07643
            1433     1.16500E+03     1.16500E+03         5.23038         5.23038        -1.88244        -1.88244
            1434     1.16556E+03     1.16556E+03         4.89649         4.89649        -1.70345        -1.70345
            1435     1.16606E+03     1.16606E+03         4.57176         4.57176        -1.53789        -1.53789
            1436     1.16651E+03     1.16651E+03         4.25918         4.25918        -1.38445        -1.38445
            1437     1.16692E+03     1.16692E+03         3.96128         3.96128        -1.24201        -1.24201
            1438     1.16728E+03     1.16728E+03         3.68016         3.68016        -1.10955        -1.10955
            1439     1.16760E+03     1.16760E+03         3.41753         3.41753    -986.176E-03    -986.176E-03
            1440     1.16789E+03     1.16789E+03         3.17478         3.17478    -871.033E-03    -871.033E-03
            1441     1.16814E+03     1.16814E+03         2.95301         2.95301    -763.314E-03    -763.314E-03
            1442     1.16836E+03     1.16836E+03         2.75306         2.75306    -662.233E-03    -662.233E-03
            1443     1.16854E+03     1.16854E+03         2.57559         2.57559    -567.017E-03    -567.017E-03
            1444     1.16870E+03     1.16870E+03         2.42107         2.42107    -476.900E-03    -476.900E-03
            1445     1.16883E+03     1.16883E+03         2.28984         2.28984    -391.112E-03    -391.112E-03
            1446     1.16894E+03     1.16894E+03         2.18213         2.18213    -308.884E-03    -308.884E-03
            1447     1.16902E+03     1.16902E+03         2.09811         2.09811    -229.440E-03    -229.440E-03
            1448     1.16907E+03     1.16907E+03         2.03785         2.03785    -151.997E-03    -151.997E-03
            1449     1.16911E+03     1.16911E+03         2.00134         2.00134    -75.9581E-03    -75.9581E-03
            1450     1.14682E+03     1.14682E+03        -39.0618        -39.0618        -69.8155        -69.8155
            1451     1.13857E+03     1.13857E+03        -26.0886        -26.0886        -58.6703        -58.6703
            1452     1.13553E+03     1.13553E+03        -16.8940        -16.8940        -48.5984        -48.5984
            1453     1.13531E+03     1.13531E+03        -10.4074        -10.4074        -40.1550        -40.1550
            1454     1.13653E+03     1.13653E+03        -5.74507        -5.74507        -33.2928        -33.2928
            1455     1.13845E+03     1.13845E+03        -2.33076        -2.33076        -27.7725        -27.7725
            1456     1.14065E+03     1.14065E+03     216.273E-03     216.273E-03        -23.3420        -23.3420
            1457     1.14291E+03     1.14291E+03         2.14112         2.14112        -19.7794        -19.7794
            1458     1.14511E+03     1.14511E+03         3.60733         3.60733        -16.9025        -16.9025
            1459     1.14722E+03     1.14722E+03         4.72391         4.72391        -14.5661        -14.5661
            1460     1.14918E+03     1.14918E+03         5.56675         5.56675        -12.6557        -12.6557
            1461     1.15102E+03     1.15102E+03         6.18955         6.18955        -11.0814        -11.0814
            1462     1.15271E+03     1.15271E+03         6.63224         6.63224        -9.77286        -9.77286
            1463     1.15427E+03     1.15427E+03         6.92534         6.92534        -8.67505        -8.67505
            1464     1.15571E+03     1.15571E+03         7.09335         7.09335        -7.74480        -7.74480
            1465     1.15704E+03     1.15704E+03         7.15643         7.15643        -6.94836        -6.94836
            1466     1.15826E+03     1.15826E+03         7.13178         7.13178        -6.25932        -6.25932
            1467     1.15938E+03     1.15938E+03         7.03432         7.03432        -5.65702        -5.65702
            1468     1.16041E+03     1.16041E+03         6.87717         6.87717        -5.12535        -5.12535
            1469     1.16135E+03     1.16135E+03         6.67196         6.67196        -4.65172        -4.65172
            1470     1.16222E+03     1.16222E+03         6.42904         6.42904        -4.22633        -4.22633
            1471     1.16302E+03     1.16302E+03         6.15759         6.15759        -3.84151        -3.84151
            1472     1.16374E+03     1.16374E+03         5.86571         5.86571        -3.49129        -3.49129
            1473     1.16441E+03     1.16441E+03         5.56056         5.56056        -3.17097        -3.17097
            1474     1.16501E+03     1.16501E+03         5.24836         5.24836        -2.87681        -2.87681
            1475     1.16556E+03     1.16556E+03         4.93450         4.93450        -2.60584        -2.60584
            1476     1.16606E+03     1.16606E+03         4.62363         4.62363        -2.35563        -2.35563
            1477     1.16650E+03     1.16650E+03         4.31969         4.31969        -2.12418        -2.12418
            1478     1.16691E+03     1.16691E+03         4.02597         4.02597        -1.90975        -1.90975
            1479     1.16727E+03     1.16727E+03         3.74524         3.74524        -1.71085        -1.71085
            1480     1.16759E+03     1.16759E+03         3.47976         3.47976        -1.52613        -1.52613
            1481     1.16788E+03     1.16788E+03         3.23136         3.23136        -1.35435        -1.35435
            1482     1.16813E+03     1.16813E+03         3.00150         3.00150        -1.19433        -1.19433
            1483     1.16836E+03     1.16836E+03         2.79132         2.79132        -1.04495        -1.04495
            1484     1.16855E+03     1.16855E+03         2.60172         2.60172    -905.110E-03    -905.110E-03
            1485     1.16872E+03     1.16872E+03         2.43336         2.43336    -773.715E-03    -773.715E-03
            1486     1.16886E+03     1.16886E+03         2.28673         2.28673    -649.693E-03    -649.693E-03
            1487     1.16897E+03     1.16897E+03         2.16217         2.16217    -531.967E-03    -531.967E-03
            1488     1.16907E+03     1.16907E+03         2.05994         2.05994    -419.461E-03    -419.461E-03
            1489     1.16914E+03     1.16914E+03         1.98018         1.98018    -311.094E-03    -311.094E-03
            1490     1.16919E+03     1.16919E+03         1.92299         1.92299    -205.791E-03    -205.791E-03
            1491     1.16922E+03     1.16922E+03         1.88834         1.88834    -102.726E-03    -102.726E-03
            1492     1.18660E+03     1.18660E+03        -47.5045        -47.5045        -50.1458        -50.1458
            1493     1.17260E+03     1.17260E+03        -36.2348        -36.2348        -47.4347        -47.4347
            1494     1.16343E+03     1.16343E+03        -26.6786        -26.6786        -42.8349        -42.8349
            1495     1.15780E+03     1.15780E+03        -19.0352        -19.0352        -37.7451        -37.7451
            1496     1.15460E+03     1.15460E+03        -13.0705        -13.0705        -32.8791        -32.8791
            1497     1.15300E+03     1.15300E+03        -8.43352        -8.43352        -28.5200        -28.5200
            1498     1.15243E+03     1.15243E+03        -4.82650        -4.82650        -24.7409        -24.7409
            1499     1.15252E+03     1.15252E+03        -2.01327        -2.01327        -21.5198        -21.5198
            1500     1.15301E+03     1.15301E+03     181.818E-03     181.818E-03        -18.7972        -18.7972
            1501     1.15376E+03     1.15376E+03         1.89066         1.89066        -16.5024        -16.5024
            1502     1.15466E+03     1.15466E+03         3.21133         3.21133        -14.5669        -14.5669
            1503     1.15563E+03     1.15563E+03         4.21863         4.21863        -12.9287        -12.9287
            1504     1.15663E+03     1.15663E+03         4.97014         4.97014        -11.5348        -11.5348
            1505     1.15763E+03     1.15763E+03         5.51147         5.51147        -10.3403        -10.3403
            1506     1.15860E+03     1.15860E+03         5.87929         5.87929        -9.30869        -9.30869
            1507     1.15955E+03     1.15955E+03         6.10380         6.10380        -8.40989        -8.40989
            1508     1.16045E+03     1.16045E+03         6.21024         6.21024        -7.61983        -7.61983
            1509     1.16130E+03     1.16130E+03         6.21996         6.21996        -6.91924        -6.91924
            1510     1.16210E+03     1.16210E+03         6.15124         6.15124        -6.29281        -6.29281
            1511     1.16285E+03     1.16285E+03         6.01975         6.01975        -5.72843        -5.72843
            1512     1.16355E+03     1.16355E+03         5.83904         5.83904        -5.21654        -5.21654
            1513     1.16419E+03     1.16419E+03         5.62077         5.62077        -4.74963        -4.74963
            1514     1.16479E+03     1.16479E+03         5.37497         5.37497        -4.32176        -4.32176
            1515     1.16533E+03     1.16533E+03         5.11026         5.11026        -3.92822        -3.92822
            1516     1.16584E+03     1.16584E+03         4.83398         4.83398        -3.56525        -3.56525
            1517     1.16629E+03     1.16629E+03         4.55236         4.55236        -3.22976        -3.22976
            1518     1.16671E+03     1.16671E+03         4.27067         4.27067        -2.91921        -2.91921
            1519     1.16708E+03     1.16708E+03         3.99329         3.99329        -2.63146        -2.63146
            1520     1.16742E+03     1.16742E+03         3.72386         3.72386        -2.36461        -2.36461
            1521     1.16772E+03     1.16772E+03         3.46536         3.46536        -2.11697        -2.11697
            1522     1.16799E+03     1.16799E+03         3.22023         3.22023        -1.88700        -1.88700
            1523     1.16824E+03     1.16824E+03         2.99040         2.99040        -1.67323        -1.67323
            1524     1.16845E+03     1.16845E+03         2.77741         2.77741        -1.47424        -1.47424
            1525     1.16863E+03     1.16863E+03         2.58245         2.58245        -1.28868        -1.28868
            1526     1.16880E+03     1.16880E+03         2.40644         2.40644        -1.11517        -1.11517
            1527     1.16893E+03     1.16893E+03         2.25006         2.25006    -952.385E-03    -952.385E-03
            1528     1.16905E+03     1.16905E+03         2.11382         2.11382    -798.972E-03    -798.972E-03
            1529     1.16915E+03     1.16915E+03         1.99809         1.99809    -653.591E-03    -653.591E-03
            1530     1.16923E+03     1.16923E+03         1.90309         1.90309    -514.898E-03    -514.898E-03
            1531     1.16929E+03     1.16929E+03         1.82901         1.82901    -381.543E-03    -381.543E-03
            1532     1.16933E+03     1.16933E+03         1.77594         1.77594    -252.182E-03    -252.182E-03
            1533     1.16935E+03     1.16935E+03         1.74388         1.74388    -125.802E-03    -125.802E-03
            1534     1.17489E+03     1.17489E+03     34.0193E-03     34.0193E-03        -3.98338        -3.98338
            1535     1.17875E+03     1.17875E+03     57.1352E-03     57.1352E-03        -7.09766        -7.09766
            1536     1.18265E+03     1.18265E+03     26.0106E-03     26.0106E-03        -9.38172        -9.38172
            1537     1.18668E+03     1.18668E+03    -141.613E-03    -141.613E-03        -11.1317        -11.1317
            1538     1.19095E+03     1.19095E+03    -565.990E-03    -565.990E-03        -12.5592        -12.5592
            1539     1.19563E+03     1.19563E+03        -1.41428        -1.41428        -13.7850        -13.7850
            1540     1.20089E+03     1.20089E+03        -2.91875        -2.91875        -14.8380        -14.8380
            1541     1.20694E+03     1.20694E+03        -5.40464        -5.40464        -15.6317        -15.6317
            1542     1.21397E+03     1.21397E+03        -9.32290        -9.32290        -15.9062        -15.9062
            1543     1.22212E+03     1.22212E+03        -15.2736        -15.2736        -15.1117        -15.1117
            1544     1.23121E+03     1.23121E+03        -23.9445        -23.9445        -12.2347        -12.2347
            1545     1.24022E+03     1.24022E+03        -35.8244        -35.8244        -5.59653        -5.59653
            1546     1.16993E+03     1.16993E+03     380.686E-03     380.686E-03        -3.67195        -3.67195
            1547     1.17518E+03     1.17518E+03         1.02328         1.02328        -6.56837        -6.56837
            1548     1.17991E+03     1.17991E+03         1.93424         1.93424        -8.76487        -8.76487
            1549     1.18439E+03     1.18439E+03         2.99718         2.99718        -10.5786        -10.5786
            1550     1.18885E+03     1.18885E+03         4.09566         4.09566        -12.2535        -12.2535
            1551     1.19356E+03     1.19356E+03         5.09559         5.09559        -13.9686        -13.9686
            1552     1.19879E+03     1.19879E+03         5.81695         5.81695        -15.8504        -15.8504
            1553     1.20488E+03     1.20488E+03         5.99048         5.99048        -17.9703        -17.9703
            1554     1.21227E+03     1.21227E+03         5.18667         5.18667        -20.3107        -20.3107
            1555     1.22151E+03     1.22151E+03         2.69943         2.69943        -22.6745        -22.6745
            1556     1.23325E+03     1.23325E+03        -2.62677        -2.62677        -24.4425        -24.4425
            1557     1.24796E+03     1.24796E+03        -12.5357        -12.5357        -24.0717        -24.0717
            1558     1.16576E+03     1.16576E+03     703.306E-03     703.306E-03        -2.77532        -2.77532
            1559     1.17213E+03     1.17213E+03         1.92598         1.92598        -4.96951        -4.96951
            1560     1.17747E+03     1.17747E+03         3.72861         3.72861        -6.66344        -6.66344
            1561     1.18219E+03     1.18219E+03         5.97989         5.97989        -8.12869        -8.12869
            1562     1.18662E+03     1.18662E+03         8.59767         8.59767        -9.58550        -9.58550
            1563     1.19105E+03     1.19105E+03         11.5303         11.5303        -11.2183        -11.2183
            1564     1.19581E+03     1.19581E+03         14.7357         14.7357        -13.1995        -13.1995
            1565     1.20128E+03     1.20128E+03         18.1521         18.1521        -15.7079        -15.7079
            1566     1.20794E+03     1.20794E+03         21.6496         21.6496        -18.9407        -18.9407
            1567     1.21652E+03     1.21652E+03         24.9303         24.9303        -23.1101        -23.1101
            1568     1.22816E+03     1.22816E+03         27.2965         27.2965        -28.3790        -28.3790
            1569     1.24467E+03     1.24467E+03         27.0910         27.0910        -34.5838        -34.5838
            1570     1.16306E+03     1.16306E+03     934.349E-03     934.349E-03        -1.39315        -1.39315
            1571     1.17016E+03     1.17016E+03         2.57396         2.57396        -2.47892        -2.47892
            1572     1.17587E+03     1.17587E+03         5.02206         5.02206        -3.31050        -3.31050
            1573     1.18068E+03     1.18068E+03         8.14483         8.14483        -4.04818        -4.04818
            1574     1.18497E+03     1.18497E+03         11.8996         11.8996        -4.82556        -4.82556
            1575     1.18906E+03     1.18906E+03         16.3204         16.3204        -5.76245        -5.76245
            1576     1.19326E+03     1.19326E+03         21.5126         21.5126        -6.98347        -6.98347
            1577     1.19792E+03     1.19792E+03         27.6563         27.6563        -8.63876        -8.63876
            1578     1.20345E+03     1.20345E+03         35.0187         35.0187        -10.9309        -10.9309
            1579     1.21049E+03     1.21049E+03         43.9742         43.9742        -14.1570        -14.1570
            1580     1.22008E+03     1.22008E+03         55.0181         55.0181        -18.7970        -18.7970
            1581     1.23411E+03     1.23411E+03         68.6843         68.6843        -25.6764        -25.6764
            1582     1.16235E+03     1.16235E+03         1.02125         1.02125     268.472E-03     268.472E-03
            1583     1.16970E+03     1.16970E+03         2.81816         2.81816     526.383E-03     526.383E-03
            1584     1.17551E+03     1.17551E+03         5.51068         5.51068     769.473E-03     769.473E-03
            1585     1.18031E+03     1.18031E+03         8.96512         8.96512     989.795E-03     989.795E-03
            1586     1.18450E+03     1.18450E+03         13.1554         13.1554         1.18175         1.18175
            1587     1.18842E+03     1.18842E+03         18.1515         18.1515         1.34101         1.34101
            1588     1.19234E+03     1.19234E+03         24.1217         24.1217         1.46434         1.46434
            1589     1.19660E+03     1.19660E+03         31.3526         31.3526         1.54972         1.54972
            1590     1.20157E+03     1.20157E+03         40.2960         40.2960         1.59602         1.59602
            1591     1.20780E+03     1.20780E+03         51.6578         51.6578         1.60327         1.60327
            1592     1.21614E+03     1.21614E+03         66.5898         66.5898         1.57289         1.57289
            1593     1.22815E+03     1.22815E+03         87.1630         87.1630         1.50543         1.50543
            1594     1.16382E+03     1.16382E+03     944.118E-03     944.118E-03         1.93915         1.93915
            1595     1.17088E+03     1.17088E+03         2.60218         2.60218         3.54875         3.54875
            1596     1.17654E+03     1.17654E+03         5.07915         5.07915         4.87333         4.87333
            1597     1.18127E+03     1.18127E+03         8.23952         8.23952         6.05724         6.05724
            1598     1.18547E+03     1.18547E+03         12.0389         12.0389         7.22298         7.22298
            1599     1.18946E+03     1.18946E+03         16.5098         16.5098         8.48166         8.48166
            1600     1.19356E+03     1.19356E+03         21.7560         21.7560         9.95166         9.95166
            1601     1.19810E+03     1.19810E+03         27.9563         27.9563         11.7790         11.7790
            1602     1.20353E+03     1.20353E+03         35.3766         35.3766         14.1644         14.1644
            1603     1.21046E+03     1.21046E+03         44.3904         44.3904         17.4047         17.4047
            1604     1.21994E+03     1.21994E+03         55.4908         55.4908         21.9815         21.9815
            1605     1.23387E+03     1.23387E+03         69.2118         69.2118         28.7263         28.7263
            1606     1.16729E+03     1.16729E+03     722.792E-03     722.792E-03         3.34845         3.34845
            1607     1.17358E+03     1.17358E+03         1.98228         1.98228         6.09052         6.09052
            1608     1.17882E+03     1.17882E+03         3.84254         3.84254         8.29785         8.29785
            1609     1.18338E+03     1.18338E+03         6.16885         6.16885         10.2261         10.2261
            1610     1.18763E+03     1.18763E+03         8.87566         8.87566         12.0844         12.0844
            1611     1.19186E+03     1.19186E+03         11.9081         11.9081         14.0489         14.0489
            1612     1.19641E+03     1.19641E+03         15.2210         15.2210         16.2858         16.2858
            1613     1.20165E+03     1.20165E+03         18.7499         18.7499         18.9702         18.9702
            1614     1.20809E+03     1.20809E+03         22.3624         22.3624         22.2975         22.2975
            1615     1.21645E+03     1.21645E+03         25.7584         25.7584         26.4806         26.4806
            1616     1.22787E+03     1.22787E+03         28.2393         28.2393         31.6836         31.6836
            1617     1.24419E+03     1.24419E+03         28.1426         28.1426         37.7456         37.7456
            1618     1.17229E+03     1.17229E+03     409.783E-03     409.783E-03         4.29025         4.29025
            1619     1.17742E+03     1.17742E+03         1.10743         1.10743         7.77455         7.77455
            1620     1.18197E+03     1.18197E+03         2.10458         2.10458         10.5184         10.5184
            1621     1.18621E+03     1.18621E+03         3.27963         3.27963         12.8227         12.8227
            1622     1.19040E+03     1.19040E+03         4.51102         4.51102         14.9210         14.9210
            1623     1.19480E+03     1.19480E+03         5.65972         5.65972         16.9839         16.9839
            1624     1.19970E+03     1.19970E+03         6.54115         6.54115         19.1323         19.1323
            1625     1.20545E+03     1.20545E+03         6.88171         6.88171         21.4342         21.4342
            1626     1.21250E+03     1.21250E+03         6.24810         6.24810         23.8712         23.8712
            1627     1.22140E+03     1.22140E+03         3.93122         3.93122         26.2475         26.2475
            1628     1.23281E+03     1.23281E+03        -1.22693        -1.22693         27.9468         27.9468
            1629     1.24722E+03     1.24722E+03        -10.9692        -10.9692         27.4261         27.4261
            1630     1.17815E+03     1.17815E+03     72.6228E-03     72.6228E-03         4.66490         4.66490
            1631     1.18184E+03     1.18184E+03     168.851E-03     168.851E-03         8.42290         8.42290
            1632     1.18548E+03     1.18548E+03     252.167E-03     252.167E-03         11.3015         11.3015
            1633     1.18917E+03     1.18917E+03     233.273E-03     233.273E-03         13.5806         13.5806
            1634     1.19306E+03     1.19306E+03    -15.0639E-03    -15.0639E-03         15.4615         15.4615
            1635     1.19732E+03     1.19732E+03    -666.648E-03    -666.648E-03         17.0570         17.0570
            1636     1.20213E+03     1.20213E+03        -1.96008        -1.96008         18.3911         18.3911
            1637     1.20771E+03     1.20771E+03        -4.22645        -4.22645         19.3745         19.3745
            1638     1.21427E+03     1.21427E+03        -7.92203        -7.92203         19.7470         19.7470
            1639     1.22196E+03     1.22196E+03        -13.6517        -13.6517         18.9615         18.9615
            1640     1.23061E+03     1.23061E+03        -22.1059        -22.1059         16.0104         16.0104
            1641     1.23920E+03     1.23920E+03        -33.7730        -33.7730         9.22097         9.22097
            1642     1.16964E+03     1.16964E+03         1.42626         1.42626     155.812E-03     155.812E-03
            1643     1.16962E+03     1.16962E+03         1.45277         1.45277     312.502E-03     312.502E-03
            1644     1.16960E+03     1.16960E+03         1.49683         1.49683     473.111E-03     473.111E-03
            1645     1.16957E+03     1.16957E+03         1.55842         1.55842     638.931E-03     638.931E-03
            1646     1.16952E+03     1.16952E+03         1.63745         1.63745     811.685E-03     811.685E-03
            1647     1.16947E+03     1.16947E+03         1.73376         1.73376     993.094E-03     993.094E-03
            1648     1.16940E+03     1.16940E+03         1.84710         1.84710         1.18487         1.18487
            1649     1.16933E+03     1.16933E+03         1.97712         1.97712         1.38870         1.38870
            1650     1.16923E+03     1.16923E+03         2.12333         2.12333         1.60627         1.60627
            1651     1.16913E+03     1.16913E+03         2.28506         2.28506         1.83923         1.83923
            1652     1.16901E+03     1.16901E+03         2.46137         2.46137         2.08922         2.08922
            1653     1.16887E+03     1.16887E+03         2.65105         2.65105         2.35785         2.35785
            1654     1.16871E+03     1.16871E+03         2.85252         2.85252         2.64672         2.64672
            1655     1.16854E+03     1.16854E+03         3.06376         3.06376         2.95739         2.95739
            1656     1.16834E+03     1.16834E+03         3.28218         3.28218         3.29143         3.29143
            1657     1.16813E+03     1.16813E+03         3.50454         3.50454         3.65044         3.65044
            1658     1.16789E+03     1.16789E+03         3.72685         3.72685         4.03603         4.03603
            1659     1.16763E+03     1.16763E+03         3.94415         3.94415         4.44990         4.44990
            1660     1.16735E+03     1.16735E+03         4.15041         4.15041         4.89389         4.89389
            1661     1.16705E+03     1.16705E+03         4.33830         4.33830         5.37006         5.37006
            1662     1.16673E+03     1.16673E+03         4.49901         4.49901         5.88075         5.88075
            1663     1.16639E+03     1.16639E+03         4.62196         4.62196         6.42876         6.42876
            1664     1.16604E+03     1.16604E+03         4.69455         4.69455         7.01744         7.01744
            1665     1.16569E+03     1.16569E+03         4.70184         4.70184         7.65087         7.65087
            1666     1.16533E+03     1.16533E+03         4.62616         4.62616         8.33403         8.33403
            1667     1.16499E+03     1.16499E+03         4.44673         4.44673         9.07300         9.07300
            1668     1.16468E+03     1.16468E+03         4.13920         4.13920         9.87502         9.87502
            1669     1.16443E+03     1.16443E+03         3.67503         3.67503         10.7485         10.7485
            1670     1.16426E+03     1.16426E+03         3.02100         3.02100         11.7031         11.7031
            1671     1.16421E+03     1.16421E+03         2.13833         2.13833         12.7485         12.7485
            1672     1.16433E+03     1.16433E+03     982.264E-03     982.264E-03         13.8943         13.8943
            1673     1.16469E+03     1.16469E+03    -499.057E-03    -499.057E-03         15.1471         15.1471
            1674     1.16538E+03     1.16538E+03        -2.36434        -2.36434         16.5070         16.5070
            1675     1.16651E+03     1.16651E+03        -4.67971        -4.67971         17.9622         17.9622
            1676     1.16821E+03     1.16821E+03        -7.51508        -7.51508         19.4787         19.4787
            1677     1.17067E+03     1.17067E+03        -10.9405        -10.9405         20.9864         20.9864
            1678     1.17410E+03     1.17410E+03        -15.0089        -15.0089         22.3564         22.3564
            1679     1.17876E+03     1.17876E+03        -19.7339        -19.7339         23.3745         23.3745
            1680     1.18490E+03     1.18490E+03        -25.0296        -25.0296         23.7019         23.7019
            1681     1.19269E+03     1.19269E+03        -30.6319        -30.6319         22.8641         22.8641
            1682     1.20215E+03     1.20215E+03        -35.9677        -35.9677         20.2547         20.2547
            1683     1.21297E+03     1.21297E+03        -40.1067        -40.1067         15.3116         15.3116
            1684     1.16977E+03     1.16977E+03         1.26806         1.26806     163.155E-03     163.155E-03
            1685     1.16976E+03     1.16976E+03         1.29191         1.29191     327.215E-03     327.215E-03
            1686     1.16975E+03     1.16975E+03         1.33157         1.33157     495.451E-03     495.451E-03
            1687     1.16973E+03     1.16973E+03         1.38700         1.38700     669.236E-03     669.236E-03
            1688     1.16970E+03     1.16970E+03         1.45812         1.45812     850.399E-03     850.399E-03
            1689     1.16967E+03     1.16967E+03         1.54479         1.54479         1.04077         1.04077
            1690     1.16963E+03     1.16963E+03         1.64677         1.64677         1.24214         1.24214
            1691     1.16958E+03     1.16958E+03         1.76375         1.76375         1.45632         1.45632
            1692     1.16952E+03     1.16952E+03         1.89524         1.89524         1.68506         1.68506
            1693     1.16946E+03     1.16946E+03         2.04060         2.04060         1.93009         1.93009
            1694     1.16938E+03     1.16938E+03         2.19895         2.19895         2.19310         2.19310
            1695     1.16930E+03     1.16930E+03         2.36911         2.36911         2.47571         2.47571
            1696     1.16920E+03     1.16920E+03         2.54955         2.54955         2.77952         2.77952
            1697     1.16909E+03     1.16909E+03         2.73827         2.73827         3.10603         3.10603
            1698     1.16897E+03     1.16897E+03         2.93272         2.93272         3.45671         3.45671
            1699     1.16883E+03     1.16883E+03         3.12972         3.12972         3.83294         3.83294
            1700     1.16868E+03     1.16868E+03         3.32524         3.32524         4.23604         4.23604
            1701     1.16852E+03     1.16852E+03         3.51431         3.51431         4.66728         4.66728
            1702     1.16834E+03     1.16834E+03         3.69084         3.69084         5.12792         5.12792
            1703     1.16816E+03     1.16816E+03         3.84738         3.84738         5.61917         5.61917
            1704     1.16797E+03     1.16797E+03         3.97489         3.97489         6.14233         6.14233
            1705     1.16777E+03     1.16777E+03         4.06251         4.06251         6.69876         6.69876
            1706     1.16758E+03     1.16758E+03         4.09725         4.09725         7.28995         7.28995
            1707     1.16739E+03     1.16739E+03         4.06366         4.06366         7.91760         7.91760
            1708     1.16723E+03     1.16723E+03         3.94348         3.94348         8.58363         8.58363
            1709     1.16710E+03     1.16710E+03         3.71528         3.71528         9.29016         9.29016
            1710     1.16703E+03     1.16703E+03         3.35408         3.35408         10.0394         10.0394
            1711     1.16703E+03     1.16703E+03         2.83097         2.83097         10.8335         10.8335
            1712     1.16715E+03     1.16715E+03         2.11277         2.11277         11.6738         11.6738
            1713     1.16743E+03     1.16743E+03         1.16192         1.16192         12.5601         12.5601
            1714     1.16791E+03     1.16791E+03    -63.6868E-03    -63.6868E-03         13.4888         13.4888
            1715     1.16867E+03     1.16867E+03        -1.60985        -1.60985         14.4503         14.4503
            1716     1.16979E+03     1.16979E+03        -3.52522        -3.52522         15.4254         15.4254
            1717     1.17136E+03     1.17136E+03        -5.85751        -5.85751         16.3781         16.3781
            1718     1.17352E+03     1.17352E+03        -8.64892        -8.64892         17.2483         17.2483
            1719     1.17640E+03     1.17640E+03        -11.9239        -11.9239         17.9378         17.9378
            1720     1.18014E+03     1.18014E+03        -15.6726        -15.6726         18.2980         18.2980
            1721     1.18490E+03     1.18490E+03        -19.8176        -19.8176         18.1101         18.1101
            1722     1.19077E+03     1.19077E+03        -24.1687        -24.1687         17.0826         17.0826
            1723     1.19774E+03     1.19774E+03        -28.3612        -28.3612         14.8530         14.8530
            1724     1.20563E+03     1.20563E+03        -31.7978        -31.7978         11.0621         11.0621
            1725     1.21407E+03     1.21407E+03        -33.6826        -33.6826         5.38503         5.38503
            1726     1.16989E+03     1.16989E+03         1.10443         1.10443     166.663E-03     166.663E-03
            1727     1.16989E+03     1.16989E+03         1.12549         1.12549     334.245E-03     334.245E-03
            1728     1.16989E+03     1.16989E+03         1.16050         1.16050     506.182E-03     506.182E-03
            1729     1.16988E+03     1.16988E+03         1.20946         1.20946     683.896E-03     683.896E-03
            1730     1.16987E+03     1.16987E+03         1.27227         1.27227     869.289E-03     869.289E-03
            1731     1.16986E+03     1.16986E+03         1.34880         1.34880         1.06426         1.06426
            1732     1.16985E+03     1.16985E+03         1.43886         1.43886         1.27067         1.27067
            1733     1.16984E+03     1.16984E+03         1.54214         1.54214         1.49038         1.49038
            1734     1.16982E+03     1.16982E+03         1.65821         1.65821         1.72520         1.72520
            1735     1.16979E+03     1.16979E+03         1.78647         1.78647         1.97690         1.97690
            1736     1.16977E+03     1.16977E+03         1.92609         1.92609         2.24717         2.24717
            1737     1.16974E+03     1.16974E+03         2.07598         2.07598         2.53764         2.53764
            1738     1.16970E+03     1.16970E+03         2.23467         2.23467         2.84985         2.84985
            1739     1.16966E+03     1.16966E+03         2.40027         2.40027         3.18522         3.18522
            1740     1.16961E+03     1.16961E+03         2.57034         2.57034         3.54506         3.54506
            1741     1.16956E+03     1.16956E+03         2.74180         2.74180         3.93050         3.93050
            1742     1.16950E+03     1.16950E+03         2.91076         2.91076         4.34251         4.34251
            1743     1.16944E+03     1.16944E+03         3.07237         3.07237         4.78189         4.78189
            1744     1.16938E+03     1.16938E+03         3.22066         3.22066         5.24918         5.24918
            1745     1.16931E+03     1.16931E+03         3.34830         3.34830         5.74474         5.74474
            1746     1.16925E+03     1.16925E+03         3.44637         3.44637         6.26864         6.26864
            1747     1.16920E+03     1.16920E+03         3.50410         3.50410         6.82069         6.82069
            1748     1.16916E+03     1.16916E+03         3.50858         3.50858         7.40037         7.40037
            1749     1.16914E+03     1.16914E+03         3.44445         3.44445         8.00680         8.00680
            1750     1.16916E+03     1.16916E+03         3.29363         3.29363         8.63865         8.63865
            1751     1.16923E+03     1.16923E+03         3.03495         3.03495         9.29392         9.29392
            1752     1.16937E+03     1.16937E+03         2.64397         2.64397         9.96974         9.96974
            1753     1.16961E+03     1.16961E+03         2.09276         2.09276         10.6619         10.6619
            1754     1.16998E+03     1.16998E+03         1.35000         1.35000         11.3639         11.3639
            1755     1.17052E+03     1.17052E+03     381.148E-03     381.148E-03         12.0661         12.0661
            1756     1.17128E+03     1.17128E+03    -850.570E-03    -850.570E-03         12.7538         12.7538
            1757     1.17233E+03     1.17233E+03        -2.38285        -2.38285         13.4046         13.4046
            1758     1.17372E+03     1.17372E+03        -4.25104        -4.25104         13.9845         13.9845
            1759     1.17556E+03     1.17556E+03        -6.48386        -6.48386         14.4432         14.4432
            1760     1.17793E+03     1.17793E+03        -9.09465        -9.09465         14.7066         14.7066
            1761     1.18092E+03     1.18092E+03        -12.0696        -12.0696         14.6707         14.6707
            1762     1.18462E+03     1.18462E+03        -15.3478        -15.3478         14.1919         14.1919
            1763     1.18908E+03     1.18908E+03        -18.7944        -18.7944         13.0866         13.0866
            1764     1.19429E+03     1.19429E+03        -22.1677        -22.1677         11.1337         11.1337
            1765     1.20013E+03     1.20013E+03        -25.0792        -25.0792         8.10708         8.10708
            1766     1.20636E+03     1.20636E+03        -26.9946        -26.9946         3.81327         3.81327
            1767     1.21254E+03     1.21254E+03        -27.1627        -27.1627        -1.88134        -1.88134
            1768     1.17001E+03     1.17001E+03     939.229E-03     939.229E-03     166.185E-03     166.185E-03
            1769     1.17001E+03     1.17001E+03     957.410E-03     957.410E-03     333.275E-03     333.275E-03
            1770     1.17002E+03     1.17002E+03     987.648E-03     987.648E-03     504.820E-03     504.820E-03
            1771     1.17003E+03     1.17003E+03         1.02993         1.02993     682.250E-03     682.250E-03
            1772     1.17004E+03     1.17004E+03         1.08418         1.08418     867.505E-03     867.505E-03
            1773     1.17005E+03     1.17005E+03         1.15028         1.15028         1.06251         1.06251
            1774     1.17007E+03     1.17007E+03         1.22808         1.22808         1.26918         1.26918
            1775     1.17009E+03     1.17009E+03         1.31729         1.31729         1.48938         1.48938
            1776     1.17011E+03     1.17011E+03         1.41753         1.41753         1.72493         1.72493
            1777     1.17013E+03     1.17013E+03         1.52828         1.52828         1.97762         1.97762
            1778     1.17015E+03     1.17015E+03         1.64877         1.64877         2.24912         2.24912
            1779     1.17018E+03     1.17018E+03         1.77802         1.77802         2.54104         2.54104
            1780     1.17020E+03     1.17020E+03         1.91468         1.91468         2.85483         2.85483
            1781     1.17023E+03     1.17023E+03         2.05700         2.05700         3.19182         3.19182
            1782     1.17026E+03     1.17026E+03         2.20274         2.20274         3.55311         3.55311
            1783     1.17030E+03     1.17030E+03         2.34901         2.34901         3.93959         3.93959
            1784     1.17034E+03     1.17034E+03         2.49217         2.49217         4.35188         4.35188
            1785     1.17038E+03     1.17038E+03         2.62766         2.62766         4.79025         4.79025
            1786     1.17043E+03     1.17043E+03         2.74983         2.74983         5.25458         5.25458
            1787     1.17049E+03     1.17049E+03         2.85172         2.85172         5.74430         5.74430
            1788     1.17056E+03     1.17056E+03         2.92484         2.92484         6.25830         6.25830
            1789     1.17065E+03     1.17065E+03         2.95890         2.95890         6.79483         6.79483
            1790     1.17076E+03     1.17076E+03         2.94157         2.94157         7.35139         7.35139
            1791     1.17091E+03     1.17091E+03         2.85819         2.85819         7.92458         7.92458
            1792     1.17111E+03     1.17111E+03         2.69154         2.69154         8.50989         8.50989
            1793     1.17136E+03     1.17136E+03         2.42160         2.42160         9.10143         9.10143
            1794     1.17170E+03     1.17170E+03         2.02544         2.02544         9.69154         9.69154
            1795     1.17213E+03     1.17213E+03         1.47732         1.47732         10.2702         10.2702
            1796     1.17271E+03     1.17271E+03     748.947E-03     748.947E-03         10.8242         10.8242
            1797     1.17345E+03     1.17345E+03    -189.695E-03    -189.695E-03         11.3361         11.3361
            1798     1.17441E+03     1.17441E+03        -1.36906        -1.36906         11.7825         11.7825
            1799     1.17564E+03     1.17564E+03        -2.81746        -2.81746         12.1318         12.1318
            1800     1.17718E+03     1.17718E+03        -4.55749        -4.55749         12.3417         12.3417
            1801     1.17912E+03     1.17912E+03        -6.59988        -6.59988         12.3549         12.3549
            1802     1.18149E+03     1.18149E+03        -8.93499        -8.93499         12.0967         12.0967
            1803     1.18437E+03     1.18437E+03        -11.5203        -11.5203         11.4701         11.4701
            1804     1.18778E+03     1.18778E+03        -14.2635        -14.2635         10.3565         10.3565
            1805     1.19170E+03     1.19170E+03        -17.0032        -17.0032         8.61861         8.61861
            1806     1.19606E+03     1.19606E+03        -19.4846        -19.4846         6.11654         6.11654
            1807     1.20070E+03     1.20070E+03        -21.3514        -21.3514         2.73317         2.73317
            1808     1.20534E+03     1.20534E+03        -22.1219        -22.1219        -1.59548        -1.59548
            1809     1.20956E+03     1.20956E+03        -21.1979        -21.1979        -6.79856        -6.79856
            1810     1.17011E+03     1.17011E+03     776.431E-03     776.431E-03     161.638E-03     161.638E-03
            1811     1.17012E+03     1.17012E+03     791.713E-03     791.713E-03     324.138E-03     324.138E-03
            1812     1.17013E+03     1.17013E+03     817.137E-03     817.137E-03     491.100E-03     491.100E-03
            1813     1.17016E+03     1.17016E+03     852.688E-03     852.688E-03     663.930E-03     663.930E-03
            1814     1.17019E+03     1.17019E+03     898.311E-03     898.311E-03     844.563E-03     844.563E-03
            1815     1.17023E+03     1.17023E+03     953.915E-03     953.915E-03         1.03492         1.03492
            1816     1.17027E+03     1.17027E+03         1.01935         1.01935         1.23690         1.23690
            1817     1.17032E+03     1.17032E+03         1.09440         1.09440         1.45236         1.45236
            1818     1.17038E+03     1.17038E+03         1.17874         1.17874         1.68312         1.68312
            1819     1.17045E+03     1.17045E+03         1.27190         1.27190         1.93091         1.93091
            1820     1.17052E+03     1.17052E+03         1.37323         1.37323         2.19740         2.19740
            1821     1.17061E+03     1.17061E+03         1.48186         1.48186         2.48411         2.48411
            1822     1.17070E+03     1.17070E+03         1.59661         1.59661         2.79242         2.79242
            1823     1.17080E+03     1.17080E+03         1.71593         1.71593         3.12353         3.12353
            1824     1.17091E+03     1.17091E+03         1.83781         1.83781         3.47839         3.47839
            1825     1.17104E+03     1.17104E+03         1.95966         1.95966         3.85762         3.85762
            1826     1.17117E+03     1.17117E+03         2.07820         2.07820         4.26149         4.26149
            1827     1.17132E+03     1.17132E+03         2.18931         2.18931         4.68983         4.68983
            1828     1.17148E+03     1.17148E+03         2.28784         2.28784         5.14189         5.14189
            1829     1.17167E+03     1.17167E+03         2.36745         2.36745         5.61628         5.61628
            1830     1.17187E+03     1.17187E+03         2.42035         2.42035         6.11079         6.11079
            1831     1.17210E+03     1.17210E+03         2.43713         2.43713         6.62228         6.62228
            1832     1.17237E+03     1.17237E+03         2.40649         2.40649         7.14647         7.14647
            1833     1.17268E+03     1.17268E+03         2.31498         2.31498         7.67770         7.67770
            1834     1.17304E+03     1.17304E+03         2.14689         2.14689         8.20867         8.20867
            1835     1.17346E+03     1.17346E+03         1.88404         1.88404         8.73008         8.73008
            1836     1.17397E+03     1.17397E+03         1.50587         1.50587         9.23018         9.23018
            1837     1.17458E+03     1.17458E+03     989.579E-03     989.579E-03         9.69419         9.69419
            1838     1.17531E+03     1.17531E+03     310.792E-03     310.792E-03         10.1036         10.1036
            1839     1.17621E+03     1.17621E+03    -555.481E-03    -555.481E-03         10.4350         10.4350
            1840     1.17729E+03     1.17729E+03        -1.63294        -1.63294         10.6591         10.6591
            1841     1.17861E+03     1.17861E+03        -2.94129        -2.94129         10.7393         10.7393
            1842     1.18020E+03     1.18020E+03        -4.49190        -4.49190         10.6295         10.6295
            1843     1.18210E+03     1.18210E+03        -6.28181        -6.28181         10.2734         10.2734
            1844     1.18434E+03     1.18434E+03        -8.28549        -8.28549         9.60212         9.60212
            1845     1.18694E+03     1.18694E+03        -10.4437        -10.4437         8.53610         8.53610
            1846     1.18990E+03     1.18990E+03        -12.6516        -12.6516         6.98735         6.98735
            1847     1.19316E+03     1.19316E+03        -14.7429        -14.7429         4.86882         4.86882
            1848     1.19663E+03     1.19663E+03        -16.4825        -16.4825         2.11053         2.11053
            1849     1.20011E+03     1.20011E+03        -17.5549        -17.5549        -1.31957        -1.31957
            1850     1.20336E+03     1.20336E+03        -17.5730        -17.5730        -5.37161        -5.37161
            1851     1.20603E+03     1.20603E+03        -16.1076        -16.1076        -9.87021        -9.87021
            1852     1.17018E+03     1.17018E+03     620.057E-03     620.057E-03     153.025E-03     153.025E-03
            1853     1.17020E+03     1.17020E+03     632.484E-03     632.484E-03     306.836E-03     306.836E-03
            1854     1.17023E+03     1.17023E+03     653.164E-03     653.164E-03     465.017E-03     465.017E-03
            1855     1.17026E+03     1.17026E+03     682.085E-03     682.085E-03     628.912E-03     628.912E-03
            1856     1.17031E+03     1.17031E+03     719.207E-03     719.207E-03     800.407E-03     800.407E-03
            1857     1.17037E+03     1.17037E+03     764.458E-03     764.458E-03     981.372E-03     981.372E-03
            1858     1.17045E+03     1.17045E+03     817.725E-03     817.725E-03         1.17366         1.17366
            1859     1.17053E+03     1.17053E+03     878.830E-03     878.830E-03         1.37907         1.37907
            1860     1.17063E+03     1.17063E+03     947.509E-03     947.509E-03         1.59938         1.59938
            1861     1.17074E+03     1.17074E+03         1.02338         1.02338         1.83626         1.83626
            1862     1.17087E+03     1.17087E+03         1.10591         1.10591         2.09131         2.09131
            1863     1.17101E+03     1.17101E+03         1.19435         1.19435         2.36599         2.36599
            1864     1.17117E+03     1.17117E+03         1.28773         1.28773         2.66158         2.66158
            1865     1.17134E+03     1.17134E+03         1.38472         1.38472         2.97915         2.97915
            1866     1.17154E+03     1.17154E+03         1.48360         1.48360         3.31950         3.31950
            1867     1.17175E+03     1.17175E+03         1.58217         1.58217         3.68304         3.68304
            1868     1.17198E+03     1.17198E+03         1.67758         1.67758         4.06977         4.06977
            1869     1.17224E+03     1.17224E+03         1.76628         1.76628         4.47913         4.47913
            1870     1.17252E+03     1.17252E+03         1.84378         1.84378         4.90987         4.90987
            1871     1.17283E+03     1.17283E+03         1.90455         1.90455         5.35993         5.35993
            1872     1.17317E+03     1.17317E+03         1.94180         1.94180         5.82624         5.82624
            1873     1.17354E+03     1.17354E+03         1.94727         1.94727         6.30455         6.30455
            1874     1.17396E+03     1.17396E+03         1.91105         1.91105         6.78912         6.78912
            1875     1.17442E+03     1.17442E+03         1.82138         1.82138         7.27253         7.27253
            1876     1.17493E+03     1.17493E+03         1.66454         1.66454         7.74527         7.74527
            1877     1.17552E+03     1.17552E+03         1.42476         1.42476         8.19538         8.19538
            1878     1.17618E+03     1.17618E+03         1.08435         1.08435         8.60802         8.60802
            1879     1.17693E+03     1.17693E+03     624.042E-03     624.042E-03         8.96489         8.96489
            1880     1.17780E+03     1.17780E+03     23.6423E-03     23.6423E-03         9.24368         9.24368
            1881     1.17880E+03     1.17880E+03    -736.675E-03    -736.675E-03         9.41732         9.41732
            1882     1.17996E+03     1.17996E+03        -1.67451        -1.67451         9.45332         9.45332
            1883     1.18130E+03     1.18130E+03        -2.80227        -2.80227         9.31300         9.31300
            1884     1.18285E+03     1.18285E+03        -4.12308        -4.12308         8.95112         8.95112
            1885     1.18462E+03     1.18462E+03        -5.62523        -5.62523         8.31573         8.31573
            1886     1.18663E+03     1.18663E+03        -7.27479        -7.27479         7.34955         7.34955
            1887     1.18886E+03     1.18886E+03        -9.00757        -9.00757         5.99261         5.99261
            1888     1.19130E+03     1.19130E+03        -10.7190        -10.7190         4.18831         4.18831
            1889     1.19386E+03     1.19386E+03        -12.2575        -12.2575         1.89381         1.89381
            1890     1.19644E+03     1.19644E+03        -13.4176        -13.4176    -906.414E-03    -906.414E-03
            1891     1.19888E+03     1.19888E+03        -13.9437        -13.9437        -4.17616        -4.17616
            1892     1.20096E+03     1.20096E+03        -13.5457        -13.5457        -7.80302        -7.80302
            1893     1.20243E+03     1.20243E+03        -11.9339        -11.9339        -11.5649        -11.5649
            1894     1.17023E+03     1.17023E+03     474.078E-03     474.078E-03     140.445E-03     140.445E-03
            1895     1.17025E+03     1.17025E+03     483.762E-03     483.762E-03     281.560E-03     281.560E-03
            1896     1.17029E+03     1.17029E+03     499.887E-03     499.887E-03     426.849E-03     426.849E-03
            1897     1.17034E+03     1.17034E+03     522.440E-03     522.440E-03     577.549E-03     577.549E-03
            1898     1.17041E+03     1.17041E+03     551.393E-03     551.393E-03     735.450E-03     735.450E-03
            1899     1.17049E+03     1.17049E+03     586.697E-03     586.697E-03     902.327E-03     902.327E-03
            1900     1.17059E+03     1.17059E+03     628.267E-03     628.267E-03         1.07993         1.07993
            1901     1.17071E+03     1.17071E+03     675.972E-03     675.972E-03         1.26999         1.26999
            1902     1.17085E+03     1.17085E+03     729.609E-03     729.609E-03         1.47417         1.47417
            1903     1.17100E+03     1.17100E+03     788.881E-03     788.881E-03         1.69406         1.69406
            1904     1.17118E+03     1.17118E+03     853.369E-03     853.369E-03         1.93117         1.93117
            1905     1.17138E+03     1.17138E+03     922.488E-03     922.488E-03         2.18686         2.18686
            1906     1.17160E+03     1.17160E+03     995.448E-03     995.448E-03         2.46233         2.46233
            1907     1.17185E+03     1.17185E+03         1.07119         1.07119         2.75854         2.75854
            1908     1.17213E+03     1.17213E+03         1.14833         1.14833         3.07613         3.07613
            1909     1.17243E+03     1.17243E+03         1.22506         1.22506         3.41540         3.41540
            1910     1.17276E+03     1.17276E+03         1.29908         1.29908         3.77612         3.77612
            1911     1.17312E+03     1.17312E+03         1.36745         1.36745         4.15748         4.15748
            1912     1.17352E+03     1.17352E+03         1.42649         1.42649         4.55790         4.55790
            1913     1.17395E+03     1.17395E+03         1.47161         1.47161         4.97489         4.97489
            1914     1.17443E+03     1.17443E+03         1.49720         1.49720         5.40481         5.40481
            1915     1.17494E+03     1.17494E+03         1.49639         1.49639         5.84266         5.84266
            1916     1.17550E+03     1.17550E+03         1.46094         1.46094         6.28179         6.28179
            1917     1.17612E+03     1.17612E+03         1.38109         1.38109         6.71357         6.71357
            1918     1.17679E+03     1.17679E+03         1.24547         1.24547         7.12706         7.12706
            1919     1.17752E+03     1.17752E+03         1.04105         1.04105         7.50862         7.50862
            1920     1.17832E+03     1.17832E+03     753.367E-03     753.367E-03         7.84144         7.84144
            1921     1.17921E+03     1.17921E+03     366.848E-03     366.848E-03         8.10516         8.10516
            1922     1.18019E+03     1.18019E+03    -134.440E-03    -134.440E-03         8.27535         8.27535
            1923     1.18127E+03     1.18127E+03    -765.601E-03    -765.601E-03         8.32325         8.32325
            1924     1.18246E+03     1.18246E+03        -1.53905        -1.53905         8.21540         8.21540
            1925     1.18378E+03     1.18378E+03        -2.46182        -2.46182         7.91381         7.91381
            1926     1.18524E+03     1.18524E+03        -3.53198        -3.53198         7.37635         7.37635
            1927     1.18683E+03     1.18683E+03        -4.73372        -4.73372         6.55823         6.55823
            1928     1.18855E+03     1.18855E+03        -6.03192        -6.03192         5.41443         5.41443
            1929     1.19037E+03     1.19037E+03        -7.36535        -7.36535         3.90421         3.90421
            1930     1.19225E+03     1.19225E+03        -8.64138        -8.64138         1.99811         1.99811
            1931     1.19412E+03     1.19412E+03        -9.73065        -9.73065    -312.789E-03    -312.789E-03
            1932     1.19588E+03     1.19588E+03        -10.4677        -10.4677        -3.00247        -3.00247
            1933     1.19739E+03     1.19739E+03        -10.6576        -10.6576        -5.99530        -5.99530
            1934     1.19850E+03     1.19850E+03        -10.0939        -10.0939        -9.14686        -9.14686
            1935     1.19904E+03     1.19904E+03        -8.59363        -8.59363        -12.2308        -12.2308
            1936     1.17024E+03     1.17024E+03     342.318E-03     342.318E-03     124.094E-03     124.094E-03
            1937     1.17027E+03     1.17027E+03     349.451E-03     349.451E-03     248.703E-03     248.703E-03
            1938     1.17031E+03     1.17031E+03     361.336E-03     361.336E-03     377.171E-03     377.171E-03
            1939     1.17038E+03     1.17038E+03     377.957E-03     377.957E-03     510.594E-03     510.594E-03
            1940     1.17046E+03     1.17046E+03     399.298E-03     399.298E-03     650.606E-03     650.606E-03
            1941     1.17057E+03     1.17057E+03     425.328E-03     425.328E-03     798.838E-03     798.838E-03
            1942     1.17070E+03     1.17070E+03     455.991E-03     455.991E-03     956.903E-03     956.903E-03
            1943     1.17085E+03     1.17085E+03     491.198E-03     491.198E-03         1.12638         1.12638
            1944     1.17102E+03     1.17102E+03     530.803E-03     530.803E-03         1.30881         1.30881
            1945     1.17122E+03     1.17122E+03     574.592E-03     574.592E-03         1.50565         1.50565
            1946     1.17145E+03     1.17145E+03     622.257E-03     622.257E-03         1.71831         1.71831
            1947     1.17170E+03     1.17170E+03     673.367E-03     673.367E-03         1.94801         1.94801
            1948     1.17199E+03     1.17199E+03     727.332E-03     727.332E-03         2.19587         2.19587
            1949     1.17231E+03     1.17231E+03     783.360E-03     783.360E-03         2.46272         2.46272
            1950     1.17266E+03     1.17266E+03     840.399E-03     840.399E-03         2.74914         2.74914
            1951     1.17305E+03     1.17305E+03     897.083E-03     897.083E-03         3.05531         3.05531
            1952     1.17348E+03     1.17348E+03     951.646E-03     951.646E-03         3.38091         3.38091
            1953     1.17395E+03     1.17395E+03         1.00184         1.00184         3.72502         3.72502
            1954     1.17446E+03     1.17446E+03         1.04482         1.04482         4.08593         4.08593
            1955     1.17502E+03     1.17502E+03         1.07706         1.07706         4.46097         4.46097
            1956     1.17563E+03     1.17563E+03         1.09418         1.09418         4.84631         4.84631
            1957     1.17628E+03     1.17628E+03         1.09086         1.09086         5.23665         5.23665
            1958     1.17699E+03     1.17699E+03         1.06069         1.06069         5.62499         5.62499
            1959     1.17776E+03     1.17776E+03     996.049E-03     996.049E-03         6.00227         6.00227
            1960     1.17858E+03     1.17858E+03     888.097E-03     888.097E-03         6.35700         6.35700
            1961     1.17947E+03     1.17947E+03     726.747E-03     726.747E-03         6.67490         6.67490
            1962     1.18041E+03     1.18041E+03     500.836E-03     500.836E-03         6.93853         6.93853
            1963     1.18142E+03     1.18142E+03     198.493E-03     198.493E-03         7.12689         7.12689
            1964     1.18250E+03     1.18250E+03    -192.224E-03    -192.224E-03         7.21522         7.21522
            1965     1.18365E+03     1.18365E+03    -682.260E-03    -682.260E-03         7.17482         7.17482
            1966     1.18486E+03     1.18486E+03        -1.27997        -1.27997         6.97327         6.97327
            1967     1.18615E+03     1.18615E+03        -1.98893        -1.98893         6.57500         6.57500
            1968     1.18749E+03     1.18749E+03        -2.80486        -2.80486         5.94253         5.94253
            1969     1.18888E+03     1.18888E+03        -3.71208        -3.71208         5.03865         5.03865
            1970     1.19029E+03     1.19029E+03        -4.67899        -4.67899         3.82981         3.82981
            1971     1.19169E+03     1.19169E+03        -5.65408        -5.65408         2.29129         2.29129
            1972     1.19304E+03     1.19304E+03        -6.56168        -6.56168     413.716E-03     413.716E-03
            1973     1.19425E+03     1.19425E+03        -7.30078        -7.30078        -1.78742        -1.78742
            1974     1.19525E+03     1.19525E+03        -7.74667        -7.74667        -4.26219        -4.26219
            1975     1.19594E+03     1.19594E+03        -7.75908        -7.75908        -6.91429        -6.91429
            1976     1.19620E+03     1.19620E+03        -7.19943        -7.19943        -9.59282        -9.59282
            1977     1.19596E+03     1.19596E+03        -5.95547        -5.95547        -12.0882        -12.0882
            1978     1.17021E+03     1.17021E+03     228.359E-03     228.359E-03     104.281E-03     104.281E-03
            1979     1.17024E+03     1.17024E+03     233.214E-03     233.214E-03     208.865E-03     208.865E-03
            1980     1.17030E+03     1.17030E+03     241.306E-03     241.306E-03     316.887E-03     316.887E-03
            1981     1.17037E+03     1.17037E+03     252.621E-03     252.621E-03     429.228E-03     429.228E-03
            1982     1.17047E+03     1.17047E+03     267.144E-03     267.144E-03     547.324E-03     547.324E-03
            1983     1.17060E+03     1.17060E+03     284.866E-03     284.866E-03     672.610E-03     672.610E-03
            1984     1.17075E+03     1.17075E+03     305.755E-03     305.755E-03     806.494E-03     806.494E-03
            1985     1.17093E+03     1.17093E+03     329.753E-03     329.753E-03     950.368E-03     950.368E-03
            1986     1.17114E+03     1.17114E+03     356.766E-03     356.766E-03         1.10559         1.10559
            1987     1.17138E+03     1.17138E+03     386.653E-03     386.653E-03         1.27345         1.27345
            1988     1.17165E+03     1.17165E+03     419.209E-03     419.209E-03         1.45519         1.45519
            1989     1.17196E+03     1.17196E+03     454.141E-03     454.141E-03         1.65192         1.65192
            1990     1.17230E+03     1.17230E+03     491.048E-03     491.048E-03         1.86461         1.86461
            1991     1.17269E+03     1.17269E+03     529.386E-03     529.386E-03         2.09401         2.09401
            1992     1.17312E+03     1.17312E+03     568.429E-03     568.429E-03         2.34062         2.34062
            1993     1.17359E+03     1.17359E+03     607.226E-03     607.226E-03         2.60459         2.60459
            1994     1.17412E+03     1.17412E+03     644.546E-03     644.546E-03         2.88559         2.88559
            1995     1.17469E+03     1.17469E+03     678.809E-03     678.809E-03         3.18273         3.18273
            1996     1.17532E+03     1.17532E+03     708.016E-03     708.016E-03         3.49439         3.49439
            1997     1.17601E+03     1.17601E+03     729.663E-03     729.663E-03         3.81803         3.81803
            1998     1.17675E+03     1.17675E+03     740.652E-03     740.652E-03         4.14996         4.14996
            1999     1.17755E+03     1.17755E+03     737.187E-03     737.187E-03         4.48513         4.48513
            2000     1.17841E+03     1.17841E+03     714.698E-03     714.698E-03         4.81681         4.81681
            2001     1.17933E+03     1.17933E+03     667.751E-03     667.751E-03         5.13629         5.13629
            2002     1.18031E+03     1.18031E+03     590.023E-03     590.023E-03         5.43251         5.43251
            2003     1.18135E+03     1.18135E+03     474.316E-03     474.316E-03         5.69175         5.69175
            2004     1.18244E+03     1.18244E+03     312.697E-03     312.697E-03         5.89726         5.89726
            2005     1.18359E+03     1.18359E+03     96.7777E-03     96.7777E-03         6.02900         6.02900
            2006     1.18478E+03     1.18478E+03    -181.766E-03    -181.766E-03         6.06350         6.06350
            2007     1.18600E+03     1.18600E+03    -530.375E-03    -530.375E-03         5.97394         5.97394
            2008     1.18725E+03     1.18725E+03    -954.410E-03    -954.410E-03         5.73056         5.73056
            2009     1.18850E+03     1.18850E+03        -1.45543        -1.45543         5.30157         5.30157
            2010     1.18974E+03     1.18974E+03        -2.02910        -2.02910         4.65478         4.65478
            2011     1.19094E+03     1.19094E+03        -2.66236        -2.66236         3.76015         3.76015
            2012     1.19206E+03     1.19206E+03        -3.33074        -3.33074         2.59351         2.59351
            2013     1.19307E+03     1.19307E+03        -3.99522        -3.99522         1.14146         1.14146
            2014     1.19390E+03     1.19390E+03        -4.60041        -4.60041    -592.106E-03    -592.106E-03
            2015     1.19450E+03     1.19450E+03        -5.07401        -5.07401        -2.57892        -2.57892
            2016     1.19480E+03     1.19480E+03        -5.32943        -5.32943        -4.75813        -4.75813
            2017     1.19473E+03     1.19473E+03        -5.27304        -5.27304        -7.02994        -7.02994
            2018     1.19423E+03     1.19423E+03        -4.81605        -4.81605        -9.25203        -9.25203
            2019     1.19327E+03     1.19327E+03        -3.89330        -3.89330        -11.2412        -11.2412
            2020     1.17013E+03     1.17013E+03     135.418E-03     135.418E-03     81.4156E-03     81.4156E-03
            2021     1.17017E+03     1.17017E+03     138.359E-03     138.359E-03     162.889E-03     162.889E-03
            2022     1.17023E+03     1.17023E+03     143.260E-03     143.260E-03     247.225E-03     247.225E-03
            2023     1.17032E+03     1.17032E+03     150.081E-03     150.081E-03     335.078E-03     335.078E-03
            2024     1.17043E+03     1.17043E+03     158.836E-03     158.836E-03     427.629E-03     427.629E-03
            2025     1.17058E+03     1.17058E+03     169.532E-03     169.532E-03     526.030E-03     526.030E-03
            2026     1.17075E+03     1.17075E+03     182.146E-03     182.146E-03     631.436E-03     631.436E-03
            2027     1.17095E+03     1.17095E+03     196.646E-03     196.646E-03     744.994E-03     744.994E-03
            2028     1.17119E+03     1.17119E+03     212.978E-03     212.978E-03     867.820E-03     867.820E-03
            2029     1.17147E+03     1.17147E+03     231.061E-03     231.061E-03         1.00100         1.00100
            2030     1.17178E+03     1.17178E+03     250.772E-03     250.772E-03         1.14554         1.14554
            2031     1.17214E+03     1.17214E+03     271.939E-03     271.939E-03         1.30240         1.30240
            2032     1.17254E+03     1.17254E+03     294.320E-03     294.320E-03         1.47237         1.47237
            2033     1.17299E+03     1.17299E+03     317.585E-03     317.585E-03         1.65613         1.65613
            2034     1.17349E+03     1.17349E+03     341.295E-03     341.295E-03         1.85409         1.85409
            2035     1.17405E+03     1.17405E+03     364.867E-03     364.867E-03         2.06641         2.06641
            2036     1.17466E+03     1.17466E+03     387.543E-03     387.543E-03         2.29283         2.29283
            2037     1.17534E+03     1.17534E+03     408.350E-03     408.350E-03         2.53262         2.53262
            2038     1.17608E+03     1.17608E+03     426.047E-03     426.047E-03         2.78443         2.78443
            2039     1.17689E+03     1.17689E+03     439.078E-03     439.078E-03         3.04610         3.04610
            2040     1.17776E+03     1.17776E+03     445.505E-03     445.505E-03         3.31451         3.31451
            2041     1.17871E+03     1.17871E+03     442.954E-03     442.954E-03         3.58532         3.58532
            2042     1.17973E+03     1.17973E+03     428.551E-03     428.551E-03         3.85272         3.85272
            2043     1.18081E+03     1.18081E+03     398.878E-03     398.878E-03         4.10916         4.10916
            2044     1.18196E+03     1.18196E+03     349.944E-03     349.944E-03         4.34504         4.34504
            2045     1.18317E+03     1.18317E+03     277.214E-03     277.214E-03         4.54838         4.54838
            2046     1.18443E+03     1.18443E+03     175.683E-03     175.683E-03         4.70455         4.70455
            2047     1.18573E+03     1.18573E+03     40.0850E-03     40.0850E-03         4.79608         4.79608
            2048     1.18705E+03     1.18705E+03    -134.777E-03    -134.777E-03         4.80255         4.80255
            2049     1.18838E+03     1.18838E+03    -353.483E-03    -353.483E-03         4.70077         4.70077
            2050     1.18969E+03     1.18969E+03    -619.184E-03    -619.184E-03         4.46526         4.46526
            2051     1.19095E+03     1.19095E+03    -932.541E-03    -932.541E-03         4.06925         4.06925
            2052     1.19213E+03     1.19213E+03        -1.29024        -1.29024         3.48633         3.48633
            2053     1.19319E+03     1.19319E+03        -1.68343        -1.68343         2.69297         2.69297
            2054     1.19407E+03     1.19407E+03        -2.09575        -2.09575         1.67189         1.67189
            2055     1.19473E+03     1.19473E+03        -2.50180        -2.50180     416.683E-03     416.683E-03
            2056     1.19510E+03     1.19510E+03        -2.86597        -2.86597        -1.06302        -1.06302
            2057     1.19513E+03     1.19513E+03        -3.14258        -3.14258        -2.73548        -2.73548
            2058     1.19477E+03     1.19477E+03        -3.27820        -3.27820        -4.54150        -4.54150
            2059     1.19398E+03     1.19398E+03        -3.21621        -3.21621        -6.39032        -6.39032
            2060     1.19273E+03     1.19273E+03        -2.90494        -2.90494        -8.15897        -8.15897
            2061     1.19103E+03     1.19103E+03        -2.30788        -2.30788        -9.69663        -9.69663
            2062     1.17001E+03     1.17001E+03     66.2577E-03     66.2577E-03     56.0700E-03     56.0700E-03
            2063     1.17005E+03     1.17005E+03     67.7628E-03     67.7628E-03     111.810E-03     111.810E-03
            2064     1.17011E+03     1.17011E+03     70.1823E-03     70.1823E-03     169.763E-03     169.763E-03
            2065     1.17021E+03     1.17021E+03     73.5288E-03     73.5288E-03     230.277E-03     230.277E-03
            2066     1.17034E+03     1.17034E+03     77.8505E-03     77.8505E-03     294.151E-03     294.151E-03
            2067     1.17049E+03     1.17049E+03     83.1323E-03     83.1323E-03     362.219E-03     362.219E-03
            2068     1.17068E+03     1.17068E+03     89.3637E-03     89.3637E-03     435.324E-03     435.324E-03
            2069     1.17091E+03     1.17091E+03     96.5302E-03     96.5302E-03     514.294E-03     514.294E-03
            2070     1.17117E+03     1.17117E+03     104.605E-03     104.605E-03     599.947E-03     599.947E-03
            2071     1.17148E+03     1.17148E+03     113.549E-03     113.549E-03     693.076E-03     693.076E-03
            2072     1.17183E+03     1.17183E+03     123.302E-03     123.302E-03     794.437E-03     794.437E-03
            2073     1.17223E+03     1.17223E+03     133.780E-03     133.780E-03     904.729E-03     904.729E-03
            2074     1.17268E+03     1.17268E+03     144.863E-03     144.863E-03         1.02457         1.02457
            2075     1.17318E+03     1.17318E+03     156.387E-03     156.387E-03         1.15447         1.15447
            2076     1.17375E+03     1.17375E+03     168.134E-03     168.134E-03         1.29477         1.29477
            2077     1.17438E+03     1.17438E+03     179.811E-03     179.811E-03         1.44563         1.44563
            2078     1.17508E+03     1.17508E+03     191.039E-03     191.039E-03         1.60690         1.60690
            2079     1.17586E+03     1.17586E+03     201.326E-03     201.326E-03         1.77809         1.77809
            2080     1.17671E+03     1.17671E+03     210.045E-03     210.045E-03         1.95827         1.95827
            2081     1.17764E+03     1.17764E+03     216.407E-03     216.407E-03         2.14589         2.14589
            2082     1.17865E+03     1.17865E+03     219.426E-03     219.426E-03         2.33869         2.33869
            2083     1.17975E+03     1.17975E+03     217.890E-03     217.890E-03         2.53349         2.53349
            2084     1.18092E+03     1.18092E+03     210.329E-03     210.329E-03         2.72602         2.72602
            2085     1.18218E+03     1.18218E+03     194.990E-03     194.990E-03         2.91066         2.91066
            2086     1.18351E+03     1.18351E+03     169.824E-03     169.824E-03         3.08022         3.08022
            2087     1.18491E+03     1.18491E+03     132.493E-03     132.493E-03         3.22568         3.22568
            2088     1.18636E+03     1.18636E+03     80.4231E-03     80.4231E-03         3.33602         3.33602
            2089     1.18785E+03     1.18785E+03     10.8984E-03     10.8984E-03         3.39797         3.39797
            2090     1.18935E+03     1.18935E+03    -78.7504E-03    -78.7504E-03         3.39603         3.39603
            2091     1.19084E+03     1.19084E+03    -190.859E-03    -190.859E-03         3.31261         3.31261
            2092     1.19227E+03     1.19227E+03    -327.014E-03    -327.014E-03         3.12837         3.12837
            2093     1.19361E+03     1.19361E+03    -487.451E-03    -487.451E-03         2.82315         2.82315
            2094     1.19480E+03     1.19480E+03    -670.356E-03    -670.356E-03         2.37726         2.37726
            2095     1.19579E+03     1.19579E+03    -870.924E-03    -870.924E-03         1.77347         1.77347
            2096     1.19652E+03     1.19652E+03        -1.08051        -1.08051     999.872E-03     999.872E-03
            2097     1.19690E+03     1.19690E+03        -1.28573        -1.28573     53.1918E-03     53.1918E-03
            2098     1.19689E+03     1.19689E+03        -1.46799        -1.46799        -1.05696        -1.05696
            2099     1.19642E+03     1.19642E+03        -1.60372        -1.60372        -2.30400        -2.30400
            2100     1.19543E+03     1.19543E+03        -1.66557        -1.66557        -3.64051        -3.64051
            2101     1.19391E+03     1.19391E+03        -1.62525        -1.62525        -4.99605        -4.99605
            2102     1.19186E+03     1.19186E+03        -1.45729        -1.45729        -6.27744        -6.27744
            2103     1.18932E+03     1.18932E+03        -1.14366        -1.14366        -7.37175        -7.37175
            2104     1.16983E+03     1.16983E+03     23.0148E-03     23.0148E-03     28.8840E-03     28.8840E-03
            2105     1.16987E+03     1.16987E+03     23.5921E-03     23.5921E-03     57.1632E-03     57.1632E-03
            2106     1.16994E+03     1.16994E+03     24.3892E-03     24.3892E-03     86.8869E-03     86.8869E-03
            2107     1.17004E+03     1.17004E+03     25.5363E-03     25.5363E-03     117.955E-03     117.955E-03
            2108     1.17018E+03     1.17018E+03     27.0298E-03     27.0298E-03     150.795E-03     150.795E-03
            2109     1.17034E+03     1.17034E+03     28.8506E-03     28.8506E-03     185.867E-03     185.867E-03
            2110     1.17055E+03     1.17055E+03     31.0020E-03     31.0020E-03     223.620E-03     223.620E-03
            2111     1.17079E+03     1.17079E+03     33.4740E-03     33.4740E-03     264.500E-03     264.500E-03
            2112     1.17107E+03     1.17107E+03     36.2596E-03     36.2596E-03     308.949E-03     308.949E-03
            2113     1.17140E+03     1.17140E+03     39.3435E-03     39.3435E-03     357.398E-03     357.398E-03
            2114     1.17178E+03     1.17178E+03     42.7053E-03     42.7053E-03     410.261E-03     410.261E-03
            2115     1.17221E+03     1.17221E+03     46.3145E-03     46.3145E-03     467.923E-03     467.923E-03
            2116     1.17270E+03     1.17270E+03     50.1294E-03     50.1294E-03     530.732E-03     530.732E-03
            2117     1.17326E+03     1.17326E+03     54.0919E-03     54.0919E-03     598.976E-03     598.976E-03
            2118     1.17388E+03     1.17388E+03     58.1248E-03     58.1248E-03     672.867E-03     672.867E-03
            2119     1.17458E+03     1.17458E+03     62.1249E-03     62.1249E-03     752.505E-03     752.505E-03
            2120     1.17536E+03     1.17536E+03     65.9579E-03     65.9579E-03     837.851E-03     837.851E-03
            2121     1.17623E+03     1.17623E+03     69.4498E-03     69.4498E-03     928.672E-03     928.672E-03
            2122     1.17718E+03     1.17718E+03     72.3784E-03     72.3784E-03         1.02449         1.02449
            2123     1.17823E+03     1.17823E+03     74.4634E-03     74.4634E-03         1.12452         1.12452
            2124     1.17938E+03     1.17938E+03     75.3542E-03     75.3542E-03         1.22758         1.22758
            2125     1.18062E+03     1.18062E+03     74.6196E-03     74.6196E-03         1.33197         1.33197
            2126     1.18197E+03     1.18197E+03     71.7347E-03     71.7347E-03         1.43541         1.43541
            2127     1.18341E+03     1.18341E+03     66.0740E-03     66.0740E-03         1.53486         1.53486
            2128     1.18495E+03     1.18495E+03     56.9028E-03     56.9028E-03         1.62643         1.62643
            2129     1.18656E+03     1.18656E+03     43.3862E-03     43.3862E-03         1.70518         1.70518
            2130     1.18824E+03     1.18824E+03     24.5976E-03     24.5976E-03         1.76506         1.76506
            2131     1.18996E+03     1.18996E+03    -433.252E-06    -433.252E-06         1.79874         1.79874
            2132     1.19170E+03     1.19170E+03    -32.6671E-03    -32.6671E-03         1.79762         1.79762
            2133     1.19341E+03     1.19341E+03    -72.9365E-03    -72.9365E-03         1.75192         1.75192
            2134     1.19506E+03     1.19506E+03    -121.802E-03    -121.802E-03         1.65082         1.65082
            2135     1.19657E+03     1.19657E+03    -179.337E-03    -179.337E-03         1.48307         1.48307
            2136     1.19789E+03     1.19789E+03    -244.848E-03    -244.848E-03         1.23762         1.23762
            2137     1.19893E+03     1.19893E+03    -316.586E-03    -316.586E-03     904.874E-03     904.874E-03
            2138     1.19962E+03     1.19962E+03    -391.358E-03    -391.358E-03     478.171E-03     478.171E-03
            2139     1.19985E+03     1.19985E+03    -464.305E-03    -464.305E-03    -44.1361E-03    -44.1361E-03
            2140     1.19956E+03     1.19956E+03    -528.656E-03    -528.656E-03    -656.489E-03    -656.489E-03
            2141     1.19865E+03     1.19865E+03    -575.896E-03    -575.896E-03        -1.34370        -1.34370
            2142     1.19707E+03     1.19707E+03    -596.225E-03    -596.225E-03        -2.07894        -2.07894
            2143     1.19480E+03     1.19480E+03    -579.494E-03    -579.494E-03        -2.82273        -2.82273
            2144     1.19186E+03     1.19186E+03    -517.105E-03    -517.105E-03        -3.52323        -3.52323
            2145     1.18830E+03     1.18830E+03    -402.269E-03    -402.269E-03        -4.11737        -4.11737
            2146     1.10811E+03     1.10811E+03         320.037         320.037        -85.8198        -85.8198
            2147     1.12010E+03     1.12010E+03         291.117         291.117        -85.2403        -85.2403
            2148     1.13174E+03     1.13174E+03         262.119         262.119        -82.3388        -82.3388
            2149     1.14262E+03     1.14262E+03         233.761         233.761        -77.9706        -77.9706
            2150     1.15248E+03     1.15248E+03         206.582         206.582        -72.3516        -72.3516
            2151     1.16113E+03     1.16113E+03         181.016         181.016        -65.7133        -65.7133
            2152     1.16843E+03     1.16843E+03         157.403         157.403        -58.3971        -58.3971
            2153     1.17442E+03     1.17442E+03         135.914         135.914        -50.7191        -50.7191
            2154     1.17911E+03     1.17911E+03         116.630         116.630        -42.9824        -42.9824
            2155     1.18264E+03     1.18264E+03         99.5079         99.5079        -35.4458        -35.4458
            2156     1.18515E+03     1.18515E+03         84.4464         84.4464        -28.2890        -28.2890
            2157     1.18679E+03     1.18679E+03         71.2979         71.2979        -21.6557        -21.6557
            2158     1.18771E+03     1.18771E+03         59.8866         59.8866        -15.6105        -15.6105
            2159     1.18805E+03     1.18805E+03         50.0419         50.0419        -10.1968        -10.1968
            2160     1.18793E+03     1.18793E+03         41.5834         41.5834        -5.40637        -5.40637
            2161     1.18745E+03     1.18745E+03         34.3548         34.3548        -1.22174        -1.22174
            2162     1.18669E+03     1.18669E+03         28.1993         28.1993         2.40086         2.40086
            2163     1.18573E+03     1.18573E+03         22.9847         22.9847         5.50710         5.50710
            2164     1.18461E+03     1.18461E+03         18.5825         18.5825         8.15281         8.15281
            2165     1.18339E+03     1.18339E+03         14.8838         14.8838         10.3919         10.3919
            2166     1.18210E+03     1.18210E+03         11.7842         11.7842         12.2803         12.2803
            2167     1.18076E+03     1.18076E+03         9.19292         9.19292         13.8701         13.8701
            2168     1.17942E+03     1.17942E+03         7.02361         7.02361         15.2119         15.2119
            2169     1.17807E+03     1.17807E+03         5.19873         5.19873         16.3527         16.3527
            2170     1.17676E+03     1.17676E+03         3.64363         3.64363         17.3364         17.3364
            2171     1.17550E+03     1.17550E+03         2.28886         2.28886         18.2040         18.2040
            2172     1.17430E+03     1.17430E+03         1.06621         1.06621         18.9939         18.9939
            2173     1.17321E+03     1.17321E+03    -90.5170E-03    -90.5170E-03         19.7416         19.7416
            2174     1.17224E+03     1.17224E+03        -1.24814        -1.24814         20.4807         20.4807
            2175     1.17145E+03     1.17145E+03        -2.47433        -2.47433         21.2417         21.2417
            2176     1.17088E+03     1.17088E+03        -3.83942        -3.83942         22.0517         22.0517
            2177     1.17059E+03     1.17059E+03        -5.41720        -5.41720         22.9327         22.9327
            2178     1.17068E+03     1.17068E+03        -7.28559        -7.28559         23.8979         23.8979
            2179     1.17125E+03     1.17125E+03        -9.52714        -9.52714         24.9462         24.9462
            2180     1.17245E+03     1.17245E+03        -12.2259        -12.2259         26.0528         26.0528
            2181     1.17444E+03     1.17444E+03        -15.4640        -15.4640         27.1551         27.1551
            2182     1.17745E+03     1.17745E+03        -19.3044        -19.3044         28.1303         28.1303
            2183     1.18172E+03     1.18172E+03        -23.7692        -23.7692         28.7693         28.7693
            2184     1.18749E+03     1.18749E+03        -28.7788        -28.7788         28.7369         28.7369
            2185     1.19496E+03     1.19496E+03        -34.0745        -34.0745         27.5620         27.5620
            2186     1.20413E+03     1.20413E+03        -39.0852        -39.0852         24.6403         24.6403
            2187     1.21467E+03     1.21467E+03        -42.8800        -42.8800         19.4134         19.4134
            2188     1.11137E+03     1.11137E+03         319.331         319.331        -98.1078        -98.1078
            2189     1.12396E+03     1.12396E+03         288.738         288.738        -97.3616        -97.3616
            2190     1.13604E+03     1.13604E+03         258.070         258.070        -93.7634        -93.7634
            2191     1.14720E+03     1.14720E+03         228.179         228.179        -88.4102        -88.4102
            2192     1.15710E+03     1.15710E+03         199.732         199.732        -81.5026        -81.5026
            2193     1.16551E+03     1.16551E+03         173.277         173.277        -73.4620        -73.4620
            2194     1.17239E+03     1.17239E+03         149.138         149.138        -64.6876        -64.6876
            2195     1.17772E+03     1.17772E+03         127.507         127.507        -55.6156        -55.6156
            2196     1.18169E+03     1.18169E+03         108.374         108.374        -46.6212        -46.6212
            2197     1.18442E+03     1.18442E+03         91.6425         91.6425        -37.9784        -37.9784
            2198     1.18615E+03     1.18615E+03         77.1330         77.1330        -29.9115        -29.9115
            2199     1.18707E+03     1.18707E+03         64.6250         64.6250        -22.5238        -22.5238
            2200     1.18735E+03     1.18735E+03         53.9054         53.9054        -15.8931        -15.8931
            2201     1.18715E+03     1.18715E+03         44.7460         44.7460        -10.0163        -10.0163
            2202     1.18661E+03     1.18661E+03         36.9574         36.9574        -4.88150        -4.88150
            2203     1.18580E+03     1.18580E+03         30.3485         30.3485    -436.785E-03    -436.785E-03
            2204     1.18482E+03     1.18482E+03         24.7663         24.7663         3.37020         3.37020
            2205     1.18373E+03     1.18373E+03         20.0616         20.0616         6.60667         6.60667
            2206     1.18257E+03     1.18257E+03         16.1135         16.1135         9.33631         9.33631
            2207     1.18138E+03     1.18138E+03         12.8067         12.8067         11.6253         11.6253
            2208     1.18019E+03     1.18019E+03         10.0448         10.0448         13.5347         13.5347
            2209     1.17901E+03     1.17901E+03         7.73627         7.73627         15.1229         15.1229
            2210     1.17787E+03     1.17787E+03         5.80169         5.80169         16.4431         16.4431
            2211     1.17679E+03     1.17679E+03         4.16502         4.16502         17.5439         17.5439
            2212     1.17577E+03     1.17577E+03         2.75725         2.75725         18.4694         18.4694
            2213     1.17484E+03     1.17484E+03         1.51119         1.51119         19.2588         19.2588
            2214     1.17402E+03     1.17402E+03     363.026E-03     363.026E-03         19.9474         19.9474
            2215     1.17333E+03     1.17333E+03    -750.792E-03    -750.792E-03         20.5659         20.5659
            2216     1.17281E+03     1.17281E+03        -1.89308        -1.89308         21.1406         21.1406
            2217     1.17250E+03     1.17250E+03        -3.12762        -3.12762         21.6927         21.6927
            2218     1.17244E+03     1.17244E+03        -4.51898        -4.51898         22.2372         22.2372
            2219     1.17270E+03     1.17270E+03        -6.13265        -6.13265         22.7803         22.7803
            2220     1.17337E+03     1.17337E+03        -8.03411        -8.03411         23.3158         23.3158
            2221     1.17453E+03     1.17453E+03        -10.2857        -10.2857         23.8191         23.8191
            2222     1.17632E+03     1.17632E+03        -12.9420        -12.9420         24.2392         24.2392
            2223     1.17886E+03     1.17886E+03        -16.0380        -16.0380         24.4857         24.4857
            2224     1.18231E+03     1.18231E+03        -19.5727        -19.5727         24.4162         24.4162
            2225     1.18680E+03     1.18680E+03        -23.4759        -23.4759         23.8169         23.8169
            2226     1.19242E+03     1.19242E+03        -27.5632        -27.5632         22.4007         22.4007
            2227     1.19917E+03     1.19917E+03        -31.4740        -31.4740         19.8082         19.8082
            2228     1.20685E+03     1.20685E+03        -34.6140        -34.6140         15.6842         15.6842
            2229     1.21512E+03     1.21512E+03        -36.1902        -36.1902         9.70936         9.70936
            2230     1.11563E+03     1.11563E+03         318.470         318.470        -111.073        -111.073
            2231     1.12885E+03     1.12885E+03         285.827         285.827        -110.035        -110.035
            2232     1.14148E+03     1.14148E+03         253.055         253.055        -105.619        -105.619
            2233     1.15289E+03     1.15289E+03         221.285         221.285        -98.9476        -98.9476
            2234     1.16269E+03     1.16269E+03         191.382         191.382        -90.5011        -90.5011
            2235     1.17071E+03     1.17071E+03         163.936         163.936        -80.7408        -80.7408
            2236     1.17685E+03     1.17685E+03         139.354         139.354        -70.2896        -70.2896
            2237     1.18131E+03     1.18131E+03         117.704         117.704        -59.6859        -59.6859
            2238     1.18423E+03     1.18423E+03         98.9236         98.9236        -49.3512        -49.3512
            2239     1.18597E+03     1.18597E+03         82.7921         82.7921        -39.6352        -39.6352
            2240     1.18674E+03     1.18674E+03         69.0256         69.0256        -30.6990        -30.6990
            2241     1.18681E+03     1.18681E+03         57.3471         57.3471        -22.6729        -22.6729
            2242     1.18637E+03     1.18637E+03         47.4560         47.4560        -15.5584        -15.5584
            2243     1.18559E+03     1.18559E+03         39.1155         39.1155        -9.35086        -9.35086
            2244     1.18460E+03     1.18460E+03         32.0836         32.0836        -3.98483        -3.98483
            2245     1.18348E+03     1.18348E+03         26.1784         26.1784     601.981E-03     601.981E-03
            2246     1.18230E+03     1.18230E+03         21.2213         21.2213         4.49290         4.49290
            2247     1.18111E+03     1.18111E+03         17.0760         17.0760         7.76488         7.76488
            2248     1.17995E+03     1.17995E+03         13.6122         13.6122         10.4979         10.4979
            2249     1.17884E+03     1.17884E+03         10.7264         10.7264         12.7646         12.7646
            2250     1.17779E+03     1.17779E+03         8.32095         8.32095         14.6337         14.6337
            2251     1.17682E+03     1.17682E+03         6.31421         6.31421         16.1665         16.1665
            2252     1.17593E+03     1.17593E+03         4.62883         4.62883         17.4188         17.4188
            2253     1.17514E+03     1.17514E+03         3.19680         3.19680         18.4392         18.4392
            2254     1.17445E+03     1.17445E+03         1.95253         1.95253         19.2705         19.2705
            2255     1.17388E+03     1.17388E+03     835.296E-03     835.296E-03         19.9496         19.9496
            2256     1.17345E+03     1.17345E+03    -214.701E-03    -214.701E-03         20.5073         20.5073
            2257     1.17317E+03     1.17317E+03        -1.25527        -1.25527         20.9688         20.9688
            2258     1.17308E+03     1.17308E+03        -2.34422        -2.34422         21.3530         21.3530
            2259     1.17321E+03     1.17321E+03        -3.53863        -3.53863         21.6720         21.6720
            2260     1.17360E+03     1.17360E+03        -4.89510        -4.89510         21.9296         21.9296
            2261     1.17432E+03     1.17432E+03        -6.46822        -6.46822         22.1191         22.1191
            2262     1.17544E+03     1.17544E+03        -8.30807        -8.30807         22.2198         22.2198
            2263     1.17703E+03     1.17703E+03        -10.4558        -10.4558         22.1925         22.1925
            2264     1.17918E+03     1.17918E+03        -12.9356        -12.9356         21.9724         21.9724
            2265     1.18198E+03     1.18198E+03        -15.7426        -15.7426         21.4629         21.4629
            2266     1.18552E+03     1.18552E+03        -18.8235        -18.8235         20.5265         20.5265
            2267     1.18984E+03     1.18984E+03        -22.0495        -22.0495         18.9850         18.9850
            2268     1.19492E+03     1.19492E+03        -25.1839        -25.1839         16.6214         16.6214
            2269     1.20066E+03     1.20066E+03        -27.8424        -27.8424         13.2132         13.2132
            2270     1.20680E+03     1.20680E+03        -29.4942        -29.4942         8.57121         8.57121
            2271     1.21290E+03     1.21290E+03        -29.3941        -29.3941         2.56650         2.56650
            2272     1.12107E+03     1.12107E+03         317.488         317.488        -124.809        -124.809
            2273     1.13521E+03     1.13521E+03         282.177         282.177        -123.446        -123.446
            2274     1.14837E+03     1.14837E+03         246.783         246.783        -117.822        -117.822
            2275     1.15995E+03     1.15995E+03         212.749         212.749        -109.549        -109.549
            2276     1.16949E+03     1.16949E+03         181.132         181.132        -99.0711        -99.0711
            2277     1.17670E+03     1.17670E+03         152.741         152.741        -87.2620        -87.2620
            2278     1.18181E+03     1.18181E+03         127.825         127.825        -74.8773        -74.8773
            2279     1.18492E+03     1.18492E+03         106.430         106.430        -62.5828        -62.5828
            2280     1.18655E+03     1.18655E+03         88.2843         88.2843        -50.9303        -50.9303
            2281     1.18699E+03     1.18699E+03         73.0167         73.0167        -40.1726        -40.1726
            2282     1.18663E+03     1.18663E+03         60.2532         60.2532        -30.5248        -30.5248
            2283     1.18573E+03     1.18573E+03         49.5807         49.5807        -21.9889        -21.9889
            2284     1.18452E+03     1.18452E+03         40.6933         40.6933        -14.5689        -14.5689
            2285     1.18314E+03     1.18314E+03         33.2734         33.2734        -8.17608        -8.17608
            2286     1.18172E+03     1.18172E+03         27.0993         27.0993        -2.73206        -2.73206
            2287     1.18032E+03     1.18032E+03         21.9510         21.9510         1.87035         1.87035
            2288     1.17899E+03     1.17899E+03         17.6720         17.6720         5.72696         5.72696
            2289     1.17777E+03     1.17777E+03         14.1119         14.1119         8.93639         8.93639
            2290     1.17667E+03     1.17667E+03         11.1585         11.1585         11.5866         11.5866
            2291     1.17570E+03     1.17570E+03         8.70588         8.70588         13.7595         13.7595
            2292     1.17485E+03     1.17485E+03         6.67026         6.67026         15.5275         15.5275
            2293     1.17414E+03     1.17414E+03         4.97256         4.97256         16.9548         16.9548
            2294     1.17356E+03     1.17356E+03         3.54617         3.54617         18.0973         18.0973
            2295     1.17310E+03     1.17310E+03         2.32745         2.32745         19.0028         19.0028
            2296     1.17278E+03     1.17278E+03         1.25931         1.25931         19.7119         19.7119
            2297     1.17260E+03     1.17260E+03     286.114E-03     286.114E-03         20.2577         20.2577
            2298     1.17257E+03     1.17257E+03    -644.688E-03    -644.688E-03         20.6664         20.6664
            2299     1.17270E+03     1.17270E+03        -1.58514        -1.58514         20.9572         20.9572
            2300     1.17303E+03     1.17303E+03        -2.58569        -2.58569         21.1420         21.1420
            2301     1.17357E+03     1.17357E+03        -3.69588        -3.69588         21.2246         21.2246
            2302     1.17436E+03     1.17436E+03        -4.96271        -4.96271         21.1998         21.1998
            2303     1.17546E+03     1.17546E+03        -6.42898        -6.42898         21.0514         21.0514
            2304     1.17691E+03     1.17691E+03        -8.12956        -8.12956         20.7497         20.7497
            2305     1.17877E+03     1.17877E+03        -10.0858        -10.0858         20.2484         20.2484
            2306     1.18110E+03     1.18110E+03        -12.2969        -12.2969         19.4815         19.4815
            2307     1.18395E+03     1.18395E+03        -14.7281        -14.7281         18.3591         18.3591
            2308     1.18734E+03     1.18734E+03        -17.2932        -17.2932         16.7689         16.7689
            2309     1.19126E+03     1.19126E+03        -19.8363        -19.8363         14.5782         14.5782
            2310     1.19563E+03     1.19563E+03        -22.1065        -22.1065         11.6514         11.6514
            2311     1.20029E+03     1.20029E+03        -23.7517        -23.7517         7.87492         7.87492
            2312     1.20496E+03     1.20496E+03        -24.2937        -24.2937         3.18828         3.18828
            2313     1.20922E+03     1.20922E+03        -23.1402        -23.1402        -2.33672        -2.33672
            2314     1.12844E+03     1.12844E+03         316.228         316.228        -139.595        -139.595
            2315     1.14340E+03     1.14340E+03         277.569         277.569        -137.562        -137.562
            2316     1.15723E+03     1.15723E+03         238.827         238.827        -130.483        -130.483
            2317     1.16881E+03     1.16881E+03         201.993         201.993        -119.867        -119.867
            2318     1.17757E+03     1.17757E+03         168.589         168.589        -106.889        -106.889
            2319     1.18361E+03     1.18361E+03         139.283         139.283        -92.5518        -92.5518
            2320     1.18695E+03     1.18695E+03         114.412         114.412        -77.9428        -77.9428
            2321     1.18835E+03     1.18835E+03         93.6531         93.6531        -63.9521        -63.9521
            2322     1.18820E+03     1.18820E+03         76.5239         76.5239        -50.9905        -50.9905
            2323     1.18711E+03     1.18711E+03         62.4936         62.4936        -39.4194        -39.4194
            2324     1.18543E+03     1.18543E+03         50.9679         50.9679        -29.2291        -29.2291
            2325     1.18350E+03     1.18350E+03         41.5397         41.5397        -20.4335        -20.4335
            2326     1.18149E+03     1.18149E+03         33.7758         33.7758        -12.9012        -12.9012
            2327     1.17955E+03     1.17955E+03         27.4016         27.4016        -6.52690        -6.52690
            2328     1.17776E+03     1.17776E+03         22.1379         22.1379        -1.16721        -1.16721
            2329     1.17616E+03     1.17616E+03         17.8031         17.8031         3.30151         3.30151
            2330     1.17477E+03     1.17477E+03         14.2200         14.2200         7.00317         7.00317
            2331     1.17360E+03     1.17360E+03         11.2661         11.2661         10.0464         10.0464
            2332     1.17265E+03     1.17265E+03         8.82523         8.82523         12.5298         12.5298
            2333     1.17189E+03     1.17189E+03         6.81108         6.81108         14.5397         14.5397
            2334     1.17133E+03     1.17133E+03         5.14258         5.14258         16.1509         16.1509
            2335     1.17095E+03     1.17095E+03         3.75483         3.75483         17.4283         17.4283
            2336     1.17073E+03     1.17073E+03         2.58637         2.58637         18.4264         18.4264
            2337     1.17067E+03     1.17067E+03         1.58425         1.58425         19.1909         19.1909
            2338     1.17075E+03     1.17075E+03     697.330E-03     697.330E-03         19.7588         19.7588
            2339     1.17099E+03     1.17099E+03    -121.332E-03    -121.332E-03         20.1591         20.1591
            2340     1.17138E+03     1.17138E+03    -917.912E-03    -917.912E-03         20.4129         20.4129
            2341     1.17193E+03     1.17193E+03        -1.73645        -1.73645         20.5337         20.5337
            2342     1.17266E+03     1.17266E+03        -2.62010        -2.62010         20.5268         20.5268
            2343     1.17359E+03     1.17359E+03        -3.60964        -3.60964         20.3893         20.3893
            2344     1.17474E+03     1.17474E+03        -4.74262        -4.74262         20.1092         20.1092
            2345     1.17614E+03     1.17614E+03        -6.05043        -6.05043         19.6643         19.6643
            2346     1.17784E+03     1.17784E+03        -7.55460        -7.55460         19.0205         19.0205
            2347     1.17986E+03     1.17986E+03        -9.26074        -9.26074         18.1315         18.1315
            2348     1.18224E+03     1.18224E+03        -11.1507        -11.1507         16.9367         16.9367
            2349     1.18498E+03     1.18498E+03        -13.1713        -13.1713         15.3633         15.3633
            2350     1.18809E+03     1.18809E+03        -15.2229        -15.2229         13.3288         13.3288
            2351     1.19150E+03     1.19150E+03        -17.1435        -17.1435         10.7506         10.7506
            2352     1.19511E+03     1.19511E+03        -18.7018        -18.7018         7.56245         7.56245
            2353     1.19874E+03     1.19874E+03        -19.5852        -19.5852         3.73543         3.73543
            2354     1.20214E+03     1.20214E+03        -19.4104        -19.4104    -678.461E-03    -678.461E-03
            2355     1.20496E+03     1.20496E+03        -17.7500        -17.7500        -5.50386        -5.50386
            2356     1.13807E+03     1.13807E+03         314.750         314.750        -155.510        -155.510
            2357     1.15447E+03     1.15447E+03         271.509         271.509        -152.744        -152.744
            2358     1.16872E+03     1.16872E+03         228.443         228.443        -143.179        -143.179
            2359     1.17978E+03     1.17978E+03         188.406         188.406        -129.624        -129.624
            2360     1.18730E+03     1.18730E+03         153.006         153.006        -113.238        -113.238
            2361     1.19100E+03     1.19100E+03         123.306         123.306        -95.8536        -95.8536
            2362     1.19204E+03     1.19204E+03         98.9878         98.9878        -78.9361        -78.9361
            2363     1.19092E+03     1.19092E+03         79.4535         79.4535        -63.2025        -63.2025
            2364     1.18864E+03     1.18864E+03         63.9031         63.9031        -49.2880        -49.2880
            2365     1.18575E+03     1.18575E+03         51.4307         51.4307        -37.1380        -37.1380
            2366     1.18268E+03     1.18268E+03         41.4788         41.4788        -26.7729        -26.7729
            2367     1.17970E+03     1.17970E+03         33.4341         33.4341        -17.9840        -17.9840
            2368     1.17697E+03     1.17697E+03         26.9516         26.9516        -10.6175        -10.6175
            2369     1.17456E+03     1.17456E+03         21.6693         21.6693        -4.47483        -4.47483
            2370     1.17251E+03     1.17251E+03         17.3753         17.3753     609.894E-03     609.894E-03
            2371     1.17083E+03     1.17083E+03         13.8578         13.8578         4.79487         4.79487
            2372     1.16951E+03     1.16951E+03         10.9831         10.9831         8.21677         8.21677
            2373     1.16851E+03     1.16851E+03         8.62289         8.62289         10.9948         10.9948
            2374     1.16781E+03     1.16781E+03         6.68850         6.68850         13.2326         13.2326
            2375     1.16738E+03     1.16738E+03         5.09670         5.09670         15.0175         15.0175
            2376     1.16719E+03     1.16719E+03         3.78483         3.78483         16.4247         16.4247
            2377     1.16722E+03     1.16722E+03         2.69394         2.69394         17.5165         17.5165
            2378     1.16743E+03     1.16743E+03         1.77566         1.77566         18.3451         18.3451
            2379     1.16782E+03     1.16782E+03     983.744E-03     983.744E-03         18.9519         18.9519
            2380     1.16837E+03     1.16837E+03     277.160E-03     277.160E-03         19.3702         19.3702
            2381     1.16906E+03     1.16906E+03    -384.156E-03    -384.156E-03         19.6240         19.6240
            2382     1.16990E+03     1.16990E+03        -1.03770        -1.03770         19.7294         19.7294
            2383     1.17089E+03     1.17089E+03        -1.72029        -1.72029         19.6944         19.6944
            2384     1.17202E+03     1.17202E+03        -2.46666        -2.46666         19.5189         19.5189
            2385     1.17332E+03     1.17332E+03        -3.30948        -3.30948         19.1947         19.1947
            2386     1.17479E+03     1.17479E+03        -4.27709        -4.27709         18.7050         18.7050
            2387     1.17646E+03     1.17646E+03        -5.39129        -5.39129         18.0245         18.0245
            2388     1.17834E+03     1.17834E+03        -6.66310        -6.66310         17.1187         17.1187
            2389     1.18044E+03     1.18044E+03        -8.08763        -8.08763         15.9449         15.9449
            2390     1.18278E+03     1.18278E+03        -9.63665        -9.63665         14.4531         14.4531
            2391     1.18534E+03     1.18534E+03        -11.2509        -11.2509         12.5893         12.5893
            2392     1.18809E+03     1.18809E+03        -12.8297        -12.8297         10.3018         10.3018
            2393     1.19095E+03     1.19095E+03        -14.2252        -14.2252         7.55175         7.55175
            2394     1.19383E+03     1.19383E+03        -15.2345        -15.2345         4.32670         4.32670
            2395     1.19655E+03     1.19655E+03        -15.6050        -15.6050     665.288E-03     665.288E-03
            2396     1.19890E+03     1.19890E+03        -15.0483        -15.0483        -3.31869        -3.31869
            2397     1.20064E+03     1.20064E+03        -13.2761        -13.2761        -7.40262        -7.40262
            2398     1.15192E+03     1.15192E+03         312.578         312.578        -173.201        -173.201
            2399     1.16925E+03     1.16925E+03         263.289         263.289        -168.553        -168.553
            2400     1.18378E+03     1.18378E+03         214.698         214.698        -155.921        -155.921
            2401     1.19374E+03     1.19374E+03         170.642         170.642        -137.697        -137.697
            2402     1.19817E+03     1.19817E+03         133.906         133.906        -117.006        -117.006
            2403     1.19873E+03     1.19873E+03         104.442         104.442        -96.2574        -96.2574
            2404     1.19602E+03     1.19602E+03         81.6581         81.6581        -76.8474        -76.8474
            2405     1.19183E+03     1.19183E+03         64.2482         64.2482        -59.9791        -59.9791
            2406     1.18703E+03     1.18703E+03         50.7224         50.7224        -45.4609        -45.4609
            2407     1.18223E+03     1.18223E+03         40.2985         40.2985        -33.3002        -33.3002
            2408     1.17780E+03     1.17780E+03         32.0733         32.0733        -23.1446        -23.1446
            2409     1.17389E+03     1.17389E+03         25.6124         25.6124        -14.7514        -14.7514
            2410     1.17059E+03     1.17059E+03         20.4387         20.4387        -7.83714        -7.83714
            2411     1.16789E+03     1.16789E+03         16.3060         16.3060        -2.17112        -2.17112
            2412     1.16578E+03     1.16578E+03         12.9610         12.9610         2.45051         2.45051
            2413     1.16419E+03     1.16419E+03         10.2589         10.2589         6.20251         6.20251
            2414     1.16309E+03     1.16309E+03         8.05834         8.05834         9.22851         9.22851
            2415     1.16242E+03     1.16242E+03         6.26949         6.26949         11.6532         11.6532
            2416     1.16211E+03     1.16211E+03         4.80760         4.80760         13.5775         13.5775
            2417     1.16213E+03     1.16213E+03         3.61305         3.61305         15.0883         15.0883
            2418     1.16242E+03     1.16242E+03         2.63007         2.63007         16.2555         16.2555
            2419     1.16295E+03     1.16295E+03         1.81543         1.81543         17.1382         17.1382
            2420     1.16368E+03     1.16368E+03         1.12815         1.12815         17.7829         17.7829
            2421     1.16459E+03     1.16459E+03     533.451E-03     533.451E-03         18.2271         18.2271
            2422     1.16566E+03     1.16566E+03    -2.39820E-03    -2.39820E-03         18.4983         18.4983
            2423     1.16685E+03     1.16685E+03    -510.179E-03    -510.179E-03         18.6160         18.6160
            2424     1.16818E+03     1.16818E+03        -1.02015        -1.02015         18.5911         18.5911
            2425     1.16962E+03     1.16962E+03        -1.56079        -1.56079         18.4269         18.4269
            2426     1.17117E+03     1.17117E+03        -2.15942        -2.15942         18.1189         18.1189
            2427     1.17284E+03     1.17284E+03        -2.84061        -2.84061         17.6550         17.6550
            2428     1.17462E+03     1.17462E+03        -3.62508        -3.62508         17.0157         17.0157
            2429     1.17653E+03     1.17653E+03        -4.52682        -4.52682         16.1746         16.1746
            2430     1.17855E+03     1.17855E+03        -5.54992        -5.54992         15.0992         15.0992
            2431     1.18069E+03     1.18069E+03        -6.68363        -6.68363         13.7525         13.7525
            2432     1.18295E+03     1.18295E+03        -7.89719        -7.89719         12.0959         12.0959
            2433     1.18528E+03     1.18528E+03        -9.13296        -9.13296         10.0936         10.0936
            2434     1.18765E+03     1.18765E+03        -10.3015        -10.3015         7.72050         7.72050
            2435     1.18999E+03     1.18999E+03        -11.2758        -11.2758         4.97071         4.97071
            2436     1.19219E+03     1.19219E+03        -11.8930        -11.8930         1.87283         1.87283
            2437     1.19412E+03     1.19412E+03        -11.9597        -11.9597        -1.49580        -1.49580
            2438     1.19562E+03     1.19562E+03        -11.2711        -11.2711        -4.98939        -4.98939
            2439     1.19654E+03     1.19654E+03        -9.64402        -9.64402        -8.38110        -8.38110
            2440     1.17073E+03     1.17073E+03         309.732         309.732        -192.440        -192.440
            2441     1.19024E+03     1.19024E+03         251.543         251.543        -185.780        -185.780
            2442     1.20417E+03     1.20417E+03         195.306         195.306        -166.913        -166.913
            2443     1.21022E+03     1.21022E+03         147.782         147.782        -142.591        -142.591
            2444     1.21037E+03     1.21037E+03         110.272         110.272        -116.552        -116.552
            2445     1.20496E+03     1.20496E+03         82.8549         82.8549        -91.8990        -91.8990
            2446     1.19759E+03     1.19759E+03         63.1676         63.1676        -71.1548        -71.1548
            2447     1.18975E+03     1.18975E+03         48.4994         48.4994        -53.7255        -53.7255
            2448     1.18231E+03     1.18231E+03         37.7384         37.7384        -39.5259        -39.5259
            2449     1.17574E+03     1.17574E+03         29.5032         29.5032        -27.9369        -27.9369
            2450     1.17015E+03     1.17015E+03         23.2539         23.2539        -18.5448        -18.5448
            2451     1.16561E+03     1.16561E+03         18.3589         18.3589        -10.9408        -10.9408
            2452     1.16202E+03     1.16202E+03         14.5381         14.5381        -4.79289        -4.79289
            2453     1.15931E+03     1.15931E+03         11.4928         11.4928     160.198E-03     160.198E-03
            2454     1.15738E+03     1.15738E+03         9.06925         9.06925         4.14409         4.14409
            2455     1.15613E+03     1.15613E+03         7.11578         7.11578         7.32923         7.32923
            2456     1.15546E+03     1.15546E+03         5.54334         5.54334         9.86490         9.86490
            2457     1.15529E+03     1.15529E+03         4.26799         4.26799         11.8648         11.8648
            2458     1.15553E+03     1.15553E+03         3.23446         3.23446         13.4279         13.4279
            2459     1.15613E+03     1.15613E+03         2.39155         2.39155         14.6307         14.6307
            2460     1.15703E+03     1.15703E+03         1.70175         1.70175         15.5386         15.5386
            2461     1.15816E+03     1.15816E+03         1.13003         1.13003         16.2020         16.2020
            2462     1.15950E+03     1.15950E+03     648.010E-03     648.010E-03         16.6624         16.6624
            2463     1.16101E+03     1.16101E+03     228.499E-03     228.499E-03         16.9503         16.9503
            2464     1.16265E+03     1.16265E+03    -152.540E-03    -152.540E-03         17.0884         17.0884
            2465     1.16441E+03     1.16441E+03    -518.699E-03    -518.699E-03         17.0909         17.0909
            2466     1.16626E+03     1.16626E+03    -891.957E-03    -891.957E-03         16.9644         16.9644
            2467     1.16819E+03     1.16819E+03        -1.29379        -1.29379         16.7081         16.7081
            2468     1.17019E+03     1.17019E+03        -1.74401        -1.74401         16.3142         16.3142
            2469     1.17224E+03     1.17224E+03        -2.26051        -2.26051         15.7682         15.7682
            2470     1.17434E+03     1.17434E+03        -2.85739        -2.85739         15.0495         15.0495
            2471     1.17648E+03     1.17648E+03        -3.54328        -3.54328         14.1321         14.1321
            2472     1.17864E+03     1.17864E+03        -4.31808        -4.31808         12.9866         12.9866
            2473     1.18082E+03     1.18082E+03        -5.16979        -5.16979         11.5822         11.5822
            2474     1.18298E+03     1.18298E+03        -6.06980        -6.06980         9.89071         9.89071
            2475     1.18508E+03     1.18508E+03        -6.96924        -6.96924         7.89139         7.89139
            2476     1.18709E+03     1.18709E+03        -7.79456        -7.79456         5.57818         5.57818
            2477     1.18893E+03     1.18893E+03        -8.44670        -8.44670         2.96904         2.96904
            2478     1.19052E+03     1.19052E+03        -8.80243        -8.80243     115.689E-03     115.689E-03
            2479     1.19176E+03     1.19176E+03        -8.72295        -8.72295        -2.88419        -2.88419
            2480     1.19255E+03     1.19255E+03        -8.07038        -8.07038        -5.87886        -5.87886
            2481     1.19280E+03     1.19280E+03        -6.73267        -6.73267        -8.65741        -8.65741
            2482     1.20083E+03     1.20083E+03         304.409         304.409        -215.271        -215.271
            2483     1.22028E+03     1.22028E+03         233.116         233.116        -201.637        -201.637
            2484     1.23028E+03     1.23028E+03         168.382         168.382        -174.767        -174.767
            2485     1.23071E+03     1.23071E+03         116.954         116.954        -140.967        -140.967
            2486     1.22034E+03     1.22034E+03         82.4267         82.4267        -108.080        -108.080
            2487     1.20732E+03     1.20732E+03         60.0710         60.0710        -82.0268        -82.0268
            2488     1.19453E+03     1.19453E+03         44.2769         44.2769        -61.0236        -61.0236
            2489     1.18298E+03     1.18298E+03         33.4908         33.4908        -44.5958        -44.5958
            2490     1.17330E+03     1.17330E+03         25.5419         25.5419        -31.6438        -31.6438
            2491     1.16537E+03     1.16537E+03         19.7824         19.7824        -21.4182        -21.4182
            2492     1.15915E+03     1.15915E+03         15.3933         15.3933        -13.3383        -13.3383
            2493     1.15441E+03     1.15441E+03         12.0669         12.0669        -6.91687        -6.91687
            2494     1.15097E+03     1.15097E+03         9.46653         9.46653        -1.82859        -1.82859
            2495     1.14862E+03     1.14862E+03         7.43498         7.43498         2.21701         2.21701
            2496     1.14721E+03     1.14721E+03         5.81872         5.81872         5.41483         5.41483
            2497     1.14657E+03     1.14657E+03         4.53255         4.53255         7.94029         7.94029
            2498     1.14657E+03     1.14657E+03         3.49854         3.49854         9.91627         9.91627
            2499     1.14711E+03     1.14711E+03         2.66737         2.66737         11.4521         11.4521
            2500     1.14809E+03     1.14809E+03         1.99487         1.99487         12.6277         12.6277
            2501     1.14942E+03     1.14942E+03         1.44997         1.44997         13.5126         13.5126
            2502     1.15104E+03     1.15104E+03         1.00446         1.00446         14.1589         14.1589
            2503     1.15290E+03     1.15290E+03     636.437E-03     636.437E-03         14.6104         14.6104
            2504     1.15494E+03     1.15494E+03     325.352E-03     325.352E-03         14.8991         14.8991
            2505     1.15712E+03     1.15712E+03     53.6852E-03     53.6852E-03         15.0501         15.0501
            2506     1.15942E+03     1.15942E+03    -195.628E-03    -195.628E-03         15.0797         15.0797
            2507     1.16179E+03     1.16179E+03    -438.199E-03    -438.199E-03         14.9978         14.9978
            2508     1.16422E+03     1.16422E+03    -689.469E-03    -689.469E-03         14.8071         14.8071
            2509     1.16668E+03     1.16668E+03    -963.858E-03    -963.858E-03         14.5038         14.5038
            2510     1.16916E+03     1.16916E+03        -1.27507        -1.27507         14.0781         14.0781
            2511     1.17163E+03     1.17163E+03        -1.63494        -1.63494         13.5146         13.5146
            2512     1.17407E+03     1.17407E+03        -2.05273        -2.05273         12.7928         12.7928
            2513     1.17647E+03     1.17647E+03        -2.53320        -2.53320         11.8887         11.8887
            2514     1.17879E+03     1.17879E+03        -3.07482        -3.07482         10.7761         10.7761
            2515     1.18102E+03     1.18102E+03        -3.66688        -3.66688         9.43025         9.43025
            2516     1.18310E+03     1.18310E+03        -4.28693        -4.28693         7.83085         7.83085
            2517     1.18501E+03     1.18501E+03        -4.89758        -4.89758         5.96763         5.96763
            2518     1.18668E+03     1.18668E+03        -5.44495        -5.44495         3.84690         3.84690
            2519     1.18807E+03     1.18807E+03        -5.85786        -5.85786         1.49865         1.49865
            2520     1.18910E+03     1.18910E+03        -6.05085        -6.05085        -1.01499        -1.01499
            2521     1.18972E+03     1.18972E+03        -5.93108        -5.93108        -3.59356        -3.59356
            2522     1.18986E+03     1.18986E+03        -5.41070        -5.41070        -6.09399        -6.09399
            2523     1.18949E+03     1.18949E+03        -4.42473        -4.42473        -8.33200        -8.33200
            2524     1.24485E+03     1.24485E+03         295.192         295.192        -238.316        -238.316
            2525     1.26479E+03     1.26479E+03         203.851         203.851        -217.312        -217.312
            2526     1.26781E+03     1.26781E+03         125.647         125.647        -171.534        -171.534
            2527     1.24710E+03     1.24710E+03         78.9533         78.9533        -124.232        -124.232
            2528     1.22308E+03     1.22308E+03         53.9968         53.9968        -90.6553        -90.6553
            2529     1.20190E+03     1.20190E+03         37.4305         37.4305        -65.5497        -65.5497
            2530     1.18396E+03     1.18396E+03         27.2606         27.2606        -46.9943        -46.9943
            2531     1.16980E+03     1.16980E+03         20.1003         20.1003        -33.1151        -33.1151
            2532     1.15872E+03     1.15872E+03         15.2153         15.2153        -22.5106        -22.5106
            2533     1.15039E+03     1.15039E+03         11.6209         11.6209        -14.4108        -14.4108
            2534     1.14427E+03     1.14427E+03         8.98994         8.98994        -8.10398        -8.10398
            2535     1.14002E+03     1.14002E+03         6.98570         6.98570        -3.21499        -3.21499
            2536     1.13726E+03     1.13726E+03         5.45131         5.45131     620.236E-03     620.236E-03
            2537     1.13575E+03     1.13575E+03         4.25204         4.25204         3.60797         3.60797
            2538     1.13523E+03     1.13523E+03         3.30885         3.30885         5.94569         5.94569
            2539     1.13552E+03     1.13552E+03         2.55918         2.55918         7.75643         7.75643
            2540     1.13646E+03     1.13646E+03         1.96088         1.96088         9.15437         9.15437
            2541     1.13794E+03     1.13794E+03         1.48070         1.48070         10.2168         10.2168
            2542     1.13983E+03     1.13983E+03         1.09431         1.09431         11.0130         11.0130
            2543     1.14206E+03     1.14206E+03     781.608E-03     781.608E-03         11.5925         11.5925
            2544     1.14454E+03     1.14454E+03     526.932E-03     526.932E-03         11.9983         11.9983
            2545     1.14723E+03     1.14723E+03     316.389E-03     316.389E-03         12.2613         12.2613
            2546     1.15006E+03     1.15006E+03     138.397E-03     138.397E-03         12.4068         12.4068
            2547     1.15301E+03     1.15301E+03    -18.0550E-03    -18.0550E-03         12.4516         12.4516
            2548     1.15602E+03     1.15602E+03    -162.811E-03    -162.811E-03         12.4076         12.4076
            2549     1.15907E+03     1.15907E+03    -305.643E-03    -305.643E-03         12.2800         12.2800
            2550     1.16214E+03     1.16214E+03    -455.663E-03    -455.663E-03         12.0690         12.0690
            2551     1.16519E+03     1.16519E+03    -621.858E-03    -621.858E-03         11.7690         11.7690
            2552     1.16819E+03     1.16819E+03    -812.389E-03    -812.389E-03         11.3698         11.3698
            2553     1.17113E+03     1.17113E+03        -1.03452        -1.03452         10.8566         10.8566
            2554     1.17396E+03     1.17396E+03        -1.29357        -1.29357         10.2106         10.2106
            2555     1.17666E+03     1.17666E+03        -1.59213        -1.59213         9.41073         9.41073
            2556     1.17920E+03     1.17920E+03        -1.92848        -1.92848         8.43501         8.43501
            2557     1.18151E+03     1.18151E+03        -2.29516        -2.29516         7.26347         7.26347
            2558     1.18358E+03     1.18358E+03        -2.67692        -2.67692         5.88165         5.88165
            2559     1.18533E+03     1.18533E+03        -3.04941        -3.04941         4.28526         4.28526
            2560     1.18672E+03     1.18672E+03        -3.37777        -3.37777         2.48552         2.48552
            2561     1.18770E+03     1.18770E+03        -3.61710        -3.61710     515.306E-03     515.306E-03
            2562     1.18821E+03     1.18821E+03        -3.71447        -3.71447        -1.56553        -1.56553
            2563     1.18822E+03     1.18822E+03        -3.61386        -3.61386        -3.66578        -3.66578
            2564     1.18772E+03     1.18772E+03        -3.26428        -3.26428        -5.66253        -5.66253
            2565     1.18671E+03     1.18671E+03        -2.63022        -2.63022        -7.40401        -7.40401
            2566     1.33318E+03     1.33318E+03         272.062         272.062        -271.848        -271.848
            2567     1.34114E+03     1.34114E+03         140.730         140.730        -210.126        -210.126
            2568     1.29461E+03     1.29461E+03         69.4932         69.4932        -136.127        -136.127
            2569     1.24718E+03     1.24718E+03         43.5671         43.5671        -92.0816        -92.0816
            2570     1.21148E+03     1.21148E+03         27.4863         27.4863        -63.6713        -63.6713
            2571     1.18379E+03     1.18379E+03         19.0159         19.0159        -44.0643        -44.0643
            2572     1.16350E+03     1.16350E+03         13.4232         13.4232        -30.5635        -30.5635
            2573     1.14849E+03     1.14849E+03         9.84913         9.84913        -20.6096        -20.6096
            2574     1.13775E+03     1.13775E+03         7.36488         7.36488        -13.3626        -13.3626
            2575     1.13024E+03     1.13024E+03         5.59572         5.59572        -7.83927        -7.83927
            2576     1.12528E+03     1.12528E+03         4.30709         4.30709        -3.67959        -3.67959
            2577     1.12229E+03     1.12229E+03         3.33155         3.33155    -461.439E-03    -461.439E-03
            2578     1.12088E+03     1.12088E+03         2.59279         2.59279         2.00043         2.00043
            2579     1.12071E+03     1.12071E+03         2.01424         2.01424         3.90839         3.90839
            2580     1.12150E+03     1.12150E+03         1.56351         1.56351         5.36837         5.36837
            2581     1.12307E+03     1.12307E+03         1.20427         1.20427         6.48752         6.48752
            2582     1.12524E+03     1.12524E+03     919.343E-03     919.343E-03         7.33054         7.33054
            2583     1.12787E+03     1.12787E+03     690.359E-03     690.359E-03         7.95888         7.95888
            2584     1.13087E+03     1.13087E+03     506.674E-03     506.674E-03         8.41347         8.41347
            2585     1.13414E+03     1.13414E+03     358.014E-03     358.014E-03         8.73127         8.73127
            2586     1.13762E+03     1.13762E+03     236.953E-03     236.953E-03         8.93810         8.93810
            2587     1.14124E+03     1.14124E+03     136.816E-03     136.816E-03         9.05595         9.05595
            2588     1.14496E+03     1.14496E+03     51.7966E-03     51.7966E-03         9.09985         9.09985
            2589     1.14874E+03     1.14874E+03    -23.2804E-03    -23.2804E-03         9.08120         9.08120
            2590     1.15255E+03     1.15255E+03    -93.4793E-03    -93.4793E-03         9.00622         9.00622
            2591     1.15635E+03     1.15635E+03    -163.439E-03    -163.439E-03         8.87759         8.87759
            2592     1.16011E+03     1.16011E+03    -237.880E-03    -237.880E-03         8.69359         8.69359
            2593     1.16380E+03     1.16380E+03    -321.144E-03    -321.144E-03         8.44898         8.44898
            2594     1.16740E+03     1.16740E+03    -417.452E-03    -417.452E-03         8.13469         8.13469
            2595     1.17086E+03     1.17086E+03    -530.319E-03    -530.319E-03         7.73850         7.73850
            2596     1.17415E+03     1.17415E+03    -662.458E-03    -662.458E-03         7.24543         7.24543
            2597     1.17723E+03     1.17723E+03    -814.966E-03    -814.966E-03         6.63883         6.63883
            2598     1.18004E+03     1.18004E+03    -986.847E-03    -986.847E-03         5.90180         5.90180
            2599     1.18254E+03     1.18254E+03        -1.17391        -1.17391         5.01934         5.01934
            2600     1.18465E+03     1.18465E+03        -1.36813        -1.36813         3.98121         3.98121
            2601     1.18632E+03     1.18632E+03        -1.55650        -1.55650         2.78539         2.78539
            2602     1.18749E+03     1.18749E+03        -1.72093        -1.72093         1.44241         1.44241
            2603     1.18811E+03     1.18811E+03        -1.83809        -1.83809    -20.5798E-03    -20.5798E-03
            2604     1.18813E+03     1.18813E+03        -1.88098        -1.88098        -1.55581        -1.55581
            2605     1.18753E+03     1.18753E+03        -1.82149        -1.82149        -3.09276        -3.09276
            2606     1.18632E+03     1.18632E+03        -1.63455        -1.63455        -4.53838        -4.53838
            2607     1.18456E+03     1.18456E+03        -1.30343        -1.30343        -5.77974        -5.77974
            2608     1.50274E+03     1.50274E+03         184.563         184.563        -238.664        -238.664
            2609     1.37683E+03     1.37683E+03         52.1089         52.1089        -129.293        -129.293
            2610     1.27805E+03     1.27805E+03         27.8021         27.8021        -74.1532        -74.1532
            2611     1.21852E+03     1.21852E+03         15.5676         15.5676        -48.5324        -48.5324
            2612     1.17759E+03     1.17759E+03         9.75085         9.75085        -31.6322        -31.6322
            2613     1.15014E+03     1.15014E+03         6.66732         6.66732        -21.5617        -21.5617
            2614     1.13118E+03     1.13118E+03         4.59191         4.59191        -14.2883        -14.2883
            2615     1.11841E+03     1.11841E+03         3.41338         3.41338        -9.37020        -9.37020
            2616     1.11001E+03     1.11001E+03         2.49630         2.49630        -5.67147        -5.67147
            2617     1.10489E+03     1.10489E+03         1.92678         1.92678        -2.99568        -2.99568
            2618     1.10221E+03     1.10221E+03         1.46035         1.46035    -944.858E-03    -944.858E-03
            2619     1.10140E+03     1.10140E+03         1.14422         1.14422     588.840E-03     588.840E-03
            2620     1.10200E+03     1.10200E+03     882.402E-03     882.402E-03         1.76980         1.76980
            2621     1.10370E+03     1.10370E+03     692.051E-03     692.051E-03         2.66166         2.66166
            2622     1.10623E+03     1.10623E+03     534.862E-03     534.862E-03         3.34247         3.34247
            2623     1.10940E+03     1.10940E+03     414.890E-03     414.890E-03         3.85136         3.85136
            2624     1.11306E+03     1.11306E+03     316.471E-03     316.471E-03         4.22990         4.22990
            2625     1.11707E+03     1.11707E+03     239.032E-03     239.032E-03         4.50285         4.50285
            2626     1.12135E+03     1.12135E+03     175.819E-03     175.819E-03         4.69423         4.69423
            2627     1.12581E+03     1.12581E+03     124.985E-03     124.985E-03         4.81982         4.81982
            2628     1.13039E+03     1.13039E+03     83.2472E-03     83.2472E-03         4.89389         4.89389
            2629     1.13505E+03     1.13505E+03     48.5963E-03     48.5963E-03         4.92605         4.92605
            2630     1.13974E+03     1.13974E+03     19.0456E-03     19.0456E-03         4.92425         4.92425
            2631     1.14443E+03     1.14443E+03    -7.31664E-03    -7.31664E-03         4.89326         4.89326
            2632     1.14909E+03     1.14909E+03    -32.0618E-03    -32.0618E-03         4.83612         4.83612
            2633     1.15370E+03     1.15370E+03    -56.9974E-03    -56.9974E-03         4.75333         4.75333
            2634     1.15821E+03     1.15821E+03    -83.5966E-03    -83.5966E-03         4.64356         4.64356
            2635     1.16262E+03     1.16262E+03    -113.544E-03    -113.544E-03         4.50325         4.50325
            2636     1.16687E+03     1.16687E+03    -148.191E-03    -148.191E-03         4.32700         4.32700
            2637     1.17094E+03     1.17094E+03    -188.887E-03    -188.887E-03         4.10752         4.10752
            2638     1.17478E+03     1.17478E+03    -236.486E-03    -236.486E-03         3.83615         3.83615
            2639     1.17833E+03     1.17833E+03    -291.431E-03    -291.431E-03         3.50325         3.50325
            2640     1.18153E+03     1.18153E+03    -353.247E-03    -353.247E-03         3.09909         3.09909
            2641     1.18431E+03     1.18431E+03    -420.454E-03    -420.454E-03         2.61510         2.61510
            2642     1.18659E+03     1.18659E+03    -490.009E-03    -490.009E-03         2.04537         2.04537
            2643     1.18829E+03     1.18829E+03    -557.262E-03    -557.262E-03         1.38882         1.38882
            2644     1.18933E+03     1.18933E+03    -615.522E-03    -615.522E-03     651.348E-03     651.348E-03
            2645     1.18965E+03     1.18965E+03    -656.459E-03    -656.459E-03    -151.584E-03    -151.584E-03
            2646     1.18919E+03     1.18919E+03    -670.264E-03    -670.264E-03    -993.084E-03    -993.084E-03
            2647     1.18793E+03     1.18793E+03    -647.026E-03    -647.026E-03        -1.83365        -1.83365
            2648     1.18592E+03     1.18592E+03    -578.039E-03    -578.039E-03        -2.62153        -2.62153
            2649     1.18321E+03     1.18321E+03    -457.401E-03    -457.401E-03        -3.29359        -3.29359
            2650     1.23852E+03     1.23852E+03        -38.6774        -38.6774         2.43715         2.43715
            2651     1.23064E+03     1.23064E+03        -26.8684        -26.8684         9.98514         9.98514
            2652     1.22213E+03     1.22213E+03        -17.8784        -17.8784         13.6638         13.6638
            2653     1.21424E+03     1.21424E+03        -11.4579        -11.4579         15.0540         15.0540
            2654     1.20728E+03     1.20728E+03        -7.06271        -7.06271         15.1774         15.1774
            2655     1.20124E+03     1.20124E+03        -4.15655        -4.15655         14.6335         14.6335
            2656     1.19595E+03     1.19595E+03        -2.30471        -2.30471         13.7300         13.7300
            2657     1.19125E+03     1.19125E+03        -1.17861        -1.17861         12.5883         12.5883
            2658     1.18697E+03     1.18697E+03    -537.108E-03    -537.108E-03         11.2017         11.2017
            2659     1.18296E+03     1.18296E+03    -204.491E-03    -204.491E-03         9.46321         9.46321
            2660     1.17912E+03     1.17912E+03    -54.7213E-03    -54.7213E-03         7.16866         7.16866
            2661     1.17536E+03     1.17536E+03    -4.35368E-03    -4.35368E-03         4.02339         4.02339
            2662     1.24720E+03     1.24720E+03        -22.9880        -22.9880         18.5233         18.5233
            2663     1.23398E+03     1.23398E+03        -11.1873        -11.1873         21.4609         21.4609
            2664     1.22268E+03     1.22268E+03        -3.85879        -3.85879         21.3174         21.3174
            2665     1.21343E+03     1.21343E+03     337.250E-03     337.250E-03         19.8896         19.8896
            2666     1.20588E+03     1.20588E+03         2.47916         2.47916         18.0522         18.0522
            2667     1.19961E+03     1.19961E+03         3.32102         3.32102         16.1850         16.1850
            2668     1.19424E+03     1.19424E+03         3.36322         3.36322         14.4121         14.4121
            2669     1.18944E+03     1.18944E+03         2.93570         2.93570         12.7218         12.7218
            2670     1.18493E+03     1.18493E+03         2.26396         2.26396         11.0198         11.0198
            2671     1.18047E+03     1.18047E+03         1.51381         1.51381         9.14291         9.14291
            2672     1.17583E+03     1.17583E+03     820.943E-03     820.943E-03         6.85146         6.85146
            2673     1.17076E+03     1.17076E+03     310.672E-03     310.672E-03         3.82515         3.82515
            2674     1.24838E+03     1.24838E+03         5.70488         5.70488         32.1434         32.1434
            2675     1.23180E+03     1.23180E+03         12.4414         12.4414         28.8057         28.8057
            2676     1.21946E+03     1.21946E+03         14.7392         14.7392         24.7010         24.7010
            2677     1.21017E+03     1.21017E+03         14.6519         14.6519         20.8845         20.8845
            2678     1.20294E+03     1.20294E+03         13.3390         13.3390         17.6578         17.6578
            2679     1.19705E+03     1.19705E+03         11.4405         11.4405         15.0106         15.0106
            2680     1.19199E+03     1.19199E+03         9.30679         9.30679         12.8346         12.8346
            2681     1.18736E+03     1.18736E+03         7.14080         7.14080         10.9865         10.9865
            2682     1.18285E+03     1.18285E+03         5.07458         5.07458         9.30406         9.30406
            2683     1.17813E+03     1.17813E+03         3.21579         3.21579         7.59939         7.59939
            2684     1.17287E+03     1.17287E+03         1.68084         1.68084         5.63956         5.63956
            2685     1.16669E+03     1.16669E+03     618.900E-03     618.900E-03         3.13248         3.13248
            2686     1.24152E+03     1.24152E+03         43.2696         43.2696         35.3268         35.3268
            2687     1.22517E+03     1.22517E+03         39.4177         39.4177         27.4283         27.4283
            2688     1.21393E+03     1.21393E+03         34.0630         34.0630         21.3227         21.3227
            2689     1.20579E+03     1.20579E+03         28.5498         28.5498         16.7712         16.7712
            2690     1.19952E+03     1.19952E+03         23.3720         23.3720         13.3952         13.3952
            2691     1.19437E+03     1.19437E+03         18.6641         18.6641         10.8727         10.8727
            2692     1.18984E+03     1.18984E+03         14.4437         14.4437         8.95207         8.95207
            2693     1.18555E+03     1.18555E+03         10.6952         10.6952         7.43457         7.43457
            2694     1.18116E+03     1.18116E+03         7.41057         7.41057         6.14992         6.14992
            2695     1.17633E+03     1.17633E+03         4.61364         4.61364         4.93661         4.93661
            2696     1.17067E+03     1.17067E+03         2.38106         2.38106         3.62035         3.62035
            2697     1.16370E+03     1.16370E+03     867.410E-03     867.410E-03         1.99722         1.99722
            2698     1.23169E+03     1.23169E+03         76.8007         76.8007         22.4231         22.4231
            2699     1.21815E+03     1.21815E+03         60.9992         60.9992         15.4324         15.4324
            2700     1.20898E+03     1.20898E+03         48.3947         48.3947         10.8825         10.8825
            2701     1.20227E+03     1.20227E+03         38.3198         38.3198         7.83697         7.83697
            2702     1.19700E+03     1.19700E+03         30.1330         30.1330         5.74519         5.74519
            2703     1.19254E+03     1.19254E+03         23.3676         23.3676         4.28490         4.28490
            2704     1.18848E+03     1.18848E+03         17.6929         17.6929         3.25062         3.25062
            2705     1.18449E+03     1.18449E+03         12.8878         12.8878         2.50153         2.50153
            2706     1.18025E+03     1.18025E+03         8.82102         8.82102         1.93515         1.93515
            2707     1.17542E+03     1.17542E+03         5.44387         5.44387         1.46861         1.46861
            2708     1.16960E+03     1.16960E+03         2.79468         2.79468         1.02898         1.02898
            2709     1.16224E+03     1.16224E+03         1.01625         1.01625     548.046E-03     548.046E-03
            2710     1.22778E+03     1.22778E+03         88.2965         88.2965        -3.85254        -3.85254
            2711     1.21588E+03     1.21588E+03         67.3610         67.3610        -4.15482        -4.15482
            2712     1.20762E+03     1.20762E+03         52.1607         52.1607        -4.15259        -4.15259
            2713     1.20147E+03     1.20147E+03         40.6201         40.6201        -4.04077        -4.04077
            2714     1.19655E+03     1.19655E+03         31.5549         31.5549        -3.86883        -3.86883
            2715     1.19233E+03     1.19233E+03         24.2403         24.2403        -3.65822        -3.65822
            2716     1.18844E+03     1.18844E+03         18.2133         18.2133        -3.41300        -3.41300
            2717     1.18456E+03     1.18456E+03         13.1795         13.1795        -3.12704        -3.12704
            2718     1.18040E+03     1.18040E+03         8.96665         8.96665        -2.78482        -2.78482
            2719     1.17563E+03     1.17563E+03         5.50176         5.50176        -2.35745        -2.35745
            2720     1.16986E+03     1.16986E+03         2.80852         2.80852        -1.79573        -1.79573
            2721     1.16258E+03     1.16258E+03         1.01621         1.01621        -1.01939        -1.01939
            2722     1.23425E+03     1.23425E+03         68.0113         68.0113        -29.3808        -29.3808
            2723     1.22042E+03     1.22042E+03         54.0415         54.0415        -23.0599        -23.0599
            2724     1.21095E+03     1.21095E+03         43.0196         43.0196        -18.7005        -18.7005
            2725     1.20398E+03     1.20398E+03         34.1603         34.1603        -15.5545        -15.5545
            2726     1.19853E+03     1.19853E+03         26.9109         26.9109        -13.2021        -13.2021
            2727     1.19395E+03     1.19395E+03         20.8784         20.8784        -11.3731        -11.3731
            2728     1.18983E+03     1.18983E+03         15.7914         15.7914        -9.87915        -9.87915
            2729     1.18584E+03     1.18584E+03         11.4717         11.4717        -8.57494        -8.57494
            2730     1.18167E+03     1.18167E+03         7.81676         7.81676        -7.33238        -7.33238
            2731     1.17702E+03     1.17702E+03         4.79367         4.79367        -6.01866        -6.01866
            2732     1.17151E+03     1.17151E+03         2.44205         2.44205        -4.47178        -4.47178
            2733     1.16472E+03     1.16472E+03     881.431E-03     881.431E-03        -2.48688        -2.48688
            2734     1.24440E+03     1.24440E+03         27.0422         27.0422        -37.7263        -37.7263
            2735     1.22823E+03     1.22823E+03         26.7285         26.7285        -31.8165        -31.8165
            2736     1.21689E+03     1.21689E+03         24.1800         24.1800        -26.8118        -26.8118
            2737     1.20856E+03     1.20856E+03         20.8870         20.8870        -22.7918        -22.7918
            2738     1.20211E+03     1.20211E+03         17.4429         17.4429        -19.5785        -19.5785
            2739     1.19686E+03     1.19686E+03         14.1055         14.1055        -16.9699        -16.9699
            2740     1.19230E+03     1.19230E+03         10.9894         10.9894        -14.7766        -14.7766
            2741     1.18807E+03     1.18807E+03         8.15182         8.15182        -12.8266        -12.8266
            2742     1.18387E+03     1.18387E+03         5.63485         5.63485        -10.9498        -10.9498
            2743     1.17941E+03     1.17941E+03         3.48945         3.48945        -8.95920        -8.95920
            2744     1.17437E+03     1.17437E+03         1.79136         1.79136        -6.62523        -6.62523
            2745     1.16843E+03     1.16843E+03     651.873E-03     651.873E-03        -3.66551        -3.66551
            2746     1.24718E+03     1.24718E+03        -11.6134        -11.6134        -27.1652        -27.1652
            2747     1.23285E+03     1.23285E+03        -2.13199        -2.13199        -27.6746        -27.6746
            2748     1.22153E+03     1.22153E+03         2.90031         2.90031        -26.0617        -26.0617
            2749     1.21270E+03     1.21270E+03         5.20794         5.20794        -23.8054        -23.8054
            2750     1.20570E+03     1.20570E+03         5.91131         5.91131        -21.4830        -21.4830
            2751     1.19998E+03     1.19998E+03         5.68325         5.68325        -19.2741        -19.2741
            2752     1.19510E+03     1.19510E+03         4.93692         4.93692        -17.1948        -17.1948
            2753     1.19073E+03     1.19073E+03         3.93416         3.93416        -15.1761        -15.1761
            2754     1.18660E+03     1.18660E+03         2.85189         2.85189        -13.0957        -13.0957
            2755     1.18246E+03     1.18246E+03         1.82183         1.82183        -10.7792        -10.7792
            2756     1.17809E+03     1.17809E+03     954.138E-03     954.138E-03        -7.98868        -7.98868
            2757     1.17328E+03     1.17328E+03     351.895E-03     351.895E-03        -4.41947        -4.41947
            2758     1.23903E+03     1.23903E+03        -34.0280        -34.0280        -8.99899        -8.99899
            2759     1.23047E+03     1.23047E+03        -22.4470        -22.4470        -15.7720        -15.7720
            2760     1.22188E+03     1.22188E+03        -14.0657        -14.0657        -18.7410        -18.7410
            2761     1.21426E+03     1.21426E+03        -8.37295        -8.37295        -19.5704        -19.5704
            2762     1.20774E+03     1.20774E+03        -4.67611        -4.67611        -19.2535        -19.2535
            2763     1.20221E+03     1.20221E+03        -2.37630        -2.37630        -18.3253        -18.3253
            2764     1.19743E+03     1.19743E+03        -1.02812        -1.02812        -17.0374        -17.0374
            2765     1.19322E+03     1.19322E+03    -308.634E-03    -308.634E-03        -15.4763        -15.4763
            2766     1.18938E+03     1.18938E+03     13.9541E-03     13.9541E-03        -13.6162        -13.6162
            2767     1.18575E+03     1.18575E+03     106.731E-03     106.731E-03        -11.3442        -11.3442
            2768     1.18223E+03     1.18223E+03     89.5128E-03     89.5128E-03        -8.46036        -8.46036
            2769     1.17873E+03     1.17873E+03     42.2957E-03     42.2957E-03        -4.68960        -4.68960
            2770     1.10316E+03     1.10316E+03         321.274         321.274         59.7331         59.7331
            2771     1.11422E+03     1.11422E+03         294.960         294.960         59.3905         59.3905
            2772     1.12504E+03     1.12504E+03         268.624         268.624         57.5629         57.5629
            2773     1.13535E+03     1.13535E+03         242.764         242.764         54.8448         54.8448
            2774     1.14496E+03     1.14496E+03         217.728         217.728         51.3338         51.3338
            2775     1.15372E+03     1.15372E+03         193.826         193.826         47.1479         47.1479
            2776     1.16151E+03     1.16151E+03         171.317         171.317         42.4595         42.4595
            2777     1.16826E+03     1.16826E+03         150.382         150.382         37.4414         37.4414
            2778     1.17396E+03     1.17396E+03         131.142         131.142         32.2745         32.2745
            2779     1.17865E+03     1.17865E+03         113.641         113.641         27.1199         27.1199
            2780     1.18236E+03     1.18236E+03         97.8759         97.8759         22.1121         22.1121
            2781     1.18518E+03     1.18518E+03         83.7941         83.7941         17.3603         17.3603
            2782     1.18721E+03     1.18721E+03         71.3129         71.3129         12.9360         12.9360
            2783     1.18853E+03     1.18853E+03         60.3303         60.3303         8.89001         8.89001
            2784     1.18924E+03     1.18924E+03         50.7295         50.7295         5.24107         5.24107
            2785     1.18942E+03     1.18942E+03         42.3921         42.3921         1.99515         1.99515
            2786     1.18916E+03     1.18916E+03         35.1957         35.1957    -862.775E-03    -862.775E-03
            2787     1.18853E+03     1.18853E+03         29.0242         29.0242        -3.35375        -3.35375
            2788     1.18759E+03     1.18759E+03         23.7635         23.7635        -5.51015        -5.51015
            2789     1.18639E+03     1.18639E+03         19.3080         19.3080        -7.36588        -7.36588
            2790     1.18499E+03     1.18499E+03         15.5565         15.5565        -8.95984        -8.95984
            2791     1.18342E+03     1.18342E+03         12.4159         12.4159        -10.3302        -10.3302
            2792     1.18171E+03     1.18171E+03         9.79811         9.79811        -11.5169        -11.5169
            2793     1.17990E+03     1.17990E+03         7.62187         7.62187        -12.5584        -12.5584
            2794     1.17800E+03     1.17800E+03         5.81012         5.81012        -13.4940        -13.4940
            2795     1.17605E+03     1.17605E+03         4.29086         4.29086        -14.3623        -14.3623
            2796     1.17406E+03     1.17406E+03         2.99511         2.99511        -15.2030        -15.2030
            2797     1.17204E+03     1.17204E+03         1.85676         1.85676        -16.0567        -16.0567
            2798     1.17002E+03     1.17002E+03     810.691E-03     810.691E-03        -16.9668        -16.9668
            2799     1.16802E+03     1.16802E+03    -208.297E-03    -208.297E-03        -17.9796        -17.9796
            2800     1.16605E+03     1.16605E+03        -1.26780        -1.26780        -19.1466        -19.1466
            2801     1.16417E+03     1.16417E+03        -2.44032        -2.44032        -20.5247        -20.5247
            2802     1.16240E+03     1.16240E+03        -3.80701        -3.80701        -22.1781        -22.1781
            2803     1.16084E+03     1.16084E+03        -5.46300        -5.46300        -24.1774        -24.1774
            2804     1.15957E+03     1.15957E+03        -7.52399        -7.52399        -26.5992        -26.5992
            2805     1.15877E+03     1.15877E+03        -10.1369        -10.1369        -29.5203        -29.5203
            2806     1.15867E+03     1.15867E+03        -13.4902        -13.4902        -33.0057        -33.0057
            2807     1.15965E+03     1.15965E+03        -17.8309        -17.8309        -37.0815        -37.0815
            2808     1.16227E+03     1.16227E+03        -23.4660        -23.4660        -41.6778        -41.6778
            2809     1.16736E+03     1.16736E+03        -30.7538        -30.7538        -46.5133        -46.5133
            2810     1.17604E+03     1.17604E+03        -39.9359        -39.9359        -50.8747        -50.8747
            2811     1.18959E+03     1.18959E+03        -50.8205        -50.8205        -53.3639        -53.3639
            2812     1.10137E+03     1.10137E+03         321.764         321.764         45.8929         45.8929
            2813     1.11207E+03     1.11207E+03         296.432         296.432         45.6156         45.6156
            2814     1.12256E+03     1.12256E+03         271.103         271.103         44.2331         44.2331
            2815     1.13262E+03     1.13262E+03         246.194         246.194         42.2132         42.2132
            2816     1.14209E+03     1.14209E+03         222.000         222.000         39.6062         39.6062
            2817     1.15082E+03     1.15082E+03         198.785         198.785         36.5063         36.5063
            2818     1.15870E+03     1.15870E+03         176.774         176.774         33.0167         33.0167
            2819     1.16567E+03     1.16567E+03         156.143         156.143         29.2660         29.2660
            2820     1.17169E+03     1.17169E+03         137.013         137.013         25.3761         25.3761
            2821     1.17676E+03     1.17676E+03         119.456         119.456         21.4656         21.4656
            2822     1.18090E+03     1.18090E+03         103.492         103.492         17.6375         17.6375
            2823     1.18417E+03     1.18417E+03         89.1036         89.1036         13.9731         13.9731
            2824     1.18663E+03     1.18663E+03         76.2416         76.2416         10.5368         10.5368
            2825     1.18834E+03     1.18834E+03         64.8316         64.8316         7.36771         7.36771
            2826     1.18941E+03     1.18941E+03         54.7850         54.7850         4.49164         4.49164
            2827     1.18988E+03     1.18988E+03         46.0007         46.0007         1.91389         1.91389
            2828     1.18986E+03     1.18986E+03         38.3752         38.3752    -368.180E-03    -368.180E-03
            2829     1.18939E+03     1.18939E+03         31.8009         31.8009        -2.37061        -2.37061
            2830     1.18855E+03     1.18855E+03         26.1740         26.1740        -4.11305        -4.11305
            2831     1.18739E+03     1.18739E+03         21.3920         21.3920        -5.62243        -5.62243
            2832     1.18596E+03     1.18596E+03         17.3581         17.3581        -6.92658        -6.92658
            2833     1.18430E+03     1.18430E+03         13.9798         13.9798        -8.05672        -8.05672
            2834     1.18244E+03     1.18244E+03         11.1707         11.1707        -9.04384        -9.04384
            2835     1.18043E+03     1.18043E+03         8.84917         8.84917        -9.92054        -9.92054
            2836     1.17827E+03     1.17827E+03         6.93959         6.93959        -10.7193        -10.7193
            2837     1.17600E+03     1.17600E+03         5.37075         5.37075        -11.4742        -11.4742
            2838     1.17361E+03     1.17361E+03         4.07631         4.07631        -12.2205        -12.2205
            2839     1.17113E+03     1.17113E+03         2.99346         2.99346        -12.9961        -12.9961
            2840     1.16855E+03     1.16855E+03         2.06258         2.06258        -13.8427        -13.8427
            2841     1.16588E+03     1.16588E+03         1.22572         1.22572        -14.8075        -14.8075
            2842     1.16312E+03     1.16312E+03     425.225E-03     425.225E-03        -15.9455        -15.9455
            2843     1.16027E+03     1.16027E+03    -398.652E-03    -398.652E-03        -17.3217        -17.3217
            2844     1.15732E+03     1.15732E+03        -1.31127        -1.31127        -19.0154        -19.0154
            2845     1.15429E+03     1.15429E+03        -2.38852        -2.38852        -21.1237        -21.1237
            2846     1.15121E+03     1.15121E+03        -3.72538        -3.72538        -23.7674        -23.7674
            2847     1.14812E+03     1.14812E+03        -5.44737        -5.44737        -27.0972        -27.0972
            2848     1.14515E+03     1.14515E+03        -7.73206        -7.73206        -31.2994        -31.2994
            2849     1.14252E+03     1.14252E+03        -10.8366        -10.8366        -36.5996        -36.5996
            2850     1.14062E+03     1.14062E+03        -15.1520        -15.1520        -43.2530        -43.2530
            2851     1.14020E+03     1.14020E+03        -21.2637        -21.2637        -51.5010        -51.5010
            2852     1.14266E+03     1.14266E+03        -30.0635        -30.0635        -61.3924        -61.3924
            2853     1.15037E+03     1.15037E+03        -42.6284        -42.6284        -72.3713        -72.3713
            2854     1.10014E+03     1.10014E+03         322.127         322.127         32.4613         32.4613
            2855     1.11057E+03     1.11057E+03         297.489         297.489         32.2252         32.2252
            2856     1.12083E+03     1.12083E+03         272.864         272.864         31.2332         31.2332
            2857     1.13070E+03     1.13070E+03         248.628         248.628         29.8072         29.8072
            2858     1.14005E+03     1.14005E+03         225.035         225.035         27.9915         27.9915
            2859     1.14874E+03     1.14874E+03         202.318         202.318         25.8354         25.8354
            2860     1.15667E+03     1.15667E+03         180.682         180.682         23.4161         23.4161
            2861     1.16377E+03     1.16377E+03         160.291         160.291         20.8097         20.8097
            2862     1.16998E+03     1.16998E+03         141.272         141.272         18.1018         18.1018
            2863     1.17530E+03     1.17530E+03         123.702         123.702         15.3702         15.3702
            2864     1.17973E+03     1.17973E+03         107.623         107.623         12.6850         12.6850
            2865     1.18330E+03     1.18330E+03         93.0372         93.0372         10.1055         10.1055
            2866     1.18606E+03     1.18606E+03         79.9175         79.9175         7.67503         7.67503
            2867     1.18806E+03     1.18806E+03         68.2115         68.2115         5.42668         5.42668
            2868     1.18938E+03     1.18938E+03         57.8478         57.8478         3.37707         3.37707
            2869     1.19007E+03     1.19007E+03         48.7428         48.7428         1.53577         1.53577
            2870     1.19022E+03     1.19022E+03         40.8035         40.8035    -100.430E-03    -100.430E-03
            2871     1.18989E+03     1.18989E+03         33.9339         33.9339        -1.53861        -1.53861
            2872     1.18913E+03     1.18913E+03         28.0351         28.0351        -2.79388        -2.79388
            2873     1.18800E+03     1.18800E+03         23.0109         23.0109        -3.88290        -3.88290
            2874     1.18655E+03     1.18655E+03         18.7664         18.7664        -4.82664        -4.82664
            2875     1.18483E+03     1.18483E+03         15.2121         15.2121        -5.64631        -5.64631
            2876     1.18288E+03     1.18288E+03         12.2622         12.2622        -6.36531        -6.36531
            2877     1.18071E+03     1.18071E+03         9.83681         9.83681        -7.00700        -7.00700
            2878     1.17835E+03     1.17835E+03         7.86133         7.86133        -7.59622        -7.59622
            2879     1.17582E+03     1.17582E+03         6.26687         6.26687        -8.15844        -8.15844
            2880     1.17313E+03     1.17313E+03         4.98981         4.98981        -8.72122        -8.72122
            2881     1.17027E+03     1.17027E+03         3.97199         3.97199        -9.31435        -9.31435
            2882     1.16723E+03     1.16723E+03         3.16008         3.16008        -9.97168        -9.97168
            2883     1.16400E+03     1.16400E+03         2.50522         2.50522        -10.7323        -10.7323
            2884     1.16055E+03     1.16055E+03         1.96223         1.96223        -11.6432        -11.6432
            2885     1.15684E+03     1.15684E+03         1.48843         1.48843        -12.7623        -12.7623
            2886     1.15282E+03     1.15282E+03         1.04192         1.04192        -14.1628        -14.1628
            2887     1.14843E+03     1.14843E+03     578.270E-03     578.270E-03        -15.9394        -15.9394
            2888     1.14358E+03     1.14358E+03     46.1920E-03     46.1920E-03        -18.2177        -18.2177
            2889     1.13819E+03     1.13819E+03    -622.009E-03    -622.009E-03        -21.1670        -21.1670
            2890     1.13214E+03     1.13214E+03        -1.52312        -1.52312        -25.0213        -25.0213
            2891     1.12534E+03     1.12534E+03        -2.81231        -2.81231        -30.1083        -30.1083
            2892     1.11772E+03     1.11772E+03        -4.74560        -4.74560        -36.8980        -36.8980
            2893     1.10935E+03     1.10935E+03        -7.78134        -7.78134        -46.0666        -46.0666
            2894     1.10063E+03     1.10063E+03        -12.7686        -12.7686        -58.6071        -58.6071
            2895     1.09301E+03     1.09301E+03        -21.3515        -21.3515        -75.8157        -75.8157
            2896     1.09936E+03     1.09936E+03         322.370         322.370         19.3063         19.3063
            2897     1.10963E+03     1.10963E+03         298.172         298.172         19.1033         19.1033
            2898     1.11974E+03     1.11974E+03         273.992         273.992         18.4578         18.4578
            2899     1.12949E+03     1.12949E+03         250.181         250.181         17.5723         17.5723
            2900     1.13876E+03     1.13876E+03         226.970         226.970         16.4641         16.4641
            2901     1.14741E+03     1.14741E+03         204.572         204.572         15.1711         15.1711
            2902     1.15537E+03     1.15537E+03         183.178         183.178         13.7295         13.7295
            2903     1.16253E+03     1.16253E+03         162.948         162.948         12.1891         12.1891
            2904     1.16886E+03     1.16886E+03         144.006         144.006         10.5945         10.5945
            2905     1.17433E+03     1.17433E+03         126.437         126.437         8.99185         8.99185
            2906     1.17893E+03     1.17893E+03         110.293         110.293         7.42098         7.42098
            2907     1.18268E+03     1.18268E+03         95.5885         95.5885         5.91466         5.91466
            2908     1.18563E+03     1.18563E+03         82.3095         82.3095         4.49973         4.49973
            2909     1.18781E+03     1.18781E+03         70.4170         70.4170         3.19261         3.19261
            2910     1.18929E+03     1.18929E+03         59.8523         59.8523         2.00558         2.00558
            2911     1.19013E+03     1.19013E+03         50.5413         50.5413     941.266E-03     941.266E-03
            2912     1.19039E+03     1.19039E+03         42.4004         42.4004     54.2328E-06     54.2328E-06
            2913     1.19014E+03     1.19014E+03         35.3391         35.3391    -824.634E-03    -824.634E-03
            2914     1.18944E+03     1.18944E+03         29.2644         29.2644        -1.54010        -1.54010
            2915     1.18833E+03     1.18833E+03         24.0825         24.0825        -2.15788        -2.15788
            2916     1.18688E+03     1.18688E+03         19.7017         19.7017        -2.68933        -2.68933
            2917     1.18512E+03     1.18512E+03         16.0333         16.0333        -3.14810        -3.14810
            2918     1.18310E+03     1.18310E+03         12.9933         12.9933        -3.54737        -3.54737
            2919     1.18083E+03     1.18083E+03         10.5025         10.5025        -3.90157        -3.90157
            2920     1.17834E+03     1.17834E+03         8.48766         8.48766        -4.22493        -4.22493
            2921     1.17565E+03     1.17565E+03         6.88135         6.88135        -4.53279        -4.53279
            2922     1.17274E+03     1.17274E+03         5.62259         5.62259        -4.84107        -4.84107
            2923     1.16963E+03     1.16963E+03         4.65667         4.65667        -5.16745        -5.16745
            2924     1.16628E+03     1.16628E+03         3.93549         3.93549        -5.53165        -5.53165
            2925     1.16266E+03     1.16266E+03         3.41755         3.41755        -5.95687        -5.95687
            2926     1.15873E+03     1.15873E+03         3.06805         3.06805        -6.47098        -6.47098
            2927     1.15442E+03     1.15442E+03         2.85906         2.85906        -7.10891        -7.10891
            2928     1.14964E+03     1.14964E+03         2.76927         2.76927        -7.91544        -7.91544
            2929     1.14425E+03     1.14425E+03         2.78423         2.78423        -8.95001        -8.95001
            2930     1.13809E+03     1.13809E+03         2.89510         2.89510        -10.2932        -10.2932
            2931     1.13093E+03     1.13093E+03         3.09833         3.09833        -12.0583        -12.0583
            2932     1.12245E+03     1.12245E+03         3.39076         3.39076        -14.4075        -14.4075
            2933     1.11223E+03     1.11223E+03         3.76587         3.76587        -17.5829        -17.5829
            2934     1.09964E+03     1.09964E+03         4.19412         4.19412        -21.9553        -21.9553
            2935     1.08384E+03     1.08384E+03         4.59581         4.59581        -28.1239        -28.1239
            2936     1.06355E+03     1.06355E+03         4.75670         4.75670        -37.1031        -37.1031
            2937     1.03690E+03     1.03690E+03         4.07901         4.07901        -50.8026        -50.8026
            2938     1.09899E+03     1.09899E+03         322.489         322.489         6.32750         6.32750
            2939     1.10918E+03     1.10918E+03         298.499         298.499         6.16079         6.16079
            2940     1.11921E+03     1.11921E+03         274.529         274.529         5.85951         5.85951
            2941     1.12891E+03     1.12891E+03         250.917         250.917         5.48703         5.48703
            2942     1.13814E+03     1.13814E+03         227.883         227.883         5.05881         5.05881
            2943     1.14678E+03     1.14678E+03         205.632         205.632         4.58282         4.58282
            2944     1.15474E+03     1.15474E+03         184.349         184.349         4.07832         4.07832
            2945     1.16194E+03     1.16194E+03         164.190         164.190         3.55737         3.55737
            2946     1.16832E+03     1.16832E+03         145.280         145.280         3.03757         3.03757
            2947     1.17386E+03     1.17386E+03         127.709         127.709         2.53106         2.53106
            2948     1.17854E+03     1.17854E+03         111.531         111.531         2.04972         2.04972
            2949     1.18238E+03     1.18238E+03         96.7675         96.7675         1.60266         1.60266
            2950     1.18541E+03     1.18541E+03         83.4113         83.4113         1.19505         1.19505
            2951     1.18768E+03     1.18768E+03         71.4297         71.4297     831.676E-03     831.676E-03
            2952     1.18923E+03     1.18923E+03         60.7692         60.7692     512.301E-03     512.301E-03
            2953     1.19013E+03     1.19013E+03         51.3612         51.3612     237.726E-03     237.726E-03
            2954     1.19045E+03     1.19045E+03         43.1255         43.1255     4.48288E-03     4.48288E-03
            2955     1.19023E+03     1.19023E+03         35.9750         35.9750    -189.362E-03    -189.362E-03
            2956     1.18955E+03     1.18955E+03         29.8185         29.8185    -348.646E-03    -348.646E-03
            2957     1.18846E+03     1.18846E+03         24.5639         24.5639    -476.681E-03    -476.681E-03
            2958     1.18700E+03     1.18700E+03         20.1205         20.1205    -578.442E-03    -578.442E-03
            2959     1.18523E+03     1.18523E+03         16.4003         16.4003    -657.620E-03    -657.620E-03
            2960     1.18317E+03     1.18317E+03         13.3194         13.3194    -718.715E-03    -718.715E-03
            2961     1.18086E+03     1.18086E+03         10.7991         10.7991    -765.236E-03    -765.236E-03
            2962     1.17832E+03     1.17832E+03         8.76666         8.76666    -801.024E-03    -801.024E-03
            2963     1.17555E+03     1.17555E+03         7.15509         7.15509    -829.214E-03    -829.214E-03
            2964     1.17255E+03     1.17255E+03         5.90443         5.90443    -853.060E-03    -853.060E-03
            2965     1.16933E+03     1.16933E+03         4.96134         4.96134    -875.364E-03    -875.364E-03
            2966     1.16585E+03     1.16585E+03         4.27995         4.27995    -899.015E-03    -899.015E-03
            2967     1.16207E+03     1.16207E+03         3.82175         3.82175    -926.670E-03    -926.670E-03
            2968     1.15794E+03     1.15794E+03         3.55657         3.55657    -961.172E-03    -961.172E-03
            2969     1.15337E+03     1.15337E+03         3.46267         3.46267        -1.00534        -1.00534
            2970     1.14826E+03     1.14826E+03         3.52832         3.52832        -1.06244        -1.06244
            2971     1.14245E+03     1.14245E+03         3.75200         3.75200        -1.13591        -1.13591
            2972     1.13573E+03     1.13573E+03         4.14559         4.14559        -1.23019        -1.23019
            2973     1.12782E+03     1.12782E+03         4.73438         4.73438        -1.35009        -1.35009
            2974     1.11829E+03     1.11829E+03         5.56411         5.56411        -1.50262        -1.50262
            2975     1.10656E+03     1.10656E+03         6.69966         6.69966        -1.69492        -1.69492
            2976     1.09177E+03     1.09177E+03         8.24137         8.24137        -1.93845        -1.93845
            2977     1.07257E+03     1.07257E+03         10.3208         10.3208        -2.24129        -2.24129
            2978     1.04680E+03     1.04680E+03         13.1423         13.1423        -2.61051        -2.61051
            2979     1.01055E+03     1.01055E+03         16.9981         16.9981        -2.96876        -2.96876
            2980     1.09899E+03     1.09899E+03         322.489         322.489        -6.57485        -6.57485
            2981     1.10918E+03     1.10918E+03         298.489         298.489        -6.67448        -6.67448
            2982     1.11923E+03     1.11923E+03         274.508         274.508        -6.61803        -6.61803
            2983     1.12893E+03     1.12893E+03         250.884         250.884        -6.46009        -6.46009
            2984     1.13816E+03     1.13816E+03         227.834         227.834        -6.20800        -6.20800
            2985     1.14681E+03     1.14681E+03         205.565         205.565        -5.86293        -5.86293
            2986     1.15478E+03     1.15478E+03         184.265         184.265        -5.43976        -5.43976
            2987     1.16198E+03     1.16198E+03         164.089         164.089        -4.94859        -4.94859
            2988     1.16836E+03     1.16836E+03         145.164         145.164        -4.40789        -4.40789
            2989     1.17390E+03     1.17390E+03         127.580         127.580        -3.83288        -3.83288
            2990     1.17857E+03     1.17857E+03         111.393         111.393        -3.24053        -3.24053
            2991     1.18241E+03     1.18241E+03         96.6238         96.6238        -2.64631        -2.64631
            2992     1.18543E+03     1.18543E+03         83.2655         83.2655        -2.06242        -2.06242
            2993     1.18769E+03     1.18769E+03         71.2849         71.2849        -1.50086        -1.50086
            2994     1.18923E+03     1.18923E+03         60.6282         60.6282    -968.154E-03    -968.154E-03
            2995     1.19013E+03     1.19013E+03         51.2263         51.2263    -471.292E-03    -471.292E-03
            2996     1.19043E+03     1.19043E+03         42.9983         42.9983    -11.9125E-03    -11.9125E-03
            2997     1.19021E+03     1.19021E+03         35.8565         35.8565     407.748E-03     407.748E-03
            2998     1.18952E+03     1.18952E+03         29.7091         29.7091     789.601E-03     789.601E-03
            2999     1.18842E+03     1.18842E+03         24.4637         24.4637         1.13506         1.13506
            3000     1.18697E+03     1.18697E+03         20.0288         20.0288         1.44838         1.44838
            3001     1.18519E+03     1.18519E+03         16.3161         16.3161         1.73354         1.73354
            3002     1.18314E+03     1.18314E+03         13.2411         13.2411         1.99644         1.99644
            3003     1.18084E+03     1.18084E+03         10.7248         10.7248         2.24303         2.24303
            3004     1.17831E+03     1.17831E+03         8.69367         8.69367         2.48077         2.48077
            3005     1.17556E+03     1.17556E+03         7.08036         7.08036         2.71771         2.71771
            3006     1.17260E+03     1.17260E+03         5.82395         5.82395         2.96360         2.96360
            3007     1.16941E+03     1.16941E+03         4.87024         4.87024         3.22968         3.22968
            3008     1.16597E+03     1.16597E+03         4.17187         4.17187         3.52981         3.52981
            3009     1.16226E+03     1.16226E+03         3.68865         3.68865         3.88095         3.88095
            3010     1.15821E+03     1.15821E+03         3.38769         3.38769         4.30489         4.30489
            3011     1.15375E+03     1.15375E+03         3.24385         3.24385         4.82969         4.82969
            3012     1.14878E+03     1.14878E+03         3.23990         3.23990         5.49300         5.49300
            3013     1.14316E+03     1.14316E+03         3.36710         3.36710         6.34556         6.34556
            3014     1.13670E+03     1.13670E+03         3.62515         3.62515         7.45888         7.45888
            3015     1.12916E+03     1.12916E+03         4.02250         4.02250         8.93388         8.93388
            3016     1.12016E+03     1.12016E+03         4.57477         4.57477         10.9211         10.9211
            3017     1.10923E+03     1.10923E+03         5.30211         5.30211         13.6455         13.6455
            3018     1.09565E+03     1.09565E+03         6.21860         6.21860         17.4673         17.4673
            3019     1.07841E+03     1.07841E+03         7.30891         7.30891         22.9736         22.9736
            3020     1.05598E+03     1.05598E+03         8.45788         8.45788         31.2113         31.2113
            3021     1.02617E+03     1.02617E+03         9.18699         9.18699         44.1824         44.1824
            3022     1.09936E+03     1.09936E+03         322.374         322.374        -19.5173        -19.5173
            3023     1.10965E+03     1.10965E+03         298.154         298.154        -19.5378        -19.5378
            3024     1.11977E+03     1.11977E+03         273.945         273.945        -19.0992        -19.0992
            3025     1.12954E+03     1.12954E+03         250.099         250.099        -18.3943        -18.3943
            3026     1.13883E+03     1.13883E+03         226.845         226.845        -17.4331        -17.4331
            3027     1.14750E+03     1.14750E+03         204.402         204.402        -16.2481        -16.2481
            3028     1.15547E+03     1.15547E+03         182.961         182.961        -14.8716        -14.8716
            3029     1.16264E+03     1.16264E+03         162.687         162.687        -13.3524        -13.3524
            3030     1.16897E+03     1.16897E+03         143.705         143.705        -11.7358        -11.7358
            3031     1.17443E+03     1.17443E+03         126.104         126.104        -10.0714        -10.0714
            3032     1.17902E+03     1.17902E+03         109.936         109.936        -8.40347        -8.40347
            3033     1.18276E+03     1.18276E+03         95.2168         95.2168        -6.77057        -6.77057
            3034     1.18569E+03     1.18569E+03         81.9323         81.9323        -5.20570        -5.20570
            3035     1.18784E+03     1.18784E+03         70.0425         70.0425        -3.73139        -3.73139
            3036     1.18930E+03     1.18930E+03         59.4878         59.4878        -2.36572        -2.36572
            3037     1.19011E+03     1.19011E+03         50.1926         50.1926        -1.11629        -1.11629
            3038     1.19035E+03     1.19035E+03         42.0717         42.0717     12.2017E-03     12.2017E-03
            3039     1.19007E+03     1.19007E+03         35.0331         35.0331         1.02308         1.02308
            3040     1.18935E+03     1.18935E+03         28.9822         28.9822         1.92123         1.92123
            3041     1.18824E+03     1.18824E+03         23.8239         23.8239         2.71677         2.71677
            3042     1.18678E+03     1.18678E+03         19.4652         19.4652         3.42048         3.42048
            3043     1.18503E+03     1.18503E+03         15.8163         15.8163         4.04625         4.04625
            3044     1.18302E+03     1.18302E+03         12.7918         12.7918         4.60836         4.60836
            3045     1.18078E+03     1.18078E+03         10.3113         10.3113         5.12313         5.12313
            3046     1.17833E+03     1.17833E+03         8.30044         8.30044         5.60755         5.60755
            3047     1.17569E+03     1.17569E+03         6.69010         6.69010         6.08065         6.08065
            3048     1.17285E+03     1.17285E+03         5.41740         5.41740         6.56317         6.56317
            3049     1.16983E+03     1.16983E+03         4.42515         4.42515         7.07897         7.07897
            3050     1.16660E+03     1.16660E+03         3.66198         3.66198         7.65566         7.65566
            3051     1.16314E+03     1.16314E+03         3.08187         3.08187         8.32660         8.32660
            3052     1.15942E+03     1.15942E+03         2.64392         2.64392         9.13276         9.13276
            3053     1.15537E+03     1.15537E+03         2.31146         2.31146         10.1262         10.1262
            3054     1.15094E+03     1.15094E+03         2.05096         2.05096         11.3742         11.3742
            3055     1.14602E+03     1.14602E+03         1.82994         1.82994         12.9663         12.9663
            3056     1.14051E+03     1.14051E+03         1.61320         1.61320         15.0234         15.0234
            3057     1.13425E+03     1.13425E+03         1.35673         1.35673         17.7142         17.7142
            3058     1.12707E+03     1.12707E+03     994.908E-03     994.908E-03         21.2758         21.2758
            3059     1.11873E+03     1.11873E+03     420.134E-03     420.134E-03         26.0559         26.0559
            3060     1.10899E+03     1.10899E+03    -564.530E-03    -564.530E-03         32.5654         32.5654
            3061     1.09765E+03     1.09765E+03        -2.33010        -2.33010         41.5891         41.5891
            3062     1.08471E+03     1.08471E+03        -5.63741        -5.63741         54.3311         54.3311
            3063     1.07095E+03     1.07095E+03        -12.0502        -12.0502         72.5405         72.5405
            3064     1.10014E+03     1.10014E+03         322.135         322.135        -32.6241        -32.6241
            3065     1.11059E+03     1.11059E+03         297.472         297.472        -32.5560        -32.5560
            3066     1.12087E+03     1.12087E+03         272.809         272.809        -31.7193        -31.7193
            3067     1.13077E+03     1.13077E+03         248.526         248.526        -30.4281        -30.4281
            3068     1.14014E+03     1.14014E+03         224.878         224.878        -28.7206        -28.7206
            3069     1.14886E+03     1.14886E+03         202.101         202.101        -26.6417        -26.6417
            3070     1.15681E+03     1.15681E+03         180.405         180.405        -24.2660        -24.2660
            3071     1.16391E+03     1.16391E+03         159.957         159.957        -21.6690        -21.6690
            3072     1.17013E+03     1.17013E+03         140.886         140.886        -18.9380        -18.9380
            3073     1.17544E+03     1.17544E+03         123.275         123.275        -16.1536        -16.1536
            3074     1.17985E+03     1.17985E+03         107.167         107.167        -13.3902        -13.3902
            3075     1.18340E+03     1.18340E+03         92.5637         92.5637        -10.7120        -10.7120
            3076     1.18612E+03     1.18612E+03         79.4381         79.4381        -8.16709        -8.16709
            3077     1.18809E+03     1.18809E+03         67.7370         67.7370        -5.79337        -5.79337
            3078     1.18938E+03     1.18938E+03         57.3870         57.3870        -3.61167        -3.61167
            3079     1.19004E+03     1.19004E+03         48.3031         48.3031        -1.63525        -1.63525
            3080     1.19016E+03     1.19016E+03         40.3899         40.3899     136.206E-03     136.206E-03
            3081     1.18979E+03     1.18979E+03         33.5496         33.5496         1.70748         1.70748
            3082     1.18901E+03     1.18901E+03         27.6816         27.6816         3.09221         3.09221
            3083     1.18787E+03     1.18787E+03         22.6877         22.6877         4.30605         4.30605
            3084     1.18642E+03     1.18642E+03         18.4716         18.4716         5.36971         5.36971
            3085     1.18471E+03     1.18471E+03         14.9423         14.9423         6.30456         6.30456
            3086     1.18277E+03     1.18277E+03         12.0125         12.0125         7.13471         7.13471
            3087     1.18063E+03     1.18063E+03         9.60112         9.60112         7.88467         7.88467
            3088     1.17833E+03     1.17833E+03         7.63181         7.63181         8.58093         8.58093
            3089     1.17586E+03     1.17586E+03         6.03395         6.03395         9.25107         9.25107
            3090     1.17325E+03     1.17325E+03         4.74174         4.74174         9.92533         9.92533
            3091     1.17050E+03     1.17050E+03         3.69422         3.69422         10.6368         10.6368
            3092     1.16761E+03     1.16761E+03         2.83435         2.83435         11.4232         11.4232
            3093     1.16457E+03     1.16457E+03         2.10840         2.10840         12.3287         12.3287
            3094     1.16136E+03     1.16136E+03         1.46448         1.46448         13.4061         13.4061
            3095     1.15796E+03     1.15796E+03     850.775E-03     850.775E-03         14.7202         14.7202
            3096     1.15435E+03     1.15435E+03     212.631E-03     212.631E-03         16.3526         16.3526
            3097     1.15051E+03     1.15051E+03    -512.274E-03    -512.274E-03         18.4071         18.4071
            3098     1.14639E+03     1.14639E+03        -1.40072        -1.40072         21.0189         21.0189
            3099     1.14200E+03     1.14200E+03        -2.55730        -2.55730         24.3650         24.3650
            3100     1.13735E+03     1.13735E+03        -4.13228        -4.13228         28.6812         28.6812
            3101     1.13253E+03     1.13253E+03        -6.36018        -6.36018         34.2782         34.2782
            3102     1.12779E+03     1.12779E+03        -9.61052        -9.61052         41.5659         41.5659
            3103     1.12366E+03     1.12366E+03        -14.5035        -14.5035         51.0484         51.0484
            3104     1.12134E+03     1.12134E+03        -22.0563        -22.0563         63.2523         63.2523
            3105     1.12314E+03     1.12314E+03        -33.8208        -33.8208         78.4062         78.4062
            3106     1.10137E+03     1.10137E+03         321.774         321.774        -46.0061        -46.0061
            3107     1.11209E+03     1.11209E+03         296.417         296.417        -45.8420        -45.8420
            3108     1.12260E+03     1.12260E+03         271.051         271.051        -44.5620        -44.5620
            3109     1.13269E+03     1.13269E+03         246.097         246.097        -42.6308        -42.6308
            3110     1.14218E+03     1.14218E+03         221.850         221.850        -40.0935        -40.0935
            3111     1.15093E+03     1.15093E+03         198.578         198.578        -37.0411        -37.0411
            3112     1.15883E+03     1.15883E+03         176.509         176.509        -33.5750        -33.5750
            3113     1.16581E+03     1.16581E+03         155.825         155.825        -29.8242        -29.8242
            3114     1.17183E+03     1.17183E+03         136.649         136.649        -25.9123        -25.9123
            3115     1.17688E+03     1.17688E+03         119.055         119.055        -21.9606        -21.9606
            3116     1.18101E+03     1.18101E+03         103.065         103.065        -18.0756        -18.0756
            3117     1.18425E+03     1.18425E+03         88.6631         88.6631        -14.3422        -14.3422
            3118     1.18668E+03     1.18668E+03         75.7981         75.7981        -10.8283        -10.8283
            3119     1.18836E+03     1.18836E+03         64.3948         64.3948        -7.57620        -7.57620
            3120     1.18939E+03     1.18939E+03         54.3630         54.3630        -4.61455        -4.61455
            3121     1.18984E+03     1.18984E+03         45.5998         45.5998        -1.95075        -1.95075
            3122     1.18978E+03     1.18978E+03         37.9999         37.9999     416.030E-03     416.030E-03
            3123     1.18929E+03     1.18929E+03         31.4538         31.4538         2.50067         2.50067
            3124     1.18842E+03     1.18842E+03         25.8560         25.8560         4.32195         4.32195
            3125     1.18725E+03     1.18725E+03         21.1026         21.1026         5.90639         5.90639
            3126     1.18582E+03     1.18582E+03         17.0955         17.0955         7.28168         7.28168
            3127     1.18416E+03     1.18416E+03         13.7408         13.7408         8.47921         8.47921
            3128     1.18233E+03     1.18233E+03         10.9510         10.9510         9.53030         9.53030
            3129     1.18034E+03     1.18034E+03         8.64341         8.64341         10.4681         10.4681
            3130     1.17823E+03     1.17823E+03         6.74108         6.74108         11.3259         11.3259
            3131     1.17601E+03     1.17601E+03         5.17138         5.17138         12.1386         12.1386
            3132     1.17370E+03     1.17370E+03         3.86628         3.86628         12.9422         12.9422
            3133     1.17132E+03     1.17132E+03         2.76084         2.76084         13.7760         13.7760
            3134     1.16886E+03     1.16886E+03         1.79267         1.79267         14.6827         14.6827
            3135     1.16635E+03     1.16635E+03     900.226E-03     900.226E-03         15.7106         15.7106
            3136     1.16379E+03     1.16379E+03     21.1069E-03     21.1069E-03         16.9153         16.9153
            3137     1.16119E+03     1.16119E+03    -910.704E-03    -910.704E-03         18.3623         18.3623
            3138     1.15857E+03     1.15857E+03        -1.96892        -1.96892         20.1294         20.1294
            3139     1.15597E+03     1.15597E+03        -3.24031        -3.24031         22.3105         22.3105
            3140     1.15346E+03     1.15346E+03        -4.83441        -4.83441         25.0183         25.0183
            3141     1.15112E+03     1.15112E+03        -6.89481        -6.89481         28.3867         28.3867
            3142     1.14916E+03     1.14916E+03        -9.62201        -9.62201         32.5691         32.5691
            3143     1.14788E+03     1.14788E+03        -13.2957        -13.2957         37.7288         37.7288
            3144     1.14782E+03     1.14782E+03        -18.3233        -18.3233         44.0023         44.0023
            3145     1.14985E+03     1.14985E+03        -25.2578        -25.2578         51.4098         51.4098
            3146     1.15540E+03     1.15540E+03        -34.8100        -34.8100         59.6241         59.6241
            3147     1.16659E+03     1.16659E+03        -47.5977        -47.5977         67.6182         67.6182
            3148     1.10316E+03     1.10316E+03         321.281         321.281        -59.7941        -59.7941
            3149     1.11423E+03     1.11423E+03         294.948         294.948        -59.5061        -59.5061
            3150     1.12506E+03     1.12506E+03         268.589         268.589        -57.7280        -57.7280
            3151     1.13539E+03     1.13539E+03         242.699         242.699        -55.0527        -55.0527
            3152     1.14502E+03     1.14502E+03         217.629         217.629        -51.5750        -51.5750
            3153     1.15379E+03     1.15379E+03         193.691         193.691        -47.4101        -47.4101
            3154     1.16158E+03     1.16158E+03         171.146         171.146        -42.7306        -42.7306
            3155     1.16834E+03     1.16834E+03         150.179         150.179        -37.7090        -37.7090
            3156     1.17404E+03     1.17404E+03         130.911         130.911        -32.5278        -32.5278
            3157     1.17871E+03     1.17871E+03         113.390         113.390        -27.3497        -27.3497
            3158     1.18241E+03     1.18241E+03         97.6103         97.6103        -22.3113        -22.3113
            3159     1.18522E+03     1.18522E+03         83.5217         83.5217        -17.5238        -17.5238
            3160     1.18723E+03     1.18723E+03         71.0404         71.0404        -13.0605        -13.0605
            3161     1.18853E+03     1.18853E+03         60.0636         60.0636        -8.97383        -8.97383
            3162     1.18922E+03     1.18922E+03         50.4734         50.4734        -5.28376        -5.28376
            3163     1.18938E+03     1.18938E+03         42.1501         42.1501        -1.99733        -1.99733
            3164     1.18910E+03     1.18910E+03         34.9703         34.9703     899.877E-03     899.877E-03
            3165     1.18845E+03     1.18845E+03         28.8168         28.8168         3.42834         3.42834
            3166     1.18750E+03     1.18750E+03         23.5745         23.5745         5.62023         5.62023
            3167     1.18630E+03     1.18630E+03         19.1369         19.1369         7.50926         7.50926
            3168     1.18489E+03     1.18489E+03         15.4020         15.4020         9.13436         9.13436
            3169     1.18332E+03     1.18332E+03         12.2762         12.2762         10.5338         10.5338
            3170     1.18162E+03     1.18162E+03         9.67068         9.67068         11.7475         11.7475
            3171     1.17983E+03     1.17983E+03         7.50345         7.50345         12.8143         12.8143
            3172     1.17796E+03     1.17796E+03         5.69682         5.69682         13.7736         13.7736
            3173     1.17604E+03     1.17604E+03         4.17808         4.17808         14.6642         14.6642
            3174     1.17409E+03     1.17409E+03         2.87733         2.87733         15.5258         15.5258
            3175     1.17213E+03     1.17213E+03         1.72739         1.72739         16.3992         16.3992
            3176     1.17018E+03     1.17018E+03     661.737E-03     661.737E-03         17.3275         17.3275
            3177     1.16827E+03     1.16827E+03    -386.553E-03    -386.553E-03         18.3566         18.3566
            3178     1.16641E+03     1.16641E+03        -1.48726        -1.48726         19.5370         19.5370
            3179     1.16467E+03     1.16467E+03        -2.71566        -2.71566         20.9238         20.9238
            3180     1.16308E+03     1.16308E+03        -4.15617        -4.15617         22.5777         22.5777
            3181     1.16174E+03     1.16174E+03        -5.90790        -5.90790         24.5637         24.5637
            3182     1.16076E+03     1.16076E+03        -8.09039        -8.09039         26.9489         26.9489
            3183     1.16033E+03     1.16033E+03        -10.8543        -10.8543         29.7939         29.7939
            3184     1.16070E+03     1.16070E+03        -14.3874        -14.3874         33.1374         33.1374
            3185     1.16227E+03     1.16227E+03        -18.9294        -18.9294         36.9630         36.9630
            3186     1.16560E+03     1.16560E+03        -24.7552        -24.7552         41.1351         41.1351
            3187     1.17148E+03     1.17148E+03        -32.1486        -32.1486         45.2855         45.2855
            3188     1.18090E+03     1.18090E+03        -41.2037        -41.2037         48.6313         48.6313
            3189     1.19489E+03     1.19489E+03        -51.5313        -51.5313         49.7566         49.7566
            3190     1.21486E+03     1.21486E+03        -42.7915        -42.7915        -19.3023        -19.3023
            3191     1.20434E+03     1.20434E+03        -39.1024        -39.1024        -24.6182        -24.6182
            3192     1.19512E+03     1.19512E+03        -34.1105        -34.1105        -27.6082        -27.6082
            3193     1.18759E+03     1.18759E+03        -28.7999        -28.7999        -28.8091        -28.8091
            3194     1.18176E+03     1.18176E+03        -23.7698        -23.7698        -28.8404        -28.8404
            3195     1.17747E+03     1.17747E+03        -19.2909        -19.2909        -28.1880        -28.1880
            3196     1.17444E+03     1.17444E+03        -15.4439        -15.4439        -27.1973        -27.1973
            3197     1.17244E+03     1.17244E+03        -12.2045        -12.2045        -26.0818        -26.0818
            3198     1.17125E+03     1.17125E+03        -9.50711        -9.50711        -24.9651        -24.9651
            3199     1.17068E+03     1.17068E+03        -7.26829        -7.26829        -23.9097        -23.9097
            3200     1.17059E+03     1.17059E+03        -5.40291        -5.40291        -22.9395        -22.9395
            3201     1.17088E+03     1.17088E+03        -3.82803        -3.82803        -22.0553        -22.0553
            3202     1.17145E+03     1.17145E+03        -2.46544        -2.46544        -21.2431        -21.2431
            3203     1.17224E+03     1.17224E+03        -1.24135        -1.24135        -20.4808        -20.4808
            3204     1.17321E+03     1.17321E+03    -85.3858E-03    -85.3858E-03        -19.7409        -19.7409
            3205     1.17430E+03     1.17430E+03         1.07004         1.07004        -18.9926        -18.9926
            3206     1.17550E+03     1.17550E+03         2.29173         2.29173        -18.2025        -18.2025
            3207     1.17676E+03     1.17676E+03         3.64579         3.64579        -17.3347        -17.3347
            3208     1.17808E+03     1.17808E+03         5.20039         5.20039        -16.3509        -16.3509
            3209     1.17942E+03     1.17942E+03         7.02494         7.02494        -15.2100        -15.2100
            3210     1.18077E+03     1.18077E+03         9.19403         9.19403        -13.8681        -13.8681
            3211     1.18210E+03     1.18210E+03         11.7851         11.7851        -12.2783        -12.2783
            3212     1.18339E+03     1.18339E+03         14.8847         14.8847        -10.3899        -10.3899
            3213     1.18461E+03     1.18461E+03         18.5834         18.5834        -8.15061        -8.15061
            3214     1.18573E+03     1.18573E+03         22.9855         22.9855        -5.50479        -5.50479
            3215     1.18669E+03     1.18669E+03         28.2000         28.2000        -2.39841        -2.39841
            3216     1.18745E+03     1.18745E+03         34.3555         34.3555         1.22432         1.22432
            3217     1.18793E+03     1.18793E+03         41.5840         41.5840         5.40910         5.40910
            3218     1.18805E+03     1.18805E+03         50.0422         50.0422         10.1997         10.1997
            3219     1.18771E+03     1.18771E+03         59.8867         59.8867         15.6135         15.6135
            3220     1.18679E+03     1.18679E+03         71.2976         71.2976         21.6589         21.6589
            3221     1.18515E+03     1.18515E+03         84.4457         84.4457         28.2922         28.2922
            3222     1.18264E+03     1.18264E+03         99.5067         99.5067         35.4491         35.4491
            3223     1.17911E+03     1.17911E+03         116.628         116.628         42.9857         42.9857
            3224     1.17442E+03     1.17442E+03         135.911         135.911         50.7224         50.7224
            3225     1.16843E+03     1.16843E+03         157.399         157.399         58.4002         58.4002
            3226     1.16113E+03     1.16113E+03         181.011         181.011         65.7162         65.7162
            3227     1.15248E+03     1.15248E+03         206.575         206.575         72.3539         72.3539
            3228     1.14262E+03     1.14262E+03         233.753         233.753         77.9721         77.9721
            3229     1.13174E+03     1.13174E+03         262.109         262.109         82.3387         82.3387
            3230     1.12010E+03     1.12010E+03         291.107         291.107         85.2376         85.2376
            3231     1.10812E+03     1.10812E+03         320.029         320.029         85.8126         85.8126
            3232     1.21517E+03     1.21517E+03        -36.0556        -36.0556        -9.66430        -9.66430
            3233     1.20696E+03     1.20696E+03        -34.5663        -34.5663        -15.6468        -15.6468
            3234     1.19928E+03     1.19928E+03        -31.4710        -31.4710        -19.8072        -19.8072
            3235     1.19250E+03     1.19250E+03        -27.5708        -27.5708        -22.4268        -22.4268
            3236     1.18685E+03     1.18685E+03        -23.4796        -23.4796        -23.8545        -23.8545
            3237     1.18234E+03     1.18234E+03        -19.5691        -19.5691        -24.4542        -24.4542
            3238     1.17888E+03     1.17888E+03        -16.0287        -16.0287        -24.5183        -24.5183
            3239     1.17633E+03     1.17633E+03        -12.9298        -12.9298        -24.2647        -24.2647
            3240     1.17453E+03     1.17453E+03        -10.2729        -10.2729        -23.8380        -23.8380
            3241     1.17337E+03     1.17337E+03        -8.02209        -8.02209        -23.3292        -23.3292
            3242     1.17270E+03     1.17270E+03        -6.12211        -6.12211        -22.7895        -22.7895
            3243     1.17244E+03     1.17244E+03        -4.51013        -4.51013        -22.2433        -22.2433
            3244     1.17250E+03     1.17250E+03        -3.12046        -3.12046        -21.6966        -21.6966
            3245     1.17281E+03     1.17281E+03        -1.88741        -1.88741        -21.1429        -21.1429
            3246     1.17333E+03     1.17333E+03    -746.395E-03    -746.395E-03        -20.5672        -20.5672
            3247     1.17402E+03     1.17402E+03     366.404E-03     366.404E-03        -19.9480        -19.9480
            3248     1.17484E+03     1.17484E+03         1.51376         1.51376        -19.2590        -19.2590
            3249     1.17577E+03     1.17577E+03         2.75922         2.75922        -18.4692        -18.4692
            3250     1.17679E+03     1.17679E+03         4.16655         4.16655        -17.5435        -17.5435
            3251     1.17787E+03     1.17787E+03         5.80291         5.80291        -16.4425        -16.4425
            3252     1.17901E+03     1.17901E+03         7.73729         7.73729        -15.1222        -15.1222
            3253     1.18019E+03     1.18019E+03         10.0457         10.0457        -13.5339        -13.5339
            3254     1.18138E+03     1.18138E+03         12.8075         12.8075        -11.6244        -11.6244
            3255     1.18257E+03     1.18257E+03         16.1143         16.1143        -9.33525        -9.33525
            3256     1.18373E+03     1.18373E+03         20.0623         20.0623        -6.60547        -6.60547
            3257     1.18482E+03     1.18482E+03         24.7670         24.7670        -3.36885        -3.36885
            3258     1.18580E+03     1.18580E+03         30.3491         30.3491     438.302E-03     438.302E-03
            3259     1.18660E+03     1.18660E+03         36.9578         36.9578         4.88318         4.88318
            3260     1.18715E+03     1.18715E+03         44.7462         44.7462         10.0181         10.0181
            3261     1.18735E+03     1.18735E+03         53.9053         53.9053         15.8951         15.8951
            3262     1.18706E+03     1.18706E+03         64.6246         64.6246         22.5259         22.5259
            3263     1.18615E+03     1.18615E+03         77.1321         77.1321         29.9138         29.9138
            3264     1.18442E+03     1.18442E+03         91.6411         91.6411         37.9808         37.9808
            3265     1.18169E+03     1.18169E+03         108.372         108.372         46.6236         46.6236
            3266     1.17772E+03     1.17772E+03         127.505         127.505         55.6180         55.6180
            3267     1.17239E+03     1.17239E+03         149.135         149.135         64.6900         64.6900
            3268     1.16551E+03     1.16551E+03         173.273         173.273         73.4640         73.4640
            3269     1.15710E+03     1.15710E+03         199.726         199.726         81.5040         81.5040
            3270     1.14720E+03     1.14720E+03         228.173         228.173         88.4107         88.4107
            3271     1.13604E+03     1.13604E+03         258.063         258.063         93.7624         93.7624
            3272     1.12397E+03     1.12397E+03         288.731         288.731         97.3582         97.3582
            3273     1.11137E+03     1.11137E+03         319.327         319.327         98.1019         98.1019
            3274     1.21290E+03     1.21290E+03        -29.2886        -29.2886        -2.58596        -2.58596
            3275     1.20684E+03     1.20684E+03        -29.4306        -29.4306        -8.56032        -8.56032
            3276     1.20072E+03     1.20072E+03        -27.8152        -27.8152        -13.2064        -13.2064
            3277     1.19498E+03     1.19498E+03        -25.1758        -25.1758        -16.6278        -16.6278
            3278     1.18988E+03     1.18988E+03        -22.0473        -22.0473        -19.0019        -19.0019
            3279     1.18555E+03     1.18555E+03        -18.8208        -18.8208        -20.5480        -20.5480
            3280     1.18200E+03     1.18200E+03        -15.7376        -15.7376        -21.4843        -21.4843
            3281     1.17919E+03     1.17919E+03        -12.9287        -12.9287        -21.9912        -21.9912
            3282     1.17704E+03     1.17704E+03        -10.4479        -10.4479        -22.2078        -22.2078
            3283     1.17544E+03     1.17544E+03        -8.30013        -8.30013        -22.2315        -22.2315
            3284     1.17433E+03     1.17433E+03        -6.46085        -6.46085        -22.1277        -22.1277
            3285     1.17361E+03     1.17361E+03        -4.88865        -4.88865        -21.9356        -21.9356
            3286     1.17321E+03     1.17321E+03        -3.53319        -3.53319        -21.6760        -21.6760
            3287     1.17308E+03     1.17308E+03        -2.33979        -2.33979        -21.3555        -21.3555
            3288     1.17317E+03     1.17317E+03        -1.25173        -1.25173        -20.9703        -20.9703
            3289     1.17345E+03     1.17345E+03    -211.929E-03    -211.929E-03        -20.5080        -20.5080
            3290     1.17388E+03     1.17388E+03     837.456E-03     837.456E-03        -19.9498        -19.9498
            3291     1.17445E+03     1.17445E+03         1.95420         1.95420        -19.2703        -19.2703
            3292     1.17514E+03     1.17514E+03         3.19812         3.19812        -18.4387        -18.4387
            3293     1.17593E+03     1.17593E+03         4.62989         4.62989        -17.4181        -17.4181
            3294     1.17682E+03     1.17682E+03         6.31509         6.31509        -16.1657        -16.1657
            3295     1.17779E+03     1.17779E+03         8.32170         8.32170        -14.6327        -14.6327
            3296     1.17884E+03     1.17884E+03         10.7271         10.7271        -12.7635        -12.7635
            3297     1.17995E+03     1.17995E+03         13.6128         13.6128        -10.4967        -10.4967
            3298     1.18111E+03     1.18111E+03         17.0765         17.0765        -7.76349        -7.76349
            3299     1.18230E+03     1.18230E+03         21.2217         21.2217        -4.49137        -4.49137
            3300     1.18348E+03     1.18348E+03         26.1788         26.1788    -600.319E-03    -600.319E-03
            3301     1.18460E+03     1.18460E+03         32.0838         32.0838         3.98663         3.98663
            3302     1.18559E+03     1.18559E+03         39.1155         39.1155         9.35279         9.35279
            3303     1.18637E+03     1.18637E+03         47.4558         47.4558         15.5605         15.5605
            3304     1.18681E+03     1.18681E+03         57.3466         57.3466         22.6750         22.6750
            3305     1.18674E+03     1.18674E+03         69.0247         69.0247         30.7012         30.7012
            3306     1.18597E+03     1.18597E+03         82.7908         82.7908         39.6375         39.6375
            3307     1.18423E+03     1.18423E+03         98.9217         98.9217         49.3535         49.3535
            3308     1.18131E+03     1.18131E+03         117.701         117.701         59.6880         59.6880
            3309     1.17685E+03     1.17685E+03         139.350         139.350         70.2915         70.2915
            3310     1.17072E+03     1.17072E+03         163.932         163.932         80.7423         80.7423
            3311     1.16269E+03     1.16269E+03         191.377         191.377         90.5019         90.5019
            3312     1.15289E+03     1.15289E+03         221.280         221.280         98.9474         98.9474
            3313     1.14149E+03     1.14149E+03         253.050         253.050         105.617         105.617
            3314     1.12885E+03     1.12885E+03         285.822         285.822         110.031         110.031
            3315     1.11563E+03     1.11563E+03         318.467         318.467         111.068         111.068
            3316     1.20922E+03     1.20922E+03        -23.0831        -23.0831         2.28676         2.28676
            3317     1.20498E+03     1.20498E+03        -24.2432        -24.2432        -3.20159        -3.20159
            3318     1.20032E+03     1.20032E+03        -23.7194        -23.7194        -7.87641        -7.87641
            3319     1.19567E+03     1.19567E+03        -22.0895        -22.0895        -11.6538        -11.6538
            3320     1.19129E+03     1.19129E+03        -19.8279        -19.8279        -14.5855        -14.5855
            3321     1.18737E+03     1.18737E+03        -17.2883        -17.2883        -16.7800        -16.7800
            3322     1.18397E+03     1.18397E+03        -14.7238        -14.7238        -18.3720        -18.3720
            3323     1.18112E+03     1.18112E+03        -12.2922        -12.2922        -19.4941        -19.4941
            3324     1.17878E+03     1.17878E+03        -10.0807        -10.0807        -20.2595        -20.2595
            3325     1.17692E+03     1.17692E+03        -8.12435        -8.12435        -20.7588        -20.7588
            3326     1.17546E+03     1.17546E+03        -6.42401        -6.42401        -21.0584        -21.0584
            3327     1.17436E+03     1.17436E+03        -4.95821        -4.95821        -21.2050        -21.2050
            3328     1.17357E+03     1.17357E+03        -3.69198        -3.69198        -21.2282        -21.2282
            3329     1.17303E+03     1.17303E+03        -2.58241        -2.58241        -21.1443        -21.1443
            3330     1.17270E+03     1.17270E+03        -1.58247        -1.58247        -20.9586        -20.9586
            3331     1.17257E+03     1.17257E+03    -642.544E-03    -642.544E-03        -20.6671        -20.6671
            3332     1.17260E+03     1.17260E+03     287.812E-03     287.812E-03        -20.2578        -20.2578
            3333     1.17278E+03     1.17278E+03         1.26066         1.26066        -19.7116        -19.7116
            3334     1.17310E+03     1.17310E+03         2.32852         2.32852        -19.0022        -19.0022
            3335     1.17356E+03     1.17356E+03         3.54704         3.54704        -18.0965        -18.0965
            3336     1.17414E+03     1.17414E+03         4.97328         4.97328        -16.9538        -16.9538
            3337     1.17485E+03     1.17485E+03         6.67087         6.67087        -15.5263        -15.5263
            3338     1.17570E+03     1.17570E+03         8.70643         8.70643        -13.7582        -13.7582
            3339     1.17667E+03     1.17667E+03         11.1590         11.1590        -11.5852        -11.5852
            3340     1.17777E+03     1.17777E+03         14.1123         14.1123        -8.93485        -8.93485
            3341     1.17899E+03     1.17899E+03         17.6724         17.6724        -5.72530        -5.72530
            3342     1.18032E+03     1.18032E+03         21.9512         21.9512        -1.86857        -1.86857
            3343     1.18172E+03     1.18172E+03         27.0995         27.0995         2.73393         2.73393
            3344     1.18314E+03     1.18314E+03         33.2733         33.2733         8.17805         8.17805
            3345     1.18452E+03     1.18452E+03         40.6930         40.6930         14.5710         14.5710
            3346     1.18573E+03     1.18573E+03         49.5802         49.5802         21.9910         21.9910
            3347     1.18663E+03     1.18663E+03         60.2523         60.2523         30.5269         30.5269
            3348     1.18699E+03     1.18699E+03         73.0154         73.0154         40.1747         40.1747
            3349     1.18655E+03     1.18655E+03         88.2824         88.2824         50.9323         50.9323
            3350     1.18492E+03     1.18492E+03         106.428         106.428         62.5846         62.5846
            3351     1.18181E+03     1.18181E+03         127.822         127.822         74.8787         74.8787
            3352     1.17670E+03     1.17670E+03         152.737         152.737         87.2629         87.2629
            3353     1.16949E+03     1.16949E+03         181.128         181.128         99.0714         99.0714
            3354     1.15995E+03     1.15995E+03         212.745         212.745         109.549         109.549
            3355     1.14837E+03     1.14837E+03         246.779         246.779         117.820         117.820
            3356     1.13521E+03     1.13521E+03         282.174         282.174         123.443         123.443
            3357     1.12107E+03     1.12107E+03         317.487         317.487         124.805         124.805
            3358     1.20497E+03     1.20497E+03        -17.7342        -17.7342         5.45015         5.45015
            3359     1.20215E+03     1.20215E+03        -19.3809        -19.3809     653.215E-03     653.215E-03
            3360     1.19876E+03     1.19876E+03        -19.5591        -19.5591        -3.74535        -3.74535
            3361     1.19513E+03     1.19513E+03        -18.6834        -18.6834        -7.56690        -7.56690
            3362     1.19152E+03     1.19152E+03        -17.1320        -17.1320        -10.7550        -10.7550
            3363     1.18811E+03     1.18811E+03        -15.2157        -15.2157        -13.3348        -13.3348
            3364     1.18500E+03     1.18500E+03        -13.1663        -13.1663        -15.3708        -15.3708
            3365     1.18225E+03     1.18225E+03        -11.1466        -11.1466        -16.9446        -16.9446
            3366     1.17987E+03     1.17987E+03        -9.25699        -9.25699        -18.1389        -18.1389
            3367     1.17785E+03     1.17785E+03        -7.55103        -7.55103        -19.0270        -19.0270
            3368     1.17615E+03     1.17615E+03        -6.04708        -6.04708        -19.6695        -19.6695
            3369     1.17474E+03     1.17474E+03        -4.73958        -4.73958        -20.1132        -20.1132
            3370     1.17359E+03     1.17359E+03        -3.60696        -3.60696        -20.3922        -20.3922
            3371     1.17266E+03     1.17266E+03        -2.61781        -2.61781        -20.5286        -20.5286
            3372     1.17193E+03     1.17193E+03        -1.73454        -1.73454        -20.5347        -20.5347
            3373     1.17138E+03     1.17138E+03    -916.359E-03    -916.359E-03        -20.4133        -20.4133
            3374     1.17099E+03     1.17099E+03    -120.078E-03    -120.078E-03        -20.1590        -20.1590
            3375     1.17075E+03     1.17075E+03     698.336E-03     698.336E-03        -19.7583        -19.7583
            3376     1.17067E+03     1.17067E+03         1.58506         1.58506        -19.1902        -19.1902
            3377     1.17073E+03     1.17073E+03         2.58703         2.58703        -18.4254        -18.4254
            3378     1.17095E+03     1.17095E+03         3.75538         3.75538        -17.4272        -17.4272
            3379     1.17133E+03     1.17133E+03         5.14306         5.14306        -16.1497        -16.1497
            3380     1.17189E+03     1.17189E+03         6.81150         6.81150        -14.5383        -14.5383
            3381     1.17265E+03     1.17265E+03         8.82559         8.82559        -12.5283        -12.5283
            3382     1.17360E+03     1.17360E+03         11.2664         11.2664        -10.0448        -10.0448
            3383     1.17477E+03     1.17477E+03         14.2202         14.2202        -7.00144        -7.00144
            3384     1.17616E+03     1.17616E+03         17.8033         17.8033        -3.29969        -3.29969
            3385     1.17776E+03     1.17776E+03         22.1379         22.1379         1.16911         1.16911
            3386     1.17955E+03     1.17955E+03         27.4015         27.4015         6.52885         6.52885
            3387     1.18149E+03     1.18149E+03         33.7755         33.7755         12.9032         12.9032
            3388     1.18350E+03     1.18350E+03         41.5391         41.5391         20.4354         20.4354
            3389     1.18543E+03     1.18543E+03         50.9670         50.9670         29.2311         29.2311
            3390     1.18711E+03     1.18711E+03         62.4923         62.4923         39.4213         39.4213
            3391     1.18820E+03     1.18820E+03         76.5222         76.5222         50.9922         50.9922
            3392     1.18835E+03     1.18835E+03         93.6510         93.6510         63.9535         63.9535
            3393     1.18695E+03     1.18695E+03         114.410         114.410         77.9439         77.9439
            3394     1.18361E+03     1.18361E+03         139.281         139.281         92.5524         92.5524
            3395     1.17757E+03     1.17757E+03         168.586         168.586         106.889         106.889
            3396     1.16881E+03     1.16881E+03         201.989         201.989         119.866         119.866
            3397     1.15723E+03     1.15723E+03         238.824         238.824         130.481         130.481
            3398     1.14341E+03     1.14341E+03         277.567         277.567         137.560         137.560
            3399     1.12844E+03     1.12844E+03         316.227         316.227         139.592         139.592
            3400     1.20066E+03     1.20066E+03        -13.2855        -13.2855         7.35954         7.35954
            3401     1.19891E+03     1.19891E+03        -15.0374        -15.0374         3.29202         3.29202
            3402     1.19656E+03     1.19656E+03        -15.5882        -15.5882    -679.337E-03    -679.337E-03
            3403     1.19384E+03     1.19384E+03        -15.2191        -15.2191        -4.33390        -4.33390
            3404     1.19097E+03     1.19097E+03        -14.2134        -14.2134        -7.55629        -7.55629
            3405     1.18810E+03     1.18810E+03        -12.8215        -12.8215        -10.3060        -10.3060
            3406     1.18535E+03     1.18535E+03        -11.2452        -11.2452        -12.5938        -12.5938
            3407     1.18279E+03     1.18279E+03        -9.63257        -9.63257        -14.4579        -14.4579
            3408     1.18045E+03     1.18045E+03        -8.08444        -8.08444        -15.9496        -15.9496
            3409     1.17835E+03     1.17835E+03        -6.66044        -6.66044        -17.1229        -17.1229
            3410     1.17647E+03     1.17647E+03        -5.38899        -5.38899        -18.0280        -18.0280
            3411     1.17480E+03     1.17480E+03        -4.27507        -4.27507        -18.7077        -18.7077
            3412     1.17332E+03     1.17332E+03        -3.30772        -3.30772        -19.1966        -19.1966
            3413     1.17203E+03     1.17203E+03        -2.46516        -2.46516        -19.5201        -19.5201
            3414     1.17089E+03     1.17089E+03        -1.71902        -1.71902        -19.6950        -19.6950
            3415     1.16991E+03     1.16991E+03        -1.03665        -1.03665        -19.7295        -19.7295
            3416     1.16907E+03     1.16907E+03    -383.295E-03    -383.295E-03        -19.6237        -19.6237
            3417     1.16837E+03     1.16837E+03     277.863E-03     277.863E-03        -19.3696        -19.3696
            3418     1.16782E+03     1.16782E+03     984.320E-03     984.320E-03        -18.9510        -18.9510
            3419     1.16743E+03     1.16743E+03         1.77614         1.77614        -18.3440        -18.3440
            3420     1.16722E+03     1.16722E+03         2.69435         2.69435        -17.5153        -17.5153
            3421     1.16719E+03     1.16719E+03         3.78518         3.78518        -16.4234        -16.4234
            3422     1.16738E+03     1.16738E+03         5.09700         5.09700        -15.0160        -15.0160
            3423     1.16781E+03     1.16781E+03         6.68876         6.68876        -13.2310        -13.2310
            3424     1.16851E+03     1.16851E+03         8.62311         8.62311        -10.9931        -10.9931
            3425     1.16951E+03     1.16951E+03         10.9833         10.9833        -8.21501        -8.21501
            3426     1.17083E+03     1.17083E+03         13.8579         13.8579        -4.79305        -4.79305
            3427     1.17251E+03     1.17251E+03         17.3752         17.3752    -608.029E-03    -608.029E-03
            3428     1.17456E+03     1.17456E+03         21.6692         21.6692         4.47673         4.47673
            3429     1.17697E+03     1.17697E+03         26.9513         26.9513         10.6194         10.6194
            3430     1.17970E+03     1.17970E+03         33.4336         33.4336         17.9859         17.9859
            3431     1.18268E+03     1.18268E+03         41.4780         41.4780         26.7747         26.7747
            3432     1.18575E+03     1.18575E+03         51.4296         51.4296         37.1397         37.1397
            3433     1.18864E+03     1.18864E+03         63.9016         63.9016         49.2894         49.2894
            3434     1.19092E+03     1.19092E+03         79.4517         79.4517         63.2036         63.2036
            3435     1.19204E+03     1.19204E+03         98.9857         98.9857         78.9368         78.9368
            3436     1.19100E+03     1.19100E+03         123.304         123.304         95.8538         95.8538
            3437     1.18730E+03     1.18730E+03         153.003         153.003         113.237         113.237
            3438     1.17978E+03     1.17978E+03         188.403         188.403         129.623         129.623
            3439     1.16872E+03     1.16872E+03         228.441         228.441         143.177         143.177
            3440     1.15447E+03     1.15447E+03         271.507         271.507         152.742         152.742
            3441     1.13807E+03     1.13807E+03         314.750         314.750         155.507         155.507
            3442     1.19656E+03     1.19656E+03        -9.66505        -9.66505         8.35231         8.35231
            3443     1.19564E+03     1.19564E+03        -11.2721        -11.2721         4.96744         4.96744
            3444     1.19413E+03     1.19413E+03        -11.9512        -11.9512         1.48147         1.48147
            3445     1.19220E+03     1.19220E+03        -11.8819        -11.8819        -1.88146        -1.88146
            3446     1.19000E+03     1.19000E+03        -11.2657        -11.2657        -4.97612        -4.97612
            3447     1.18766E+03     1.18766E+03        -10.2935        -10.2935        -7.72440        -7.72440
            3448     1.18529E+03     1.18529E+03        -9.12726        -9.12726        -10.0970        -10.0970
            3449     1.18296E+03     1.18296E+03        -7.89317        -7.89317        -12.0990        -12.0990
            3450     1.18070E+03     1.18070E+03        -6.68077        -6.68077        -13.7554        -13.7554
            3451     1.17856E+03     1.17856E+03        -5.54780        -5.54780        -15.1018        -15.1018
            3452     1.17653E+03     1.17653E+03        -4.52517        -4.52517        -16.1767        -16.1767
            3453     1.17463E+03     1.17463E+03        -3.62374        -3.62374        -17.0173        -17.0173
            3454     1.17284E+03     1.17284E+03        -2.83950        -2.83950        -17.6560        -17.6560
            3455     1.17118E+03     1.17118E+03        -2.15848        -2.15848        -18.1194        -18.1194
            3456     1.16962E+03     1.16962E+03        -1.56000        -1.56000        -18.4270        -18.4270
            3457     1.16818E+03     1.16818E+03        -1.01950        -1.01950        -18.5908        -18.5908
            3458     1.16686E+03     1.16686E+03    -509.634E-03    -509.634E-03        -18.6154        -18.6154
            3459     1.16566E+03     1.16566E+03    -1.94705E-03    -1.94705E-03        -18.4975        -18.4975
            3460     1.16459E+03     1.16459E+03     533.827E-03     533.827E-03        -18.2261        -18.2261
            3461     1.16368E+03     1.16368E+03         1.12847         1.12847        -17.7818        -17.7818
            3462     1.16295E+03     1.16295E+03         1.81570         1.81570        -17.1369        -17.1369
            3463     1.16242E+03     1.16242E+03         2.63031         2.63031        -16.2541        -16.2541
            3464     1.16213E+03     1.16213E+03         3.61326         3.61326        -15.0867        -15.0867
            3465     1.16211E+03     1.16211E+03         4.80778         4.80778        -13.5759        -13.5759
            3466     1.16242E+03     1.16242E+03         6.26964         6.26964        -11.6516        -11.6516
            3467     1.16309E+03     1.16309E+03         8.05844         8.05844        -9.22680        -9.22680
            3468     1.16419E+03     1.16419E+03         10.2589         10.2589        -6.20075        -6.20075
            3469     1.16578E+03     1.16578E+03         12.9610         12.9610        -2.44873        -2.44873
            3470     1.16789E+03     1.16789E+03         16.3058         16.3058         2.17291         2.17291
            3471     1.17059E+03     1.17059E+03         20.4384         20.4384         7.83890         7.83890
            3472     1.17389E+03     1.17389E+03         25.6119         25.6119         14.7531         14.7531
            3473     1.17780E+03     1.17780E+03         32.0726         32.0726         23.1462         23.1462
            3474     1.18223E+03     1.18223E+03         40.2976         40.2976         33.3016         33.3016
            3475     1.18703E+03     1.18703E+03         50.7212         50.7212         45.4621         45.4621
            3476     1.19184E+03     1.19184E+03         64.2467         64.2467         59.9799         59.9799
            3477     1.19602E+03     1.19602E+03         81.6564         81.6564         76.8479         76.8479
            3478     1.19873E+03     1.19873E+03         104.440         104.440         96.2574         96.2574
            3479     1.19817E+03     1.19817E+03         133.904         133.904         117.005         117.005
            3480     1.19374E+03     1.19374E+03         170.640         170.640         137.696         137.696
            3481     1.18378E+03     1.18378E+03         214.697         214.697         155.919         155.919
            3482     1.16925E+03     1.16925E+03         263.287         263.287         168.551         168.551
            3483     1.15192E+03     1.15192E+03         312.577         312.577         173.199         173.199
            3484     1.19282E+03     1.19282E+03        -6.75617        -6.75617         8.64157         8.64157
            3485     1.19256E+03     1.19256E+03        -8.07697        -8.07697         5.86327         5.86327
            3486     1.19177E+03     1.19177E+03        -8.71978        -8.71978         2.87185         2.87185
            3487     1.19053E+03     1.19053E+03        -8.79517        -8.79517    -124.534E-03    -124.534E-03
            3488     1.18894E+03     1.18894E+03        -8.43884        -8.43884        -2.97504        -2.97504
            3489     1.18710E+03     1.18710E+03        -7.78784        -7.78784        -5.58230        -5.58230
            3490     1.18509E+03     1.18509E+03        -6.96410        -6.96410        -7.89434        -7.89434
            3491     1.18298E+03     1.18298E+03        -6.06616        -6.06616        -9.89297        -9.89297
            3492     1.18082E+03     1.18082E+03        -5.16728        -5.16728        -11.5840        -11.5840
            3493     1.17865E+03     1.17865E+03        -4.31638        -4.31638        -12.9880        -12.9880
            3494     1.17648E+03     1.17648E+03        -3.54208        -3.54208        -14.1331        -14.1331
            3495     1.17434E+03     1.17434E+03        -2.85652        -2.85652        -15.0501        -15.0501
            3496     1.17224E+03     1.17224E+03        -2.25984        -2.25984        -15.7685        -15.7685
            3497     1.17019E+03     1.17019E+03        -1.74348        -1.74348        -16.3142        -16.3142
            3498     1.16819E+03     1.16819E+03        -1.29335        -1.29335        -16.7077        -16.7077
            3499     1.16626E+03     1.16626E+03    -891.590E-03    -891.590E-03        -16.9638        -16.9638
            3500     1.16441E+03     1.16441E+03    -518.390E-03    -518.390E-03        -17.0901        -17.0901
            3501     1.16265E+03     1.16265E+03    -152.279E-03    -152.279E-03        -17.0875        -17.0875
            3502     1.16101E+03     1.16101E+03     228.721E-03     228.721E-03        -16.9492        -16.9492
            3503     1.15950E+03     1.15950E+03     648.203E-03     648.203E-03        -16.6612        -16.6612
            3504     1.15816E+03     1.15816E+03         1.13020         1.13020        -16.2007        -16.2007
            3505     1.15702E+03     1.15702E+03         1.70190         1.70190        -15.5372        -15.5372
            3506     1.15613E+03     1.15613E+03         2.39168         2.39168        -14.6292        -14.6292
            3507     1.15553E+03     1.15553E+03         3.23458         3.23458        -13.4263        -13.4263
            3508     1.15529E+03     1.15529E+03         4.26808         4.26808        -11.8632        -11.8632
            3509     1.15546E+03     1.15546E+03         5.54340         5.54340        -9.86329        -9.86329
            3510     1.15613E+03     1.15613E+03         7.11580         7.11580        -7.32760        -7.32760
            3511     1.15738E+03     1.15738E+03         9.06920         9.06920        -4.14244        -4.14244
            3512     1.15931E+03     1.15931E+03         11.4926         11.4926    -158.564E-03    -158.564E-03
            3513     1.16202E+03     1.16202E+03         14.5379         14.5379         4.79448         4.79448
            3514     1.16561E+03     1.16561E+03         18.3585         18.3585         10.9423         10.9423
            3515     1.17015E+03     1.17015E+03         23.2533         23.2533         18.5462         18.5462
            3516     1.17574E+03     1.17574E+03         29.5025         29.5025         27.9381         27.9381
            3517     1.18231E+03     1.18231E+03         37.7374         37.7374         39.5268         39.5268
            3518     1.18976E+03     1.18976E+03         48.4983         48.4983         53.7262         53.7262
            3519     1.19759E+03     1.19759E+03         63.1663         63.1663         71.1551         71.1551
            3520     1.20496E+03     1.20496E+03         82.8535         82.8535         91.8988         91.8988
            3521     1.21037E+03     1.21037E+03         110.271         110.271         116.551         116.551
            3522     1.21022E+03     1.21022E+03         147.780         147.780         142.590         142.590
            3523     1.20417E+03     1.20417E+03         195.305         195.305         166.912         166.912
            3524     1.19024E+03     1.19024E+03         251.542         251.542         185.778         185.778
            3525     1.17073E+03     1.17073E+03         309.732         309.732         192.438         192.438
            3526     1.18951E+03     1.18951E+03        -4.44533        -4.44533         8.32568         8.32568
            3527     1.18987E+03     1.18987E+03        -5.41813        -5.41813         6.08397         6.08397
            3528     1.18972E+03     1.18972E+03        -5.93042        -5.93042         3.58358         3.58358
            3529     1.18911E+03     1.18911E+03        -6.04630        -6.04630         1.00671         1.00671
            3530     1.18807E+03     1.18807E+03        -5.85226        -5.85226        -1.50482        -1.50482
            3531     1.18669E+03     1.18669E+03        -5.43979        -5.43979        -3.85116        -3.85116
            3532     1.18501E+03     1.18501E+03        -4.89350        -4.89350        -5.97046        -5.97046
            3533     1.18310E+03     1.18310E+03        -4.28398        -4.28398        -7.83266        -7.83266
            3534     1.18102E+03     1.18102E+03        -3.66489        -3.66489        -9.43137        -9.43137
            3535     1.17879E+03     1.17879E+03        -3.07352        -3.07352        -10.7768        -10.7768
            3536     1.17647E+03     1.17647E+03        -2.53236        -2.53236        -11.8889        -11.8889
            3537     1.17407E+03     1.17407E+03        -2.05218        -2.05218        -12.7928        -12.7928
            3538     1.17163E+03     1.17163E+03        -1.63457        -1.63457        -13.5144        -13.5144
            3539     1.16916E+03     1.16916E+03        -1.27479        -1.27479        -14.0777        -14.0777
            3540     1.16668E+03     1.16668E+03    -963.642E-03    -963.642E-03        -14.5032        -14.5032
            3541     1.16422E+03     1.16422E+03    -689.290E-03    -689.290E-03        -14.8063        -14.8063
            3542     1.16179E+03     1.16179E+03    -438.048E-03    -438.048E-03        -14.9969        -14.9969
            3543     1.15942E+03     1.15942E+03    -195.496E-03    -195.496E-03        -15.0787        -15.0787
            3544     1.15712E+03     1.15712E+03     53.8012E-03     53.8012E-03        -15.0490        -15.0490
            3545     1.15494E+03     1.15494E+03     325.456E-03     325.456E-03        -14.8979        -14.8979
            3546     1.15290E+03     1.15290E+03     636.531E-03     636.531E-03        -14.6091        -14.6091
            3547     1.15104E+03     1.15104E+03         1.00454         1.00454        -14.1576        -14.1576
            3548     1.14942E+03     1.14942E+03         1.45005         1.45005        -13.5112        -13.5112
            3549     1.14809E+03     1.14809E+03         1.99494         1.99494        -12.6263        -12.6263
            3550     1.14711E+03     1.14711E+03         2.66742         2.66742        -11.4507        -11.4507
            3551     1.14657E+03     1.14657E+03         3.49857         3.49857        -9.91482        -9.91482
            3552     1.14657E+03     1.14657E+03         4.53255         4.53255        -7.93883        -7.93883
            3553     1.14721E+03     1.14721E+03         5.81868         5.81868        -5.41337        -5.41337
            3554     1.14862E+03     1.14862E+03         7.43488         7.43488        -2.21558        -2.21558
            3555     1.15097E+03     1.15097E+03         9.46635         9.46635         1.82998         1.82998
            3556     1.15441E+03     1.15441E+03         12.0666         12.0666         6.91816         6.91816
            3557     1.15916E+03     1.15916E+03         15.3929         15.3929         13.3395         13.3395
            3558     1.16537E+03     1.16537E+03         19.7819         19.7819         21.4192         21.4192
            3559     1.17330E+03     1.17330E+03         25.5413         25.5413         31.6446         31.6446
            3560     1.18298E+03     1.18298E+03         33.4900         33.4900         44.5962         44.5962
            3561     1.19453E+03     1.19453E+03         44.2760         44.2760         61.0237         61.0237
            3562     1.20732E+03     1.20732E+03         60.0701         60.0701         82.0265         82.0265
            3563     1.22034E+03     1.22034E+03         82.4257         82.4257         108.080         108.080
            3564     1.23071E+03     1.23071E+03         116.953         116.953         140.966         140.966
            3565     1.23029E+03     1.23029E+03         168.381         168.381         174.766         174.766
            3566     1.22028E+03     1.22028E+03         233.115         233.115         201.635         201.635
            3567     1.20083E+03     1.20083E+03         304.409         304.409         215.269         215.269
            3568     1.18672E+03     1.18672E+03        -2.64496        -2.64496         7.40317         7.40317
            3569     1.18772E+03     1.18772E+03        -3.26968        -3.26968         5.65596         5.65596
            3570     1.18822E+03     1.18822E+03        -3.61379        -3.61379         3.65767         3.65767
            3571     1.18821E+03     1.18821E+03        -3.71174        -3.71174         1.55810         1.55810
            3572     1.18770E+03     1.18770E+03        -3.61347        -3.61347    -521.102E-03    -521.102E-03
            3573     1.18672E+03     1.18672E+03        -3.37431        -3.37431        -2.48959        -2.48959
            3574     1.18533E+03     1.18533E+03        -3.04660        -3.04660        -4.28783        -4.28783
            3575     1.18358E+03     1.18358E+03        -2.67488        -2.67488        -5.88310        -5.88310
            3576     1.18151E+03     1.18151E+03        -2.29378        -2.29378        -7.26414        -7.26414
            3577     1.17919E+03     1.17919E+03        -1.92761        -1.92761        -8.43516        -8.43516
            3578     1.17666E+03     1.17666E+03        -1.59160        -1.59160        -9.41053        -9.41053
            3579     1.17396E+03     1.17396E+03        -1.29326        -1.29326        -10.2102        -10.2102
            3580     1.17113E+03     1.17113E+03        -1.03433        -1.03433        -10.8560        -10.8560
            3581     1.16819E+03     1.16819E+03    -812.268E-03    -812.268E-03        -11.3691        -11.3691
            3582     1.16519E+03     1.16519E+03    -621.771E-03    -621.771E-03        -11.7682        -11.7682
            3583     1.16214E+03     1.16214E+03    -455.594E-03    -455.594E-03        -12.0681        -12.0681
            3584     1.15907E+03     1.15907E+03    -305.582E-03    -305.582E-03        -12.2791        -12.2791
            3585     1.15602E+03     1.15602E+03    -162.757E-03    -162.757E-03        -12.4067        -12.4067
            3586     1.15300E+03     1.15300E+03    -18.0039E-03    -18.0039E-03        -12.4506        -12.4506
            3587     1.15006E+03     1.15006E+03     138.446E-03     138.446E-03        -12.4057        -12.4057
            3588     1.14723E+03     1.14723E+03     316.436E-03     316.436E-03        -12.2603        -12.2603
            3589     1.14454E+03     1.14454E+03     526.977E-03     526.977E-03        -11.9972        -11.9972
            3590     1.14206E+03     1.14206E+03     781.649E-03     781.649E-03        -11.5914        -11.5914
            3591     1.13983E+03     1.13983E+03         1.09435         1.09435        -11.0118        -11.0118
            3592     1.13794E+03     1.13794E+03         1.48073         1.48073        -10.2156        -10.2156
            3593     1.13646E+03     1.13646E+03         1.96089         1.96089        -9.15317        -9.15317
            3594     1.13552E+03     1.13552E+03         2.55917         2.55917        -7.75522        -7.75522
            3595     1.13523E+03     1.13523E+03         3.30881         3.30881        -5.94449        -5.94449
            3596     1.13575E+03     1.13575E+03         4.25197         4.25197        -3.60679        -3.60679
            3597     1.13726E+03     1.13726E+03         5.45119         5.45119    -619.108E-03    -619.108E-03
            3598     1.14002E+03     1.14002E+03         6.98552         6.98552         3.21604         3.21604
            3599     1.14427E+03     1.14427E+03         8.98970         8.98970         8.10492         8.10492
            3600     1.15039E+03     1.15039E+03         11.6206         11.6206         14.4116         14.4116
            3601     1.15872E+03     1.15872E+03         15.2148         15.2148         22.5112         22.5112
            3602     1.16980E+03     1.16980E+03         20.0998         20.0998         33.1154         33.1154
            3603     1.18396E+03     1.18396E+03         27.2600         27.2600         46.9943         46.9943
            3604     1.20190E+03     1.20190E+03         37.4298         37.4298         65.5494         65.5494
            3605     1.22308E+03     1.22308E+03         53.9961         53.9961         90.6547         90.6547
            3606     1.24710E+03     1.24710E+03         78.9527         78.9527         124.231         124.231
            3607     1.26781E+03     1.26781E+03         125.646         125.646         171.533         171.533
            3608     1.26479E+03     1.26479E+03         203.850         203.850         217.310         217.310
            3609     1.24485E+03     1.24485E+03         295.192         295.192         238.315         238.315
            3610     1.18456E+03     1.18456E+03        -1.31129        -1.31129         5.78016         5.78016
            3611     1.18632E+03     1.18632E+03        -1.63708        -1.63708         4.53323         4.53323
            3612     1.18753E+03     1.18753E+03        -1.82137        -1.82137         3.08620         3.08620
            3613     1.18813E+03     1.18813E+03        -1.87949        -1.87949         1.54976         1.54976
            3614     1.18811E+03     1.18811E+03        -1.83612        -1.83612     15.7902E-03     15.7902E-03
            3615     1.18749E+03     1.18749E+03        -1.71903        -1.71903        -1.44573        -1.44573
            3616     1.18632E+03     1.18632E+03        -1.55495        -1.55495        -2.78743        -2.78743
            3617     1.18465E+03     1.18465E+03        -1.36698        -1.36698        -3.98223        -3.98223
            3618     1.18253E+03     1.18253E+03        -1.17316        -1.17316        -5.01967        -5.01967
            3619     1.18004E+03     1.18004E+03    -986.374E-03    -986.374E-03        -5.90167        -5.90167
            3620     1.17723E+03     1.17723E+03    -814.695E-03    -814.695E-03        -6.63842        -6.63842
            3621     1.17415E+03     1.17415E+03    -662.308E-03    -662.308E-03        -7.24486        -7.24486
            3622     1.17086E+03     1.17086E+03    -530.239E-03    -530.239E-03        -7.73785        -7.73785
            3623     1.16739E+03     1.16739E+03    -417.407E-03    -417.407E-03        -8.13399        -8.13399
            3624     1.16380E+03     1.16380E+03    -321.117E-03    -321.117E-03        -8.44825        -8.44825
            3625     1.16010E+03     1.16010E+03    -237.859E-03    -237.859E-03        -8.69284        -8.69284
            3626     1.15634E+03     1.15634E+03    -163.420E-03    -163.420E-03        -8.87682        -8.87682
            3627     1.15255E+03     1.15255E+03    -93.4610E-03    -93.4610E-03        -9.00544        -9.00544
            3628     1.14874E+03     1.14874E+03    -23.2616E-03    -23.2616E-03        -9.08040        -9.08040
            3629     1.14496E+03     1.14496E+03     51.8156E-03     51.8156E-03        -9.09905        -9.09905
            3630     1.14124E+03     1.14124E+03     136.836E-03     136.836E-03        -9.05513        -9.05513
            3631     1.13762E+03     1.13762E+03     236.972E-03     236.972E-03        -8.93726        -8.93726
            3632     1.13414E+03     1.13414E+03     358.033E-03     358.033E-03        -8.73042        -8.73042
            3633     1.13087E+03     1.13087E+03     506.690E-03     506.690E-03        -8.41261        -8.41261
            3634     1.12787E+03     1.12787E+03     690.372E-03     690.372E-03        -7.95800        -7.95800
            3635     1.12523E+03     1.12523E+03     919.350E-03     919.350E-03        -7.32966        -7.32966
            3636     1.12307E+03     1.12307E+03         1.20427         1.20427        -6.48664        -6.48664
            3637     1.12150E+03     1.12150E+03         1.56349         1.56349        -5.36749        -5.36749
            3638     1.12071E+03     1.12071E+03         2.01420         2.01420        -3.90753        -3.90753
            3639     1.12089E+03     1.12089E+03         2.59273         2.59273        -1.99962        -1.99962
            3640     1.12230E+03     1.12230E+03         3.33146         3.33146     462.197E-03     462.197E-03
            3641     1.12528E+03     1.12528E+03         4.30696         4.30696         3.68026         3.68026
            3642     1.13024E+03     1.13024E+03         5.59555         5.59555         7.83982         7.83982
            3643     1.13776E+03     1.13776E+03         7.36467         7.36467         13.3630         13.3630
            3644     1.14849E+03     1.14849E+03         9.84888         9.84888         20.6098         20.6098
            3645     1.16350E+03     1.16350E+03         13.4229         13.4229         30.5635         30.5635
            3646     1.18379E+03     1.18379E+03         19.0155         19.0155         44.0640         44.0640
            3647     1.21149E+03     1.21149E+03         27.4860         27.4860         63.6708         63.6708
            3648     1.24718E+03     1.24718E+03         43.5668         43.5668         92.0808         92.0808
            3649     1.29461E+03     1.29461E+03         69.4929         69.4929         136.126         136.126
            3650     1.34114E+03     1.34114E+03         140.730         140.730         210.125         210.125
            3651     1.33318E+03     1.33318E+03         272.062         272.062         271.846         271.846
            3652     1.18322E+03     1.18322E+03    -459.938E-03    -459.938E-03         3.29308         3.29308
            3653     1.18592E+03     1.18592E+03    -578.688E-03    -578.688E-03         2.61795         2.61795
            3654     1.18794E+03     1.18794E+03    -646.913E-03    -646.913E-03         1.82959         1.82959
            3655     1.18919E+03     1.18919E+03    -669.683E-03    -669.683E-03     989.429E-03     989.429E-03
            3656     1.18964E+03     1.18964E+03    -655.702E-03    -655.702E-03     148.751E-03     148.751E-03
            3657     1.18933E+03     1.18933E+03    -614.804E-03    -614.804E-03    -653.288E-03    -653.288E-03
            3658     1.18828E+03     1.18828E+03    -556.665E-03    -556.665E-03        -1.38995        -1.38995
            3659     1.18658E+03     1.18658E+03    -489.578E-03    -489.578E-03        -2.04589        -2.04589
            3660     1.18430E+03     1.18430E+03    -420.163E-03    -420.163E-03        -2.61519        -2.61519
            3661     1.18152E+03     1.18152E+03    -353.071E-03    -353.071E-03        -3.09891        -3.09891
            3662     1.17832E+03     1.17832E+03    -291.331E-03    -291.331E-03        -3.50291        -3.50291
            3663     1.17477E+03     1.17477E+03    -236.433E-03    -236.433E-03        -3.83574        -3.83574
            3664     1.17094E+03     1.17094E+03    -188.862E-03    -188.862E-03        -4.10708        -4.10708
            3665     1.16687E+03     1.16687E+03    -148.178E-03    -148.178E-03        -4.32654        -4.32654
            3666     1.16261E+03     1.16261E+03    -113.537E-03    -113.537E-03        -4.50280        -4.50280
            3667     1.15821E+03     1.15821E+03    -83.5913E-03    -83.5913E-03        -4.64311        -4.64311
            3668     1.15369E+03     1.15369E+03    -56.9931E-03    -56.9931E-03        -4.75288        -4.75288
            3669     1.14909E+03     1.14909E+03    -32.0565E-03    -32.0565E-03        -4.83567        -4.83567
            3670     1.14443E+03     1.14443E+03    -7.31125E-03    -7.31125E-03        -4.89281        -4.89281
            3671     1.13974E+03     1.13974E+03     19.0518E-03     19.0518E-03        -4.92380        -4.92380
            3672     1.13505E+03     1.13505E+03     48.6026E-03     48.6026E-03        -4.92560        -4.92560
            3673     1.13039E+03     1.13039E+03     83.2537E-03     83.2537E-03        -4.89343        -4.89343
            3674     1.12581E+03     1.12581E+03     124.991E-03     124.991E-03        -4.81935        -4.81935
            3675     1.12135E+03     1.12135E+03     175.825E-03     175.825E-03        -4.69376        -4.69376
            3676     1.11707E+03     1.11707E+03     239.037E-03     239.037E-03        -4.50238        -4.50238
            3677     1.11306E+03     1.11306E+03     316.473E-03     316.473E-03        -4.22942        -4.22942
            3678     1.10940E+03     1.10940E+03     414.889E-03     414.889E-03        -3.85088        -3.85088
            3679     1.10623E+03     1.10623E+03     534.855E-03     534.855E-03        -3.34200        -3.34200
            3680     1.10370E+03     1.10370E+03     692.039E-03     692.039E-03        -2.66120        -2.66120
            3681     1.10200E+03     1.10200E+03     882.380E-03     882.380E-03        -1.76936        -1.76936
            3682     1.10140E+03     1.10140E+03         1.14419         1.14419    -588.431E-03    -588.431E-03
            3683     1.10221E+03     1.10221E+03         1.46031         1.46031     945.218E-03     945.218E-03
            3684     1.10489E+03     1.10489E+03         1.92672         1.92672         2.99598         2.99598
            3685     1.11002E+03     1.11002E+03         2.49623         2.49623         5.67169         5.67169
            3686     1.11841E+03     1.11841E+03         3.41329         3.41329         9.37031         9.37031
            3687     1.13119E+03     1.13119E+03         4.59180         4.59180         14.2882         14.2882
            3688     1.15014E+03     1.15014E+03         6.66720         6.66720         21.5615         21.5615
            3689     1.17760E+03     1.17760E+03         9.75072         9.75072         31.6319         31.6319
            3690     1.21852E+03     1.21852E+03         15.5675         15.5675         48.5319         48.5319
            3691     1.27805E+03     1.27805E+03         27.8019         27.8019         74.1526         74.1526
            3692     1.37683E+03     1.37683E+03         52.1088         52.1088         129.292         129.292
            3693     1.50274E+03     1.50274E+03         184.563         184.563         238.663         238.663
            3694         69.2743         69.2743        -522.438        -522.438        -65.8374        -65.8374
            3695         250.013         250.013        -212.807        -212.807        -170.758        -170.758
            3696         485.085         485.085        -66.3269        -66.3269        -185.080        -185.080
            3697         705.442         705.442        -11.0062        -11.0062        -152.618        -152.618
            3698         877.403         877.403         3.99033         3.99033        -107.933        -107.933
            3699         220.122         220.122        -386.109        -386.109        -150.338        -150.338
            3700         483.840         483.840        -213.717        -213.717        -298.214        -298.214
            3701         717.991         717.991        -125.870        -125.870        -295.544        -295.544
            3702         892.189         892.189        -78.1251        -78.1251        -229.488        -229.488
            3703     1.00843E+03     1.00843E+03        -49.3496        -49.3496        -155.842        -155.842
            3704         470.402         470.402        -220.778        -220.778        -248.397        -248.397
            3705         797.149         797.149        -215.631        -215.631        -349.552        -349.552
            3706         988.541         988.541        -180.612        -180.612        -303.175        -303.175
            3707     1.08774E+03     1.08774E+03        -132.552        -132.552        -217.098        -217.098
            3708     1.13598E+03     1.13598E+03        -89.0919        -89.0919        -139.414        -139.414
            3709         799.022         799.022        -73.9262        -73.9262        -331.402        -331.402
            3710     1.10493E+03     1.10493E+03        -207.326        -207.326        -317.227        -317.227
            3711     1.20813E+03     1.20813E+03        -199.214        -199.214        -234.650        -234.650
            3712     1.22674E+03     1.22674E+03        -148.793        -148.793        -153.529        -153.529
            3713     1.21796E+03     1.21796E+03        -98.7186        -98.7186        -92.5121        -92.5121
            3714     1.31601E+03     1.31601E+03         147.565         147.565         52.6300         52.6300
            3715     1.42461E+03     1.42461E+03         226.966         226.966         61.2982         61.2982
            3716     1.61919E+03     1.61919E+03         308.443         308.443         42.8680         42.8680
            3717     1.95698E+03     1.95698E+03         350.542         350.542        -36.2572        -36.2572
            3718     2.50535E+03     2.50535E+03         287.894         287.894        -213.197        -213.197
            3719     1.33074E+03     1.33074E+03         54.6569         54.6569         62.8875         62.8875
            3720     1.43143E+03     1.43143E+03         100.059         100.059         74.2824         74.2824
            3721     1.59009E+03     1.59009E+03         165.046         165.046         48.8865         48.8865
            3722     1.83935E+03     1.83935E+03         238.710         238.710        -71.2880        -71.2880
            3723     2.22820E+03     2.22820E+03         284.711         284.711        -364.687        -364.687
            3724     1.32606E+03     1.32606E+03        -28.9727        -28.9727         33.2722         33.2722
            3725     1.41484E+03     1.41484E+03        -25.1275        -25.1275         35.7189         35.7189
            3726     1.53586E+03     1.53586E+03         3.65972         3.65972         7.22542         7.22542
            3727     1.68505E+03     1.68505E+03         85.6333         85.6333        -112.173        -112.173
            3728     1.86123E+03     1.86123E+03         245.137         245.137        -430.117        -430.117
            3729     1.29829E+03     1.29829E+03        -73.8440        -73.8440        -8.41303        -8.41303
            3730     1.36885E+03     1.36885E+03        -102.517        -102.517        -24.2740        -24.2740
            3731     1.45427E+03     1.45427E+03        -116.357        -116.357        -64.5308        -64.5308
            3732     1.51995E+03     1.51995E+03        -63.7878        -63.7878        -167.917        -167.917
            3733     1.48652E+03     1.48652E+03         155.948         155.948        -425.957        -425.957
            3734         853.966         853.966        -51.5253        -51.5253         343.834         343.834
            3735     1.15190E+03     1.15190E+03        -205.283        -205.283         308.787         308.787
            3736     1.23954E+03     1.23954E+03        -200.345        -200.345         221.327         221.327
            3737     1.24554E+03     1.24554E+03        -149.565        -149.565         141.959         141.959
            3738     1.22852E+03     1.22852E+03        -98.8564        -98.8564         84.2434         84.2434
            3739         568.450         568.450        -167.877        -167.877         279.679         279.679
            3740         903.213         903.213        -215.761        -215.761         351.223         351.223
            3741     1.07169E+03     1.07169E+03        -193.555        -193.555         290.120         290.120
            3742     1.14391E+03     1.14391E+03        -144.332        -144.332         201.481         201.481
            3743     1.17079E+03     1.17079E+03        -97.0396        -97.0396         126.494         126.494
            3744         329.174         329.174        -305.997        -305.997         198.140         198.140
            3745         632.528         632.528        -216.009        -216.009         337.623         337.623
            3746         853.862         853.862        -157.182        -157.182         316.003         316.003
            3747         994.590         994.590        -110.630        -110.630         236.582         236.582
            3748     1.07725E+03     1.07725E+03        -73.9064        -73.9064         156.534         156.534
            3749         154.930         154.930        -443.303        -443.303         118.526         118.526
            3750         388.624         388.624        -214.711        -214.711         265.140         265.140
            3751         626.553         626.553        -104.467        -104.467         273.970         273.970
            3752         821.141         821.141        -54.5724        -54.5724         218.965         218.965
            3753         959.736         959.736        -31.1435        -31.1435         151.596         151.596
            3754         51.9974         51.9974        -546.908        -546.908         52.9623         52.9623
            3755         219.497         219.497        -215.287        -215.287         145.574         145.574
            3756         451.359         451.359        -58.2195        -58.2195         160.340         160.340
            3757         676.066         676.066    -39.5885E-03    -39.5885E-03         133.873         133.873
            3758         855.590         855.590         13.4449         13.4449         95.6491         95.6491
            3759     1.29970E+03     1.29970E+03        -75.8274        -75.8274         11.1028         11.1028
            3760     1.37014E+03     1.37014E+03        -104.217        -104.217         26.3105         26.3105
            3761     1.45544E+03     1.45544E+03        -117.742        -117.742         66.0540         66.0540
            3762     1.52128E+03     1.52128E+03        -64.8653        -64.8653         169.101         169.101
            3763     1.48822E+03     1.48822E+03         155.232         155.232         426.971         426.971
            3764     1.32711E+03     1.32711E+03        -30.4776        -30.4776        -30.7261        -30.7261
            3765     1.41581E+03     1.41581E+03        -26.3366        -26.3366        -33.7696        -33.7696
            3766     1.53677E+03     1.53677E+03         2.81921         2.81921        -5.75998        -5.75998
            3767     1.68611E+03     1.68611E+03         85.1986         85.1986         113.237         113.237
            3768     1.86286E+03     1.86286E+03         245.268         245.268         431.073         431.073
            3769     1.33141E+03     1.33141E+03         53.6953         53.6953        -60.4329        -60.4329
            3770     1.43204E+03     1.43204E+03         99.3793         99.3793        -72.3237        -72.3237
            3771     1.59064E+03     1.59064E+03         164.723         164.723        -47.3510        -47.3510
            3772     1.84004E+03     1.84004E+03         238.823         238.823         72.5012         72.5012
            3773     2.22954E+03     2.22954E+03         285.108         285.108         365.708         365.708
            3774     1.31633E+03     1.31633E+03         147.118         147.118        -50.1873        -50.1873
            3775     1.42487E+03     1.42487E+03         226.700         226.700        -59.2550        -59.2550
            3776     1.61942E+03     1.61942E+03         308.423         308.423        -41.1412        -41.1412
            3777     1.95731E+03     1.95731E+03         350.758         350.758         37.7099         37.7099
            3778     2.50612E+03     2.50612E+03         288.171         288.171         214.233         214.233
            3779     1.42708E+03     1.42708E+03         140.496         140.496        -423.149        -423.149
            3780     1.49373E+03     1.49373E+03        -86.7631        -86.7631        -178.302        -178.302
            3781     1.44089E+03     1.44089E+03        -133.918        -133.918        -78.1472        -78.1472
            3782     1.36143E+03     1.36143E+03        -113.799        -113.799        -36.2064        -36.2064
            3783     1.29432E+03     1.29432E+03        -81.0002        -81.0002        -17.8542        -17.8542
            3784     1.73568E+03     1.73568E+03         224.343         224.343        -439.010        -439.010
            3785     1.63206E+03     1.63206E+03         33.6853         33.6853        -129.299        -129.299
            3786     1.51381E+03     1.51381E+03        -44.9932        -44.9932        -14.7074        -14.7074
            3787     1.40494E+03     1.40494E+03        -60.3528        -60.3528         15.2991         15.2991
            3788     1.32124E+03     1.32124E+03        -51.7902        -51.7902         17.1164         17.1164
            3789     2.05510E+03     2.05510E+03         273.599         273.599        -412.982        -412.982
            3790     1.76707E+03     1.76707E+03         166.609         166.609        -91.6263        -91.6263
            3791     1.56828E+03     1.56828E+03         82.3383         82.3383         33.7535         33.7535
            3792     1.42916E+03     1.42916E+03         31.6991         31.6991         60.0149         60.0149
            3793     1.33378E+03     1.33378E+03         6.53112         6.53112         50.4450         50.4450
            3794     2.34302E+03     2.34302E+03         289.301         289.301        -328.637        -328.637
            3795     1.88814E+03     1.88814E+03         284.753         284.753        -61.6447        -61.6447
            3796     1.60416E+03     1.60416E+03         220.480         220.480         51.9612         51.9612
            3797     1.43207E+03     1.43207E+03         146.801         146.801         76.8654         76.8654
            3798     1.32828E+03     1.32828E+03         87.3387         87.3387         64.7219         64.7219
            3799     2.54711E+03     2.54711E+03         285.741         285.741        -184.047        -184.047
            3800     1.97568E+03     1.97568E+03         364.175         364.175        -32.3457        -32.3457
            3801     1.62417E+03     1.62417E+03         328.660         328.660         36.6824         36.6824
            3802     1.42327E+03     1.42327E+03         246.416         246.416         53.2559         53.2559
            3803     1.31311E+03     1.31311E+03         162.589         162.589         45.5986         45.5986
            3804     1.29807E+03     1.29807E+03        -74.0748        -74.0748         8.64683         8.64683
            3805     1.36853E+03     1.36853E+03        -102.849        -102.849         24.6253         24.6253
            3806     1.45381E+03     1.45381E+03        -116.753        -116.753         64.9925         64.9925
            3807     1.51945E+03     1.51945E+03        -64.3138        -64.3138         168.399         168.399
            3808     1.48604E+03     1.48604E+03         155.072         155.072         426.085         426.085
            3809     1.32594E+03     1.32594E+03        -29.3203        -29.3203        -33.0420        -33.0420
            3810     1.41463E+03     1.41463E+03        -25.5528        -25.5528        -35.3657        -35.3657
            3811     1.53551E+03     1.53551E+03         3.21281         3.21281        -6.75961        -6.75961
            3812     1.68445E+03     1.68445E+03         85.1574         85.1574         112.555         112.555
            3813     1.86039E+03     1.86039E+03         244.822         244.822         430.146         430.146
            3814     1.33074E+03     1.33074E+03         54.2089         54.2089        -62.6724        -62.6724
            3815     1.43133E+03     1.43133E+03         99.6005         99.6005        -73.9062        -73.9062
            3816     1.58979E+03     1.58979E+03         164.620         164.620        -48.4343        -48.4343
            3817     1.83868E+03     1.83868E+03         238.397         238.397         71.7267         71.7267
            3818     2.22691E+03     2.22691E+03         284.497         284.497         364.890         364.890
            3819     1.31616E+03     1.31616E+03         147.060         147.060        -52.5026        -52.5026
            3820     1.42467E+03     1.42467E+03         226.430         226.430        -60.9901        -60.9901
            3821     1.61895E+03     1.61895E+03         308.088         308.088        -42.3828        -42.3828
            3822     1.95627E+03     1.95627E+03         350.552         350.552         36.7310         36.7310
            3823     2.50367E+03     2.50367E+03         288.116         288.116         213.369         213.369
            3824         855.490         855.490        -52.2414        -52.2414         344.525         344.525
            3825     1.15379E+03     1.15379E+03        -206.724        -206.724         309.654         309.654
            3826     1.24152E+03     1.24152E+03        -202.094        -202.094         222.482         222.482
            3827     1.24766E+03     1.24766E+03        -151.618        -151.618         143.579         143.579
            3828     1.23085E+03     1.23085E+03        -101.319        -101.319         86.5508         86.5508
            3829         569.545         569.545        -169.103        -169.103         280.244         280.244
            3830         904.890         904.890        -217.454        -217.454         352.141         352.141
            3831     1.07363E+03     1.07363E+03        -195.491        -195.491         291.250         291.250
            3832     1.14612E+03     1.14612E+03        -146.542        -146.542         202.921         202.921
            3833     1.17336E+03     1.17336E+03        -99.6691        -99.6691         128.460         128.460
            3834         329.841         329.841        -307.788        -307.788         198.543         198.543
            3835         633.810         633.810        -217.900        -217.900         338.521         338.521
            3836         855.593         855.593        -159.218        -159.218         317.077         317.077
            3837         996.747         996.747        -112.932        -112.932         237.831         237.831
            3838     1.07994E+03     1.07994E+03        -76.6520        -76.6520         158.133         158.133
            3839         155.223         155.223        -445.652        -445.652         118.785         118.785
            3840         389.443         389.443        -216.744        -216.744         265.892         265.892
            3841         627.937         627.937        -106.516        -106.516         274.873         274.873
            3842         823.127         823.127        -56.8824        -56.8824         219.951         219.951
            3843         962.436         962.436        -33.9367        -33.9367         152.770         152.770
            3844         52.0339         52.0339        -549.688        -549.688         53.1128         53.1128
            3845         219.923         219.923        -217.409        -217.409         146.052         146.052
            3846         452.401         452.401        -60.2324        -60.2324         160.911         160.911
            3847         677.836         677.836        -2.30323        -2.30323         134.466         134.466
            3848         858.224         858.224         10.6599         10.6599         96.3084         96.3084
            3849     1.22024E+03     1.22024E+03        -101.169        -101.169        -94.7493        -94.7493
            3850     1.22871E+03     1.22871E+03        -150.792        -150.792        -155.117        -155.117
            3851     1.20978E+03     1.20978E+03        -200.863        -200.863        -235.771        -235.771
            3852     1.10634E+03     1.10634E+03        -208.737        -208.737        -317.905        -317.905
            3853         800.100         800.100        -74.9654        -74.9654        -331.680        -331.680
            3854     1.13850E+03     1.13850E+03        -91.7232        -91.7232        -141.209        -141.209
            3855     1.08975E+03     1.08975E+03        -134.723        -134.723        -218.423        -218.423
            3856         990.123         990.123        -182.512        -182.512        -304.178        -304.178
            3857         798.356         798.356        -217.429        -217.429        -350.270        -350.270
            3858         471.032         471.032        -222.496        -222.496        -248.626        -248.626
            3859     1.01103E+03     1.01103E+03        -52.0701        -52.0701        -157.126        -157.126
            3860         894.072         894.072        -80.3613        -80.3613        -230.478        -230.478
            3861         719.290         719.290        -127.863        -127.863        -296.360        -296.360
            3862         484.593         484.593        -215.726        -215.726        -298.818        -298.818
            3863         220.355         220.355        -388.449        -388.449        -150.431        -150.431
            3864         879.974         879.974         1.24495         1.24495        -108.590        -108.590
            3865         707.146         707.146        -13.2321        -13.2321        -153.135        -153.135
            3866         486.059         486.059        -68.3141        -68.3141        -185.512        -185.512
            3867         250.376         250.376        -214.929        -214.929        -171.062        -171.062
            3868         69.2613         69.2613        -525.243        -525.243        -65.8258        -65.8258


  Minimum               -19.4430        -19.4430        -826.060        -826.060        -660.211        -660.211
         At Node              28              28              28              28             590             590

  Maximum            2.98663E+03     2.98663E+03         391.523         391.523         656.241         656.241
         At Node              27              27             585             585             574             574

           Total     4.54141E+06     4.54141E+06     73.3060E+03     73.3060E+03     2.18151E+03     2.18151E+03


