********************************************************************************
Field Output Report, written Sat Feb 24 11:10:48 2024

Source 1
---------

   ODB: C:/Users/Isabel Haycock/OneDrive - Imperial College London/Fourth Year/FYP/Isabel Haycock/06 - FE models/Specimen_2/Plate_hole_1.odb
   Step: load
   Frame: Increment      9: Step Time =   0.6429

Loc 1 : Nodal values at shell < composite > < elset = ASSEMBLY_PLATE_1-1_COMPOSITELAYUP-1-1 > from source 1 : SNEG, (fraction = -1.0), Layer = 1
Loc 2 : Nodal values at shell < composite > < elset = ASSEMBLY_PLATE_1-1_COMPOSITELAYUP-1-1 > from source 1 : SPOS, (fraction = 1.0), Layer = 8

Output sorted by column "Node Label".

Field Output reported at nodes for part: PLATE_1-1
   Computation algorithm: EXTRAPOLATE_COMPUTE_AVERAGE
   Averaged at nodes
   Averaging regions: ODB_REGIONS

      Node Label           S.S11           S.S11           S.S22           S.S22           S.S12           S.S12
                          @Loc 1          @Loc 2          @Loc 1          @Loc 2          @Loc 1          @Loc 2
-----------------------------------------------------------------------------------------------------------------
               1     1.10679E+03     1.10679E+03        -51.3907        -51.3907        -22.8475        -22.8475
               2     1.05293E+03     1.05293E+03         1.42319         1.42319    -65.3336E-03    -65.3336E-03
               3     1.05311E+03     1.05311E+03     7.09285E-03     7.09285E-03    -7.34598E-03    -7.34598E-03
               4     1.06479E+03     1.06479E+03    -65.9748E-03    -65.9748E-03         2.22305         2.22305
               5     1.10725E+03     1.10725E+03        -51.2095        -51.2095         22.0252         22.0252
               6     1.05293E+03     1.05293E+03         1.42339         1.42339     65.3275E-03     65.3275E-03
               7         848.430         848.430         23.5172         23.5172        -3.25906        -3.25906
               8     1.06094E+03     1.06094E+03    -80.6542E-03    -80.6542E-03        -1.87199        -1.87199
               9     1.10905E+03     1.10905E+03        -53.5235        -53.5235         25.0440         25.0440
              10     1.12661E+03     1.12661E+03         110.630         110.630         1.25920         1.25920
              11     1.06500E+03     1.06500E+03    -68.7259E-03    -68.7259E-03        -2.22279        -2.22279
              12     1.05311E+03     1.05311E+03     7.09440E-03     7.09440E-03     7.34760E-03     7.34760E-03
              13         990.051         990.051         301.056         301.056        -65.5920        -65.5920
              14     1.60920E+03     1.60920E+03         222.504         222.504        -259.991        -259.991
              15     1.10785E+03     1.10785E+03        -53.8611        -53.8611        -26.5162        -26.5162
              16     1.06107E+03     1.06107E+03    -84.1317E-03    -84.1317E-03         1.87378         1.87378
              17     1.12619E+03     1.12619E+03         112.024         112.024        -3.20106        -3.20106
              18         990.057         990.057         301.047         301.047         65.5768         65.5768
              19         851.577         851.577         20.4705         20.4705        -3.25479        -3.25479
              20     1.60920E+03     1.60920E+03         222.504         222.504         259.990         259.990
              21        -17.3596        -17.3596        -741.360        -741.360     623.850E-03     623.850E-03
              22         873.757         873.757         200.706         200.706        -428.673        -428.673
              23     2.68431E+03     2.68431E+03         170.220         170.220     301.460E-03     301.460E-03
              24         887.249         887.249         206.540         206.540         434.637         434.637
              25         888.845         888.845         206.783         206.783         435.493         435.493
              26         857.930         857.930         197.948         197.948        -424.146        -424.146
              27     2.68956E+03     2.68956E+03         168.368         168.368         12.5325         12.5325
              28        -17.4818        -17.4818        -744.571        -744.571     678.648E-03     678.648E-03
              29     1.08620E+03     1.08620E+03        -41.2330        -41.2330        -26.6954        -26.6954
              30     1.07423E+03     1.07423E+03        -34.6813        -34.6813        -29.2401        -29.2401
              31     1.06475E+03     1.06475E+03        -27.8050        -27.8050        -29.3275        -29.3275
              32     1.05770E+03     1.05770E+03        -21.5003        -21.5003        -27.9532        -27.9532
              33     1.05269E+03     1.05269E+03        -16.0724        -16.0724        -25.8590        -25.8590
              34     1.04926E+03     1.04926E+03        -11.5564        -11.5564        -23.5196        -23.5196
              35     1.04700E+03     1.04700E+03        -7.86080        -7.86080        -21.1999        -21.1999
              36     1.04561E+03     1.04561E+03        -4.86872        -4.86872        -19.0312        -19.0312
              37     1.04482E+03     1.04482E+03        -2.46427        -2.46427        -17.0684        -17.0684
              38     1.04448E+03     1.04448E+03    -547.205E-03    -547.205E-03        -15.3231        -15.3231
              39     1.04445E+03     1.04445E+03     967.086E-03     967.086E-03        -13.7855        -13.7855
              40     1.04463E+03     1.04463E+03         2.14815         2.14815        -12.4353        -12.4353
              41     1.04495E+03     1.04495E+03         3.05332         3.05332        -11.2492        -11.2492
              42     1.04537E+03     1.04537E+03         3.72994         3.72994        -10.2038        -10.2038
              43     1.04585E+03     1.04585E+03         4.21735         4.21735        -9.27791        -9.27791
              44     1.04636E+03     1.04636E+03         4.54851         4.54851        -8.45275        -8.45275
              45     1.04688E+03     1.04688E+03         4.75122         4.75122        -7.71255        -7.71255
              46     1.04740E+03     1.04740E+03         4.84902         4.84902        -7.04418        -7.04418
              47     1.04791E+03     1.04791E+03         4.86194         4.86194        -6.43695        -6.43695
              48     1.04840E+03     1.04840E+03         4.80702         4.80702        -5.88221        -5.88221
              49     1.04886E+03     1.04886E+03         4.69879         4.69879        -5.37303        -5.37303
              50     1.04930E+03     1.04930E+03         4.54962         4.54962        -4.90390        -4.90390
              51     1.04971E+03     1.04971E+03         4.36999         4.36999        -4.47038        -4.47038
              52     1.05009E+03     1.05009E+03         4.16876         4.16876        -4.06890        -4.06890
              53     1.05044E+03     1.05044E+03         3.95341         3.95341        -3.69654        -3.69654
              54     1.05076E+03     1.05076E+03         3.73018         3.73018        -3.35089        -3.35089
              55     1.05105E+03     1.05105E+03         3.50427         3.50427        -3.02987        -3.02987
              56     1.05131E+03     1.05131E+03         3.27996         3.27996        -2.73165        -2.73165
              57     1.05155E+03     1.05155E+03         3.06078         3.06078        -2.45461        -2.45461
              58     1.05177E+03     1.05177E+03         2.84958         2.84958        -2.19721        -2.19721
              59     1.05196E+03     1.05196E+03         2.64865         2.64865        -1.95800        -1.95800
              60     1.05213E+03     1.05213E+03         2.45983         2.45983        -1.73558        -1.73558
              61     1.05228E+03     1.05228E+03         2.28454         2.28454        -1.52855        -1.52855
              62     1.05241E+03     1.05241E+03         2.12389         2.12389        -1.33553        -1.33553
              63     1.05253E+03     1.05253E+03         1.97873         1.97873        -1.15516        -1.15516
              64     1.05262E+03     1.05262E+03         1.84968         1.84968    -986.043E-03    -986.043E-03
              65     1.05271E+03     1.05271E+03         1.73721         1.73721    -826.798E-03    -826.798E-03
              66     1.05278E+03     1.05278E+03         1.64165         1.64165    -676.027E-03    -676.027E-03
              67     1.05283E+03     1.05283E+03         1.56322         1.56322    -532.328E-03    -532.328E-03
              68     1.05287E+03     1.05287E+03         1.50208         1.50208    -394.292E-03    -394.292E-03
              69     1.05290E+03     1.05290E+03         1.45834         1.45834    -260.509E-03    -260.509E-03
              70     1.05292E+03     1.05292E+03         1.43200         1.43200    -129.919E-03    -129.919E-03
              71     1.05305E+03     1.05305E+03         1.28127         1.28127    -70.8102E-03    -70.8102E-03
              72     1.05317E+03     1.05317E+03         1.13900         1.13900    -74.1484E-03    -74.1484E-03
              73     1.05328E+03     1.05328E+03     991.866E-03     991.866E-03    -75.7679E-03    -75.7679E-03
              74     1.05338E+03     1.05338E+03     843.341E-03     843.341E-03    -75.5814E-03    -75.5814E-03
              75     1.05347E+03     1.05347E+03     697.004E-03     697.004E-03    -73.5561E-03    -73.5561E-03
              76     1.05353E+03     1.05353E+03     556.469E-03     556.469E-03    -69.6888E-03    -69.6888E-03
              77     1.05357E+03     1.05357E+03     425.308E-03     425.308E-03    -64.0295E-03    -64.0295E-03
              78     1.05358E+03     1.05358E+03     306.961E-03     306.961E-03    -56.6590E-03    -56.6590E-03
              79     1.05355E+03     1.05355E+03     204.637E-03     204.637E-03    -47.7323E-03    -47.7323E-03
              80     1.05348E+03     1.05348E+03     121.237E-03     121.237E-03    -37.4095E-03    -37.4095E-03
              81     1.05337E+03     1.05337E+03     59.1962E-03     59.1962E-03    -26.0031E-03    -26.0031E-03
              82     1.05321E+03     1.05321E+03     20.4377E-03     20.4377E-03    -13.7216E-03    -13.7216E-03
              83     1.05313E+03     1.05313E+03     7.24115E-03     7.24115E-03    -13.4740E-03    -13.4740E-03
              84     1.05316E+03     1.05316E+03     7.45241E-03     7.45241E-03    -26.3977E-03    -26.3977E-03
              85     1.05323E+03     1.05323E+03     7.66405E-03     7.66405E-03    -40.2055E-03    -40.2055E-03
              86     1.05332E+03     1.05332E+03     8.02307E-03     8.02307E-03    -54.6012E-03    -54.6012E-03
              87     1.05345E+03     1.05345E+03     8.48537E-03     8.48537E-03    -69.8408E-03    -69.8408E-03
              88     1.05360E+03     1.05360E+03     9.04882E-03     9.04882E-03    -86.1348E-03    -86.1348E-03
              89     1.05379E+03     1.05379E+03     9.71592E-03     9.71592E-03    -103.699E-03    -103.699E-03
              90     1.05401E+03     1.05401E+03     10.4805E-03     10.4805E-03    -122.747E-03    -122.747E-03
              91     1.05428E+03     1.05428E+03     11.3428E-03     11.3428E-03    -143.489E-03    -143.489E-03
              92     1.05458E+03     1.05458E+03     12.2957E-03     12.2957E-03    -166.132E-03    -166.132E-03
              93     1.05494E+03     1.05494E+03     13.3341E-03     13.3341E-03    -190.875E-03    -190.875E-03
              94     1.05534E+03     1.05534E+03     14.4473E-03     14.4473E-03    -217.906E-03    -217.906E-03
              95     1.05580E+03     1.05580E+03     15.6224E-03     15.6224E-03    -247.393E-03    -247.393E-03
              96     1.05632E+03     1.05632E+03     16.8406E-03     16.8406E-03    -279.480E-03    -279.480E-03
              97     1.05691E+03     1.05691E+03     18.0772E-03     18.0772E-03    -314.274E-03    -314.274E-03
              98     1.05757E+03     1.05757E+03     19.2997E-03     19.2997E-03    -351.831E-03    -351.831E-03
              99     1.05831E+03     1.05831E+03     20.4645E-03     20.4645E-03    -392.141E-03    -392.141E-03
             100     1.05912E+03     1.05912E+03     21.5179E-03     21.5179E-03    -435.104E-03    -435.104E-03
             101     1.06003E+03     1.06003E+03     22.3865E-03     22.3865E-03    -480.504E-03    -480.504E-03
             102     1.06103E+03     1.06103E+03     22.9851E-03     22.9851E-03    -527.975E-03    -527.975E-03
             103     1.06212E+03     1.06212E+03     23.1963E-03     23.1963E-03    -576.962E-03    -576.962E-03
             104     1.06331E+03     1.06331E+03     22.8910E-03     22.8910E-03    -626.672E-03    -626.672E-03
             105     1.06460E+03     1.06460E+03     21.8903E-03     21.8903E-03    -676.016E-03    -676.016E-03
             106     1.06599E+03     1.06599E+03     20.0108E-03     20.0108E-03    -723.550E-03    -723.550E-03
             107     1.06747E+03     1.06747E+03     16.9964E-03     16.9964E-03    -767.401E-03    -767.401E-03
             108     1.06902E+03     1.06902E+03     12.6090E-03     12.6090E-03    -805.200E-03    -805.200E-03
             109     1.07065E+03     1.07065E+03     6.51605E-03     6.51605E-03    -834.015E-03    -834.015E-03
             110     1.07231E+03     1.07231E+03    -1.54645E-03    -1.54645E-03    -850.298E-03    -850.298E-03
             111     1.07400E+03     1.07400E+03    -11.9392E-03    -11.9392E-03    -849.867E-03    -849.867E-03
             112     1.07566E+03     1.07566E+03    -24.8646E-03    -24.8646E-03    -827.932E-03    -827.932E-03
             113     1.07725E+03     1.07725E+03    -40.5634E-03    -40.5634E-03    -779.227E-03    -779.227E-03
             114     1.07871E+03     1.07871E+03    -58.9909E-03    -58.9909E-03    -698.194E-03    -698.194E-03
             115     1.07998E+03     1.07998E+03    -79.9634E-03    -79.9634E-03    -579.437E-03    -579.437E-03
             116     1.08097E+03     1.08097E+03    -102.888E-03    -102.888E-03    -418.179E-03    -418.179E-03
             117     1.08159E+03     1.08159E+03    -126.702E-03    -126.702E-03    -211.177E-03    -211.177E-03
             118     1.08175E+03     1.08175E+03    -149.910E-03    -149.910E-03     42.4604E-03     42.4604E-03
             119     1.08137E+03     1.08137E+03    -170.185E-03    -170.185E-03     339.979E-03     339.979E-03
             120     1.08037E+03     1.08037E+03    -184.985E-03    -184.985E-03     673.964E-03     673.964E-03
             121     1.07868E+03     1.07868E+03    -190.936E-03    -190.936E-03         1.03128         1.03128
             122     1.07628E+03     1.07628E+03    -185.040E-03    -185.040E-03         1.39254         1.39254
             123     1.07318E+03     1.07318E+03    -164.525E-03    -164.525E-03         1.73268         1.73268
             124     1.06946E+03     1.06946E+03    -127.499E-03    -127.499E-03         2.02014         2.02014
             125     1.06571E+03     1.06571E+03    -192.117E-03    -192.117E-03         4.09996         4.09996
             126     1.06774E+03     1.06774E+03    -560.388E-03    -560.388E-03         7.37401         7.37401
             127     1.07012E+03     1.07012E+03        -1.16676        -1.16676         9.80050         9.80050
             128     1.07282E+03     1.07282E+03        -2.05056        -2.05056         11.5772         11.5772
             129     1.07584E+03     1.07584E+03        -3.30206        -3.30206         12.8317         12.8317
             130     1.07924E+03     1.07924E+03        -5.05834        -5.05834         13.6045         13.6045
             131     1.08306E+03     1.08306E+03        -7.50332        -7.50332         13.8390         13.8390
             132     1.08733E+03     1.08733E+03        -10.8642        -10.8642         13.3606         13.3606
             133     1.09200E+03     1.09200E+03        -15.3958        -15.3958         11.8312         11.8312
             134     1.09682E+03     1.09682E+03        -21.3137        -21.3137         8.71035         8.71035
             135     1.10113E+03     1.10113E+03        -28.6618        -28.6618         3.22933         3.22933
             136     1.10362E+03     1.10362E+03        -37.0056        -37.0056        -5.42488        -5.42488
             137     1.08676E+03     1.08676E+03        -41.1229        -41.1229         25.8709         25.8709
             138     1.07488E+03     1.07488E+03        -34.7178        -34.7178         28.5650         28.5650
             139     1.06542E+03     1.06542E+03        -27.9490        -27.9490         28.8237         28.8237
             140     1.05833E+03     1.05833E+03        -21.6984        -21.6984         27.6121         27.6121
             141     1.05324E+03     1.05324E+03        -16.2813        -16.2813         25.6480         25.6480
             142     1.04973E+03     1.04973E+03        -11.7502        -11.7502         23.4025         23.4025
             143     1.04739E+03     1.04739E+03        -8.02895        -8.02895         21.1453         21.1453
             144     1.04592E+03     1.04592E+03        -5.00946        -5.00946         19.0169         19.0169
             145     1.04508E+03     1.04508E+03        -2.57949        -2.57949         17.0788         17.0788
             146     1.04469E+03     1.04469E+03    -640.505E-03    -640.505E-03         15.3480         15.3480
             147     1.04461E+03     1.04461E+03     891.991E-03     891.991E-03         13.8182         13.8182
             148     1.04476E+03     1.04476E+03         2.08775         2.08775         12.4716         12.4716
             149     1.04506E+03     1.04506E+03         3.00466         3.00466         11.2864         11.2864
             150     1.04546E+03     1.04546E+03         3.69053         3.69053         10.2403         10.2403
             151     1.04592E+03     1.04592E+03         4.18524         4.18524         9.31269         9.31269
             152     1.04642E+03     1.04642E+03         4.52214         4.52214         8.48525         8.48525
             153     1.04693E+03     1.04693E+03         4.72937         4.72937         7.74249         7.74249
             154     1.04744E+03     1.04744E+03         4.83076         4.83076         7.07146         7.07146
             155     1.04794E+03     1.04794E+03         4.84654         4.84654         6.46158         6.46158
             156     1.04843E+03     1.04843E+03         4.79394         4.79394         5.90427         5.90427
             157     1.04889E+03     1.04889E+03         4.68761         4.68761         5.39266         5.39266
             158     1.04932E+03     1.04932E+03         4.54000         4.54000         4.92124         4.92124
             159     1.04973E+03     1.04973E+03         4.36169         4.36169         4.48561         4.48561
             160     1.05010E+03     1.05010E+03         4.16159         4.16159         4.08220         4.08220
             161     1.05045E+03     1.05045E+03         3.94720         3.94720         3.70808         3.70808
             162     1.05077E+03     1.05077E+03         3.72481         3.72481         3.36084         3.36084
             163     1.05106E+03     1.05106E+03         3.49962         3.49962         3.03839         3.03839
             164     1.05132E+03     1.05132E+03         3.27596         3.27596         2.73891         2.73891
             165     1.05156E+03     1.05156E+03         3.05735         3.05735         2.46074         2.46074
             166     1.05177E+03     1.05177E+03         2.84666         2.84666         2.20234         2.20234
             167     1.05196E+03     1.05196E+03         2.64618         2.64618         1.96226         1.96226
             168     1.05213E+03     1.05213E+03         2.45775         2.45775         1.73907         1.73907
             169     1.05228E+03     1.05228E+03         2.28282         2.28282         1.53138         1.53138
             170     1.05241E+03     1.05241E+03         2.12248         2.12248         1.33780         1.33780
             171     1.05253E+03     1.05253E+03         1.97759         1.97759         1.15695         1.15695
             172     1.05263E+03     1.05263E+03         1.84879         1.84879     987.426E-03     987.426E-03
             173     1.05271E+03     1.05271E+03         1.73654         1.73654     827.841E-03     827.841E-03
             174     1.05278E+03     1.05278E+03         1.64118         1.64118     676.789E-03     676.789E-03
             175     1.05283E+03     1.05283E+03         1.56294         1.56294     532.859E-03     532.859E-03
             176     1.05287E+03     1.05287E+03         1.50197         1.50197     394.635E-03     394.635E-03
             177     1.05290E+03     1.05290E+03         1.45837         1.45837     260.698E-03     260.698E-03
             178     1.05292E+03     1.05292E+03         1.43216         1.43216     129.975E-03     129.975E-03
             179     1.05279E+03     1.05279E+03         1.56724         1.56724     57.1890E-03     57.1890E-03
             180     1.05267E+03     1.05267E+03         1.69704         1.69704     46.7292E-03     46.7292E-03
             181     1.05258E+03     1.05258E+03         1.79861         1.79861     34.6272E-03     34.6272E-03
             182     1.05251E+03     1.05251E+03         1.86839         1.86839     21.3073E-03     21.3073E-03
             183     1.05247E+03     1.05247E+03         1.90389         1.90389     7.23444E-03     7.23444E-03
             184     1.05247E+03     1.05247E+03         1.90385         1.90385    -7.09984E-03    -7.09984E-03
             185     1.05251E+03     1.05251E+03         1.86831         1.86831    -21.1923E-03    -21.1923E-03
             186     1.05258E+03     1.05258E+03         1.79851         1.79851    -34.5545E-03    -34.5545E-03
             187     1.05267E+03     1.05267E+03         1.69689         1.69689    -46.7029E-03    -46.7029E-03
             188     1.05280E+03     1.05280E+03         1.56705         1.56705    -57.1780E-03    -57.1780E-03
             189         871.730         871.730         12.2292         12.2292         57.6239         57.6239
             190         934.323         934.323        -16.2809        -16.2809         90.6116         90.6116
             191     1.00351E+03     1.00351E+03        -43.1717        -43.1717         92.3077         92.3077
             192     1.05709E+03     1.05709E+03        -57.4443        -57.4443         73.4945         73.4945
             193     1.08893E+03     1.08893E+03        -58.6593        -58.6593         48.3299         48.3299
             194     1.08312E+03     1.08312E+03        -58.5595        -58.5595        -53.3274        -53.3274
             195     1.03723E+03     1.03723E+03        -52.5340        -52.5340        -81.5457        -81.5457
             196         963.240         963.240        -27.7862        -27.7862        -92.6071        -92.6071
             197         885.505         885.505         5.87719         5.87719        -64.9549        -64.9549
             198     1.06194E+03     1.06194E+03    -234.934E-03    -234.934E-03        -3.41778        -3.41778
             199     1.06419E+03     1.06419E+03    -684.315E-03    -684.315E-03        -6.05170        -6.05170
             200     1.06688E+03     1.06688E+03        -1.41761        -1.41761        -7.89174        -7.89174
             201     1.06996E+03     1.06996E+03        -2.46612        -2.46612        -9.15044        -9.15044
             202     1.07344E+03     1.07344E+03        -3.91223        -3.91223        -9.96445        -9.96445
             203     1.07732E+03     1.07732E+03        -5.88539        -5.88539        -10.3808        -10.3808
             204     1.08166E+03     1.08166E+03        -8.56241        -8.56241        -10.3472        -10.3472
             205     1.08647E+03     1.08647E+03        -12.1636        -12.1636        -9.69065        -9.69065
             206     1.09167E+03     1.09167E+03        -16.9376        -16.9376        -8.07289        -8.07289
             207     1.09701E+03     1.09701E+03        -23.0941        -23.0941        -4.94975        -4.94975
             208     1.10181E+03     1.10181E+03        -30.6713        -30.6713     453.221E-03     453.221E-03
             209     1.10475E+03     1.10475E+03        -39.2352        -39.2352         8.96770         8.96770
             210     1.13196E+03     1.13196E+03        -46.8556        -46.8556         2.46642         2.46642
             211     1.14652E+03     1.14652E+03        -21.6287        -21.6287        -22.2245        -22.2245
             212     1.14647E+03     1.14647E+03         27.8874         27.8874        -39.9142        -39.9142
             213     1.13436E+03     1.13436E+03         84.4647         84.4647        -32.5524        -32.5524
             214     1.13408E+03     1.13408E+03         84.9512         84.9512         35.0931         35.0931
             215     1.14590E+03     1.14590E+03         28.8739         28.8739         42.5326         42.5326
             216     1.14564E+03     1.14564E+03        -20.1496        -20.1496         24.9903         24.9903
             217     1.13075E+03     1.13075E+03        -44.9168        -44.9168     506.155E-03     506.155E-03
             218     1.05897E+03     1.05897E+03     26.3019E-03     26.3019E-03         2.27855         2.27855
             219     1.05291E+03     1.05291E+03     134.840E-03     134.840E-03         2.09271         2.09271
             220     1.04774E+03     1.04774E+03     235.347E-03     235.347E-03         1.63039         1.63039
             221     1.04418E+03     1.04418E+03     306.334E-03     306.334E-03     940.682E-03     940.682E-03
             222     1.04270E+03     1.04270E+03     331.111E-03     331.111E-03     123.825E-03     123.825E-03
             223     1.04348E+03     1.04348E+03     303.295E-03     303.295E-03    -688.751E-03    -688.751E-03
             224     1.04634E+03     1.04634E+03     229.278E-03     229.278E-03        -1.36561        -1.36561
             225     1.05074E+03     1.05074E+03     125.804E-03     125.804E-03        -1.80656        -1.80656
             226     1.05597E+03     1.05597E+03     14.3079E-03     14.3079E-03        -1.96245        -1.96245
             227     1.10344E+03     1.10344E+03        -37.0824        -37.0824         5.54462         5.54462
             228     1.10100E+03     1.10100E+03        -28.7416        -28.7416        -3.14278        -3.14278
             229     1.09672E+03     1.09672E+03        -21.3992        -21.3992        -8.63619        -8.63619
             230     1.09193E+03     1.09193E+03        -15.4873        -15.4873        -11.7655        -11.7655
             231     1.08729E+03     1.08729E+03        -10.9581        -10.9581        -13.3048        -13.3048
             232     1.08304E+03     1.08304E+03        -7.59342        -7.59342        -13.7949        -13.7949
             233     1.07924E+03     1.07924E+03        -5.13816        -5.13816        -13.5720        -13.5720
             234     1.07587E+03     1.07587E+03        -3.36671        -3.36671        -12.8087        -12.8087
             235     1.07287E+03     1.07287E+03        -2.09781        -2.09781        -11.5606        -11.5606
             236     1.07020E+03     1.07020E+03        -1.19675        -1.19675        -9.78795        -9.78795
             237     1.06786E+03     1.06786E+03    -576.152E-03    -576.152E-03        -7.36459        -7.36459
             238     1.06589E+03     1.06589E+03    -198.373E-03    -198.373E-03        -4.09597        -4.09597
             239     1.06952E+03     1.06952E+03    -127.335E-03    -127.335E-03        -2.01791        -2.01791
             240     1.07323E+03     1.07323E+03    -164.671E-03    -164.671E-03        -1.72987        -1.72987
             241     1.07632E+03     1.07632E+03    -185.059E-03    -185.059E-03        -1.38966        -1.38966
             242     1.07872E+03     1.07872E+03    -190.990E-03    -190.990E-03        -1.02839        -1.02839
             243     1.08041E+03     1.08041E+03    -184.926E-03    -184.926E-03    -671.144E-03    -671.144E-03
             244     1.08141E+03     1.08141E+03    -170.119E-03    -170.119E-03    -337.335E-03    -337.335E-03
             245     1.08178E+03     1.08178E+03    -149.792E-03    -149.792E-03    -40.0430E-03    -40.0430E-03
             246     1.08161E+03     1.08161E+03    -126.575E-03    -126.575E-03     213.314E-03     213.314E-03
             247     1.08098E+03     1.08098E+03    -102.754E-03    -102.754E-03     420.029E-03     420.029E-03
             248     1.07999E+03     1.07999E+03    -79.8318E-03    -79.8318E-03     580.999E-03     580.999E-03
             249     1.07873E+03     1.07873E+03    -58.8761E-03    -58.8761E-03     699.496E-03     699.496E-03
             250     1.07726E+03     1.07726E+03    -40.4584E-03    -40.4584E-03     780.295E-03     780.295E-03
             251     1.07567E+03     1.07567E+03    -24.7820E-03    -24.7820E-03     828.805E-03     828.805E-03
             252     1.07400E+03     1.07400E+03    -11.8670E-03    -11.8670E-03     850.578E-03     850.578E-03
             253     1.07232E+03     1.07232E+03    -1.49293E-03    -1.49293E-03     850.878E-03     850.878E-03
             254     1.07065E+03     1.07065E+03     6.56236E-03     6.56236E-03     834.492E-03     834.492E-03
             255     1.06903E+03     1.06903E+03     12.6423E-03     12.6423E-03     805.595E-03     805.595E-03
             256     1.06747E+03     1.06747E+03     17.0257E-03     17.0257E-03     767.730E-03     767.730E-03
             257     1.06599E+03     1.06599E+03     20.0318E-03     20.0318E-03     723.827E-03     723.827E-03
             258     1.06461E+03     1.06461E+03     21.9095E-03     21.9095E-03     676.252E-03     676.252E-03
             259     1.06332E+03     1.06332E+03     22.9049E-03     22.9049E-03     626.874E-03     626.874E-03
             260     1.06212E+03     1.06212E+03     23.2094E-03     23.2094E-03     577.136E-03     577.136E-03
             261     1.06103E+03     1.06103E+03     22.9949E-03     22.9949E-03     528.126E-03     528.126E-03
             262     1.06003E+03     1.06003E+03     22.3960E-03     22.3960E-03     480.635E-03     480.635E-03
             263     1.05913E+03     1.05913E+03     21.5253E-03     21.5253E-03     435.218E-03     435.218E-03
             264     1.05831E+03     1.05831E+03     20.4717E-03     20.4717E-03     392.240E-03     392.240E-03
             265     1.05757E+03     1.05757E+03     19.3054E-03     19.3054E-03     351.918E-03     351.918E-03
             266     1.05691E+03     1.05691E+03     18.0827E-03     18.0827E-03     314.349E-03     314.349E-03
             267     1.05632E+03     1.05632E+03     16.8451E-03     16.8451E-03     279.546E-03     279.546E-03
             268     1.05580E+03     1.05580E+03     15.6267E-03     15.6267E-03     247.450E-03     247.450E-03
             269     1.05534E+03     1.05534E+03     14.4509E-03     14.4509E-03     217.955E-03     217.955E-03
             270     1.05494E+03     1.05494E+03     13.3375E-03     13.3375E-03     190.918E-03     190.918E-03
             271     1.05458E+03     1.05458E+03     12.2985E-03     12.2985E-03     166.169E-03     166.169E-03
             272     1.05428E+03     1.05428E+03     11.3454E-03     11.3454E-03     143.520E-03     143.520E-03
             273     1.05401E+03     1.05401E+03     10.4828E-03     10.4828E-03     122.773E-03     122.773E-03
             274     1.05379E+03     1.05379E+03     9.71815E-03     9.71815E-03     103.721E-03     103.721E-03
             275     1.05360E+03     1.05360E+03     9.05082E-03     9.05082E-03     86.1532E-03     86.1532E-03
             276     1.05345E+03     1.05345E+03     8.48727E-03     8.48727E-03     69.8557E-03     69.8557E-03
             277     1.05332E+03     1.05332E+03     8.02482E-03     8.02482E-03     54.6128E-03     54.6128E-03
             278     1.05323E+03     1.05323E+03     7.66576E-03     7.66576E-03     40.2141E-03     40.2141E-03
             279     1.05316E+03     1.05316E+03     7.45404E-03     7.45404E-03     26.4033E-03     26.4033E-03
             280     1.05312E+03     1.05312E+03     7.24276E-03     7.24276E-03     13.4769E-03     13.4769E-03
             281     1.05321E+03     1.05321E+03     20.4422E-03     20.4422E-03     13.7246E-03     13.7246E-03
             282     1.05337E+03     1.05337E+03     59.2090E-03     59.2090E-03     26.0087E-03     26.0087E-03
             283     1.05348E+03     1.05348E+03     121.263E-03     121.263E-03     37.4175E-03     37.4175E-03
             284     1.05355E+03     1.05355E+03     204.681E-03     204.681E-03     47.7423E-03     47.7423E-03
             285     1.05358E+03     1.05358E+03     307.026E-03     307.026E-03     56.6707E-03     56.6707E-03
             286     1.05357E+03     1.05357E+03     425.397E-03     425.397E-03     64.0425E-03     64.0425E-03
             287     1.05353E+03     1.05353E+03     556.585E-03     556.585E-03     69.7027E-03     69.7027E-03
             288     1.05347E+03     1.05347E+03     697.147E-03     697.147E-03     73.5702E-03     73.5702E-03
             289     1.05338E+03     1.05338E+03     843.512E-03     843.512E-03     75.5956E-03     75.5956E-03
             290     1.05328E+03     1.05328E+03     992.062E-03     992.062E-03     75.7797E-03     75.7797E-03
             291     1.05317E+03     1.05317E+03         1.13922         1.13922     74.1590E-03     74.1590E-03
             292     1.05305E+03     1.05305E+03         1.28149         1.28149     70.7995E-03     70.7995E-03
             293         995.235         995.235         288.741         288.741        -66.0135        -66.0135
             294     1.00561E+03     1.00561E+03         263.946         263.946        -65.6427        -65.6427
             295     1.01569E+03     1.01569E+03         239.119         239.119        -63.5411        -63.5411
             296     1.02524E+03     1.02524E+03         214.773         214.773        -60.4136        -60.4136
             297     1.03403E+03     1.03403E+03         191.303         191.303        -56.3388        -56.3388
             298     1.04190E+03     1.04190E+03         169.049         169.049        -51.5134        -51.5134
             299     1.04875E+03     1.04875E+03         148.264         148.264        -46.1236        -46.1236
             300     1.05453E+03     1.05453E+03         129.135         129.135        -40.4076        -40.4076
             301     1.05928E+03     1.05928E+03         111.739         111.739        -34.5731        -34.5731
             302     1.06302E+03     1.06302E+03         96.0991         96.0991        -28.8079        -28.8079
             303     1.06586E+03     1.06586E+03         82.1674         82.1674        -23.2690        -23.2690
             304     1.06790E+03     1.06790E+03         69.8592         69.8592        -18.0600        -18.0600
             305     1.06925E+03     1.06925E+03         59.0647         59.0647        -13.2639        -13.2639
             306     1.07000E+03     1.07000E+03         49.6544         49.6544        -8.91221        -8.91221
             307     1.07027E+03     1.07027E+03         41.5034         41.5034        -5.02701        -5.02701
             308     1.07012E+03     1.07012E+03         34.4773         34.4773        -1.59442        -1.59442
             309     1.06966E+03     1.06966E+03         28.4583         28.4583         1.40128         1.40128
             310     1.06893E+03     1.06893E+03         23.3251         23.3251         3.99608         3.99608
             311     1.06799E+03     1.06799E+03         18.9739         18.9739         6.22409         6.22409
             312     1.06688E+03     1.06688E+03         15.3013         15.3013         8.12882         8.12882
             313     1.06566E+03     1.06566E+03         12.2183         12.2183         9.75042         9.75042
             314     1.06434E+03     1.06434E+03         9.63731         9.63731         11.1323         11.1323
             315     1.06296E+03     1.06296E+03         7.48190         7.48190         12.3145         12.3145
             316     1.06155E+03     1.06155E+03         5.67731         5.67731         13.3375         13.3375
             317     1.06011E+03     1.06011E+03         4.15617         4.15617         14.2388         14.2388
             318     1.05868E+03     1.05868E+03         2.85237         2.85237         15.0560         15.0560
             319     1.05727E+03     1.05727E+03         1.70405         1.70405         15.8246         15.8246
             320     1.05590E+03     1.05590E+03     649.361E-03     649.361E-03         16.5806         16.5806
             321     1.05461E+03     1.05461E+03    -372.327E-03    -372.327E-03         17.3590         17.3590
             322     1.05342E+03     1.05342E+03        -1.42367        -1.42367         18.1955         18.1955
             323     1.05237E+03     1.05237E+03        -2.56958        -2.56958         19.1256         19.1256
             324     1.05151E+03     1.05151E+03        -3.88015        -3.88015         20.1846         20.1846
             325     1.05093E+03     1.05093E+03        -5.43230        -5.43230         21.4053         21.4053
             326     1.05070E+03     1.05070E+03        -7.31246        -7.31246         22.8148         22.8148
             327     1.05097E+03     1.05097E+03        -9.61933        -9.61933         24.4271         24.4271
             328     1.05191E+03     1.05191E+03        -12.4636        -12.4636         26.2319         26.2319
             329     1.05375E+03     1.05375E+03        -15.9680        -15.9680         28.1727         28.1727
             330     1.05682E+03     1.05682E+03        -20.2489        -20.2489         30.1133         30.1133
             331     1.06149E+03     1.06149E+03        -25.3898        -25.3898         31.7873         31.7873
             332     1.06819E+03     1.06819E+03        -31.3429        -31.3429         32.7260         32.7260
             333     1.07730E+03     1.07730E+03        -37.7967        -37.7967         32.2126         32.2126
             334     1.08885E+03     1.08885E+03        -43.8666        -43.8666         29.2824         29.2824
             335     1.06480E+03     1.06480E+03    -144.437E-03    -144.437E-03        -1.63384        -1.63384
             336     1.06772E+03     1.06772E+03    -183.419E-03    -183.419E-03        -1.30933        -1.30933
             337     1.06994E+03     1.06994E+03    -205.999E-03    -205.999E-03    -927.695E-03    -927.695E-03
             338     1.07138E+03     1.07138E+03    -213.753E-03    -213.753E-03    -520.498E-03    -520.498E-03
             339     1.07201E+03     1.07201E+03    -209.855E-03    -209.855E-03    -112.764E-03    -112.764E-03
             340     1.07185E+03     1.07185E+03    -196.789E-03    -196.789E-03     276.143E-03     276.143E-03
             341     1.07095E+03     1.07095E+03    -178.503E-03    -178.503E-03     633.062E-03     633.062E-03
             342     1.06938E+03     1.06938E+03    -156.774E-03    -156.774E-03     950.541E-03     950.541E-03
             343     1.06723E+03     1.06723E+03    -134.798E-03    -134.798E-03         1.22568         1.22568
             344     1.06457E+03     1.06457E+03    -112.857E-03    -112.857E-03         1.45920         1.45920
             345     1.06149E+03     1.06149E+03    -93.4435E-03    -93.4435E-03         1.65400         1.65400
             346     1.05806E+03     1.05806E+03    -75.1383E-03    -75.1383E-03         1.81446         1.81446
             347     1.05433E+03     1.05433E+03    -60.5632E-03    -60.5632E-03         1.94541         1.94541
             348     1.05038E+03     1.05038E+03    -46.3746E-03    -46.3746E-03         2.05167         2.05167
             349     1.04623E+03     1.04623E+03    -36.5055E-03    -36.5055E-03         2.13760         2.13760
             350     1.04193E+03     1.04193E+03    -25.0314E-03    -25.0314E-03         2.20686         2.20686
             351     1.03750E+03     1.03750E+03    -18.7223E-03    -18.7223E-03         2.26221         2.26221
             352     1.03298E+03     1.03298E+03    -7.64039E-03    -7.64039E-03         2.30552         2.30552
             353     1.02838E+03     1.02838E+03    -3.61253E-03    -3.61253E-03         2.33766         2.33766
             354     1.02373E+03     1.02373E+03     9.97376E-03     9.97376E-03         2.35848         2.35848
             355     1.01905E+03     1.01905E+03     12.6552E-03     12.6552E-03         2.36690         2.36690
             356     1.01437E+03     1.01437E+03     32.3890E-03     32.3890E-03         2.36066         2.36066
             357     1.00972E+03     1.00972E+03     34.0276E-03     34.0276E-03         2.33662         2.33662
             358     1.00513E+03     1.00513E+03     64.9634E-03     64.9634E-03         2.28999         2.28999
             359     1.00067E+03     1.00067E+03     64.9372E-03     64.9372E-03         2.21526         2.21526
             360         996.388         996.388     114.901E-03     114.901E-03         2.10403         2.10403
             361         992.370         992.370     111.166E-03     111.166E-03         1.94775         1.94775
             362         988.719         988.719     193.497E-03     193.497E-03         1.73173         1.73173
             363         985.566         985.566     181.555E-03     181.555E-03         1.44329         1.44329
             364         983.080         983.080     321.152E-03     321.152E-03         1.05467         1.05467
             365         981.479         981.479     291.541E-03     291.541E-03     548.072E-03     548.072E-03
             366         981.048         981.048     539.997E-03     539.997E-03    -135.834E-03    -135.834E-03
             367         982.171         982.171     471.109E-03     471.109E-03        -1.01830        -1.01830
             368         985.364         985.364     950.431E-03     950.431E-03        -2.24563        -2.24563
             369         991.354         991.354     784.782E-03     784.782E-03        -3.82685        -3.82685
             370     1.00119E+03     1.00119E+03         1.83655         1.83655        -6.18409        -6.18409
             371     1.01645E+03     1.01645E+03         1.39241         1.39241        -9.23604        -9.23604
             372     1.03977E+03     1.03977E+03         4.21272         4.21272        -14.4576        -14.4576
             373     1.07527E+03     1.07527E+03         2.80549         2.80549        -21.3186        -21.3186
             374     1.13262E+03     1.13262E+03         13.3941         13.3941        -36.8836        -36.8836
             375     1.22768E+03     1.22768E+03         7.84507         7.84507        -58.5313        -58.5313
             376     1.44799E+03     1.44799E+03         103.568         103.568        -163.886        -163.886
             377     1.40876E+03     1.40876E+03         270.839         270.839        -276.617        -276.617
             378     1.17632E+03     1.17632E+03         312.540         312.540        -258.663        -258.663
             379     1.11252E+03     1.11252E+03         306.956         306.956        -217.553        -217.553
             380     1.06878E+03     1.06878E+03         306.614         306.614        -195.600        -195.600
             381     1.04542E+03     1.04542E+03         304.456         304.456        -172.926        -172.926
             382     1.02831E+03     1.02831E+03         303.374         303.374        -155.818        -155.818
             383     1.01729E+03     1.01729E+03         302.491         302.491        -139.326        -139.326
             384     1.00888E+03     1.00888E+03         301.890         301.890        -125.204        -125.204
             385     1.00297E+03     1.00297E+03         301.542         301.542        -111.733        -111.733
             386         998.333         998.333         301.271         301.271        -99.5075        -99.5075
             387         994.913         994.913         301.157         301.157        -87.8062        -87.8062
             388         992.196         992.196         301.056         301.056        -76.8439        -76.8439
             389     1.10431E+03     1.10431E+03        -39.4122        -39.4122        -9.53112        -9.53112
             390     1.10155E+03     1.10155E+03        -30.9754        -30.9754    -985.143E-03    -985.143E-03
             391     1.09690E+03     1.09690E+03        -23.4675        -23.4675         4.51398         4.51398
             392     1.09167E+03     1.09167E+03        -17.3169        -17.3169         7.75468         7.75468
             393     1.08653E+03     1.08653E+03        -12.5045        -12.5045         9.47948         9.47948
             394     1.08174E+03     1.08174E+03        -8.84362        -8.84362         10.2191         10.2191
             395     1.07741E+03     1.07741E+03        -6.10307        -6.10307         10.3111         10.3111
             396     1.07352E+03     1.07352E+03        -4.07089        -4.07089         9.93342         9.93342
             397     1.07004E+03     1.07004E+03        -2.57382        -2.57382         9.14312         9.14312
             398     1.06696E+03     1.06696E+03        -1.48323        -1.48323         7.89710         7.89710
             399     1.06427E+03     1.06427E+03    -717.080E-03    -717.080E-03         6.06080         6.06080
             400     1.06205E+03     1.06205E+03    -245.997E-03    -245.997E-03         3.42316         3.42316
             401     1.05645E+03     1.05645E+03     2.58111E-03     2.58111E-03         1.97976         1.97976
             402     1.05158E+03     1.05158E+03     103.631E-03     103.631E-03         1.87756         1.87756
             403     1.04729E+03     1.04729E+03     202.853E-03     202.853E-03         1.53330         1.53330
             404     1.04414E+03     1.04414E+03     281.536E-03     281.536E-03     973.742E-03     973.742E-03
             405     1.04260E+03     1.04260E+03     330.408E-03     330.408E-03     260.004E-03     260.004E-03
             406     1.04294E+03     1.04294E+03     329.159E-03     329.159E-03    -509.642E-03    -509.642E-03
             407     1.04515E+03     1.04515E+03     284.821E-03     284.821E-03        -1.22275        -1.22275
             408     1.04897E+03     1.04897E+03     212.569E-03     212.569E-03        -1.79451        -1.79451
             409     1.05397E+03     1.05397E+03     115.530E-03     115.530E-03        -2.16211        -2.16211
             410     1.05959E+03     1.05959E+03     16.0761E-03     16.0761E-03        -2.29438        -2.29438
             411     1.13170E+03     1.13170E+03         94.4759         94.4759         29.4865         29.4865
             412     1.14356E+03     1.14356E+03         48.2647         48.2647         42.4818         42.4818
             413     1.14943E+03     1.14943E+03    -172.676E-03    -172.676E-03         34.1063         34.1063
             414     1.14376E+03     1.14376E+03        -33.8747        -33.8747         14.0822         14.0822
             415     1.12902E+03     1.12902E+03        -49.6348        -49.6348        -6.46294        -6.46294
             416     1.13060E+03     1.13060E+03        -45.0987        -45.0987    -335.219E-03    -335.219E-03
             417     1.14557E+03     1.14557E+03        -20.4962        -20.4962        -24.8122        -24.8122
             418     1.14597E+03     1.14597E+03         28.3371         28.3371        -42.4450        -42.4450
             419     1.13429E+03     1.13429E+03         84.3040         84.3040        -35.2411        -35.2411
             420         995.239         995.239         288.735         288.735         65.9949         65.9949
             421     1.00561E+03     1.00561E+03         263.945         263.945         65.6156         65.6156
             422     1.01569E+03     1.01569E+03         239.125         239.125         63.5049         63.5049
             423     1.02524E+03     1.02524E+03         214.788         214.788         60.3690         60.3690
             424     1.03402E+03     1.03402E+03         191.327         191.327         56.2874         56.2874
             425     1.04188E+03     1.04188E+03         169.083         169.083         51.4583         51.4583
             426     1.04873E+03     1.04873E+03         148.308         148.308         46.0670         46.0670
             427     1.05451E+03     1.05451E+03         129.187         129.187         40.3526         40.3526
             428     1.05926E+03     1.05926E+03         111.798         111.798         34.5217         34.5217
             429     1.06300E+03     1.06300E+03         96.1639         96.1639         28.7623         28.7623
             430     1.06585E+03     1.06585E+03         82.2354         82.2354         23.2306         23.2306
             431     1.06789E+03     1.06789E+03         69.9288         69.9288         18.0296         18.0296
             432     1.06924E+03     1.06924E+03         59.1340         59.1340         13.2422         13.2422
             433     1.07000E+03     1.07000E+03         49.7220         49.7220         8.89932         8.89932
             434     1.07028E+03     1.07028E+03         41.5681         41.5681         5.02302         5.02302
             435     1.07014E+03     1.07014E+03         34.5382         34.5382         1.59888         1.59888
             436     1.06968E+03     1.06968E+03         28.5148         28.5148        -1.38853        -1.38853
             437     1.06895E+03     1.06895E+03         23.3768         23.3768        -3.97569        -3.97569
             438     1.06801E+03     1.06801E+03         19.0210         19.0210        -6.19637        -6.19637
             439     1.06691E+03     1.06691E+03         15.3437         15.3437        -8.09443        -8.09443
             440     1.06569E+03     1.06569E+03         12.2565         12.2565        -9.70971        -9.70971
             441     1.06437E+03     1.06437E+03         9.67172         9.67172        -11.0859        -11.0859
             442     1.06299E+03     1.06299E+03         7.51333         7.51333        -12.2627        -12.2627
             443     1.06157E+03     1.06157E+03         5.70653         5.70653        -13.2808        -13.2808
             444     1.06013E+03     1.06013E+03         4.18432         4.18432        -14.1777        -14.1777
             445     1.05868E+03     1.05868E+03         2.88061         2.88061        -14.9909        -14.9909
             446     1.05726E+03     1.05726E+03         1.73395         1.73395        -15.7560        -15.7560
             447     1.05588E+03     1.05588E+03     682.620E-03     682.620E-03        -16.5091        -16.5091
             448     1.05457E+03     1.05457E+03    -333.527E-03    -333.527E-03        -17.2855        -17.2855
             449     1.05336E+03     1.05336E+03        -1.37685        -1.37685        -18.1212        -18.1212
             450     1.05228E+03     1.05228E+03        -2.51167        -2.51167        -19.0524        -19.0524
             451     1.05139E+03     1.05139E+03        -3.80768        -3.80768        -20.1152        -20.1152
             452     1.05076E+03     1.05076E+03        -5.34116        -5.34116        -21.3441        -21.3441
             453     1.05049E+03     1.05049E+03        -7.19845        -7.19845        -22.7684        -22.7684
             454     1.05069E+03     1.05069E+03        -9.47822        -9.47822        -24.4057        -24.4057
             455     1.05155E+03     1.05155E+03        -12.2931        -12.2931        -26.2509        -26.2509
             456     1.05331E+03     1.05331E+03        -15.7690        -15.7690        -28.2544        -28.2544
             457     1.05628E+03     1.05628E+03        -20.0316        -20.0316        -30.2891        -30.2891
             458     1.06087E+03     1.06087E+03        -25.1788        -25.1788        -32.0929        -32.0929
             459     1.06753E+03     1.06753E+03        -31.1812        -31.1812        -33.1928        -33.1928
             460     1.07666E+03     1.07666E+03        -37.7364        -37.7364        -32.8458        -32.8458
             461     1.08831E+03     1.08831E+03        -43.9474        -43.9474        -30.0535        -30.0535
             462     1.08547E+03     1.08547E+03        -61.1908        -61.1908        -55.9185        -55.9185
             463     1.03997E+03     1.03997E+03        -55.3617        -55.3617        -83.6052        -83.6052
             464         966.228         966.228        -30.7439        -30.7439        -94.0500        -94.0500
             465         888.608         888.608         2.85644         2.85644        -65.6915        -65.6915
             466         874.885         874.885         9.17681         9.17681         58.3041         58.3041
             467         937.426         937.426        -19.3033        -19.3033         91.8820         91.8820
             468     1.00646E+03     1.00646E+03        -46.1115        -46.1115         94.1037         94.1037
             469     1.05978E+03     1.05978E+03        -60.2443        -60.2443         75.7612         75.7612
             470     1.09126E+03     1.09126E+03        -61.2747        -61.2747         51.0166         51.0166
             471         988.186         988.186         301.043         301.043        -53.5132        -53.5132
             472         986.756         986.756         301.061         301.061        -41.1471        -41.1471
             473         985.763         985.763         301.079         301.079        -29.1686        -29.1686
             474         985.146         985.146         301.101         301.101        -17.4179        -17.4179
             475         984.847         984.847         301.107         301.107        -5.83039        -5.83039
             476         984.850         984.850         301.103         301.103         5.73140         5.73140
             477         985.154         985.154         301.088         301.088         17.3309         17.3309
             478         985.771         985.771         301.063         301.063         29.0995         29.0995
             479         986.765         986.765         301.044         301.044         41.0986         41.0986
             480         988.196         988.196         301.029         301.029         53.4841         53.4841
             481         992.198         992.198         301.050         301.050         76.8349         76.8349
             482         994.915         994.915         301.155         301.155         87.8000         87.8000
             483         998.335         998.335         301.269         301.269         99.5028         99.5028
             484     1.00297E+03     1.00297E+03         301.541         301.541         111.729         111.729
             485     1.00888E+03     1.00888E+03         301.890         301.890         125.201         125.201
             486     1.01729E+03     1.01729E+03         302.491         302.491         139.324         139.324
             487     1.02832E+03     1.02832E+03         303.374         303.374         155.816         155.816
             488     1.04542E+03     1.04542E+03         304.456         304.456         172.924         172.924
             489     1.06879E+03     1.06879E+03         306.614         306.614         195.599         195.599
             490     1.11252E+03     1.11252E+03         306.956         306.956         217.552         217.552
             491     1.17632E+03     1.17632E+03         312.540         312.540         258.662         258.662
             492     1.40876E+03     1.40876E+03         270.839         270.839         276.616         276.616
             493     1.44799E+03     1.44799E+03         103.568         103.568         163.885         163.885
             494     1.22768E+03     1.22768E+03         7.84503         7.84503         58.5309         58.5309
             495     1.13263E+03     1.13263E+03         13.3940         13.3940         36.8832         36.8832
             496     1.07527E+03     1.07527E+03         2.80544         2.80544         21.3183         21.3183
             497     1.03978E+03     1.03978E+03         4.21268         4.21268         14.4575         14.4575
             498     1.01646E+03     1.01646E+03         1.39237         1.39237         9.23596         9.23596
             499     1.00120E+03     1.00120E+03         1.83652         1.83652         6.18408         6.18408
             500         991.357         991.357     784.753E-03     784.753E-03         3.82690         3.82690
             501         985.366         985.366     950.407E-03     950.407E-03         2.24574         2.24574
             502         982.174         982.174     471.090E-03     471.090E-03         1.01844         1.01844
             503         981.050         981.050     539.982E-03     539.982E-03     136.008E-03     136.008E-03
             504         981.480         981.480     291.531E-03     291.531E-03    -547.876E-03    -547.876E-03
             505         983.081         983.081     321.145E-03     321.145E-03        -1.05445        -1.05445
             506         985.567         985.567     181.552E-03     181.552E-03        -1.44307        -1.44307
             507         988.720         988.720     193.495E-03     193.495E-03        -1.73150        -1.73150
             508         992.370         992.370     111.166E-03     111.166E-03        -1.94752        -1.94752
             509         996.387         996.387     114.902E-03     114.902E-03        -2.10380        -2.10380
             510     1.00067E+03     1.00067E+03     64.9383E-03     64.9383E-03        -2.21503        -2.21503
             511     1.00513E+03     1.00513E+03     64.9659E-03     64.9659E-03        -2.28976        -2.28976
             512     1.00972E+03     1.00972E+03     34.0287E-03     34.0287E-03        -2.33640        -2.33640
             513     1.01437E+03     1.01437E+03     32.3925E-03     32.3925E-03        -2.36044        -2.36044
             514     1.01905E+03     1.01905E+03     12.6554E-03     12.6554E-03        -2.36668        -2.36668
             515     1.02373E+03     1.02373E+03     9.97801E-03     9.97801E-03        -2.35826        -2.35826
             516     1.02838E+03     1.02838E+03    -3.61386E-03    -3.61386E-03        -2.33744        -2.33744
             517     1.03298E+03     1.03298E+03    -7.63528E-03    -7.63528E-03        -2.30530        -2.30530
             518     1.03750E+03     1.03750E+03    -18.7256E-03    -18.7256E-03        -2.26199        -2.26199
             519     1.04192E+03     1.04192E+03    -25.0250E-03    -25.0250E-03        -2.20662        -2.20662
             520     1.04622E+03     1.04622E+03    -36.5099E-03    -36.5099E-03        -2.13737        -2.13737
             521     1.05037E+03     1.05037E+03    -46.3645E-03    -46.3645E-03        -2.05143        -2.05143
             522     1.05433E+03     1.05433E+03    -60.5623E-03    -60.5623E-03        -1.94517        -1.94517
             523     1.05805E+03     1.05805E+03    -75.1149E-03    -75.1149E-03        -1.81423        -1.81423
             524     1.06148E+03     1.06148E+03    -93.4167E-03    -93.4167E-03        -1.65381        -1.65381
             525     1.06456E+03     1.06456E+03    -112.795E-03    -112.795E-03        -1.45907        -1.45907
             526     1.06722E+03     1.06722E+03    -134.702E-03    -134.702E-03        -1.22570        -1.22570
             527     1.06938E+03     1.06938E+03    -156.635E-03    -156.635E-03    -950.761E-03    -950.761E-03
             528     1.07094E+03     1.07094E+03    -178.294E-03    -178.294E-03    -633.609E-03    -633.609E-03
             529     1.07184E+03     1.07184E+03    -196.567E-03    -196.567E-03    -277.095E-03    -277.095E-03
             530     1.07201E+03     1.07201E+03    -209.574E-03    -209.574E-03     111.330E-03     111.330E-03
             531     1.07138E+03     1.07138E+03    -213.582E-03    -213.582E-03     518.625E-03     518.625E-03
             532     1.06995E+03     1.06995E+03    -205.905E-03    -205.905E-03     925.561E-03     925.561E-03
             533     1.06773E+03     1.06773E+03    -183.567E-03    -183.567E-03         1.30725         1.30725
             534     1.06482E+03     1.06482E+03    -144.983E-03    -144.983E-03         1.63303         1.63303
             535         17.0363         17.0363        -523.742        -523.742        -2.46598        -2.46598
             536         144.982         144.982        -193.760        -193.760        -6.60695        -6.60695
             537         349.662         349.662        -36.4703        -36.4703        -7.51479        -7.51479
             538         560.271         560.271         19.2629         19.2629        -6.54125        -6.54125
             539         734.837         734.837         28.2388         28.2388        -4.70979        -4.70979
             540     1.13700E+03     1.13700E+03        -81.9872        -81.9872        -42.6171        -42.6171
             541     1.17841E+03     1.17841E+03        -123.279        -123.279        -76.4185        -76.4185
             542     1.21749E+03     1.21749E+03        -161.272        -161.272        -131.029        -131.029
             543     1.20821E+03     1.20821E+03        -149.156        -149.156        -216.394        -216.394
             544     1.02823E+03     1.02823E+03         39.5046         39.5046        -348.419        -348.419
             545         518.175         518.175         39.3612         39.3612        -276.492        -276.492
             546         241.560         241.560        -194.407        -194.407        -128.222        -128.222
             547         78.4764         78.4764        -451.768        -451.768        -23.4100        -23.4100
             548         2.82408         2.82408        -656.276        -656.276         13.6863         13.6863
             549     1.17558E+03     1.17558E+03         170.903         170.903         1.10696         1.10696
             550     1.27613E+03     1.27613E+03         254.048         254.048     948.479E-03     948.479E-03
             551     1.46537E+03     1.46537E+03         330.492         330.492     828.775E-03     828.775E-03
             552     1.80203E+03     1.80203E+03         353.061         353.061     702.747E-03     702.747E-03
             553     2.34991E+03     2.34991E+03         256.778         256.778     464.859E-03     464.859E-03
             554     2.55808E+03     2.55808E+03         199.554         199.554        -297.271        -297.271
             555     2.21931E+03     2.21931E+03         265.266         265.266        -508.234        -508.234
             556     1.76179E+03     1.76179E+03         311.410         311.410        -589.214        -589.214
             557     1.28912E+03     1.28912E+03         290.470         290.470        -548.177        -548.177
             558     1.04009E+03     1.04009E+03         42.9645         42.9645         350.510         350.510
             559     1.21631E+03     1.21631E+03        -148.360        -148.360         213.817         213.817
             560     1.22205E+03     1.22205E+03        -160.817        -160.817         127.936         127.936
             561     1.18073E+03     1.18073E+03        -122.861        -122.861         74.0300         74.0300
             562     1.13811E+03     1.13811E+03        -81.6138        -81.6138         41.0133         41.0133
             563        -4.31490        -4.31490        -691.287        -691.287        -15.9410        -15.9410
             564         42.6832         42.6832        -537.449        -537.449     166.619E-03     166.619E-03
             565         142.961         142.961        -327.580        -327.580         64.7830         64.7830
             566         314.989         314.989        -109.946        -109.946         172.714         172.714
             567         567.552         567.552         75.0409         75.0409         301.948         301.948
             568     1.13993E+03     1.13993E+03        -83.6038        -83.6038         43.2777         43.2777
             569     1.18247E+03     1.18247E+03        -124.488        -124.488         75.5897         75.5897
             570     1.22373E+03     1.22373E+03        -162.137        -162.137         128.973         128.973
             571     1.21805E+03     1.21805E+03        -149.334        -149.334         214.517         214.517
             572     1.04179E+03     1.04179E+03         42.7063         42.7063         351.230         351.230
             573     1.29081E+03     1.29081E+03         290.039         290.039         549.042         549.042
             574     1.76366E+03     1.76366E+03         311.846         311.846         590.154         590.154
             575     2.22098E+03     2.22098E+03         265.664         265.664         509.095         509.095
             576     2.55907E+03     2.55907E+03         199.776         199.776         297.957         297.957
             577     1.01701E+03     1.01701E+03         35.4582         35.4582        -347.095        -347.095
             578     1.20333E+03     1.20333E+03        -153.785        -153.785        -219.205        -219.205
             579     1.21523E+03     1.21523E+03        -164.637        -164.637        -134.728        -134.728
             580     1.17768E+03     1.17768E+03        -125.867        -125.867        -79.9772        -79.9772
             581     1.13730E+03     1.13730E+03        -84.3664        -84.3664        -46.1566        -46.1566
             582     1.17523E+03     1.17523E+03         172.622         172.622        -3.45895        -3.45895
             583     1.27618E+03     1.27618E+03         255.853         255.853        -3.65866        -3.65866
             584     1.46631E+03     1.46631E+03         331.855         331.855        -2.54736        -2.54736
             585     1.80429E+03     1.80429E+03         353.546         353.546     909.503E-03     909.503E-03
             586     2.35405E+03     2.35405E+03         255.853         255.853         7.93985         7.93985
             587     2.60841E+03     2.60841E+03         188.474         188.474        -255.506        -255.506
             588     2.36042E+03     2.36042E+03         242.190         242.190        -457.594        -457.594
             589     2.00458E+03     2.00458E+03         296.780         296.780        -572.353        -572.353
             590     1.60340E+03     1.60340E+03         317.853         317.853        -593.704        -593.704
             591     1.21377E+03     1.21377E+03         284.817         284.817        -536.977        -536.977
             592     1.28865E+03     1.28865E+03         289.480         289.480         548.002         548.002
             593     1.76096E+03     1.76096E+03         311.294         311.294         589.038         589.038
             594     2.21784E+03     2.21784E+03         265.061         265.061         508.221         508.221
             595     2.55589E+03     2.55589E+03         199.798         199.798         297.227         297.227
             596         737.157         737.157         25.7477         25.7477        -4.68180        -4.68180
             597         561.753         561.753         17.2572         17.2572        -6.48504        -6.48504
             598         350.443         350.443        -38.2592        -38.2592        -7.43368        -7.43368
             599         145.201         145.201        -195.706        -195.706        -6.51755        -6.51755
             600         16.9658         16.9658        -526.417        -526.417        -2.39469        -2.39469
             601        -4.38515        -4.38515        -694.246        -694.246        -16.0266        -16.0266
             602         42.7246         42.7246        -539.805        -539.805     63.3116E-03     63.3116E-03
             603         143.234         143.234        -329.157        -329.157         64.8037         64.8037
             604         315.594         315.594        -110.760        -110.760         172.995         172.995
             605         568.640         568.640         74.8789         74.8789         302.499         302.499
             606         518.931         518.931         38.6785         38.6785        -276.595        -276.595
             607         241.783         241.783        -195.908        -195.908        -128.114        -128.114
             608         78.4649         78.4649        -454.111        -454.111        -23.1593        -23.1593
             609         2.71448         2.71448        -659.266        -659.266         13.9010         13.9010
             610     1.09231E+03     1.09231E+03        -36.1520        -36.1520        -13.6502        -13.6502
             611     1.08258E+03     1.08258E+03        -32.4910        -32.4910        -18.1806        -18.1806
             612     1.07401E+03     1.07401E+03        -27.6930        -27.6930        -20.5981        -20.5981
             613     1.06692E+03     1.06692E+03        -22.6264        -22.6264        -21.3847        -21.3847
             614     1.06135E+03     1.06135E+03        -17.8314        -17.8314        -21.0971        -21.0971
             615     1.05712E+03     1.05712E+03        -13.5557        -13.5557        -20.1745        -20.1745
             616     1.05401E+03     1.05401E+03        -9.87841        -9.87841        -18.9318        -18.9318
             617     1.05178E+03     1.05178E+03        -6.78535        -6.78535        -17.5657        -17.5657
             618     1.05024E+03     1.05024E+03        -4.22666        -4.22666        -16.1936        -16.1936
             619     1.04922E+03     1.04922E+03        -2.13806        -2.13806        -14.8786        -14.8786
             620     1.04860E+03     1.04860E+03    -455.683E-03    -455.683E-03        -13.6509        -13.6509
             621     1.04827E+03     1.04827E+03     880.391E-03     880.391E-03        -12.5209        -12.5209
             622     1.04816E+03     1.04816E+03         1.92330         1.92330        -11.4880        -11.4880
             623     1.04820E+03     1.04820E+03         2.71979         2.71979        -10.5460        -10.5460
             624     1.04835E+03     1.04835E+03         3.31025         3.31025        -9.68631        -9.68631
             625     1.04858E+03     1.04858E+03         3.72957         3.72957        -8.89972        -8.89972
             626     1.04886E+03     1.04886E+03         4.00769         4.00769        -8.17763        -8.17763
             627     1.04916E+03     1.04916E+03         4.17029         4.17029        -7.51235        -7.51235
             628     1.04948E+03     1.04948E+03         4.23931         4.23931        -6.89731        -6.89731
             629     1.04980E+03     1.04980E+03         4.23346         4.23346        -6.32703        -6.32703
             630     1.05012E+03     1.05012E+03         4.16866         4.16866        -5.79700        -5.79700
             631     1.05042E+03     1.05042E+03         4.05837         4.05837        -5.30354        -5.30354
             632     1.05071E+03     1.05071E+03         3.91395         3.91395        -4.84360        -4.84360
             633     1.05098E+03     1.05098E+03         3.74493         3.74493        -4.41471        -4.41471
             634     1.05124E+03     1.05124E+03         3.55928         3.55928        -4.01472        -4.01472
             635     1.05147E+03     1.05147E+03         3.36361         3.36361        -3.64181        -3.64181
             636     1.05168E+03     1.05168E+03         3.16336         3.16336        -3.29432        -3.29432
             637     1.05188E+03     1.05188E+03         2.96300         2.96300        -2.97072        -2.97072
             638     1.05205E+03     1.05205E+03         2.76615         2.76615        -2.66955        -2.66955
             639     1.05221E+03     1.05221E+03         2.57573         2.57573        -2.38941        -2.38941
             640     1.05235E+03     1.05235E+03         2.39408         2.39408        -2.12888        -2.12888
             641     1.05247E+03     1.05247E+03         2.22304         2.22304        -1.88655        -1.88655
             642     1.05258E+03     1.05258E+03         2.06403         2.06403        -1.66098        -1.66098
             643     1.05268E+03     1.05268E+03         1.91817         1.91817        -1.45074        -1.45074
             644     1.05276E+03     1.05276E+03         1.78627         1.78627        -1.25435        -1.25435
             645     1.05283E+03     1.05283E+03         1.66897         1.66897        -1.07032        -1.07032
             646     1.05289E+03     1.05289E+03         1.56671         1.56671    -897.153E-03    -897.153E-03
             647     1.05294E+03     1.05294E+03         1.47981         1.47981    -733.316E-03    -733.316E-03
             648     1.05298E+03     1.05298E+03         1.40850         1.40850    -577.275E-03    -577.275E-03
             649     1.05301E+03     1.05301E+03         1.35292         1.35292    -427.483E-03    -427.483E-03
             650     1.05303E+03     1.05303E+03         1.31316         1.31316    -282.389E-03    -282.389E-03
             651     1.05304E+03     1.05304E+03         1.28926         1.28926    -140.817E-03    -140.817E-03
             652     1.09319E+03     1.09319E+03        -30.3288        -30.3288        -4.74119        -4.74119
             653     1.08561E+03     1.08561E+03        -28.6750        -28.6750        -9.87692        -9.87692
             654     1.07850E+03     1.07850E+03        -25.6069        -25.6069        -13.3299        -13.3299
             655     1.07220E+03     1.07220E+03        -21.8339        -21.8339        -15.3708        -15.3708
             656     1.06689E+03     1.06689E+03        -17.9057        -17.9057        -16.3145        -16.3145
             657     1.06257E+03     1.06257E+03        -14.1601        -14.1601        -16.4913        -16.4913
             658     1.05918E+03     1.05918E+03        -10.7728        -10.7728        -16.1679        -16.1679
             659     1.05657E+03     1.05657E+03        -7.81471        -7.81471        -15.5454        -15.5454
             660     1.05462E+03     1.05462E+03        -5.29435        -5.29435        -14.7596        -14.7596
             661     1.05319E+03     1.05319E+03        -3.18906        -3.18906        -13.8997        -13.8997
             662     1.05218E+03     1.05218E+03        -1.46038        -1.46038        -13.0203        -13.0203
             663     1.05150E+03     1.05150E+03    -64.8989E-03    -64.8989E-03        -12.1536        -12.1536
             664     1.05106E+03     1.05106E+03         1.04137         1.04137        -11.3170        -11.3170
             665     1.05081E+03     1.05081E+03         1.89983         1.89983        -10.5189        -10.5189
             666     1.05070E+03     1.05070E+03         2.54846         2.54846        -9.76233        -9.76233
             667     1.05069E+03     1.05069E+03         3.02115         3.02115        -9.04751        -9.04751
             668     1.05076E+03     1.05076E+03         3.34780         3.34780        -8.37311        -8.37311
             669     1.05087E+03     1.05087E+03         3.55445         3.55445        -7.73718        -7.73718
             670     1.05102E+03     1.05102E+03         3.66364         3.66364        -7.13770        -7.13770
             671     1.05119E+03     1.05119E+03         3.69466         3.69466        -6.57271        -6.57271
             672     1.05136E+03     1.05136E+03         3.66397         3.66397        -6.04048        -6.04048
             673     1.05154E+03     1.05154E+03         3.58552         3.58552        -5.53948        -5.53948
             674     1.05171E+03     1.05171E+03         3.47101         3.47101        -5.06835        -5.06835
             675     1.05188E+03     1.05188E+03         3.33025         3.33025        -4.62588        -4.62588
             676     1.05204E+03     1.05204E+03         3.17138         3.17138        -4.21092        -4.21092
             677     1.05218E+03     1.05218E+03         3.00113         3.00113        -3.82235        -3.82235
             678     1.05232E+03     1.05232E+03         2.82502         2.82502        -3.45908        -3.45908
             679     1.05244E+03     1.05244E+03         2.64752         2.64752        -3.11995        -3.11995
             680     1.05255E+03     1.05255E+03         2.47225         2.47225        -2.80379        -2.80379
             681     1.05265E+03     1.05265E+03         2.30213         2.30213        -2.50936        -2.50936
             682     1.05274E+03     1.05274E+03         2.13945         2.13945        -2.23534        -2.23534
             683     1.05281E+03     1.05281E+03         1.98600         1.98600        -1.98039        -1.98039
             684     1.05288E+03     1.05288E+03         1.84318         1.84318        -1.74308        -1.74308
             685     1.05294E+03     1.05294E+03         1.71207         1.71207        -1.52194        -1.52194
             686     1.05299E+03     1.05299E+03         1.59345         1.59345        -1.31547        -1.31547
             687     1.05304E+03     1.05304E+03         1.48791         1.48791        -1.12210        -1.12210
             688     1.05307E+03     1.05307E+03         1.39590         1.39590    -940.249E-03    -940.249E-03
             689     1.05310E+03     1.05310E+03         1.31769         1.31769    -768.319E-03    -768.319E-03
             690     1.05313E+03     1.05313E+03         1.25351         1.25351    -604.677E-03    -604.677E-03
             691     1.05314E+03     1.05314E+03         1.20349         1.20349    -447.681E-03    -447.681E-03
             692     1.05316E+03     1.05316E+03         1.16771         1.16771    -295.681E-03    -295.681E-03
             693     1.05316E+03     1.05316E+03         1.14620         1.14620    -147.436E-03    -147.436E-03
             694     1.09176E+03     1.09176E+03        -24.4519        -24.4519         1.77868         1.77868
             695     1.08621E+03     1.08621E+03        -24.3245        -24.3245        -3.35551        -3.35551
             696     1.08061E+03     1.08061E+03        -22.6210        -22.6210        -7.23916        -7.23916
             697     1.07534E+03     1.07534E+03        -20.0106        -20.0106        -9.98615        -9.98615
             698     1.07064E+03     1.07064E+03        -16.9735        -16.9735        -11.7627        -11.7627
             699     1.06660E+03     1.06660E+03        -13.8646        -13.8646        -12.7697        -12.7697
             700     1.06326E+03     1.06326E+03        -10.9052        -10.9052        -13.2076        -13.2076
             701     1.06055E+03     1.06055E+03        -8.21901        -8.21901        -13.2431        -13.2431
             702     1.05841E+03     1.05841E+03        -5.86171        -5.86171        -13.0074        -13.0074
             703     1.05675E+03     1.05675E+03        -3.84582        -3.84582        -12.5952        -12.5952
             704     1.05548E+03     1.05548E+03        -2.15916        -2.15916        -12.0735        -12.0735
             705     1.05454E+03     1.05454E+03    -775.752E-03    -775.752E-03        -11.4880        -11.4880
             706     1.05385E+03     1.05385E+03     336.429E-03     336.429E-03        -10.8693        -10.8693
             707     1.05336E+03     1.05336E+03         1.21141         1.21141        -10.2376        -10.2376
             708     1.05303E+03     1.05303E+03         1.88241         1.88241        -9.60617        -9.60617
             709     1.05281E+03     1.05281E+03         2.38057         2.38057        -8.98361        -8.98361
             710     1.05268E+03     1.05268E+03         2.73415         2.73415        -8.37568        -8.37568
             711     1.05262E+03     1.05262E+03         2.96833         2.96833        -7.78617        -7.78617
             712     1.05260E+03     1.05260E+03         3.10515         3.10515        -7.21767        -7.21767
             713     1.05261E+03     1.05261E+03         3.16369         3.16369        -6.67194        -6.67194
             714     1.05265E+03     1.05265E+03         3.16027         3.16027        -6.15020        -6.15020
             715     1.05270E+03     1.05270E+03         3.10874         3.10874        -5.65323        -5.65323
             716     1.05275E+03     1.05275E+03         3.02075         3.02075        -5.18151        -5.18151
             717     1.05281E+03     1.05281E+03         2.90601         2.90601        -4.73522        -4.73522
             718     1.05287E+03     1.05287E+03         2.77257         2.77257        -4.31428        -4.31428
             719     1.05292E+03     1.05292E+03         2.62705         2.62705        -3.91842        -3.91842
             720     1.05297E+03     1.05297E+03         2.47486         2.47486        -3.54713        -3.54713
             721     1.05302E+03     1.05302E+03         2.32036         2.32036        -3.19971        -3.19971
             722     1.05306E+03     1.05306E+03         2.16707         2.16707        -2.87530        -2.87530
             723     1.05310E+03     1.05310E+03         2.01778         2.01778        -2.57288        -2.57288
             724     1.05313E+03     1.05313E+03         1.87469         1.87469        -2.29129        -2.29129
             725     1.05316E+03     1.05316E+03         1.73952         1.73952        -2.02925        -2.02925
             726     1.05319E+03     1.05319E+03         1.61359         1.61359        -1.78539        -1.78539
             727     1.05321E+03     1.05321E+03         1.49789         1.49789        -1.55823        -1.55823
             728     1.05322E+03     1.05322E+03         1.39318         1.39318        -1.34627        -1.34627
             729     1.05324E+03     1.05324E+03         1.29999         1.29999        -1.14790        -1.14790
             730     1.05325E+03     1.05325E+03         1.21874         1.21874    -961.498E-03    -961.498E-03
             731     1.05326E+03     1.05326E+03         1.14967         1.14967    -785.409E-03    -785.409E-03
             732     1.05327E+03     1.05327E+03         1.09299         1.09299    -617.941E-03    -617.941E-03
             733     1.05327E+03     1.05327E+03         1.04882         1.04882    -457.389E-03    -457.389E-03
             734     1.05328E+03     1.05328E+03         1.01722         1.01722    -302.037E-03    -302.037E-03
             735     1.05328E+03     1.05328E+03     998.221E-03     998.221E-03    -150.607E-03    -150.607E-03
             736     1.08905E+03     1.08905E+03        -19.0806        -19.0806         6.19408         6.19408
             737     1.08526E+03     1.08526E+03        -19.9266        -19.9266         1.50807         1.50807
             738     1.08109E+03     1.08109E+03        -19.2478        -19.2478        -2.39743        -2.39743
             739     1.07691E+03     1.07691E+03        -17.5776        -17.5776        -5.45641        -5.45641
             740     1.07297E+03     1.07297E+03        -15.3481        -15.3481        -7.72289        -7.72289
             741     1.06943E+03     1.06943E+03        -12.8806        -12.8806        -9.29930        -9.29930
             742     1.06636E+03     1.06636E+03        -10.4069        -10.4069        -10.3106        -10.3106
             743     1.06376E+03     1.06376E+03        -8.07402        -8.07402        -10.8809        -10.8809
             744     1.06161E+03     1.06161E+03        -5.96628        -5.96628        -11.1175        -11.1175
             745     1.05986E+03     1.05986E+03        -4.12246        -4.12246        -11.1085        -11.1085
             746     1.05846E+03     1.05846E+03        -2.55143        -2.55143        -10.9218        -10.9218
             747     1.05736E+03     1.05736E+03        -1.24356        -1.24356        -10.6091        -10.6091
             748     1.05649E+03     1.05649E+03    -178.483E-03    -178.483E-03        -10.2088        -10.2088
             749     1.05582E+03     1.05582E+03     669.370E-03     669.370E-03        -9.74926        -9.74926
             750     1.05530E+03     1.05530E+03         1.32746         1.32746        -9.25166        -9.25166
             751     1.05490E+03     1.05490E+03         1.82287         1.82287        -8.73173        -8.73173
             752     1.05460E+03     1.05460E+03         2.18113         2.18113        -8.20134        -8.20134
             753     1.05437E+03     1.05437E+03         2.42545         2.42545        -7.66950        -7.66950
             754     1.05420E+03     1.05420E+03         2.57651         2.57651        -7.14310        -7.14310
             755     1.05406E+03     1.05406E+03         2.65236         2.65236        -6.62748        -6.62748
             756     1.05396E+03     1.05396E+03         2.66855         2.66855        -6.12668        -6.12668
             757     1.05388E+03     1.05388E+03         2.63831         2.63831        -5.64378        -5.64378
             758     1.05381E+03     1.05381E+03         2.57277         2.57277        -5.18104        -5.18104
             759     1.05376E+03     1.05376E+03         2.48120         2.48120        -4.74005        -4.74005
             760     1.05371E+03     1.05371E+03         2.37127         2.37127        -4.32182        -4.32182
             761     1.05368E+03     1.05368E+03         2.24928         2.24928        -3.92689        -3.92689
             762     1.05364E+03     1.05364E+03         2.12031         2.12031        -3.55537        -3.55537
             763     1.05361E+03     1.05361E+03         1.98851         1.98851        -3.20702        -3.20702
             764     1.05358E+03     1.05358E+03         1.85714         1.85714        -2.88130        -2.88130
             765     1.05356E+03     1.05356E+03         1.72882         1.72882        -2.57743        -2.57743
             766     1.05353E+03     1.05353E+03         1.60559         1.60559        -2.29441        -2.29441
             767     1.05351E+03     1.05351E+03         1.48902         1.48902        -2.03107        -2.03107
             768     1.05349E+03     1.05349E+03         1.38033         1.38033        -1.78608        -1.78608
             769     1.05347E+03     1.05347E+03         1.28043         1.28043        -1.55803        -1.55803
             770     1.05345E+03     1.05345E+03         1.18998         1.18998        -1.34540        -1.34540
             771     1.05343E+03     1.05343E+03         1.10949         1.10949        -1.14659        -1.14659
             772     1.05342E+03     1.05342E+03         1.03929         1.03929    -959.957E-03    -959.957E-03
             773     1.05341E+03     1.05341E+03     979.637E-03     979.637E-03    -783.825E-03    -783.825E-03
             774     1.05340E+03     1.05340E+03     930.679E-03     930.679E-03    -616.476E-03    -616.476E-03
             775     1.05339E+03     1.05339E+03     892.524E-03     892.524E-03    -456.173E-03    -456.173E-03
             776     1.05338E+03     1.05338E+03     865.236E-03     865.236E-03    -301.170E-03    -301.170E-03
             777     1.05338E+03     1.05338E+03     848.827E-03     848.827E-03    -150.178E-03    -150.178E-03
             778     1.08584E+03     1.08584E+03        -14.4972        -14.4972         8.95216         8.95216
             779     1.08345E+03     1.08345E+03        -15.8260        -15.8260         4.90250         4.90250
             780     1.08053E+03     1.08053E+03        -15.8198        -15.8198         1.25074         1.25074
             781     1.07739E+03     1.07739E+03        -14.8630        -14.8630        -1.84509        -1.84509
             782     1.07427E+03     1.07427E+03        -13.3018        -13.3018        -4.33811        -4.33811
             783     1.07133E+03     1.07133E+03        -11.4206        -11.4206        -6.25529        -6.25529
             784     1.06866E+03     1.06866E+03        -9.43148        -9.43148        -7.65838        -7.65838
             785     1.06631E+03     1.06631E+03        -7.48535        -7.48535        -8.62524        -8.62524
             786     1.06429E+03     1.06429E+03        -5.67756        -5.67756        -9.23523        -9.23523
             787     1.06257E+03     1.06257E+03        -4.06208        -4.06208        -9.56036        -9.56036
             788     1.06114E+03     1.06114E+03        -2.66223        -2.66223        -9.66275        -9.66275
             789     1.05995E+03     1.05995E+03        -1.48085        -1.48085        -9.59352        -9.59352
             790     1.05897E+03     1.05897E+03    -507.761E-03    -507.761E-03        -9.39420        -9.39420
             791     1.05816E+03     1.05816E+03     274.760E-03     274.760E-03        -9.09793        -9.09793
             792     1.05750E+03     1.05750E+03     888.081E-03     888.081E-03        -8.73115        -8.73115
             793     1.05695E+03     1.05695E+03         1.35473         1.35473        -8.31488        -8.31488
             794     1.05649E+03     1.05649E+03         1.69670         1.69670        -7.86588        -7.86588
             795     1.05611E+03     1.05611E+03         1.93454         1.93454        -7.39744        -7.39744
             796     1.05579E+03     1.05579E+03         2.08682         2.08682        -6.92018        -6.92018
             797     1.05551E+03     1.05551E+03         2.16992         2.16992        -6.44249        -6.44249
             798     1.05527E+03     1.05527E+03         2.19805         2.19805        -5.97095        -5.97095
             799     1.05506E+03     1.05506E+03         2.18331         2.18331        -5.51068        -5.51068
             800     1.05488E+03     1.05488E+03         2.13593         2.13593        -5.06555        -5.06555
             801     1.05471E+03     1.05471E+03         2.06440         2.06440        -4.63841        -4.63841
             802     1.05456E+03     1.05456E+03         1.97574         1.97574        -4.23127        -4.23127
             803     1.05443E+03     1.05443E+03         1.87568         1.87568        -3.84538        -3.84538
             804     1.05431E+03     1.05431E+03         1.76888         1.76888        -3.48145        -3.48145
             805     1.05420E+03     1.05420E+03         1.65906         1.65906        -3.13964        -3.13964
             806     1.05409E+03     1.05409E+03         1.54919         1.54919        -2.81973        -2.81973
             807     1.05400E+03     1.05400E+03         1.44160         1.44160        -2.52115        -2.52115
             808     1.05392E+03     1.05392E+03         1.33811         1.33811        -2.24307        -2.24307
             809     1.05384E+03     1.05384E+03         1.24013         1.24013        -1.98442        -1.98442
             810     1.05378E+03     1.05378E+03         1.14872         1.14872        -1.74396        -1.74396
             811     1.05372E+03     1.05372E+03         1.06467         1.06467        -1.52032        -1.52032
             812     1.05366E+03     1.05366E+03     988.571E-03     988.571E-03        -1.31201        -1.31201
             813     1.05362E+03     1.05362E+03     920.848E-03     920.848E-03        -1.11747        -1.11747
             814     1.05358E+03     1.05358E+03     861.796E-03     861.796E-03    -935.064E-03    -935.064E-03
             815     1.05354E+03     1.05354E+03     811.615E-03     811.615E-03    -763.127E-03    -763.127E-03
             816     1.05352E+03     1.05352E+03     770.439E-03     770.439E-03    -599.946E-03    -599.946E-03
             817     1.05349E+03     1.05349E+03     738.353E-03     738.353E-03    -443.793E-03    -443.793E-03
             818     1.05348E+03     1.05348E+03     715.407E-03     715.407E-03    -292.924E-03    -292.924E-03
             819     1.05347E+03     1.05347E+03     701.614E-03     701.614E-03    -146.075E-03    -146.075E-03
             820     1.08259E+03     1.08259E+03        -10.7398        -10.7398         10.4719         10.4719
             821     1.08126E+03     1.08126E+03        -12.1973        -12.1973         7.08682         7.08682
             822     1.07940E+03     1.07940E+03        -12.5627        -12.5627         3.82012         3.82012
             823     1.07721E+03     1.07721E+03        -12.0952        -12.0952     871.792E-03     871.792E-03
             824     1.07488E+03     1.07488E+03        -11.0554        -11.0554        -1.65611        -1.65611
             825     1.07258E+03     1.07258E+03        -9.67243        -9.67243        -3.72971        -3.72971
             826     1.07038E+03     1.07038E+03        -8.13175        -8.13175        -5.36194        -5.36194
             827     1.06837E+03     1.06837E+03        -6.57019        -6.57019        -6.59075        -6.59075
             828     1.06656E+03     1.06656E+03        -5.08260        -5.08260        -7.46682        -7.46682
             829     1.06496E+03     1.06496E+03        -3.72726        -3.72726        -8.04414        -8.04414
             830     1.06356E+03     1.06356E+03        -2.53512        -2.53512        -8.37440        -8.37440
             831     1.06235E+03     1.06235E+03        -1.51692        -1.51692        -8.50448        -8.50448
             832     1.06131E+03     1.06131E+03    -669.996E-03    -669.996E-03        -8.47523        -8.47523
             833     1.06040E+03     1.06040E+03     16.7858E-03     16.7858E-03        -8.32157        -8.32157
             834     1.05962E+03     1.05962E+03     559.252E-03     559.252E-03        -8.07281        -8.07281
             835     1.05894E+03     1.05894E+03     975.275E-03     975.275E-03        -7.75337        -7.75337
             836     1.05835E+03     1.05835E+03         1.28305         1.28305        -7.38339        -7.38339
             837     1.05782E+03     1.05782E+03         1.49996         1.49996        -6.97936        -6.97936
             838     1.05736E+03     1.05736E+03         1.64197         1.64197        -6.55469        -6.55469
             839     1.05694E+03     1.05694E+03         1.72331         1.72331        -6.12017        -6.12017
             840     1.05657E+03     1.05657E+03         1.75636         1.75636        -5.68438        -5.68438
             841     1.05623E+03     1.05623E+03         1.75174         1.75174        -5.25406        -5.25406
             842     1.05592E+03     1.05592E+03         1.71840         1.71840        -4.83436        -4.83436
             843     1.05565E+03     1.05565E+03         1.66378         1.66378        -4.42916        -4.42916
             844     1.05539E+03     1.05539E+03         1.59403         1.59403        -4.04123        -4.04123
             845     1.05516E+03     1.05516E+03         1.51414         1.51414        -3.67246        -3.67246
             846     1.05495E+03     1.05495E+03         1.42816         1.42816        -3.32398        -3.32398
             847     1.05476E+03     1.05476E+03         1.33931         1.33931        -2.99631        -2.99631
             848     1.05459E+03     1.05459E+03         1.25014         1.25014        -2.68947        -2.68947
             849     1.05443E+03     1.05443E+03         1.16268         1.16268        -2.40310        -2.40310
             850     1.05429E+03     1.05429E+03         1.07845         1.07845        -2.13649        -2.13649
             851     1.05416E+03     1.05416E+03     998.663E-03     998.663E-03        -1.88868        -1.88868
             852     1.05404E+03     1.05404E+03     924.205E-03     924.205E-03        -1.65854        -1.65854
             853     1.05394E+03     1.05394E+03     855.745E-03     855.745E-03        -1.44474        -1.44474
             854     1.05385E+03     1.05385E+03     793.770E-03     793.770E-03        -1.24586        -1.24586
             855     1.05378E+03     1.05378E+03     738.625E-03     738.625E-03        -1.06038        -1.06038
             856     1.05371E+03     1.05371E+03     690.551E-03     690.551E-03    -886.724E-03    -886.724E-03
             857     1.05366E+03     1.05366E+03     649.710E-03     649.710E-03    -723.262E-03    -723.262E-03
             858     1.05361E+03     1.05361E+03     616.204E-03     616.204E-03    -568.330E-03    -568.330E-03
             859     1.05358E+03     1.05358E+03     590.099E-03     590.099E-03    -420.242E-03    -420.242E-03
             860     1.05355E+03     1.05355E+03     571.433E-03     571.433E-03    -277.302E-03    -277.302E-03
             861     1.05354E+03     1.05354E+03     560.216E-03     560.216E-03    -138.298E-03    -138.298E-03
             862     1.07951E+03     1.07951E+03        -7.73330        -7.73330         11.0658         11.0658
             863     1.07903E+03     1.07903E+03        -9.08835        -9.08835         8.29191         8.29191
             864     1.07804E+03     1.07804E+03        -9.60022        -9.60022         5.45439         5.45439
             865     1.07668E+03     1.07668E+03        -9.43361        -9.43361         2.75707         2.75707
             866     1.07510E+03     1.07510E+03        -8.77344        -8.77344     330.641E-03     330.641E-03
             867     1.07342E+03     1.07342E+03        -7.79491        -7.79491        -1.75608        -1.75608
             868     1.07173E+03     1.07173E+03        -6.64675        -6.64675        -3.47885        -3.47885
             869     1.07008E+03     1.07008E+03        -5.44569        -5.44569        -4.84513        -4.84513
             870     1.06854E+03     1.06854E+03        -4.27544        -4.27544        -5.88105        -5.88105
             871     1.06710E+03     1.06710E+03        -3.19152        -3.19152        -6.62314        -6.62314
             872     1.06579E+03     1.06579E+03        -2.22585        -2.22585        -7.11185        -7.11185
             873     1.06460E+03     1.06460E+03        -1.39290        -1.39290        -7.38755        -7.38755
             874     1.06353E+03     1.06353E+03    -694.527E-03    -694.527E-03        -7.48822        -7.48822
             875     1.06255E+03     1.06255E+03    -124.489E-03    -124.489E-03        -7.44812        -7.44812
             876     1.06167E+03     1.06167E+03     328.368E-03     328.368E-03        -7.29742        -7.29742
             877     1.06088E+03     1.06088E+03     677.638E-03     677.638E-03        -7.06208        -7.06208
             878     1.06015E+03     1.06015E+03     937.681E-03     937.681E-03        -6.76413        -6.76413
             879     1.05949E+03     1.05949E+03         1.12254         1.12254        -6.42195        -6.42195
             880     1.05889E+03     1.05889E+03         1.24528         1.24528        -6.05071        -6.05071
             881     1.05834E+03     1.05834E+03         1.31763         1.31763        -5.66274        -5.66274
             882     1.05783E+03     1.05783E+03         1.34987         1.34987        -5.26793        -5.26793
             883     1.05736E+03     1.05736E+03         1.35081         1.35081        -4.87406        -4.87406
             884     1.05694E+03     1.05694E+03         1.32790         1.32790        -4.48715        -4.48715
             885     1.05655E+03     1.05655E+03         1.28732         1.28732        -4.11174        -4.11174
             886     1.05619E+03     1.05619E+03         1.23416         1.23416        -3.75113        -3.75113
             887     1.05586E+03     1.05586E+03         1.17256         1.17256        -3.40758        -3.40758
             888     1.05556E+03     1.05556E+03         1.10583         1.10583        -3.08254        -3.08254
             889     1.05529E+03     1.05529E+03         1.03664         1.03664        -2.77674        -2.77674
             890     1.05504E+03     1.05504E+03     967.069E-03     967.069E-03        -2.49041        -2.49041
             891     1.05482E+03     1.05482E+03     898.743E-03     898.743E-03        -2.22330        -2.22330
             892     1.05462E+03     1.05462E+03     832.920E-03     832.920E-03        -1.97482        -1.97482
             893     1.05444E+03     1.05444E+03     770.554E-03     770.554E-03        -1.74414        -1.74414
             894     1.05428E+03     1.05428E+03     712.362E-03     712.362E-03        -1.53017        -1.53017
             895     1.05414E+03     1.05414E+03     658.871E-03     658.871E-03        -1.33169        -1.33169
             896     1.05401E+03     1.05401E+03     610.463E-03     610.463E-03        -1.14737        -1.14737
             897     1.05391E+03     1.05391E+03     567.407E-03     567.407E-03    -975.749E-03    -975.749E-03
             898     1.05382E+03     1.05382E+03     529.885E-03     529.885E-03    -815.343E-03    -815.343E-03
             899     1.05374E+03     1.05374E+03     498.018E-03     498.018E-03    -664.600E-03    -664.600E-03
             900     1.05368E+03     1.05368E+03     471.883E-03     471.883E-03    -521.943E-03    -521.943E-03
             901     1.05363E+03     1.05363E+03     451.524E-03     451.524E-03    -385.770E-03    -385.770E-03
             902     1.05360E+03     1.05360E+03     436.968E-03     436.968E-03    -254.472E-03    -254.472E-03
             903     1.05358E+03     1.05358E+03     428.226E-03     428.226E-03    -126.935E-03    -126.935E-03
             904     1.07672E+03     1.07672E+03        -5.35994        -5.35994         10.9317         10.9317
             905     1.07694E+03     1.07694E+03        -6.48181        -6.48181         8.68829         8.68829
             906     1.07671E+03     1.07671E+03        -6.98804        -6.98804         6.27706         6.27706
             907     1.07610E+03     1.07610E+03        -6.97946        -6.97946         3.88750         3.88750
             908     1.07520E+03     1.07520E+03        -6.58043        -6.58043         1.65579         1.65579
             909     1.07411E+03     1.07411E+03        -5.91668        -5.91668    -330.810E-03    -330.810E-03
             910     1.07291E+03     1.07291E+03        -5.10035        -5.10035        -2.02683        -2.02683
             911     1.07165E+03     1.07165E+03        -4.22238        -4.22238        -3.41784        -3.41784
             912     1.07038E+03     1.07038E+03        -3.35109        -3.35109        -4.51189        -4.51189
             913     1.06913E+03     1.06913E+03        -2.53307        -2.53307        -5.33101        -5.33101
             914     1.06792E+03     1.06792E+03        -1.79703        -1.79703        -5.90524        -5.90524
             915     1.06676E+03     1.06676E+03        -1.15723        -1.15723        -6.26806        -6.26806
             916     1.06567E+03     1.06567E+03    -617.668E-03    -617.668E-03        -6.45319        -6.45319
             917     1.06464E+03     1.06464E+03    -175.188E-03    -175.188E-03        -6.49269        -6.49269
             918     1.06367E+03     1.06367E+03     177.690E-03     177.690E-03        -6.41578        -6.41578
             919     1.06276E+03     1.06276E+03     450.817E-03     450.817E-03        -6.24835        -6.24835
             920     1.06190E+03     1.06190E+03     654.946E-03     654.946E-03        -6.01274        -6.01274
             921     1.06111E+03     1.06111E+03     800.786E-03     800.786E-03        -5.72790        -5.72790
             922     1.06037E+03     1.06037E+03     898.405E-03     898.405E-03        -5.40958        -5.40958
             923     1.05968E+03     1.05968E+03     956.902E-03     956.902E-03        -5.07069        -5.07069
             924     1.05904E+03     1.05904E+03     984.274E-03     984.274E-03        -4.72159        -4.72159
             925     1.05845E+03     1.05845E+03     987.382E-03     987.382E-03        -4.37049        -4.37049
             926     1.05790E+03     1.05790E+03     972.020E-03     972.020E-03        -4.02373        -4.02373
             927     1.05740E+03     1.05740E+03     942.997E-03     942.997E-03        -3.68610        -3.68610
             928     1.05693E+03     1.05693E+03     904.259E-03     904.259E-03        -3.36107        -3.36107
             929     1.05651E+03     1.05651E+03     859.002E-03     859.002E-03        -3.05107        -3.05107
             930     1.05612E+03     1.05612E+03     809.790E-03     809.790E-03        -2.75766        -2.75766
             931     1.05577E+03     1.05577E+03     758.654E-03     758.654E-03        -2.48169        -2.48169
             932     1.05545E+03     1.05545E+03     707.189E-03     707.189E-03        -2.22345        -2.22345
             933     1.05517E+03     1.05517E+03     656.633E-03     656.633E-03        -1.98279        -1.98279
             934     1.05491E+03     1.05491E+03     607.932E-03     607.932E-03        -1.75922        -1.75922
             935     1.05468E+03     1.05468E+03     561.804E-03     561.804E-03        -1.55197        -1.55197
             936     1.05447E+03     1.05447E+03     518.783E-03     518.783E-03        -1.36006        -1.36006
             937     1.05429E+03     1.05429E+03     479.258E-03     479.258E-03        -1.18238        -1.18238
             938     1.05414E+03     1.05414E+03     443.508E-03     443.508E-03        -1.01768        -1.01768
             939     1.05400E+03     1.05400E+03     411.727E-03     411.727E-03    -864.637E-03    -864.637E-03
             940     1.05389E+03     1.05389E+03     384.046E-03     384.046E-03    -721.873E-03    -721.873E-03
             941     1.05379E+03     1.05379E+03     360.547E-03     360.547E-03    -587.965E-03    -587.965E-03
             942     1.05372E+03     1.05372E+03     341.280E-03     341.280E-03    -461.461E-03    -461.461E-03
             943     1.05366E+03     1.05366E+03     326.276E-03     326.276E-03    -340.894E-03    -340.894E-03
             944     1.05361E+03     1.05361E+03     315.546E-03     315.546E-03    -224.789E-03    -224.789E-03
             945     1.05359E+03     1.05359E+03     309.106E-03     309.106E-03    -112.164E-03    -112.164E-03
             946     1.07428E+03     1.07428E+03        -3.50524        -3.50524         10.1635         10.1635
             947     1.07515E+03     1.07515E+03        -4.33572        -4.33572         8.37538         8.37538
             948     1.07561E+03     1.07561E+03        -4.74785        -4.74785         6.37510         6.37510
             949     1.07568E+03     1.07568E+03        -4.80004        -4.80004         4.32837         4.32837
             950     1.07541E+03     1.07541E+03        -4.57153        -4.57153         2.36367         2.36367
             951     1.07488E+03     1.07488E+03        -4.14631        -4.14631     571.040E-03     571.040E-03
             952     1.07414E+03     1.07414E+03        -3.60209        -3.60209    -994.330E-03    -994.330E-03
             953     1.07324E+03     1.07324E+03        -3.00397        -3.00397        -2.30664        -2.30664
             954     1.07223E+03     1.07223E+03        -2.40187        -2.40187        -3.36203        -3.36203
             955     1.07115E+03     1.07115E+03        -1.83108        -1.83108        -4.17232        -4.17232
             956     1.07004E+03     1.07004E+03        -1.31374        -1.31374        -4.75910        -4.75910
             957     1.06891E+03     1.06891E+03    -861.750E-03    -861.750E-03        -5.14932        -5.14932
             958     1.06779E+03     1.06779E+03    -479.094E-03    -479.094E-03        -5.37192        -5.37192
             959     1.06669E+03     1.06669E+03    -164.434E-03    -164.434E-03        -5.45552        -5.45552
             960     1.06562E+03     1.06562E+03     87.0321E-03     87.0321E-03        -5.42695        -5.42695
             961     1.06459E+03     1.06459E+03     281.989E-03     281.989E-03        -5.31038        -5.31038
             962     1.06360E+03     1.06360E+03     427.937E-03     427.937E-03        -5.12700        -5.12700
             963     1.06267E+03     1.06267E+03     532.439E-03     532.439E-03        -4.89489        -4.89489
             964     1.06179E+03     1.06179E+03     602.650E-03     602.650E-03        -4.62917        -4.62917
             965     1.06096E+03     1.06096E+03     645.067E-03     645.067E-03        -4.34225        -4.34225
             966     1.06018E+03     1.06018E+03     665.398E-03     665.398E-03        -4.04412        -4.04412
             967     1.05946E+03     1.05946E+03     668.548E-03     668.548E-03        -3.74265        -3.74265
             968     1.05879E+03     1.05879E+03     658.646E-03     658.646E-03        -3.44395        -3.44395
             969     1.05817E+03     1.05817E+03     639.117E-03     639.117E-03        -3.15259        -3.15259
             970     1.05761E+03     1.05761E+03     612.759E-03     612.759E-03        -2.87190        -2.87190
             971     1.05709E+03     1.05709E+03     581.834E-03     581.834E-03        -2.60420        -2.60420
             972     1.05662E+03     1.05662E+03     548.147E-03     548.147E-03        -2.35097        -2.35097
             973     1.05619E+03     1.05619E+03     513.125E-03     513.125E-03        -2.11302        -2.11302
             974     1.05580E+03     1.05580E+03     477.879E-03     477.879E-03        -1.89066        -1.89066
             975     1.05545E+03     1.05545E+03     443.269E-03     443.269E-03        -1.68377        -1.68377
             976     1.05514E+03     1.05514E+03     409.949E-03     409.949E-03        -1.49191        -1.49191
             977     1.05486E+03     1.05486E+03     378.411E-03     378.411E-03        -1.31440        -1.31440
             978     1.05462E+03     1.05462E+03     349.019E-03     349.019E-03        -1.15038        -1.15038
             979     1.05440E+03     1.05440E+03     322.035E-03     322.035E-03    -998.849E-03    -998.849E-03
             980     1.05421E+03     1.05421E+03     297.646E-03     297.646E-03    -858.705E-03    -858.705E-03
             981     1.05405E+03     1.05405E+03     275.978E-03     275.978E-03    -728.776E-03    -728.776E-03
             982     1.05392E+03     1.05392E+03     257.118E-03     257.118E-03    -607.845E-03    -607.845E-03
             983     1.05380E+03     1.05380E+03     241.117E-03     241.117E-03    -494.659E-03    -494.659E-03
             984     1.05371E+03     1.05371E+03     228.004E-03     228.004E-03    -387.950E-03    -387.950E-03
             985     1.05364E+03     1.05364E+03     217.787E-03     217.787E-03    -286.426E-03    -286.426E-03
             986     1.05359E+03     1.05359E+03     210.481E-03     210.481E-03    -188.794E-03    -188.794E-03
             987     1.05356E+03     1.05356E+03     206.097E-03     206.097E-03    -94.2620E-03    -94.2620E-03
             988     1.07225E+03     1.07225E+03        -2.07901        -2.07901         8.76624         8.76624
             989     1.07378E+03     1.07378E+03        -2.61466        -2.61466         7.38354         7.38354
             990     1.07492E+03     1.07492E+03        -2.89473        -2.89473         5.79121         5.79121
             991     1.07564E+03     1.07564E+03        -2.95112        -2.95112         4.12574         4.12574
             992     1.07597E+03     1.07597E+03        -2.82978        -2.82978         2.49770         2.49770
             993     1.07595E+03     1.07595E+03        -2.58138        -2.58138     988.994E-03     988.994E-03
             994     1.07562E+03     1.07562E+03        -2.25396        -2.25396    -346.880E-03    -346.880E-03
             995     1.07503E+03     1.07503E+03        -1.88854        -1.88854        -1.48102        -1.48102
             996     1.07425E+03     1.07425E+03        -1.51724        -1.51724        -2.40450        -2.40450
             997     1.07330E+03     1.07330E+03        -1.16296        -1.16296        -3.12285        -3.12285
             998     1.07224E+03     1.07224E+03    -840.523E-03    -840.523E-03        -3.65147        -3.65147
             999     1.07111E+03     1.07111E+03    -557.964E-03    -557.964E-03        -4.01143        -4.01143
            1000     1.06993E+03     1.06993E+03    -318.322E-03    -318.322E-03        -4.22647        -4.22647
            1001     1.06874E+03     1.06874E+03    -121.033E-03    -121.033E-03        -4.32067        -4.32067
            1002     1.06755E+03     1.06755E+03     36.7166E-03     36.7166E-03        -4.31699        -4.31699
            1003     1.06638E+03     1.06638E+03     159.048E-03     159.048E-03        -4.23634        -4.23634
            1004     1.06524E+03     1.06524E+03     250.637E-03     250.637E-03        -4.09713        -4.09713
            1005     1.06416E+03     1.06416E+03     316.237E-03     316.237E-03        -3.91514        -3.91514
            1006     1.06312E+03     1.06312E+03     360.359E-03     360.359E-03        -3.70359        -3.70359
            1007     1.06215E+03     1.06215E+03     387.098E-03     387.098E-03        -3.47330        -3.47330
            1008     1.06123E+03     1.06123E+03     400.056E-03     400.056E-03        -3.23294        -3.23294
            1009     1.06038E+03     1.06038E+03     402.317E-03     402.317E-03        -2.98936        -2.98936
            1010     1.05959E+03     1.05959E+03     396.478E-03     396.478E-03        -2.74781        -2.74781
            1011     1.05886E+03     1.05886E+03     384.680E-03     384.680E-03        -2.51222        -2.51222
            1012     1.05819E+03     1.05819E+03     368.674E-03     368.674E-03        -2.28542        -2.28542
            1013     1.05758E+03     1.05758E+03     349.864E-03     349.864E-03        -2.06937        -2.06937
            1014     1.05702E+03     1.05702E+03     329.369E-03     329.369E-03        -1.86530        -1.86530
            1015     1.05652E+03     1.05652E+03     308.070E-03     308.070E-03        -1.67391        -1.67391
            1016     1.05607E+03     1.05607E+03     286.648E-03     286.648E-03        -1.49540        -1.49540
            1017     1.05566E+03     1.05566E+03     265.630E-03     265.630E-03        -1.32966        -1.32966
            1018     1.05530E+03     1.05530E+03     245.413E-03     245.413E-03        -1.17631        -1.17631
            1019     1.05498E+03     1.05498E+03     226.294E-03     226.294E-03        -1.03478        -1.03478
            1020     1.05470E+03     1.05470E+03     208.490E-03     208.490E-03    -904.314E-03    -904.314E-03
            1021     1.05445E+03     1.05445E+03     192.159E-03     192.159E-03    -784.089E-03    -784.089E-03
            1022     1.05423E+03     1.05423E+03     177.408E-03     177.408E-03    -673.184E-03    -673.184E-03
            1023     1.05405E+03     1.05405E+03     164.313E-03     164.313E-03    -570.627E-03    -570.627E-03
            1024     1.05389E+03     1.05389E+03     152.921E-03     152.921E-03    -475.412E-03    -475.412E-03
            1025     1.05377E+03     1.05377E+03     143.262E-03     143.262E-03    -386.509E-03    -386.509E-03
            1026     1.05366E+03     1.05366E+03     135.356E-03     135.356E-03    -302.876E-03    -302.876E-03
            1027     1.05358E+03     1.05358E+03     129.196E-03     129.196E-03    -223.477E-03    -223.477E-03
            1028     1.05353E+03     1.05353E+03     124.770E-03     124.770E-03    -147.247E-03    -147.247E-03
            1029     1.05349E+03     1.05349E+03     122.114E-03     122.114E-03    -73.5986E-03    -73.5986E-03
            1030     1.07069E+03     1.07069E+03        -1.03065        -1.03065         6.66370         6.66370
            1031     1.07298E+03     1.07298E+03        -1.31095        -1.31095         5.67927         5.67927
            1032     1.07484E+03     1.07484E+03        -1.46178        -1.46178         4.52571         4.52571
            1033     1.07622E+03     1.07622E+03        -1.49816        -1.49816         3.30470         3.30470
            1034     1.07711E+03     1.07711E+03        -1.44271        -1.44271         2.10003         2.10003
            1035     1.07755E+03     1.07755E+03        -1.32079        -1.32079     975.179E-03     975.179E-03
            1036     1.07757E+03     1.07757E+03        -1.15691        -1.15691    -26.9565E-03    -26.9565E-03
            1037     1.07723E+03     1.07723E+03    -972.286E-03    -972.286E-03    -882.249E-03    -882.249E-03
            1038     1.07659E+03     1.07659E+03    -783.618E-03    -783.618E-03        -1.58183        -1.58183
            1039     1.07570E+03     1.07570E+03    -603.008E-03    -603.008E-03        -2.12847        -2.12847
            1040     1.07464E+03     1.07464E+03    -438.247E-03    -438.247E-03        -2.53275        -2.53275
            1041     1.07343E+03     1.07343E+03    -293.699E-03    -293.699E-03        -2.81012        -2.81012
            1042     1.07215E+03     1.07215E+03    -171.013E-03    -171.013E-03        -2.97824        -2.97824
            1043     1.07081E+03     1.07081E+03    -69.9963E-03    -69.9963E-03        -3.05527        -3.05527
            1044     1.06946E+03     1.06946E+03     10.7742E-03     10.7742E-03        -3.05860        -3.05860
            1045     1.06812E+03     1.06812E+03     73.3974E-03     73.3974E-03        -3.00411        -3.00411
            1046     1.06682E+03     1.06682E+03     120.280E-03     120.280E-03        -2.90580        -2.90580
            1047     1.06556E+03     1.06556E+03     153.869E-03     153.869E-03        -2.77561        -2.77561
            1048     1.06436E+03     1.06436E+03     176.488E-03     176.488E-03        -2.62354        -2.62354
            1049     1.06323E+03     1.06323E+03     190.246E-03     190.246E-03        -2.45772        -2.45772
            1050     1.06216E+03     1.06216E+03     196.991E-03     196.991E-03        -2.28464        -2.28464
            1051     1.06118E+03     1.06118E+03     198.308E-03     198.308E-03        -2.10941        -2.10941
            1052     1.06027E+03     1.06027E+03     195.521E-03     195.521E-03        -1.93588        -1.93588
            1053     1.05943E+03     1.05943E+03     189.725E-03     189.725E-03        -1.76694        -1.76694
            1054     1.05866E+03     1.05866E+03     181.807E-03     181.807E-03        -1.60464        -1.60464
            1055     1.05796E+03     1.05796E+03     172.482E-03     172.482E-03        -1.45038        -1.45038
            1056     1.05733E+03     1.05733E+03     162.313E-03     162.313E-03        -1.30502        -1.30502
            1057     1.05676E+03     1.05676E+03     151.743E-03     151.743E-03        -1.16902        -1.16902
            1058     1.05625E+03     1.05625E+03     141.116E-03     141.116E-03        -1.04249        -1.04249
            1059     1.05579E+03     1.05579E+03     130.693E-03     130.693E-03    -925.324E-03    -925.324E-03
            1060     1.05538E+03     1.05538E+03     120.672E-03     120.672E-03    -817.199E-03    -817.199E-03
            1061     1.05502E+03     1.05502E+03     111.200E-03     111.200E-03    -717.669E-03    -717.669E-03
            1062     1.05471E+03     1.05471E+03     102.385E-03     102.385E-03    -626.178E-03    -626.178E-03
            1063     1.05443E+03     1.05443E+03     94.3024E-03     94.3024E-03    -542.099E-03    -542.099E-03
            1064     1.05419E+03     1.05419E+03     87.0063E-03     87.0063E-03    -464.754E-03    -464.754E-03
            1065     1.05399E+03     1.05399E+03     80.5316E-03     80.5316E-03    -393.429E-03    -393.429E-03
            1066     1.05382E+03     1.05382E+03     74.9022E-03     74.9022E-03    -327.388E-03    -327.388E-03
            1067     1.05368E+03     1.05368E+03     70.1310E-03     70.1310E-03    -265.885E-03    -265.885E-03
            1068     1.05356E+03     1.05356E+03     66.2273E-03     66.2273E-03    -208.162E-03    -208.162E-03
            1069     1.05348E+03     1.05348E+03     63.2047E-03     63.2047E-03    -153.467E-03    -153.467E-03
            1070     1.05342E+03     1.05342E+03     61.0194E-03     61.0194E-03    -101.081E-03    -101.081E-03
            1071     1.05338E+03     1.05338E+03     59.6599E-03     59.6599E-03    -50.6901E-03    -50.6901E-03
            1072     1.06975E+03     1.06975E+03    -362.467E-03    -362.467E-03         3.72097         3.72097
            1073     1.07296E+03     1.07296E+03    -464.717E-03    -464.717E-03         3.18680         3.18680
            1074     1.07563E+03     1.07563E+03    -520.637E-03    -520.637E-03         2.55632         2.55632
            1075     1.07769E+03     1.07769E+03    -535.558E-03    -535.558E-03         1.88641         1.88641
            1076     1.07912E+03     1.07912E+03    -517.281E-03    -517.281E-03         1.22372         1.22372
            1077     1.07995E+03     1.07995E+03    -474.790E-03    -474.790E-03     603.880E-03     603.880E-03
            1078     1.08022E+03     1.08022E+03    -416.933E-03    -416.933E-03     51.1123E-03     51.1123E-03
            1079     1.08002E+03     1.08002E+03    -351.321E-03    -351.321E-03    -420.758E-03    -420.758E-03
            1080     1.07941E+03     1.07941E+03    -284.064E-03    -284.064E-03    -806.633E-03    -806.633E-03
            1081     1.07848E+03     1.07848E+03    -219.521E-03    -219.521E-03        -1.10788        -1.10788
            1082     1.07730E+03     1.07730E+03    -160.578E-03    -160.578E-03        -1.33043        -1.33043
            1083     1.07594E+03     1.07594E+03    -108.811E-03    -108.811E-03        -1.48287        -1.48287
            1084     1.07447E+03     1.07447E+03    -64.8518E-03    -64.8518E-03        -1.57511        -1.57511
            1085     1.07293E+03     1.07293E+03    -28.6356E-03    -28.6356E-03        -1.61731        -1.61731
            1086     1.07136E+03     1.07136E+03     340.343E-06     340.343E-06        -1.61917        -1.61917
            1087     1.06981E+03     1.06981E+03     22.8262E-03     22.8262E-03        -1.58954        -1.58954
            1088     1.06830E+03     1.06830E+03     39.6877E-03     39.6877E-03        -1.53617        -1.53617
            1089     1.06685E+03     1.06685E+03     51.8002E-03     51.8002E-03        -1.46568        -1.46568
            1090     1.06547E+03     1.06547E+03     59.9997E-03     59.9997E-03        -1.38354        -1.38354
            1091     1.06417E+03     1.06417E+03     65.0391E-03     65.0391E-03        -1.29421        -1.29421
            1092     1.06296E+03     1.06296E+03     67.5814E-03     67.5814E-03        -1.20121        -1.20121
            1093     1.06183E+03     1.06183E+03     68.1903E-03     68.1903E-03        -1.10729        -1.10729
            1094     1.06080E+03     1.06080E+03     67.3394E-03     67.3394E-03        -1.01453        -1.01453
            1095     1.05985E+03     1.05985E+03     65.4171E-03     65.4171E-03    -924.452E-03    -924.452E-03
            1096     1.05899E+03     1.05899E+03     62.7392E-03     62.7392E-03    -838.130E-03    -838.130E-03
            1097     1.05821E+03     1.05821E+03     59.5581E-03     59.5581E-03    -756.287E-03    -756.287E-03
            1098     1.05751E+03     1.05751E+03     56.0738E-03     56.0738E-03    -679.355E-03    -679.355E-03
            1099     1.05688E+03     1.05688E+03     52.4427E-03     52.4427E-03    -607.550E-03    -607.550E-03
            1100     1.05632E+03     1.05632E+03     48.7857E-03     48.7857E-03    -540.910E-03    -540.910E-03
            1101     1.05582E+03     1.05582E+03     45.1951E-03     45.1951E-03    -479.348E-03    -479.348E-03
            1102     1.05537E+03     1.05537E+03     41.7405E-03     41.7405E-03    -422.677E-03    -422.677E-03
            1103     1.05498E+03     1.05498E+03     38.4736E-03     38.4736E-03    -370.637E-03    -370.637E-03
            1104     1.05464E+03     1.05464E+03     35.4319E-03     35.4319E-03    -322.919E-03    -322.919E-03
            1105     1.05434E+03     1.05434E+03     32.6426E-03     32.6426E-03    -279.176E-03    -279.176E-03
            1106     1.05409E+03     1.05409E+03     30.1238E-03     30.1238E-03    -239.036E-03    -239.036E-03
            1107     1.05387E+03     1.05387E+03     27.8891E-03     27.8891E-03    -202.111E-03    -202.111E-03
            1108     1.05368E+03     1.05368E+03     25.9446E-03     25.9446E-03    -168.004E-03    -168.004E-03
            1109     1.05353E+03     1.05353E+03     24.2991E-03     24.2991E-03    -136.313E-03    -136.313E-03
            1110     1.05341E+03     1.05341E+03     22.9496E-03     22.9496E-03    -106.634E-03    -106.634E-03
            1111     1.05332E+03     1.05332E+03     21.9133E-03     21.9133E-03    -78.5518E-03    -78.5518E-03
            1112     1.05326E+03     1.05326E+03     21.1932E-03     21.1932E-03    -51.6815E-03    -51.6815E-03
            1113     1.05322E+03     1.05322E+03     20.6716E-03     20.6716E-03    -26.1142E-03    -26.1142E-03
            1114     1.07321E+03     1.07321E+03        -43.5045        -43.5045         41.7457         41.7457
            1115     1.06021E+03     1.06021E+03        -33.8481        -33.8481         40.5489         40.5489
            1116     1.05129E+03     1.05129E+03        -25.3516        -25.3516         37.3336         37.3336
            1117     1.04552E+03     1.04552E+03        -18.3698        -18.3698         33.3732         33.3732
            1118     1.04200E+03     1.04200E+03        -12.8229        -12.8229         29.3754         29.3754
            1119     1.04003E+03     1.04003E+03        -8.46230        -8.46230         25.6748         25.6748
            1120     1.03910E+03     1.03910E+03        -5.04821        -5.04821         22.3975         22.3975
            1121     1.03886E+03     1.03886E+03        -2.37473        -2.37473         19.5626         19.5626
            1122     1.03905E+03     1.03905E+03    -283.939E-03    -283.939E-03         17.1407         17.1407
            1123     1.03953E+03     1.03953E+03         1.34635         1.34635         15.0832         15.0832
            1124     1.04018E+03     1.04018E+03         2.60812         2.60812         13.3371         13.3371
            1125     1.04094E+03     1.04094E+03         3.57244         3.57244         11.8521         11.8521
            1126     1.04174E+03     1.04174E+03         4.29427         4.29427         10.5836         10.5836
            1127     1.04257E+03     1.04257E+03         4.81727         4.81727         9.49322         9.49322
            1128     1.04339E+03     1.04339E+03         5.17654         5.17654         8.54900         8.54900
            1129     1.04419E+03     1.04419E+03         5.40095         5.40095         7.72466         7.72466
            1130     1.04496E+03     1.04496E+03         5.51449         5.51449         6.99883         6.99883
            1131     1.04570E+03     1.04570E+03         5.53744         5.53744         6.35436         6.35436
            1132     1.04639E+03     1.04639E+03         5.48700         5.48700         5.77754         5.77754
            1133     1.04704E+03     1.04704E+03         5.37791         5.37791         5.25751         5.25751
            1134     1.04765E+03     1.04765E+03         5.22284         5.22284         4.78567         4.78567
            1135     1.04822E+03     1.04822E+03         5.03262         5.03262         4.35522         4.35522
            1136     1.04874E+03     1.04874E+03         4.81658         4.81658         3.96078         3.96078
            1137     1.04922E+03     1.04922E+03         4.58266         4.58266         3.59808         3.59808
            1138     1.04967E+03     1.04967E+03         4.33765         4.33765         3.26366         3.26366
            1139     1.05007E+03     1.05007E+03         4.08728         4.08728         2.95472         2.95472
            1140     1.05044E+03     1.05044E+03         3.83638         3.83638         2.66893         2.66893
            1141     1.05077E+03     1.05077E+03         3.58896         3.58896         2.40428         2.40428
            1142     1.05107E+03     1.05107E+03         3.34837         3.34837         2.15904         2.15904
            1143     1.05134E+03     1.05134E+03         3.11735         3.11735         1.93164         1.93164
            1144     1.05158E+03     1.05158E+03         2.89810         2.89810         1.72064         1.72064
            1145     1.05179E+03     1.05179E+03         2.69242         2.69242         1.52468         1.52468
            1146     1.05198E+03     1.05198E+03         2.50172         2.50172         1.34245         1.34245
            1147     1.05215E+03     1.05215E+03         2.32711         2.32711         1.17267         1.17267
            1148     1.05229E+03     1.05229E+03         2.16942         2.16942         1.01408         1.01408
            1149     1.05241E+03     1.05241E+03         2.02931         2.02931     865.460E-03     865.460E-03
            1150     1.05252E+03     1.05252E+03         1.90725         1.90725     725.553E-03     725.553E-03
            1151     1.05260E+03     1.05260E+03         1.80358         1.80358     593.131E-03     593.131E-03
            1152     1.05267E+03     1.05267E+03         1.71855         1.71855     466.955E-03     466.955E-03
            1153     1.05273E+03     1.05273E+03         1.65234         1.65234     345.791E-03     345.791E-03
            1154     1.05277E+03     1.05277E+03         1.60504         1.60504     228.403E-03     228.403E-03
            1155     1.05279E+03     1.05279E+03         1.57669         1.57669     113.844E-03     113.844E-03
            1156     1.04728E+03     1.04728E+03        -39.7665        -39.7665         58.3389         58.3389
            1157     1.03672E+03     1.03672E+03        -27.8718        -27.8718         50.9945         50.9945
            1158     1.03120E+03     1.03120E+03        -18.9064        -18.9064         43.4339         43.4339
            1159     1.02881E+03     1.02881E+03        -12.3190        -12.3190         36.5827         36.5827
            1160     1.02828E+03     1.02828E+03        -7.47557        -7.47557         30.7379         30.7379
            1161     1.02879E+03     1.02879E+03        -3.88500        -3.88500         25.8847         25.8847
            1162     1.02988E+03     1.02988E+03        -1.18930        -1.18930         21.9035         21.9035
            1163     1.03125E+03     1.03125E+03     853.175E-03     853.175E-03         18.6513         18.6513
            1164     1.03274E+03     1.03274E+03         2.41055         2.41055         15.9945         15.9945
            1165     1.03426E+03     1.03426E+03         3.59764         3.59764         13.8174         13.8174
            1166     1.03575E+03     1.03575E+03         4.49607         4.49607         12.0248         12.0248
            1167     1.03717E+03     1.03717E+03         5.16425         5.16425         10.5394         10.5394
            1168     1.03853E+03     1.03853E+03         5.64583         5.64583         9.29915         9.29915
            1169     1.03980E+03     1.03980E+03         5.97413         5.97413         8.25470         8.25470
            1170     1.04099E+03     1.04099E+03         6.17559         6.17559         7.36697         7.36697
            1171     1.04210E+03     1.04210E+03         6.27174         6.27174         6.60506         6.60506
            1172     1.04313E+03     1.04313E+03         6.28062         6.28062         5.94462         5.94462
            1173     1.04408E+03     1.04408E+03         6.21759         6.21759         5.36652         5.36652
            1174     1.04497E+03     1.04497E+03         6.09594         6.09594         4.85576         4.85576
            1175     1.04578E+03     1.04578E+03         5.92727         5.92727         4.40059         4.40059
            1176     1.04653E+03     1.04653E+03         5.72173         5.72173         3.99181         3.99181
            1177     1.04722E+03     1.04722E+03         5.48823         5.48823         3.62221         3.62221
            1178     1.04785E+03     1.04785E+03         5.23456         5.23456         3.28615         3.28615
            1179     1.04843E+03     1.04843E+03         4.96751         4.96751         2.97915         2.97915
            1180     1.04896E+03     1.04896E+03         4.69297         4.69297         2.69768         2.69768
            1181     1.04944E+03     1.04944E+03         4.41601         4.41601         2.43886         2.43886
            1182     1.04987E+03     1.04987E+03         4.14096         4.14096         2.20035         2.20035
            1183     1.05027E+03     1.05027E+03         3.87149         3.87149         1.98020         1.98020
            1184     1.05062E+03     1.05062E+03         3.61068         3.61068         1.77673         1.77673
            1185     1.05094E+03     1.05094E+03         3.36108         3.36108         1.58847         1.58847
            1186     1.05123E+03     1.05123E+03         3.12479         3.12479         1.41408         1.41408
            1187     1.05148E+03     1.05148E+03         2.90352         2.90352         1.25235         1.25235
            1188     1.05170E+03     1.05170E+03         2.69862         2.69862         1.10213         1.10213
            1189     1.05190E+03     1.05190E+03         2.51118         2.51118     962.308E-03     962.308E-03
            1190     1.05207E+03     1.05207E+03         2.34202         2.34202     831.816E-03     831.816E-03
            1191     1.05222E+03     1.05222E+03         2.19179         2.19179     709.605E-03     709.605E-03
            1192     1.05234E+03     1.05234E+03         2.06096         2.06096     594.641E-03     594.641E-03
            1193     1.05245E+03     1.05245E+03         1.94989         1.94989     485.899E-03     485.899E-03
            1194     1.05253E+03     1.05253E+03         1.85881         1.85881     382.360E-03     382.360E-03
            1195     1.05259E+03     1.05259E+03         1.78792         1.78792     283.010E-03     283.010E-03
            1196     1.05264E+03     1.05264E+03         1.73734         1.73734     186.838E-03     186.838E-03
            1197     1.05266E+03     1.05266E+03         1.70709         1.70709     93.0753E-03     93.0753E-03
            1198     1.00778E+03     1.00778E+03        -27.1914        -27.1914         68.6377         68.6377
            1199     1.00561E+03     1.00561E+03        -16.2026        -16.2026         54.8823         54.8823
            1200     1.00713E+03     1.00713E+03        -9.02323        -9.02323         43.7691         43.7691
            1201     1.01023E+03     1.01023E+03        -4.26202        -4.26202         35.0937         35.0937
            1202     1.01384E+03     1.01384E+03        -1.00880        -1.00880         28.3842         28.3842
            1203     1.01748E+03     1.01748E+03         1.28712         1.28712         23.1895         23.1895
            1204     1.02092E+03     1.02092E+03         2.94949         2.94949         19.1429         19.1429
            1205     1.02408E+03     1.02408E+03         4.17833         4.17833         15.9678         15.9678
            1206     1.02694E+03     1.02694E+03         5.09586         5.09586         13.4553         13.4553
            1207     1.02951E+03     1.02951E+03         5.78073         5.78073         11.4501         11.4501
            1208     1.03182E+03     1.03182E+03         6.28403         6.28403         9.83501         9.83501
            1209     1.03390E+03     1.03390E+03         6.64092         6.64092         8.52206         8.52206
            1210     1.03577E+03     1.03577E+03         6.87648         6.87648         7.44411         7.44411
            1211     1.03746E+03     1.03746E+03         7.00979         7.00979         6.55005         6.55005
            1212     1.03898E+03     1.03898E+03         7.05608         7.05608         5.80060         5.80060
            1213     1.04037E+03     1.04037E+03         7.02820         7.02820         5.16556         5.16556
            1214     1.04162E+03     1.04162E+03         6.93734         6.93734         4.62157         4.62157
            1215     1.04277E+03     1.04277E+03         6.79354         6.79354         4.15061         4.15061
            1216     1.04381E+03     1.04381E+03         6.60592         6.60592         3.73867         3.73867
            1217     1.04476E+03     1.04476E+03         6.38279         6.38279         3.37493         3.37493
            1218     1.04563E+03     1.04563E+03         6.13179         6.13179         3.05095         3.05095
            1219     1.04642E+03     1.04642E+03         5.85985         5.85985         2.76021         2.76021
            1220     1.04714E+03     1.04714E+03         5.57324         5.57324         2.49758         2.49758
            1221     1.04780E+03     1.04780E+03         5.27758         5.27758         2.25905         2.25905
            1222     1.04840E+03     1.04840E+03         4.97788         4.97788         2.04145         2.04145
            1223     1.04894E+03     1.04894E+03         4.67855         4.67855         1.84225         1.84225
            1224     1.04943E+03     1.04943E+03         4.38341         4.38341         1.65938         1.65938
            1225     1.04987E+03     1.04987E+03         4.09576         4.09576         1.49115         1.49115
            1226     1.05027E+03     1.05027E+03         3.81842         3.81842         1.33612         1.33612
            1227     1.05063E+03     1.05063E+03         3.55375         3.55375         1.19303         1.19303
            1228     1.05095E+03     1.05095E+03         3.30371         3.30371         1.06080         1.06080
            1229     1.05123E+03     1.05123E+03         3.06992         3.06992     938.418E-03     938.418E-03
            1230     1.05148E+03     1.05148E+03         2.85368         2.85368     824.953E-03     824.953E-03
            1231     1.05171E+03     1.05171E+03         2.65601         2.65601     719.530E-03     719.530E-03
            1232     1.05190E+03     1.05190E+03         2.47774         2.47774     621.308E-03     621.308E-03
            1233     1.05206E+03     1.05206E+03         2.31947         2.31947     529.473E-03     529.473E-03
            1234     1.05220E+03     1.05220E+03         2.18169         2.18169     443.227E-03     443.227E-03
            1235     1.05232E+03     1.05232E+03         2.06473         2.06473     361.791E-03     361.791E-03
            1236     1.05241E+03     1.05241E+03         1.96885         1.96885     284.393E-03     284.393E-03
            1237     1.05249E+03     1.05249E+03         1.89424         1.89424     210.270E-03     210.270E-03
            1238     1.05254E+03     1.05254E+03         1.84101         1.84101     138.669E-03     138.669E-03
            1239     1.05257E+03     1.05257E+03         1.80918         1.80918     69.0162E-03     69.0162E-03
            1240         960.500         960.500        -7.44767        -7.44767         63.9877         63.9877
            1241         972.304         972.304        -1.27225        -1.27225         47.5184         47.5184
            1242         983.341         983.341         2.09010         2.09010         35.9631         35.9631
            1243         992.897         992.897         4.04120         4.04120         27.7483         27.7483
            1244     1.00096E+03     1.00096E+03         5.25919         5.25919         21.7914         21.7914
            1245     1.00773E+03     1.00773E+03         6.07027         6.07027         17.3876         17.3876
            1246     1.01341E+03     1.01341E+03         6.64184         6.64184         14.0784         14.0784
            1247     1.01820E+03     1.01820E+03         7.05923         7.05923         11.5527         11.5527
            1248     1.02227E+03     1.02227E+03         7.36761         7.36761         9.59945         9.59945
            1249     1.02576E+03     1.02576E+03         7.59043         7.59043         8.06928         8.06928
            1250     1.02877E+03     1.02877E+03         7.74050         7.74050         6.85651         6.85651
            1251     1.03138E+03     1.03138E+03         7.82522         7.82522         5.88404         5.88404
            1252     1.03367E+03     1.03367E+03         7.84972         7.84972         5.09545         5.09545
            1253     1.03569E+03     1.03569E+03         7.81831         7.81831         4.44858         4.44858
            1254     1.03748E+03     1.03748E+03         7.73528         7.73528         3.91188         3.91188
            1255     1.03908E+03     1.03908E+03         7.60523         7.60523         3.46140         3.46140
            1256     1.04052E+03     1.04052E+03         7.43308         7.43308         3.07895         3.07895
            1257     1.04181E+03     1.04181E+03         7.22410         7.22410         2.75060         2.75060
            1258     1.04297E+03     1.04297E+03         6.98375         6.98375         2.46567         2.46567
            1259     1.04403E+03     1.04403E+03         6.71753         6.71753         2.21594         2.21594
            1260     1.04498E+03     1.04498E+03         6.43089         6.43089         1.99505         1.99505
            1261     1.04585E+03     1.04585E+03         6.12911         6.12911         1.79809         1.79809
            1262     1.04664E+03     1.04664E+03         5.81718         5.81718         1.62125         1.62125
            1263     1.04735E+03     1.04735E+03         5.49975         5.49975         1.46154         1.46154
            1264     1.04800E+03     1.04800E+03         5.18109         5.18109         1.31659         1.31659
            1265     1.04858E+03     1.04858E+03         4.86504         4.86504         1.18454         1.18454
            1266     1.04911E+03     1.04911E+03         4.55501         4.55501         1.06387         1.06387
            1267     1.04959E+03     1.04959E+03         4.25400         4.25400     953.332E-03     953.332E-03
            1268     1.05002E+03     1.05002E+03         3.96459         3.96459     851.877E-03     851.877E-03
            1269     1.05041E+03     1.05041E+03         3.68898         3.68898     758.610E-03     758.610E-03
            1270     1.05075E+03     1.05075E+03         3.42902         3.42902     672.742E-03     672.742E-03
            1271     1.05106E+03     1.05106E+03         3.18623         3.18623     593.567E-03     593.567E-03
            1272     1.05133E+03     1.05133E+03         2.96185         2.96185     520.435E-03     520.435E-03
            1273     1.05157E+03     1.05157E+03         2.75688         2.75688     452.742E-03     452.742E-03
            1274     1.05178E+03     1.05178E+03         2.57210         2.57210     389.914E-03     389.914E-03
            1275     1.05196E+03     1.05196E+03         2.40811         2.40811     331.406E-03     331.406E-03
            1276     1.05211E+03     1.05211E+03         2.26537         2.26537     276.687E-03     276.687E-03
            1277     1.05223E+03     1.05223E+03         2.14422         2.14422     225.244E-03     225.244E-03
            1278     1.05233E+03     1.05233E+03         2.04490         2.04490     176.579E-03     176.579E-03
            1279     1.05241E+03     1.05241E+03         1.96758         1.96758     130.203E-03     130.203E-03
            1280     1.05246E+03     1.05246E+03         1.91240         1.91240     85.6419E-03     85.6419E-03
            1281     1.05250E+03     1.05250E+03         1.87937         1.87937     42.5319E-03     42.5319E-03
            1282         919.996         919.996         11.7701         11.7701         39.1044         39.1044
            1283         946.238         946.238         11.5137         11.5137         27.3948         27.3948
            1284         965.798         965.798         10.8641         10.8641         19.9423         19.9423
            1285         980.643         980.643         10.2450         10.2450         14.9461         14.9461
            1286         992.144         992.144         9.75290         9.75290         11.4645         11.4645
            1287     1.00122E+03     1.00122E+03         9.39265         9.39265         8.96969         8.96969
            1288     1.00850E+03     1.00850E+03         9.14140         9.14140         7.13812         7.13812
            1289     1.01443E+03     1.01443E+03         8.96878         8.96878         5.76819         5.76819
            1290     1.01933E+03     1.01933E+03         8.84650         8.84650         4.72553         4.72553
            1291     1.02342E+03     1.02342E+03         8.75026         8.75026         3.92048         3.92048
            1292     1.02689E+03     1.02689E+03         8.66101         8.66101         3.29013         3.29013
            1293     1.02985E+03     1.02985E+03         8.56429         8.56429         2.79037         2.79037
            1294     1.03241E+03     1.03241E+03         8.44998         8.44998         2.38913         2.38913
            1295     1.03464E+03     1.03464E+03         8.31151         8.31151         2.06312         2.06312
            1296     1.03660E+03     1.03660E+03         8.14528         8.14528         1.79501         1.79501
            1297     1.03833E+03     1.03833E+03         7.95008         7.95008         1.57191         1.57191
            1298     1.03987E+03     1.03987E+03         7.72654         7.72654         1.38409         1.38409
            1299     1.04125E+03     1.04125E+03         7.47666         7.47666         1.22417         1.22417
            1300     1.04249E+03     1.04249E+03         7.20346         7.20346         1.08656         1.08656
            1301     1.04361E+03     1.04361E+03         6.91057         6.91057     966.981E-03     966.981E-03
            1302     1.04462E+03     1.04462E+03         6.60205         6.60205     862.131E-03     862.131E-03
            1303     1.04553E+03     1.04553E+03         6.28206         6.28206     769.476E-03     769.476E-03
            1304     1.04635E+03     1.04635E+03         5.95479         5.95479     687.048E-03     687.048E-03
            1305     1.04710E+03     1.04710E+03         5.62426         5.62426     613.307E-03     613.307E-03
            1306     1.04778E+03     1.04778E+03         5.29427         5.29427     547.038E-03     547.038E-03
            1307     1.04839E+03     1.04839E+03         4.96829         4.96829     487.272E-03     487.272E-03
            1308     1.04894E+03     1.04894E+03         4.64949         4.64949     433.223E-03     433.223E-03
            1309     1.04944E+03     1.04944E+03         4.34065         4.34065     384.244E-03     384.244E-03
            1310     1.04989E+03     1.04989E+03         4.04422         4.04422     339.790E-03     339.790E-03
            1311     1.05029E+03     1.05029E+03         3.76228         3.76228     299.396E-03     299.396E-03
            1312     1.05065E+03     1.05065E+03         3.49660         3.49660     262.656E-03     262.656E-03
            1313     1.05097E+03     1.05097E+03         3.24865         3.24865     229.207E-03     229.207E-03
            1314     1.05125E+03     1.05125E+03         3.01962         3.01962     198.723E-03     198.723E-03
            1315     1.05150E+03     1.05150E+03         2.81050         2.81050     170.904E-03     170.904E-03
            1316     1.05171E+03     1.05171E+03         2.62202         2.62202     145.472E-03     145.472E-03
            1317     1.05190E+03     1.05190E+03         2.45478         2.45478     122.169E-03     122.169E-03
            1318     1.05205E+03     1.05205E+03         2.30921         2.30921     100.753E-03     100.753E-03
            1319     1.05219E+03     1.05219E+03         2.18566         2.18566     80.9960E-03     80.9960E-03
            1320     1.05229E+03     1.05229E+03         2.08435         2.08435     62.6854E-03     62.6854E-03
            1321     1.05237E+03     1.05237E+03         2.00544         2.00544     45.6219E-03     45.6219E-03
            1322     1.05243E+03     1.05243E+03         1.94905         1.94905     29.6209E-03     29.6209E-03
            1323     1.05246E+03     1.05246E+03         1.91519         1.91519     14.5492E-03     14.5492E-03
            1324         905.884         905.884         18.8280         18.8280        -2.66140        -2.66140
            1325         937.913         937.913         15.7563         15.7563        -2.32196        -2.32196
            1326         960.480         960.480         13.6006         13.6006        -1.97271        -1.97271
            1327         977.083         977.083         12.0912         12.0912        -1.68277        -1.68277
            1328         989.674         989.674         11.0363         11.0363        -1.44550        -1.44550
            1329         999.457         999.457         10.3086         10.3086        -1.25337        -1.25337
            1330     1.00721E+03     1.00721E+03         9.80733         9.80733        -1.09604        -1.09604
            1331     1.01347E+03     1.01347E+03         9.46170         9.46170    -967.017E-03    -967.017E-03
            1332     1.01860E+03     1.01860E+03         9.21624         9.21624    -860.135E-03    -860.135E-03
            1333     1.02286E+03     1.02286E+03         9.03143         9.03143    -771.224E-03    -771.224E-03
            1334     1.02645E+03     1.02645E+03         8.87718         8.87718    -696.645E-03    -696.645E-03
            1335     1.02951E+03     1.02951E+03         8.73245         8.73245    -633.727E-03    -633.727E-03
            1336     1.03213E+03     1.03213E+03         8.58216         8.58216    -580.200E-03    -580.200E-03
            1337     1.03442E+03     1.03442E+03         8.41658         8.41658    -534.297E-03    -534.297E-03
            1338     1.03642E+03     1.03642E+03         8.22968         8.22968    -494.534E-03    -494.534E-03
            1339     1.03818E+03     1.03818E+03         8.01862         8.01862    -459.725E-03    -459.725E-03
            1340     1.03975E+03     1.03975E+03         7.78279         7.78279    -428.884E-03    -428.884E-03
            1341     1.04115E+03     1.04115E+03         7.52330         7.52330    -401.217E-03    -401.217E-03
            1342     1.04241E+03     1.04241E+03         7.24249         7.24249    -376.077E-03    -376.077E-03
            1343     1.04354E+03     1.04354E+03         6.94353         6.94353    -352.950E-03    -352.950E-03
            1344     1.04455E+03     1.04455E+03         6.63007         6.63007    -331.425E-03    -331.425E-03
            1345     1.04548E+03     1.04548E+03         6.30604         6.30604    -311.182E-03    -311.182E-03
            1346     1.04631E+03     1.04631E+03         5.97541         5.97541    -291.977E-03    -291.977E-03
            1347     1.04706E+03     1.04706E+03         5.64205         5.64205    -273.623E-03    -273.623E-03
            1348     1.04775E+03     1.04775E+03         5.30965         5.30965    -255.984E-03    -255.984E-03
            1349     1.04836E+03     1.04836E+03         4.98160         4.98160    -238.960E-03    -238.960E-03
            1350     1.04892E+03     1.04892E+03         4.66100         4.66100    -222.479E-03    -222.479E-03
            1351     1.04942E+03     1.04942E+03         4.35059         4.35059    -206.492E-03    -206.492E-03
            1352     1.04987E+03     1.04987E+03         4.05277         4.05277    -190.961E-03    -190.961E-03
            1353     1.05028E+03     1.05028E+03         3.76962         3.76962    -175.858E-03    -175.858E-03
            1354     1.05064E+03     1.05064E+03         3.50287         3.50287    -161.158E-03    -161.158E-03
            1355     1.05096E+03     1.05096E+03         3.25398         3.25398    -146.835E-03    -146.835E-03
            1356     1.05124E+03     1.05124E+03         3.02412         3.02412    -132.860E-03    -132.860E-03
            1357     1.05149E+03     1.05149E+03         2.81426         2.81426    -119.199E-03    -119.199E-03
            1358     1.05171E+03     1.05171E+03         2.62514         2.62514    -105.810E-03    -105.810E-03
            1359     1.05189E+03     1.05189E+03         2.45734         2.45734    -92.6411E-03    -92.6411E-03
            1360     1.05205E+03     1.05205E+03         2.31128         2.31128    -79.6304E-03    -79.6304E-03
            1361     1.05218E+03     1.05218E+03         2.18728         2.18728    -66.7049E-03    -66.7049E-03
            1362     1.05229E+03     1.05229E+03         2.08556         2.08556    -53.7786E-03    -53.7786E-03
            1363     1.05237E+03     1.05237E+03         2.00629         2.00629    -40.7526E-03    -40.7526E-03
            1364     1.05243E+03     1.05243E+03         1.94955         1.94955    -27.5132E-03    -27.5132E-03
            1365     1.05246E+03     1.05246E+03         1.91534         1.91534    -13.9624E-03    -13.9624E-03
            1366         929.726         929.726         7.13199         7.13199        -44.9733        -44.9733
            1367         953.119         953.119         8.14525         8.14525        -32.5745        -32.5745
            1368         970.756         970.756         8.38653         8.38653        -24.4203        -24.4203
            1369         984.312         984.312         8.38777         8.38777        -18.7921        -18.7921
            1370         994.926         994.926         8.33499         8.33499        -14.7771        -14.7771
            1371     1.00337E+03     1.00337E+03         8.29146         8.29146        -11.8363        -11.8363
            1372     1.01020E+03     1.01020E+03         8.27373         8.27373        -9.63688        -9.63688
            1373     1.01580E+03     1.01580E+03         8.27575         8.27575        -7.96187        -7.96187
            1374     1.02044E+03     1.02044E+03         8.28638         8.28638        -6.66655        -6.66655
            1375     1.02434E+03     1.02434E+03         8.29242         8.29242        -5.65081        -5.65081
            1376     1.02766E+03     1.02766E+03         8.28282         8.28282        -4.84421        -4.84421
            1377     1.03050E+03     1.03050E+03         8.24862         8.24862        -4.19588        -4.19588
            1378     1.03297E+03     1.03297E+03         8.18377         8.18377        -3.66862        -3.66862
            1379     1.03512E+03     1.03512E+03         8.08464         8.08464        -3.23475        -3.23475
            1380     1.03702E+03     1.03702E+03         7.94989         7.94989        -2.87348        -2.87348
            1381     1.03870E+03     1.03870E+03         7.77998         7.77998        -2.56903        -2.56903
            1382     1.04020E+03     1.04020E+03         7.57688         7.57688        -2.30936        -2.30936
            1383     1.04154E+03     1.04154E+03         7.34362         7.34362        -2.08524        -2.08524
            1384     1.04275E+03     1.04275E+03         7.08400         7.08400        -1.88955        -1.88955
            1385     1.04384E+03     1.04384E+03         6.80234         6.80234        -1.71681        -1.71681
            1386     1.04483E+03     1.04483E+03         6.50316         6.50316        -1.56279        -1.56279
            1387     1.04572E+03     1.04572E+03         6.19105         6.19105        -1.42420        -1.42420
            1388     1.04652E+03     1.04652E+03         5.87051         5.87051        -1.29851        -1.29851
            1389     1.04726E+03     1.04726E+03         5.54582         5.54582        -1.18375        -1.18375
            1390     1.04792E+03     1.04792E+03         5.22096         5.22096        -1.07838        -1.07838
            1391     1.04852E+03     1.04852E+03         4.89955         4.89955    -981.184E-03    -981.184E-03
            1392     1.04906E+03     1.04906E+03         4.58488         4.58488    -891.195E-03    -891.195E-03
            1393     1.04955E+03     1.04955E+03         4.27980         4.27980    -807.634E-03    -807.634E-03
            1394     1.04998E+03     1.04998E+03         3.98681         3.98681    -729.853E-03    -729.853E-03
            1395     1.05038E+03     1.05038E+03         3.70806         3.70806    -657.300E-03    -657.300E-03
            1396     1.05073E+03     1.05073E+03         3.44532         3.44532    -589.491E-03    -589.491E-03
            1397     1.05104E+03     1.05104E+03         3.20008         3.20008    -525.991E-03    -525.991E-03
            1398     1.05131E+03     1.05131E+03         2.97354         2.97354    -466.392E-03    -466.392E-03
            1399     1.05156E+03     1.05156E+03         2.76667         2.76667    -410.305E-03    -410.305E-03
            1400     1.05177E+03     1.05177E+03         2.58022         2.58022    -357.348E-03    -357.348E-03
            1401     1.05195E+03     1.05195E+03         2.41476         2.41476    -307.144E-03    -307.144E-03
            1402     1.05210E+03     1.05210E+03         2.27072         2.27072    -259.312E-03    -259.312E-03
            1403     1.05223E+03     1.05223E+03         2.14841         2.14841    -213.466E-03    -213.466E-03
            1404     1.05233E+03     1.05233E+03         2.04805         2.04805    -169.213E-03    -169.213E-03
            1405     1.05241E+03     1.05241E+03         1.96978         1.96978    -126.148E-03    -126.148E-03
            1406     1.05246E+03     1.05246E+03         1.91369         1.91369    -83.8582E-03    -83.8582E-03
            1407     1.05250E+03     1.05250E+03         1.87975         1.87975    -42.0235E-03    -42.0235E-03
            1408         980.520         980.520        -15.9068        -15.9068        -66.7101        -66.7101
            1409         986.807         986.807        -7.77642        -7.77642        -51.1123        -51.1123
            1410         994.051         994.051        -2.90212        -2.90212        -39.7048        -39.7048
            1411     1.00095E+03     1.00095E+03     191.120E-03     191.120E-03        -31.3223        -31.3223
            1412     1.00713E+03     1.00713E+03         2.26161         2.26161        -25.0730        -25.0730
            1413     1.01254E+03     1.01254E+03         3.71434         3.71434        -20.3501        -20.3501
            1414     1.01722E+03     1.01722E+03         4.77040         4.77040        -16.7322        -16.7322
            1415     1.02126E+03     1.02126E+03         5.55833         5.55833        -13.9267        -13.9267
            1416     1.02477E+03     1.02477E+03         6.15194         6.15194        -11.7257        -11.7257
            1417     1.02782E+03     1.02782E+03         6.59658         6.59658        -9.98009        -9.98009
            1418     1.03048E+03     1.03048E+03         6.92016         6.92016        -8.58083        -8.58083
            1419     1.03283E+03     1.03283E+03         7.14162         7.14162        -7.44737        -7.44737
            1420     1.03491E+03     1.03491E+03         7.27436         7.27436        -6.51935        -6.51935
            1421     1.03675E+03     1.03675E+03         7.32911         7.32911        -5.75124        -5.75124
            1422     1.03841E+03     1.03841E+03         7.31495         7.31495        -5.10833        -5.10833
            1423     1.03989E+03     1.03989E+03         7.24020         7.24020        -4.56407        -4.56407
            1424     1.04123E+03     1.04123E+03         7.11271         7.11271        -4.09802        -4.09802
            1425     1.04244E+03     1.04244E+03         6.94001         6.94001        -3.69443        -3.69443
            1426     1.04353E+03     1.04353E+03         6.72934         6.72934        -3.34111        -3.34111
            1427     1.04453E+03     1.04453E+03         6.48763         6.48763        -3.02865        -3.02865
            1428     1.04543E+03     1.04543E+03         6.22144         6.22144        -2.74975        -2.74975
            1429     1.04626E+03     1.04626E+03         5.93693         5.93693        -2.49875        -2.49875
            1430     1.04700E+03     1.04700E+03         5.63979         5.63979        -2.27124        -2.27124
            1431     1.04768E+03     1.04768E+03         5.33520         5.33520        -2.06380        -2.06380
            1432     1.04830E+03     1.04830E+03         5.02784         5.02784        -1.87372        -1.87372
            1433     1.04885E+03     1.04885E+03         4.72186         4.72186        -1.69886        -1.69886
            1434     1.04936E+03     1.04936E+03         4.42093         4.42093        -1.53750        -1.53750
            1435     1.04981E+03     1.04981E+03         4.12820         4.12820        -1.38823        -1.38823
            1436     1.05022E+03     1.05022E+03         3.84638         3.84638        -1.24986        -1.24986
            1437     1.05059E+03     1.05059E+03         3.57776         3.57776        -1.12139        -1.12139
            1438     1.05092E+03     1.05092E+03         3.32423         3.32423        -1.00191        -1.00191
            1439     1.05121E+03     1.05121E+03         3.08736         3.08736    -890.594E-03    -890.594E-03
            1440     1.05146E+03     1.05146E+03         2.86840         2.86840    -786.690E-03    -786.690E-03
            1441     1.05169E+03     1.05169E+03         2.66834         2.66834    -689.467E-03    -689.467E-03
            1442     1.05189E+03     1.05189E+03         2.48796         2.48796    -598.217E-03    -598.217E-03
            1443     1.05205E+03     1.05205E+03         2.32784         2.32784    -512.247E-03    -512.247E-03
            1444     1.05220E+03     1.05220E+03         2.18841         2.18841    -430.865E-03    -430.865E-03
            1445     1.05231E+03     1.05231E+03         2.07000         2.07000    -353.381E-03    -353.381E-03
            1446     1.05241E+03     1.05241E+03         1.97281         1.97281    -279.101E-03    -279.101E-03
            1447     1.05248E+03     1.05248E+03         1.89698         1.89698    -207.325E-03    -207.325E-03
            1448     1.05253E+03     1.05253E+03         1.84260         1.84260    -137.351E-03    -137.351E-03
            1449     1.05257E+03     1.05257E+03         1.80965         1.80965    -68.6400E-03    -68.6400E-03
            1450     1.03256E+03     1.03256E+03        -35.2517        -35.2517        -62.8674        -62.8674
            1451     1.02511E+03     1.02511E+03        -23.5516        -23.5516        -52.8441        -52.8441
            1452     1.02235E+03     1.02235E+03        -15.2576        -15.2576        -43.7799        -43.7799
            1453     1.02215E+03     1.02215E+03        -9.40524        -9.40524        -36.1782        -36.1782
            1454     1.02324E+03     1.02324E+03        -5.19823        -5.19823        -29.9985        -29.9985
            1455     1.02496E+03     1.02496E+03        -2.11697        -2.11697        -25.0264        -25.0264
            1456     1.02693E+03     1.02693E+03     181.906E-03     181.906E-03        -21.0353        -21.0353
            1457     1.02896E+03     1.02896E+03         1.91949         1.91949        -17.8256        -17.8256
            1458     1.03095E+03     1.03095E+03         3.24332         3.24332        -15.2336        -15.2336
            1459     1.03284E+03     1.03284E+03         4.25173         4.25173        -13.1284        -13.1284
            1460     1.03461E+03     1.03461E+03         5.01319         5.01319        -11.4070        -11.4070
            1461     1.03626E+03     1.03626E+03         5.57616         5.57616        -9.98848        -9.98848
            1462     1.03779E+03     1.03779E+03         5.97662         5.97662        -8.80944        -8.80944
            1463     1.03919E+03     1.03919E+03         6.24212         6.24212        -7.82026        -7.82026
            1464     1.04049E+03     1.04049E+03         6.39474         6.39474        -6.98209        -6.98209
            1465     1.04168E+03     1.04168E+03         6.45266         6.45266        -6.26450        -6.26450
            1466     1.04278E+03     1.04278E+03         6.43139         6.43139        -5.64369        -5.64369
            1467     1.04379E+03     1.04379E+03         6.34437         6.34437        -5.10104        -5.10104
            1468     1.04472E+03     1.04472E+03         6.20345         6.20345        -4.62203        -4.62203
            1469     1.04557E+03     1.04557E+03         6.01909         6.01909        -4.19531        -4.19531
            1470     1.04636E+03     1.04636E+03         5.80064         5.80064        -3.81204        -3.81204
            1471     1.04707E+03     1.04707E+03         5.55637         5.55637        -3.46531        -3.46531
            1472     1.04773E+03     1.04773E+03         5.29361         5.29361        -3.14973        -3.14973
            1473     1.04832E+03     1.04832E+03         5.01879         5.01879        -2.86107        -2.86107
            1474     1.04887E+03     1.04887E+03         4.73754         4.73754        -2.59596        -2.59596
            1475     1.04936E+03     1.04936E+03         4.45473         4.45473        -2.35171        -2.35171
            1476     1.04981E+03     1.04981E+03         4.17455         4.17455        -2.12616        -2.12616
            1477     1.05022E+03     1.05022E+03         3.90057         3.90057        -1.91747        -1.91747
            1478     1.05058E+03     1.05058E+03         3.63576         3.63576        -1.72410        -1.72410
            1479     1.05091E+03     1.05091E+03         3.38262         3.38262        -1.54471        -1.54471
            1480     1.05120E+03     1.05120E+03         3.14320         3.14320        -1.37808        -1.37808
            1481     1.05146E+03     1.05146E+03         2.91916         2.91916        -1.22310        -1.22310
            1482     1.05169E+03     1.05169E+03         2.71182         2.71182        -1.07870        -1.07870
            1483     1.05189E+03     1.05189E+03         2.52222         2.52222    -943.872E-03    -943.872E-03
            1484     1.05206E+03     1.05206E+03         2.35117         2.35117    -817.628E-03    -817.628E-03
            1485     1.05221E+03     1.05221E+03         2.19927         2.19927    -698.990E-03    -698.990E-03
            1486     1.05234E+03     1.05234E+03         2.06696         2.06696    -586.989E-03    -586.989E-03
            1487     1.05244E+03     1.05244E+03         1.95456         1.95456    -480.656E-03    -480.656E-03
            1488     1.05253E+03     1.05253E+03         1.86231         1.86231    -379.021E-03    -379.021E-03
            1489     1.05259E+03     1.05259E+03         1.79033         1.79033    -281.114E-03    -281.114E-03
            1490     1.05264E+03     1.05264E+03         1.73872         1.73872    -185.964E-03    -185.964E-03
            1491     1.05266E+03     1.05266E+03         1.70745         1.70745    -92.8304E-03    -92.8304E-03
            1492     1.06838E+03     1.06838E+03        -42.8497        -42.8497        -45.1138        -45.1138
            1493     1.05577E+03     1.05577E+03        -32.6933        -32.6933        -42.6935        -42.6935
            1494     1.04749E+03     1.04749E+03        -24.0781        -24.0781        -38.5652        -38.5652
            1495     1.04242E+03     1.04242E+03        -17.1855        -17.1855        -33.9903        -33.9903
            1496     1.03953E+03     1.03953E+03        -11.8056        -11.8056        -29.6133        -29.6133
            1497     1.03808E+03     1.03808E+03        -7.62244        -7.62244        -25.6906        -25.6906
            1498     1.03756E+03     1.03756E+03        -4.36793        -4.36793        -22.2887        -22.2887
            1499     1.03763E+03     1.03763E+03        -1.82920        -1.82920        -19.3886        -19.3886
            1500     1.03807E+03     1.03807E+03     152.073E-03     152.073E-03        -16.9369        -16.9369
            1501     1.03875E+03     1.03875E+03         1.69479         1.69479        -14.8703        -14.8703
            1502     1.03955E+03     1.03955E+03         2.88740         2.88740        -13.1271        -13.1271
            1503     1.04042E+03     1.04042E+03         3.79732         3.79732        -11.6517        -11.6517
            1504     1.04132E+03     1.04132E+03         4.47649         4.47649        -10.3961        -10.3961
            1505     1.04222E+03     1.04222E+03         4.96602         4.96602        -9.32026        -9.32026
            1506     1.04310E+03     1.04310E+03         5.29899         5.29899        -8.39104        -8.39104
            1507     1.04395E+03     1.04395E+03         5.50263         5.50263        -7.58148        -7.58148
            1508     1.04476E+03     1.04476E+03         5.59968         5.59968        -6.86986        -6.86986
            1509     1.04552E+03     1.04552E+03         5.60941         5.60941        -6.23882        -6.23882
            1510     1.04625E+03     1.04625E+03         5.54828         5.54828        -5.67456        -5.67456
            1511     1.04692E+03     1.04692E+03         5.43046         5.43046        -5.16617        -5.16617
            1512     1.04755E+03     1.04755E+03         5.26815         5.26815        -4.70504        -4.70504
            1513     1.04813E+03     1.04813E+03         5.07186         5.07186        -4.28440        -4.28440
            1514     1.04867E+03     1.04867E+03         4.85066         4.85066        -3.89890        -3.89890
            1515     1.04916E+03     1.04916E+03         4.61231         4.61231        -3.54429        -3.54429
            1516     1.04961E+03     1.04961E+03         4.36346         4.36346        -3.21717        -3.21717
            1517     1.05002E+03     1.05002E+03         4.10973         4.10973        -2.91478        -2.91478
            1518     1.05040E+03     1.05040E+03         3.85586         3.85586        -2.63484        -2.63484
            1519     1.05074E+03     1.05074E+03         3.60583         3.60583        -2.37540        -2.37540
            1520     1.05104E+03     1.05104E+03         3.36292         3.36292        -2.13477        -2.13477
            1521     1.05132E+03     1.05132E+03         3.12983         3.12983        -1.91142        -1.91142
            1522     1.05156E+03     1.05156E+03         2.90876         2.90876        -1.70397        -1.70397
            1523     1.05178E+03     1.05178E+03         2.70147         2.70147        -1.51110        -1.51110
            1524     1.05197E+03     1.05197E+03         2.50934         2.50934        -1.33153        -1.33153
            1525     1.05214E+03     1.05214E+03         2.33346         2.33346        -1.16404        -1.16404
            1526     1.05228E+03     1.05228E+03         2.17466         2.17466        -1.00741        -1.00741
            1527     1.05241E+03     1.05241E+03         2.03357         2.03357    -860.422E-03    -860.422E-03
            1528     1.05251E+03     1.05251E+03         1.91064         1.91064    -721.876E-03    -721.876E-03
            1529     1.05260E+03     1.05260E+03         1.80620         1.80620    -590.562E-03    -590.562E-03
            1530     1.05267E+03     1.05267E+03         1.72047         1.72047    -465.268E-03    -465.268E-03
            1531     1.05273E+03     1.05273E+03         1.65362         1.65362    -344.782E-03    -344.782E-03
            1532     1.05276E+03     1.05276E+03         1.60572         1.60572    -227.892E-03    -227.892E-03
            1533     1.05279E+03     1.05279E+03         1.57679         1.57679    -113.686E-03    -113.686E-03
            1534     1.05771E+03     1.05771E+03     29.0036E-03     29.0036E-03        -3.59074        -3.59074
            1535     1.06120E+03     1.06120E+03     48.8439E-03     48.8439E-03        -6.39805        -6.39805
            1536     1.06471E+03     1.06471E+03     20.6125E-03     20.6125E-03        -8.45714        -8.45714
            1537     1.06834E+03     1.06834E+03    -129.907E-03    -129.907E-03        -10.0353        -10.0353
            1538     1.07219E+03     1.07219E+03    -511.116E-03    -511.116E-03        -11.3235        -11.3235
            1539     1.07641E+03     1.07641E+03        -1.27364        -1.27364        -12.4310        -12.4310
            1540     1.08115E+03     1.08115E+03        -2.62679        -2.62679        -13.3844        -13.3844
            1541     1.08660E+03     1.08660E+03        -4.86366        -4.86366        -14.1062        -14.1062
            1542     1.09293E+03     1.09293E+03        -8.39085        -8.39085        -14.3630        -14.3630
            1543     1.10027E+03     1.10027E+03        -13.7496        -13.7496        -13.6605        -13.6605
            1544     1.10847E+03     1.10847E+03        -21.5612        -21.5612        -11.0862        -11.0862
            1545     1.11659E+03     1.11659E+03        -32.2683        -32.2683        -5.12726        -5.12726
            1546     1.05325E+03     1.05325E+03     340.036E-03     340.036E-03        -3.30889        -3.30889
            1547     1.05798E+03     1.05798E+03     916.911E-03     916.911E-03        -5.91881        -5.91881
            1548     1.06224E+03     1.06224E+03         1.73658         1.73658        -7.89801        -7.89801
            1549     1.06628E+03     1.06628E+03         2.69400         2.69400        -9.53250        -9.53250
            1550     1.07030E+03     1.07030E+03         3.68418         3.68418        -11.0425        -11.0425
            1551     1.07454E+03     1.07454E+03         4.58632         4.58632        -12.5893        -12.5893
            1552     1.07925E+03     1.07925E+03         5.23832         5.23832        -14.2875        -14.2875
            1553     1.08474E+03     1.08474E+03         5.39769         5.39769        -16.2020        -16.2020
            1554     1.09139E+03     1.09139E+03         4.67762         4.67762        -18.3177        -18.3177
            1555     1.09971E+03     1.09971E+03         2.44197         2.44197        -20.4583        -20.4583
            1556     1.11028E+03     1.11028E+03        -2.35083        -2.35083        -22.0680        -22.0680
            1557     1.12354E+03     1.12354E+03        -11.2736        -11.2736        -21.7592        -21.7592
            1558     1.04949E+03     1.04949E+03     629.498E-03     629.498E-03        -2.50020        -2.50020
            1559     1.05523E+03     1.05523E+03         1.72790         1.72790        -4.47672        -4.47672
            1560     1.06005E+03     1.06005E+03         3.34989         3.34989        -6.00247        -6.00247
            1561     1.06430E+03     1.06430E+03         5.37691         5.37691        -7.32231        -7.32231
            1562     1.06829E+03     1.06829E+03         7.73480         7.73480        -8.63479        -8.63479
            1563     1.07228E+03     1.07228E+03         10.3770         10.3770        -10.1062        -10.1062
            1564     1.07657E+03     1.07657E+03         13.2656         13.2656        -11.8923        -11.8923
            1565     1.08149E+03     1.08149E+03         16.3452         16.3452        -14.1544        -14.1544
            1566     1.08748E+03     1.08748E+03         19.4989         19.4989        -17.0706        -17.0706
            1567     1.09521E+03     1.09521E+03         22.4591         22.4591        -20.8333        -20.8333
            1568     1.10568E+03     1.10568E+03         24.5974         24.5974        -25.5913        -25.5913
            1569     1.12054E+03     1.12054E+03         24.4214         24.4214        -31.2007        -31.2007
            1570     1.04706E+03     1.04706E+03     836.802E-03     836.802E-03        -1.25454        -1.25454
            1571     1.05346E+03     1.05346E+03         2.31003         2.31003        -2.23211        -2.23211
            1572     1.05861E+03     1.05861E+03         4.51274         4.51274        -2.98066        -2.98066
            1573     1.06294E+03     1.06294E+03         7.32405         7.32405        -3.64469        -3.64469
            1574     1.06680E+03     1.06680E+03         10.7052         10.7052        -4.34463        -4.34463
            1575     1.07049E+03     1.07049E+03         14.6870         14.6870        -5.18847        -5.18847
            1576     1.07427E+03     1.07427E+03         19.3640         19.3640        -6.28860        -6.28860
            1577     1.07846E+03     1.07846E+03         24.8987         24.8987        -7.78041        -7.78041
            1578     1.08344E+03     1.08344E+03         31.5319         31.5319        -9.84667        -9.84667
            1579     1.08978E+03     1.08978E+03         39.6014         39.6014        -12.7555        -12.7555
            1580     1.09840E+03     1.09840E+03         49.5540         49.5540        -16.9403        -16.9403
            1581     1.11101E+03     1.11101E+03         61.8719         61.8719        -23.1470        -23.1470
            1582     1.04642E+03     1.04642E+03     914.798E-03     914.798E-03     242.604E-03     242.604E-03
            1583     1.05304E+03     1.05304E+03         2.52945         2.52945     475.663E-03     475.663E-03
            1584     1.05828E+03     1.05828E+03         4.95209         4.95209     695.326E-03     695.326E-03
            1585     1.06261E+03     1.06261E+03         8.06189         8.06189     894.408E-03     894.408E-03
            1586     1.06639E+03     1.06639E+03         11.8351         11.8351         1.06785         1.06785
            1587     1.06991E+03     1.06991E+03         16.3347         16.3347         1.21174         1.21174
            1588     1.07345E+03     1.07345E+03         21.7120         21.7120         1.32316         1.32316
            1589     1.07728E+03     1.07728E+03         28.2253         28.2253         1.40027         1.40027
            1590     1.08175E+03     1.08175E+03         36.2817         36.2817         1.44207         1.44207
            1591     1.08735E+03     1.08735E+03         46.5173         46.5173         1.44859         1.44859
            1592     1.09485E+03     1.09485E+03         59.9702         59.9702         1.42109         1.42109
            1593     1.10565E+03     1.10565E+03         78.5074         78.5074         1.36008         1.36008
            1594     1.04774E+03     1.04774E+03     845.630E-03     845.630E-03         1.74792         1.74792
            1595     1.05411E+03     1.05411E+03         2.33553         2.33553         3.19884         3.19884
            1596     1.05921E+03     1.05921E+03         4.56434         4.56434         4.39288         4.39288
            1597     1.06347E+03     1.06347E+03         7.40962         7.40962         5.46011         5.46011
            1598     1.06726E+03     1.06726E+03         10.8312         10.8312         6.51094         6.51094
            1599     1.07085E+03     1.07085E+03         14.8581         14.8581         7.64551         7.64551
            1600     1.07454E+03     1.07454E+03         19.5840         19.5840         8.97056         8.97056
            1601     1.07863E+03     1.07863E+03         25.1698         25.1698         10.6177         10.6177
            1602     1.08351E+03     1.08351E+03         31.8554         31.8554         12.7682         12.7682
            1603     1.08975E+03     1.08975E+03         39.9776         39.9776         15.6898         15.6898
            1604     1.09827E+03     1.09827E+03         49.9812         49.9812         19.8174         19.8174
            1605     1.11080E+03     1.11080E+03         62.3486         62.3486         25.9024         25.9024
            1606     1.05087E+03     1.05087E+03     647.108E-03     647.108E-03         3.01807         3.01807
            1607     1.05655E+03     1.05655E+03         1.77879         1.77879         5.48964         5.48964
            1608     1.06126E+03     1.06126E+03         3.45287         3.45287         7.47928         7.47928
            1609     1.06538E+03     1.06538E+03         5.54770         5.54770         9.21743         9.21743
            1610     1.06920E+03     1.06920E+03         7.98603         7.98603         10.8927         10.8927
            1611     1.07301E+03     1.07301E+03         10.7184         10.7184         12.6638         12.6638
            1612     1.07711E+03     1.07711E+03         13.7042         13.7042         14.6808         14.6808
            1613     1.08183E+03     1.08183E+03         16.8854         16.8854         17.1018         17.1018
            1614     1.08762E+03     1.08762E+03         20.1431         20.1431         20.1034         20.1034
            1615     1.09514E+03     1.09514E+03         23.2073         23.2073         23.8785         23.8785
            1616     1.10542E+03     1.10542E+03         25.4493         25.4493         28.5769         28.5769
            1617     1.12010E+03     1.12010E+03         25.3716         25.3716         34.0572         34.0572
            1618     1.05538E+03     1.05538E+03     366.338E-03     366.338E-03         3.86753         3.86753
            1619     1.06000E+03     1.06000E+03     992.976E-03     992.976E-03         7.00860         7.00860
            1620     1.06410E+03     1.06410E+03         1.89054         1.89054         9.48228         9.48228
            1621     1.06792E+03     1.06792E+03         2.94927         2.94927         11.5601         11.5601
            1622     1.07170E+03     1.07170E+03         4.05956         4.05956         13.4525         13.4525
            1623     1.07566E+03     1.07566E+03         5.09614         5.09614         15.3135         15.3135
            1624     1.08007E+03     1.08007E+03         5.89276         5.89276         17.2525         17.2525
            1625     1.08525E+03     1.08525E+03         6.20304         6.20304         19.3314         19.3314
            1626     1.09159E+03     1.09159E+03         5.63673         5.63673         21.5342         21.5342
            1627     1.09961E+03     1.09961E+03         3.55497         3.55497         23.6860         23.6860
            1628     1.10989E+03     1.10989E+03        -1.08604        -1.08604         25.2336         25.2336
            1629     1.12286E+03     1.12286E+03        -9.85826        -9.85826         24.7893         24.7893
            1630     1.06066E+03     1.06066E+03     63.9084E-03     63.9084E-03         4.20644         4.20644
            1631     1.06398E+03     1.06398E+03     149.837E-03     149.837E-03         7.59528         7.59528
            1632     1.06726E+03     1.06726E+03     225.040E-03     225.040E-03         10.1914         10.1914
            1633     1.07059E+03     1.07059E+03     208.930E-03     208.930E-03         12.2476         12.2476
            1634     1.07410E+03     1.07410E+03    -13.2028E-03    -13.2028E-03         13.9453         13.9453
            1635     1.07793E+03     1.07793E+03    -597.997E-03    -597.997E-03         15.3868         15.3868
            1636     1.08226E+03     1.08226E+03        -1.76047        -1.76047         16.5940         16.5940
            1637     1.08729E+03     1.08729E+03        -3.79904        -3.79904         17.4870         17.4870
            1638     1.09320E+03     1.09320E+03        -7.12507        -7.12507         17.8324         17.8324
            1639     1.10013E+03     1.10013E+03        -12.2842        -12.2842         17.1379         17.1379
            1640     1.10793E+03     1.10793E+03        -19.9000        -19.9000         14.4964         14.4964
            1641     1.11567E+03     1.11567E+03        -30.4150        -30.4150         8.40074         8.40074
            1642     1.05304E+03     1.05304E+03         1.28950         1.28950     140.815E-03     140.815E-03
            1643     1.05303E+03     1.05303E+03         1.31343         1.31343     282.418E-03     282.418E-03
            1644     1.05301E+03     1.05301E+03         1.35320         1.35320     427.552E-03     427.552E-03
            1645     1.05298E+03     1.05298E+03         1.40879         1.40879     577.379E-03     577.379E-03
            1646     1.05294E+03     1.05294E+03         1.48011         1.48011     733.450E-03     733.450E-03
            1647     1.05289E+03     1.05289E+03         1.56702         1.56702     897.316E-03     897.316E-03
            1648     1.05283E+03     1.05283E+03         1.66930         1.66930         1.07051         1.07051
            1649     1.05276E+03     1.05276E+03         1.78663         1.78663         1.25457         1.25457
            1650     1.05268E+03     1.05268E+03         1.91855         1.91855         1.45099         1.45099
            1651     1.05258E+03     1.05258E+03         2.06446         2.06446         1.66126         1.66126
            1652     1.05247E+03     1.05247E+03         2.22351         2.22351         1.88686         1.88686
            1653     1.05235E+03     1.05235E+03         2.39460         2.39460         2.12924         2.12924
            1654     1.05221E+03     1.05221E+03         2.57631         2.57631         2.38982         2.38982
            1655     1.05205E+03     1.05205E+03         2.76679         2.76679         2.67001         2.67001
            1656     1.05188E+03     1.05188E+03         2.96371         2.96371         2.97123         2.97123
            1657     1.05168E+03     1.05168E+03         3.16415         3.16415         3.29490         3.29490
            1658     1.05147E+03     1.05147E+03         3.36448         3.36448         3.64246         3.64246
            1659     1.05124E+03     1.05124E+03         3.56023         3.56023         4.01545         4.01545
            1660     1.05098E+03     1.05098E+03         3.74596         3.74596         4.41552         4.41552
            1661     1.05071E+03     1.05071E+03         3.91505         3.91505         4.84451         4.84451
            1662     1.05042E+03     1.05042E+03         4.05953         4.05953         5.30453         5.30453
            1663     1.05012E+03     1.05012E+03         4.16987         4.16987         5.79808         5.79808
            1664     1.04980E+03     1.04980E+03         4.23468         4.23468         6.32818         6.32818
            1665     1.04948E+03     1.04948E+03         4.24049         4.24049         6.89849         6.89849
            1666     1.04916E+03     1.04916E+03         4.17136         4.17136         7.51351         7.51351
            1667     1.04886E+03     1.04886E+03         4.00855         4.00855         8.17868         8.17868
            1668     1.04858E+03     1.04858E+03         3.73010         3.73010         8.90052         8.90052
            1669     1.04835E+03     1.04835E+03         3.31028         3.31028         9.68663         9.68663
            1670     1.04820E+03     1.04820E+03         2.71913         2.71913         10.5455         10.5455
            1671     1.04816E+03     1.04816E+03         1.92173         1.92173         11.4862         11.4862
            1672     1.04827E+03     1.04827E+03     877.716E-03     877.716E-03         12.5169         12.5169
            1673     1.04860E+03     1.04860E+03    -459.606E-03    -459.606E-03         13.6436         13.6436
            1674     1.04922E+03     1.04922E+03        -2.14311        -2.14311         14.8665         14.8665
            1675     1.05023E+03     1.05023E+03        -4.23235        -4.23235         16.1746         16.1746
            1676     1.05177E+03     1.05177E+03        -6.79020        -6.79020         17.5370         17.5370
            1677     1.05399E+03     1.05399E+03        -9.87959        -9.87959         18.8905         18.8905
            1678     1.05709E+03     1.05709E+03        -13.5481        -13.5481         20.1185         20.1185
            1679     1.06129E+03     1.06129E+03        -17.8075        -17.8075         21.0279         21.0279
            1680     1.06682E+03     1.06682E+03        -22.5796        -22.5796         21.3130         21.3130
            1681     1.07384E+03     1.07384E+03        -27.6260        -27.6260         20.5466         20.5466
            1682     1.08236E+03     1.08236E+03        -32.4294        -32.4294         18.1828         18.1828
            1683     1.09209E+03     1.09209E+03        -36.1511        -36.1511         13.7164         13.7164
            1684     1.05316E+03     1.05316E+03         1.14642         1.14642     147.456E-03     147.456E-03
            1685     1.05316E+03     1.05316E+03         1.16795         1.16795     295.724E-03     295.724E-03
            1686     1.05314E+03     1.05314E+03         1.20374         1.20374     447.755E-03     447.755E-03
            1687     1.05312E+03     1.05312E+03         1.25377         1.25377     604.784E-03     604.784E-03
            1688     1.05310E+03     1.05310E+03         1.31796         1.31796     768.457E-03     768.457E-03
            1689     1.05307E+03     1.05307E+03         1.39618         1.39618     940.418E-03     940.418E-03
            1690     1.05303E+03     1.05303E+03         1.48821         1.48821         1.12229         1.12229
            1691     1.05299E+03     1.05299E+03         1.59377         1.59377         1.31570         1.31570
            1692     1.05294E+03     1.05294E+03         1.71242         1.71242         1.52221         1.52221
            1693     1.05288E+03     1.05288E+03         1.84357         1.84357         1.74338         1.74338
            1694     1.05281E+03     1.05281E+03         1.98643         1.98643         1.98073         1.98073
            1695     1.05274E+03     1.05274E+03         2.13992         2.13992         2.23572         2.23572
            1696     1.05265E+03     1.05265E+03         2.30266         2.30266         2.50978         2.50978
            1697     1.05255E+03     1.05255E+03         2.47284         2.47284         2.80427         2.80427
            1698     1.05244E+03     1.05244E+03         2.64817         2.64817         3.12048         3.12048
            1699     1.05232E+03     1.05232E+03         2.82574         2.82574         3.45967         3.45967
            1700     1.05218E+03     1.05218E+03         3.00193         3.00193         3.82301         3.82301
            1701     1.05203E+03     1.05203E+03         3.17226         3.17226         4.21164         4.21164
            1702     1.05188E+03     1.05188E+03         3.33120         3.33120         4.62667         4.62667
            1703     1.05171E+03     1.05171E+03         3.47204         3.47204         5.06921         5.06921
            1704     1.05154E+03     1.05154E+03         3.58661         3.58661         5.54040         5.54040
            1705     1.05136E+03     1.05136E+03         3.66513         3.66513         6.04145         6.04145
            1706     1.05118E+03     1.05118E+03         3.69584         3.69584         6.57371         6.57371
            1707     1.05102E+03     1.05102E+03         3.66483         3.66483         7.13868         7.13868
            1708     1.05087E+03     1.05087E+03         3.55561         3.55561         7.73808         7.73808
            1709     1.05076E+03     1.05076E+03         3.34887         3.34887         8.37381         8.37381
            1710     1.05069E+03     1.05069E+03         3.02206         3.02206         9.04786         9.04786
            1711     1.05070E+03     1.05070E+03         2.54916         2.54916         9.76210         9.76210
            1712     1.05081E+03     1.05081E+03         1.90023         1.90023         10.5177         10.5177
            1713     1.05106E+03     1.05106E+03         1.04145         1.04145         11.3145         11.3145
            1714     1.05149E+03     1.05149E+03    -65.1098E-03    -65.1098E-03         12.1491         12.1491
            1715     1.05218E+03     1.05218E+03        -1.46069        -1.46069         13.0129         13.0129
            1716     1.05319E+03     1.05319E+03        -3.18905        -3.18905         13.8883         13.8883
            1717     1.05461E+03     1.05461E+03        -5.29311        -5.29311         14.7431         14.7431
            1718     1.05655E+03     1.05655E+03        -7.81072        -7.81072         15.5226         15.5226
            1719     1.05915E+03     1.05915E+03        -10.7637        -10.7637         16.1384         16.1384
            1720     1.06253E+03     1.06253E+03        -14.1429        -14.1429         16.4564         16.4564
            1721     1.06682E+03     1.06682E+03        -17.8781        -17.8781         16.2794         16.2794
            1722     1.07210E+03     1.07210E+03        -21.7975        -21.7975         15.3449         15.3449
            1723     1.07838E+03     1.07838E+03        -25.5719        -25.5719         13.3266         13.3266
            1724     1.08547E+03     1.08547E+03        -28.6627        -28.6627         9.90185         9.90185
            1725     1.09307E+03     1.09307E+03        -30.3529        -30.3529         4.77910         4.77910
            1726     1.05328E+03     1.05328E+03     998.420E-03     998.420E-03     150.632E-03     150.632E-03
            1727     1.05327E+03     1.05327E+03         1.01743         1.01743     302.089E-03     302.089E-03
            1728     1.05327E+03     1.05327E+03         1.04903         1.04903     457.471E-03     457.471E-03
            1729     1.05327E+03     1.05327E+03         1.09322         1.09322     618.055E-03     618.055E-03
            1730     1.05326E+03     1.05326E+03         1.14991         1.14991     785.555E-03     785.555E-03
            1731     1.05325E+03     1.05325E+03         1.21899         1.21899     961.677E-03     961.677E-03
            1732     1.05324E+03     1.05324E+03         1.30026         1.30026         1.14811         1.14811
            1733     1.05322E+03     1.05322E+03         1.39347         1.39347         1.34651         1.34651
            1734     1.05321E+03     1.05321E+03         1.49821         1.49821         1.55852         1.55852
            1735     1.05319E+03     1.05319E+03         1.61394         1.61394         1.78571         1.78571
            1736     1.05316E+03     1.05316E+03         1.73991         1.73991         2.02962         2.02962
            1737     1.05313E+03     1.05313E+03         1.87512         1.87512         2.29171         2.29171
            1738     1.05310E+03     1.05310E+03         2.01826         2.01826         2.57335         2.57335
            1739     1.05306E+03     1.05306E+03         2.16760         2.16760         2.87583         2.87583
            1740     1.05302E+03     1.05302E+03         2.32095         2.32095         3.20030         3.20030
            1741     1.05297E+03     1.05297E+03         2.47552         2.47552         3.54779         3.54779
            1742     1.05292E+03     1.05292E+03         2.62778         2.62778         3.91915         3.91915
            1743     1.05287E+03     1.05287E+03         2.77337         2.77337         4.31509         4.31509
            1744     1.05281E+03     1.05281E+03         2.90688         2.90688         4.73611         4.73611
            1745     1.05275E+03     1.05275E+03         3.02170         3.02170         5.18248         5.18248
            1746     1.05270E+03     1.05270E+03         3.10977         3.10977         5.65428         5.65428
            1747     1.05265E+03     1.05265E+03         3.16138         3.16138         6.15131         6.15131
            1748     1.05261E+03     1.05261E+03         3.16486         3.16486         6.67309         6.67309
            1749     1.05260E+03     1.05260E+03         3.10638         3.10638         7.21881         7.21881
            1750     1.05262E+03     1.05262E+03         2.96960         2.96960         7.78725         7.78725
            1751     1.05268E+03     1.05268E+03         2.73546         2.73546         8.37659         8.37659
            1752     1.05281E+03     1.05281E+03         2.38190         2.38190         8.98422         8.98422
            1753     1.05302E+03     1.05302E+03         1.88377         1.88377         9.60627         9.60627
            1754     1.05336E+03     1.05336E+03         1.21284         1.21284         10.2370         10.2370
            1755     1.05384E+03     1.05384E+03     337.997E-03     337.997E-03         10.8675         10.8675
            1756     1.05453E+03     1.05453E+03    -773.856E-03    -773.856E-03         11.4846         11.4846
            1757     1.05547E+03     1.05547E+03        -2.15663        -2.15663         12.0680         12.0680
            1758     1.05673E+03     1.05673E+03        -3.84210        -3.84210         12.5870         12.5870
            1759     1.05839E+03     1.05839E+03        -5.85600        -5.85600         12.9962         12.9962
            1760     1.06053E+03     1.06053E+03        -8.21019        -8.21019         13.2287         13.2287
            1761     1.06322E+03     1.06322E+03        -10.8920        -10.8920         13.1909         13.1909
            1762     1.06656E+03     1.06656E+03        -13.8462        -13.8462         12.7532         12.7532
            1763     1.07057E+03     1.07057E+03        -16.9510        -16.9510         11.7505         11.7505
            1764     1.07526E+03     1.07526E+03        -19.9881        -19.9881         9.98381         9.98381
            1765     1.08052E+03     1.08052E+03        -22.6075        -22.6075         7.24990         7.24990
            1766     1.08612E+03     1.08612E+03        -24.3275        -24.3275         3.37539         3.37539
            1767     1.09168E+03     1.09168E+03        -24.4716        -24.4716        -1.75894        -1.75894
            1768     1.05338E+03     1.05338E+03     848.999E-03     848.999E-03     150.206E-03     150.206E-03
            1769     1.05338E+03     1.05338E+03     865.412E-03     865.412E-03     301.226E-03     301.226E-03
            1770     1.05339E+03     1.05339E+03     892.708E-03     892.708E-03     456.258E-03     456.258E-03
            1771     1.05340E+03     1.05340E+03     930.872E-03     930.872E-03     616.593E-03     616.593E-03
            1772     1.05341E+03     1.05341E+03     979.841E-03     979.841E-03     783.975E-03     783.975E-03
            1773     1.05342E+03     1.05342E+03         1.03951         1.03951     960.141E-03     960.141E-03
            1774     1.05343E+03     1.05343E+03         1.10972         1.10972         1.14681         1.14681
            1775     1.05345E+03     1.05345E+03         1.19024         1.19024         1.34565         1.34565
            1776     1.05347E+03     1.05347E+03         1.28070         1.28070         1.55833         1.55833
            1777     1.05349E+03     1.05349E+03         1.38064         1.38064         1.78642         1.78642
            1778     1.05351E+03     1.05351E+03         1.48936         1.48936         2.03146         2.03146
            1779     1.05353E+03     1.05353E+03         1.60596         1.60596         2.29485         2.29485
            1780     1.05356E+03     1.05356E+03         1.72924         1.72924         2.57793         2.57793
            1781     1.05358E+03     1.05358E+03         1.85761         1.85761         2.88186         2.88186
            1782     1.05361E+03     1.05361E+03         1.98903         1.98903         3.20765         3.20765
            1783     1.05364E+03     1.05364E+03         2.12090         2.12090         3.55608         3.55608
            1784     1.05368E+03     1.05368E+03         2.24992         2.24992         3.92768         3.92768
            1785     1.05371E+03     1.05371E+03         2.37199         2.37199         4.32270         4.32270
            1786     1.05376E+03     1.05376E+03         2.48199         2.48199         4.74102         4.74102
            1787     1.05381E+03     1.05381E+03         2.57364         2.57364         5.18211         5.18211
            1788     1.05388E+03     1.05388E+03         2.63927         2.63927         5.64493         5.64493
            1789     1.05396E+03     1.05396E+03         2.66960         2.66960         6.12792         6.12792
            1790     1.05406E+03     1.05406E+03         2.65350         2.65350         6.62878         6.62878
            1791     1.05419E+03     1.05419E+03         2.57775         2.57775         7.14444         7.14444
            1792     1.05437E+03     1.05437E+03         2.42680         2.42680         7.67081         7.67081
            1793     1.05460E+03     1.05460E+03         2.18262         2.18262         8.20256         8.20256
            1794     1.05490E+03     1.05490E+03         1.82453         1.82453         8.73276         8.73276
            1795     1.05530E+03     1.05530E+03         1.32934         1.32934         9.25234         9.25234
            1796     1.05581E+03     1.05581E+03     671.565E-03     671.565E-03         9.74942         9.74942
            1797     1.05648E+03     1.05648E+03    -175.816E-03    -175.816E-03         10.2082         10.2082
            1798     1.05735E+03     1.05735E+03        -1.24020        -1.24020         10.6075         10.6075
            1799     1.05845E+03     1.05845E+03        -2.54704        -2.54704         10.9190         10.9190
            1800     1.05985E+03     1.05985E+03        -4.11658        -4.11658         11.1043         11.1043
            1801     1.06159E+03     1.06159E+03        -5.95836        -5.95836         11.1120         11.1120
            1802     1.06373E+03     1.06373E+03        -8.06351        -8.06351         10.8746         10.8746
            1803     1.06633E+03     1.06633E+03        -10.3935        -10.3935         10.3048         10.3048
            1804     1.06939E+03     1.06939E+03        -12.8649        -12.8649         9.29582         9.29582
            1805     1.07292E+03     1.07292E+03        -15.3320        -15.3320         7.72434         7.72434
            1806     1.07685E+03     1.07685E+03        -17.5651        -17.5651         5.46455         5.46455
            1807     1.08102E+03     1.08102E+03        -19.2431        -19.2431         2.41159         2.41159
            1808     1.08520E+03     1.08520E+03        -19.9321        -19.9321        -1.49146        -1.49146
            1809     1.08899E+03     1.08899E+03        -19.0937        -19.0937        -6.17979        -6.17979
            1810     1.05347E+03     1.05347E+03     701.758E-03     701.758E-03     146.103E-03     146.103E-03
            1811     1.05348E+03     1.05348E+03     715.555E-03     715.555E-03     292.981E-03     292.981E-03
            1812     1.05349E+03     1.05349E+03     738.506E-03     738.506E-03     443.879E-03     443.879E-03
            1813     1.05351E+03     1.05351E+03     770.600E-03     770.600E-03     600.063E-03     600.063E-03
            1814     1.05354E+03     1.05354E+03     811.785E-03     811.785E-03     763.276E-03     763.276E-03
            1815     1.05358E+03     1.05358E+03     861.978E-03     861.978E-03     935.248E-03     935.248E-03
            1816     1.05362E+03     1.05362E+03     921.045E-03     921.045E-03         1.11769         1.11769
            1817     1.05366E+03     1.05366E+03     988.785E-03     988.785E-03         1.31227         1.31227
            1818     1.05372E+03     1.05372E+03         1.06490         1.06490         1.52062         1.52062
            1819     1.05378E+03     1.05378E+03         1.14898         1.14898         1.74430         1.74430
            1820     1.05384E+03     1.05384E+03         1.24042         1.24042         1.98481         1.98481
            1821     1.05392E+03     1.05392E+03         1.33844         1.33844         2.24352         2.24352
            1822     1.05400E+03     1.05400E+03         1.44196         1.44196         2.52166         2.52166
            1823     1.05409E+03     1.05409E+03         1.54959         1.54959         2.82031         2.82031
            1824     1.05420E+03     1.05420E+03         1.65951         1.65951         3.14029         3.14029
            1825     1.05431E+03     1.05431E+03         1.76938         1.76938         3.48218         3.48218
            1826     1.05443E+03     1.05443E+03         1.87624         1.87624         3.84621         3.84621
            1827     1.05456E+03     1.05456E+03         1.97636         1.97636         4.23218         4.23218
            1828     1.05471E+03     1.05471E+03         2.06509         2.06509         4.63943         4.63943
            1829     1.05488E+03     1.05488E+03         2.13670         2.13670         5.06668         5.06668
            1830     1.05506E+03     1.05506E+03         2.18417         2.18417         5.51192         5.51192
            1831     1.05527E+03     1.05527E+03         2.19900         2.19900         5.97229         5.97229
            1832     1.05551E+03     1.05551E+03         2.17099         2.17099         6.44393         6.44393
            1833     1.05579E+03     1.05579E+03         2.08802         2.08802         6.92170         6.92170
            1834     1.05611E+03     1.05611E+03         1.93591         1.93591         7.39901         7.39901
            1835     1.05649E+03     1.05649E+03         1.69826         1.69826         7.86744         7.86744
            1836     1.05695E+03     1.05695E+03         1.35656         1.35656         8.31640         8.31640
            1837     1.05750E+03     1.05750E+03     890.260E-03     890.260E-03         8.73253         8.73253
            1838     1.05816E+03     1.05816E+03     277.410E-03     277.410E-03         9.09908         9.09908
            1839     1.05897E+03     1.05897E+03    -504.478E-03    -504.478E-03         9.39503         9.39503
            1840     1.05995E+03     1.05995E+03        -1.47671        -1.47671         9.59395         9.59395
            1841     1.06113E+03     1.06113E+03        -2.65697        -2.65697         9.66276         9.66276
            1842     1.06256E+03     1.06256E+03        -4.05539        -4.05539         9.56006         9.56006
            1843     1.06427E+03     1.06427E+03        -5.66918        -5.66918         9.23494         9.23494
            1844     1.06629E+03     1.06629E+03        -7.47516        -7.47516         8.62563         8.62563
            1845     1.06864E+03     1.06864E+03        -9.41981        -9.41981         7.66042         7.66042
            1846     1.07130E+03     1.07130E+03        -11.4084        -11.4084         6.26025         6.26025
            1847     1.07423E+03     1.07423E+03        -13.2910        -13.2910         4.34699         4.34699
            1848     1.07735E+03     1.07735E+03        -14.8557        -14.8557         1.85798         1.85798
            1849     1.08048E+03     1.08048E+03        -15.8184        -15.8184        -1.23513        -1.23513
            1850     1.08340E+03     1.08340E+03        -15.8304        -15.8304        -4.88679        -4.88679
            1851     1.08580E+03     1.08580E+03        -14.5061        -14.5061        -8.93841        -8.93841
            1852     1.05354E+03     1.05354E+03     560.332E-03     560.332E-03     138.325E-03     138.325E-03
            1853     1.05355E+03     1.05355E+03     571.552E-03     571.552E-03     277.357E-03     277.357E-03
            1854     1.05358E+03     1.05358E+03     590.223E-03     590.223E-03     420.326E-03     420.326E-03
            1855     1.05361E+03     1.05361E+03     616.334E-03     616.334E-03     568.444E-03     568.444E-03
            1856     1.05366E+03     1.05366E+03     649.847E-03     649.847E-03     723.407E-03     723.407E-03
            1857     1.05371E+03     1.05371E+03     690.699E-03     690.699E-03     886.902E-03     886.902E-03
            1858     1.05378E+03     1.05378E+03     738.785E-03     738.785E-03         1.06059         1.06059
            1859     1.05385E+03     1.05385E+03     793.944E-03     793.944E-03         1.24611         1.24611
            1860     1.05394E+03     1.05394E+03     855.936E-03     855.936E-03         1.44503         1.44503
            1861     1.05404E+03     1.05404E+03     924.417E-03     924.417E-03         1.65888         1.65888
            1862     1.05416E+03     1.05416E+03     998.898E-03     998.898E-03         1.88907         1.88907
            1863     1.05429E+03     1.05429E+03         1.07872         1.07872         2.13693         2.13693
            1864     1.05443E+03     1.05443E+03         1.16297         1.16297         2.40361         2.40361
            1865     1.05459E+03     1.05459E+03         1.25047         1.25047         2.69005         2.69005
            1866     1.05476E+03     1.05476E+03         1.33968         1.33968         2.99696         2.99696
            1867     1.05495E+03     1.05495E+03         1.42857         1.42857         3.32471         3.32471
            1868     1.05516E+03     1.05516E+03         1.51461         1.51461         3.67329         3.67329
            1869     1.05539E+03     1.05539E+03         1.59455         1.59455         4.04216         4.04216
            1870     1.05565E+03     1.05565E+03         1.66437         1.66437         4.43019         4.43019
            1871     1.05592E+03     1.05592E+03         1.71906         1.71906         4.83551         4.83551
            1872     1.05623E+03     1.05623E+03         1.75249         1.75249         5.25533         5.25533
            1873     1.05657E+03     1.05657E+03         1.75721         1.75721         5.68579         5.68579
            1874     1.05694E+03     1.05694E+03         1.72427         1.72427         6.12171         6.12171
            1875     1.05736E+03     1.05736E+03         1.64309         1.64309         6.55635         6.55635
            1876     1.05782E+03     1.05782E+03         1.50126         1.50126         6.98114         6.98114
            1877     1.05835E+03     1.05835E+03         1.28458         1.28458         7.38527         7.38527
            1878     1.05894E+03     1.05894E+03     977.115E-03     977.115E-03         7.75535         7.75535
            1879     1.05962E+03     1.05962E+03     561.494E-03     561.494E-03         8.07486         8.07486
            1880     1.06040E+03     1.06040E+03     19.5502E-03     19.5502E-03         8.32368         8.32368
            1881     1.06130E+03     1.06130E+03    -666.555E-03    -666.555E-03         8.47741         8.47741
            1882     1.06235E+03     1.06235E+03        -1.51263        -1.51263         8.50677         8.50677
            1883     1.06355E+03     1.06355E+03        -2.52979        -2.52979         8.37690         8.37690
            1884     1.06495E+03     1.06495E+03        -3.72075        -3.72075         8.04711         8.04711
            1885     1.06654E+03     1.06654E+03        -5.07485        -5.07485         7.47063         7.47063
            1886     1.06835E+03     1.06835E+03        -6.56138        -6.56138         6.59596         6.59596
            1887     1.07036E+03     1.07036E+03        -8.12235        -8.12235         5.36922         5.36922
            1888     1.07255E+03     1.07255E+03        -9.66342        -9.66342         3.73966         3.73966
            1889     1.07486E+03     1.07486E+03        -11.0480        -11.0480         1.66896         1.66896
            1890     1.07718E+03     1.07718E+03        -12.0909        -12.0909    -856.475E-03    -856.475E-03
            1891     1.07936E+03     1.07936E+03        -12.5620        -12.5620        -3.80361        -3.80361
            1892     1.08123E+03     1.08123E+03        -12.2004        -12.2004        -7.07076        -7.07076
            1893     1.08255E+03     1.08255E+03        -10.7457        -10.7457        -10.4575        -10.4575
            1894     1.05358E+03     1.05358E+03     428.316E-03     428.316E-03     126.961E-03     126.961E-03
            1895     1.05360E+03     1.05360E+03     437.060E-03     437.060E-03     254.524E-03     254.524E-03
            1896     1.05363E+03     1.05363E+03     451.620E-03     451.620E-03     385.848E-03     385.848E-03
            1897     1.05368E+03     1.05368E+03     471.983E-03     471.983E-03     522.049E-03     522.049E-03
            1898     1.05374E+03     1.05374E+03     498.125E-03     498.125E-03     664.736E-03     664.736E-03
            1899     1.05382E+03     1.05382E+03     529.999E-03     529.999E-03     815.511E-03     815.511E-03
            1900     1.05391E+03     1.05391E+03     567.531E-03     567.531E-03     975.950E-03     975.950E-03
            1901     1.05401E+03     1.05401E+03     610.599E-03     610.599E-03         1.14760         1.14760
            1902     1.05414E+03     1.05414E+03     659.020E-03     659.020E-03         1.33197         1.33197
            1903     1.05428E+03     1.05428E+03     712.527E-03     712.527E-03         1.53049         1.53049
            1904     1.05444E+03     1.05444E+03     770.738E-03     770.738E-03         1.74450         1.74450
            1905     1.05462E+03     1.05462E+03     833.126E-03     833.126E-03         1.97525         1.97525
            1906     1.05482E+03     1.05482E+03     898.974E-03     898.974E-03         2.22378         2.22378
            1907     1.05504E+03     1.05504E+03     967.328E-03     967.328E-03         2.49096         2.49096
            1908     1.05529E+03     1.05529E+03         1.03693         1.03693         2.77737         2.77737
            1909     1.05556E+03     1.05556E+03         1.10616         1.10616         3.08324         3.08324
            1910     1.05586E+03     1.05586E+03         1.17293         1.17293         3.40838         3.40838
            1911     1.05619E+03     1.05619E+03         1.23458         1.23458         3.75203         3.75203
            1912     1.05655E+03     1.05655E+03         1.28780         1.28780         4.11276         4.11276
            1913     1.05694E+03     1.05694E+03         1.32844         1.32844         4.48829         4.48829
            1914     1.05736E+03     1.05736E+03         1.35143         1.35143         4.87533         4.87533
            1915     1.05783E+03     1.05783E+03         1.35057         1.35057         5.26934         5.26934
            1916     1.05834E+03     1.05834E+03         1.31845         1.31845         5.66432         5.66432
            1917     1.05889E+03     1.05889E+03         1.24624         1.24624         6.05245         6.05245
            1918     1.05949E+03     1.05949E+03         1.12369         1.12369         6.42387         6.42387
            1919     1.06015E+03     1.06015E+03     939.064E-03     939.064E-03         6.76625         6.76625
            1920     1.06088E+03     1.06088E+03     679.329E-03     679.329E-03         7.06442         7.06442
            1921     1.06167E+03     1.06167E+03     330.452E-03     330.452E-03         7.30001         7.30001
            1922     1.06255E+03     1.06255E+03    -121.903E-03    -121.903E-03         7.45100         7.45100
            1923     1.06352E+03     1.06352E+03    -691.322E-03    -691.322E-03         7.49148         7.49148
            1924     1.06460E+03     1.06460E+03        -1.38894        -1.38894         7.39130         7.39130
            1925     1.06579E+03     1.06579E+03        -2.22106        -2.22106         7.11626         7.11626
            1926     1.06710E+03     1.06710E+03        -3.18583        -3.18583         6.62848         6.62848
            1927     1.06853E+03     1.06853E+03        -4.26893        -4.26893         5.88767         5.88767
            1928     1.07007E+03     1.07007E+03        -5.43862        -5.43862         4.85342         4.85342
            1929     1.07171E+03     1.07171E+03        -6.63964        -6.63964         3.48919         3.48919
            1930     1.07341E+03     1.07341E+03        -7.78844        -7.78844         1.76869         1.76869
            1931     1.07509E+03     1.07509E+03        -8.76847        -8.76847    -315.851E-03    -315.851E-03
            1932     1.07667E+03     1.07667E+03        -9.43074        -9.43074        -2.74066        -2.74066
            1933     1.07802E+03     1.07802E+03        -9.59978        -9.59978        -5.43729        -5.43729
            1934     1.07901E+03     1.07901E+03        -9.08998        -9.08998        -8.27537        -8.27537
            1935     1.07949E+03     1.07949E+03        -7.73706        -7.73706        -11.0509        -11.0509
            1936     1.05359E+03     1.05359E+03     309.171E-03     309.171E-03     112.187E-03     112.187E-03
            1937     1.05361E+03     1.05361E+03     315.613E-03     315.613E-03     224.836E-03     224.836E-03
            1938     1.05366E+03     1.05366E+03     326.345E-03     326.345E-03     340.964E-03     340.964E-03
            1939     1.05371E+03     1.05371E+03     341.353E-03     341.353E-03     461.557E-03     461.557E-03
            1940     1.05379E+03     1.05379E+03     360.625E-03     360.625E-03     588.087E-03     588.087E-03
            1941     1.05389E+03     1.05389E+03     384.129E-03     384.129E-03     722.023E-03     722.023E-03
            1942     1.05400E+03     1.05400E+03     411.817E-03     411.817E-03     864.818E-03     864.818E-03
            1943     1.05414E+03     1.05414E+03     443.607E-03     443.607E-03         1.01789         1.01789
            1944     1.05429E+03     1.05429E+03     479.367E-03     479.367E-03         1.18263         1.18263
            1945     1.05447E+03     1.05447E+03     518.904E-03     518.904E-03         1.36035         1.36035
            1946     1.05468E+03     1.05468E+03     561.940E-03     561.940E-03         1.55230         1.55230
            1947     1.05491E+03     1.05491E+03     608.084E-03     608.084E-03         1.75960         1.75960
            1948     1.05517E+03     1.05517E+03     656.803E-03     656.803E-03         1.98323         1.98323
            1949     1.05545E+03     1.05545E+03     707.382E-03     707.382E-03         2.22395         2.22395
            1950     1.05577E+03     1.05577E+03     758.871E-03     758.871E-03         2.48226         2.48226
            1951     1.05612E+03     1.05612E+03     810.035E-03     810.035E-03         2.75831         2.75831
            1952     1.05651E+03     1.05651E+03     859.279E-03     859.279E-03         3.05181         3.05181
            1953     1.05693E+03     1.05693E+03     904.573E-03     904.573E-03         3.36190         3.36190
            1954     1.05740E+03     1.05740E+03     943.355E-03     943.355E-03         3.68704         3.68704
            1955     1.05790E+03     1.05790E+03     972.430E-03     972.430E-03         4.02480         4.02480
            1956     1.05845E+03     1.05845E+03     987.856E-03     987.856E-03         4.37170         4.37170
            1957     1.05904E+03     1.05904E+03     984.825E-03     984.825E-03         4.72295         4.72295
            1958     1.05968E+03     1.05968E+03     957.552E-03     957.552E-03         5.07222         5.07222
            1959     1.06037E+03     1.06037E+03     899.180E-03     899.180E-03         5.41131         5.41131
            1960     1.06111E+03     1.06111E+03     801.722E-03     801.722E-03         5.72985         5.72985
            1961     1.06191E+03     1.06191E+03     656.092E-03     656.092E-03         6.01496         6.01496
            1962     1.06276E+03     1.06276E+03     452.231E-03     452.231E-03         6.25087         6.25087
            1963     1.06367E+03     1.06367E+03     179.446E-03     179.446E-03         6.41868         6.41868
            1964     1.06464E+03     1.06464E+03    -173.009E-03    -173.009E-03         6.49604         6.49604
            1965     1.06567E+03     1.06567E+03    -614.976E-03    -614.976E-03         6.45712         6.45712
            1966     1.06676E+03     1.06676E+03        -1.15395        -1.15395         6.27272         6.27272
            1967     1.06792E+03     1.06792E+03        -1.79311        -1.79311         5.91082         5.91082
            1968     1.06912E+03     1.06912E+03        -2.52854        -2.52854         5.33775         5.33775
            1969     1.07037E+03     1.07037E+03        -3.34605        -3.34605         4.52006         4.52006
            1970     1.07164E+03     1.07164E+03        -4.21711        -4.21711         3.42769         3.42769
            1971     1.07290E+03     1.07290E+03        -5.09524        -5.09524         2.03854         2.03854
            1972     1.07411E+03     1.07411E+03        -5.91224        -5.91224     344.402E-03     344.402E-03
            1973     1.07520E+03     1.07520E+03        -6.57713        -6.57713        -1.64053        -1.64053
            1974     1.07609E+03     1.07609E+03        -6.97764        -6.97764        -3.87100        -3.87100
            1975     1.07670E+03     1.07670E+03        -6.98759        -6.98759        -6.26004        -6.26004
            1976     1.07694E+03     1.07694E+03        -6.48242        -6.48242        -8.67157        -8.67157
            1977     1.07672E+03     1.07672E+03        -5.36135        -5.36135        -10.9168        -10.9168
            1978     1.05356E+03     1.05356E+03     206.141E-03     206.141E-03     94.2816E-03     94.2816E-03
            1979     1.05359E+03     1.05359E+03     210.526E-03     210.526E-03     188.834E-03     188.834E-03
            1980     1.05364E+03     1.05364E+03     217.834E-03     217.834E-03     286.486E-03     286.486E-03
            1981     1.05371E+03     1.05371E+03     228.053E-03     228.053E-03     388.031E-03     388.031E-03
            1982     1.05380E+03     1.05380E+03     241.169E-03     241.169E-03     494.763E-03     494.763E-03
            1983     1.05391E+03     1.05391E+03     257.174E-03     257.174E-03     607.973E-03     607.973E-03
            1984     1.05405E+03     1.05405E+03     276.039E-03     276.039E-03     728.930E-03     728.930E-03
            1985     1.05421E+03     1.05421E+03     297.712E-03     297.712E-03     858.887E-03     858.887E-03
            1986     1.05440E+03     1.05440E+03     322.109E-03     322.109E-03     999.063E-03     999.063E-03
            1987     1.05462E+03     1.05462E+03     349.101E-03     349.101E-03         1.15063         1.15063
            1988     1.05486E+03     1.05486E+03     378.503E-03     378.503E-03         1.31469         1.31469
            1989     1.05514E+03     1.05514E+03     410.052E-03     410.052E-03         1.49224         1.49224
            1990     1.05545E+03     1.05545E+03     443.385E-03     443.385E-03         1.68415         1.68415
            1991     1.05580E+03     1.05580E+03     478.010E-03     478.010E-03         1.89110         1.89110
            1992     1.05619E+03     1.05619E+03     513.273E-03     513.273E-03         2.11352         2.11352
            1993     1.05662E+03     1.05662E+03     548.315E-03     548.315E-03         2.35153         2.35153
            1994     1.05709E+03     1.05709E+03     582.025E-03     582.025E-03         2.60484         2.60484
            1995     1.05761E+03     1.05761E+03     612.976E-03     612.976E-03         2.87264         2.87264
            1996     1.05817E+03     1.05817E+03     639.366E-03     639.366E-03         3.15342         3.15342
            1997     1.05879E+03     1.05879E+03     658.934E-03     658.934E-03         3.44490         3.44490
            1998     1.05946E+03     1.05946E+03     668.883E-03     668.883E-03         3.74373         3.74373
            1999     1.06018E+03     1.06018E+03     665.791E-03     665.791E-03         4.04534         4.04534
            2000     1.06096E+03     1.06096E+03     645.536E-03     645.536E-03         4.34365         4.34365
            2001     1.06179E+03     1.06179E+03     603.215E-03     603.215E-03         4.63077         4.63077
            2002     1.06267E+03     1.06267E+03     533.129E-03     533.129E-03         4.89673         4.89673
            2003     1.06361E+03     1.06361E+03     428.790E-03     428.790E-03         5.12913         5.12913
            2004     1.06459E+03     1.06459E+03     283.049E-03     283.049E-03         5.31286         5.31286
            2005     1.06562E+03     1.06562E+03     88.3534E-03     88.3534E-03         5.42986         5.42986
            2006     1.06669E+03     1.06669E+03    -162.791E-03    -162.791E-03         5.45897         5.45897
            2007     1.06779E+03     1.06779E+03    -477.075E-03    -477.075E-03         5.37604         5.37604
            2008     1.06891E+03     1.06891E+03    -859.309E-03    -859.309E-03         5.15425         5.15425
            2009     1.07004E+03     1.07004E+03        -1.31087        -1.31087         4.76504         4.76504
            2010     1.07115E+03     1.07115E+03        -1.82781        -1.82781         4.17947         4.17947
            2011     1.07223E+03     1.07223E+03        -2.39833        -2.39833         3.37057         3.37057
            2012     1.07324E+03     1.07324E+03        -3.00035        -3.00035         2.31672         2.31672
            2013     1.07414E+03     1.07414E+03        -3.59869        -3.59869         1.00601         1.00601
            2014     1.07488E+03     1.07488E+03        -4.14344        -4.14344    -557.841E-03    -557.841E-03
            2015     1.07542E+03     1.07542E+03        -4.56950        -4.56950        -2.34916        -2.34916
            2016     1.07568E+03     1.07568E+03        -4.79897        -4.79897        -4.31293        -4.31293
            2017     1.07562E+03     1.07562E+03        -4.74761        -4.74761        -6.35908        -6.35908
            2018     1.07516E+03     1.07516E+03        -4.33565        -4.33565        -8.35935        -8.35935
            2019     1.07429E+03     1.07429E+03        -3.50465        -3.50465        -10.1488        -10.1488
            2020     1.05349E+03     1.05349E+03     122.140E-03     122.140E-03     73.6140E-03     73.6140E-03
            2021     1.05353E+03     1.05353E+03     124.797E-03     124.797E-03     147.278E-03     147.278E-03
            2022     1.05358E+03     1.05358E+03     129.224E-03     129.224E-03     223.524E-03     223.524E-03
            2023     1.05366E+03     1.05366E+03     135.385E-03     135.385E-03     302.940E-03     302.940E-03
            2024     1.05377E+03     1.05377E+03     143.293E-03     143.293E-03     386.590E-03     386.590E-03
            2025     1.05389E+03     1.05389E+03     152.955E-03     152.955E-03     475.513E-03     475.513E-03
            2026     1.05405E+03     1.05405E+03     164.349E-03     164.349E-03     570.748E-03     570.748E-03
            2027     1.05423E+03     1.05423E+03     177.448E-03     177.448E-03     673.328E-03     673.328E-03
            2028     1.05445E+03     1.05445E+03     192.203E-03     192.203E-03     784.258E-03     784.258E-03
            2029     1.05470E+03     1.05470E+03     208.540E-03     208.540E-03     904.511E-03     904.511E-03
            2030     1.05498E+03     1.05498E+03     226.349E-03     226.349E-03         1.03500         1.03500
            2031     1.05530E+03     1.05530E+03     245.475E-03     245.475E-03         1.17658         1.17658
            2032     1.05566E+03     1.05566E+03     265.700E-03     265.700E-03         1.32996         1.32996
            2033     1.05607E+03     1.05607E+03     286.727E-03     286.727E-03         1.49574         1.49574
            2034     1.05652E+03     1.05652E+03     308.159E-03     308.159E-03         1.67430         1.67430
            2035     1.05702E+03     1.05702E+03     329.471E-03     329.471E-03         1.86576         1.86576
            2036     1.05758E+03     1.05758E+03     349.980E-03     349.980E-03         2.06988         2.06988
            2037     1.05819E+03     1.05819E+03     368.806E-03     368.806E-03         2.28601         2.28601
            2038     1.05886E+03     1.05886E+03     384.833E-03     384.833E-03         2.51289         2.51289
            2039     1.05959E+03     1.05959E+03     396.654E-03     396.654E-03         2.74858         2.74858
            2040     1.06038E+03     1.06038E+03     402.524E-03     402.524E-03         2.99025         2.99025
            2041     1.06123E+03     1.06123E+03     400.301E-03     400.301E-03         3.23396         3.23396
            2042     1.06215E+03     1.06215E+03     387.392E-03     387.392E-03         3.47447         3.47447
            2043     1.06312E+03     1.06312E+03     360.717E-03     360.717E-03         3.70495         3.70495
            2044     1.06416E+03     1.06416E+03     316.678E-03     316.678E-03         3.91672         3.91672
            2045     1.06525E+03     1.06525E+03     251.187E-03     251.187E-03         4.09898         4.09898
            2046     1.06638E+03     1.06638E+03     159.735E-03     159.735E-03         4.23853         4.23853
            2047     1.06755E+03     1.06755E+03     37.5765E-03     37.5765E-03         4.31960         4.31960
            2048     1.06874E+03     1.06874E+03    -119.965E-03    -119.965E-03         4.32381         4.32381
            2049     1.06994E+03     1.06994E+03    -317.011E-03    -317.011E-03         4.23025         4.23025
            2050     1.07111E+03     1.07111E+03    -556.390E-03    -556.390E-03         4.01600         4.01600
            2051     1.07225E+03     1.07225E+03    -838.685E-03    -838.685E-03         3.65698         3.65698
            2052     1.07331E+03     1.07331E+03        -1.16090        -1.16090         3.12946         3.12946
            2053     1.07425E+03     1.07425E+03        -1.51503        -1.51503         2.41233         2.41233
            2054     1.07504E+03     1.07504E+03        -1.88634        -1.88634         1.49015         1.49015
            2055     1.07563E+03     1.07563E+03        -2.25193        -2.25193     357.295E-03     357.295E-03
            2056     1.07596E+03     1.07596E+03        -2.57974        -2.57974    -977.393E-03    -977.393E-03
            2057     1.07599E+03     1.07599E+03        -2.82867        -2.82867        -2.48513        -2.48513
            2058     1.07566E+03     1.07566E+03        -2.95063        -2.95063        -4.11247        -4.11247
            2059     1.07494E+03     1.07494E+03        -2.89474        -2.89474        -5.77752        -5.77752
            2060     1.07381E+03     1.07381E+03        -2.61457        -2.61457        -7.36949        -7.36949
            2061     1.07227E+03     1.07227E+03        -2.07736        -2.07736        -8.75258        -8.75258
            2062     1.05338E+03     1.05338E+03     59.6728E-03     59.6728E-03     50.7009E-03     50.7009E-03
            2063     1.05342E+03     1.05342E+03     61.0326E-03     61.0326E-03     101.103E-03     101.103E-03
            2064     1.05348E+03     1.05348E+03     63.2184E-03     63.2184E-03     153.500E-03     153.500E-03
            2065     1.05356E+03     1.05356E+03     66.2417E-03     66.2417E-03     208.206E-03     208.206E-03
            2066     1.05368E+03     1.05368E+03     70.1464E-03     70.1464E-03     265.941E-03     265.941E-03
            2067     1.05382E+03     1.05382E+03     74.9187E-03     74.9187E-03     327.458E-03     327.458E-03
            2068     1.05399E+03     1.05399E+03     80.5495E-03     80.5495E-03     393.513E-03     393.513E-03
            2069     1.05419E+03     1.05419E+03     87.0260E-03     87.0260E-03     464.854E-03     464.854E-03
            2070     1.05443E+03     1.05443E+03     94.3242E-03     94.3242E-03     542.217E-03     542.217E-03
            2071     1.05471E+03     1.05471E+03     102.409E-03     102.409E-03     626.315E-03     626.315E-03
            2072     1.05502E+03     1.05502E+03     111.227E-03     111.227E-03     717.827E-03     717.827E-03
            2073     1.05538E+03     1.05538E+03     120.702E-03     120.702E-03     817.383E-03     817.383E-03
            2074     1.05579E+03     1.05579E+03     130.727E-03     130.727E-03     925.535E-03     925.535E-03
            2075     1.05625E+03     1.05625E+03     141.155E-03     141.155E-03         1.04274         1.04274
            2076     1.05676E+03     1.05676E+03     151.787E-03     151.787E-03         1.16930         1.16930
            2077     1.05733E+03     1.05733E+03     162.363E-03     162.363E-03         1.30534         1.30534
            2078     1.05796E+03     1.05796E+03     172.539E-03     172.539E-03         1.45075         1.45075
            2079     1.05866E+03     1.05866E+03     181.873E-03     181.873E-03         1.60506         1.60506
            2080     1.05943E+03     1.05943E+03     189.801E-03     189.801E-03         1.76742         1.76742
            2081     1.06027E+03     1.06027E+03     195.609E-03     195.609E-03         1.93643         1.93643
            2082     1.06118E+03     1.06118E+03     198.412E-03     198.412E-03         2.11004         2.11004
            2083     1.06217E+03     1.06217E+03     197.115E-03     197.115E-03         2.28538         2.28538
            2084     1.06323E+03     1.06323E+03     190.395E-03     190.395E-03         2.45856         2.45856
            2085     1.06436E+03     1.06436E+03     176.670E-03     176.670E-03         2.62453         2.62453
            2086     1.06556E+03     1.06556E+03     154.096E-03     154.096E-03         2.77678         2.77678
            2087     1.06682E+03     1.06682E+03     120.563E-03     120.563E-03         2.90718         2.90718
            2088     1.06813E+03     1.06813E+03     73.7542E-03     73.7542E-03         3.00576         3.00576
            2089     1.06947E+03     1.06947E+03     11.2214E-03     11.2214E-03         3.06059         3.06059
            2090     1.07082E+03     1.07082E+03    -69.4392E-03    -69.4392E-03         3.05768         3.05768
            2091     1.07215E+03     1.07215E+03    -170.331E-03    -170.331E-03         2.98117         2.98117
            2092     1.07344E+03     1.07344E+03    -292.881E-03    -292.881E-03         2.81368         2.81368
            2093     1.07464E+03     1.07464E+03    -437.300E-03    -437.300E-03         2.53706         2.53706
            2094     1.07571E+03     1.07571E+03    -601.951E-03    -601.951E-03         2.13363         2.13363
            2095     1.07660E+03     1.07660E+03    -782.506E-03    -782.506E-03         1.58793         1.58793
            2096     1.07725E+03     1.07725E+03    -971.185E-03    -971.185E-03     889.314E-03     889.314E-03
            2097     1.07759E+03     1.07759E+03        -1.15592        -1.15592     34.9635E-03     34.9635E-03
            2098     1.07757E+03     1.07757E+03        -1.32001        -1.32001    -966.346E-03    -966.346E-03
            2099     1.07714E+03     1.07714E+03        -1.44225        -1.44225        -2.09054        -2.09054
            2100     1.07625E+03     1.07625E+03        -1.49802        -1.49802        -3.29480        -3.29480
            2101     1.07487E+03     1.07487E+03        -1.46193        -1.46193        -4.51559        -4.51559
            2102     1.07302E+03     1.07302E+03        -1.31110        -1.31110        -5.66896        -5.66896
            2103     1.07073E+03     1.07073E+03        -1.02933        -1.02933        -6.65325        -6.65325
            2104     1.05322E+03     1.05322E+03     20.6761E-03     20.6761E-03     26.1197E-03     26.1197E-03
            2105     1.05326E+03     1.05326E+03     21.1978E-03     21.1978E-03     51.6925E-03     51.6925E-03
            2106     1.05332E+03     1.05332E+03     21.9180E-03     21.9180E-03     78.5684E-03     78.5684E-03
            2107     1.05341E+03     1.05341E+03     22.9547E-03     22.9547E-03     106.656E-03     106.656E-03
            2108     1.05353E+03     1.05353E+03     24.3045E-03     24.3045E-03     136.342E-03     136.342E-03
            2109     1.05368E+03     1.05368E+03     25.9503E-03     25.9503E-03     168.040E-03     168.040E-03
            2110     1.05387E+03     1.05387E+03     27.8953E-03     27.8953E-03     202.154E-03     202.154E-03
            2111     1.05409E+03     1.05409E+03     30.1306E-03     30.1306E-03     239.087E-03     239.087E-03
            2112     1.05434E+03     1.05434E+03     32.6502E-03     32.6502E-03     279.237E-03     279.237E-03
            2113     1.05464E+03     1.05464E+03     35.4403E-03     35.4403E-03     322.990E-03     322.990E-03
            2114     1.05498E+03     1.05498E+03     38.4830E-03     38.4830E-03     370.720E-03     370.720E-03
            2115     1.05537E+03     1.05537E+03     41.7510E-03     41.7510E-03     422.772E-03     422.772E-03
            2116     1.05582E+03     1.05582E+03     45.2070E-03     45.2070E-03     479.458E-03     479.458E-03
            2117     1.05632E+03     1.05632E+03     48.7992E-03     48.7992E-03     541.036E-03     541.036E-03
            2118     1.05688E+03     1.05688E+03     52.4580E-03     52.4580E-03     607.694E-03     607.694E-03
            2119     1.05751E+03     1.05751E+03     56.0912E-03     56.0912E-03     679.522E-03     679.522E-03
            2120     1.05821E+03     1.05821E+03     59.5779E-03     59.5779E-03     756.477E-03     756.477E-03
            2121     1.05899E+03     1.05899E+03     62.7619E-03     62.7619E-03     838.349E-03     838.349E-03
            2122     1.05986E+03     1.05986E+03     65.4434E-03     65.4434E-03     924.703E-03     924.703E-03
            2123     1.06080E+03     1.06080E+03     67.3700E-03     67.3700E-03         1.01482         1.01482
            2124     1.06184E+03     1.06184E+03     68.2264E-03     68.2264E-03         1.10763         1.10763
            2125     1.06296E+03     1.06296E+03     67.6245E-03     67.6245E-03         1.20160         1.20160
            2126     1.06417E+03     1.06417E+03     65.0914E-03     65.0914E-03         1.29466         1.29466
            2127     1.06547E+03     1.06547E+03     60.0640E-03     60.0640E-03         1.38407         1.38407
            2128     1.06685E+03     1.06685E+03     51.8804E-03     51.8804E-03         1.46631         1.46631
            2129     1.06831E+03     1.06831E+03     39.7884E-03     39.7884E-03         1.53692         1.53692
            2130     1.06982E+03     1.06982E+03     22.9531E-03     22.9531E-03         1.59044         1.59044
            2131     1.07137E+03     1.07137E+03     500.137E-06     500.137E-06         1.62026         1.62026
            2132     1.07293E+03     1.07293E+03    -28.4365E-03    -28.4365E-03         1.61864         1.61864
            2133     1.07448E+03     1.07448E+03    -64.6076E-03    -64.6076E-03         1.57674         1.57674
            2134     1.07595E+03     1.07595E+03    -108.520E-03    -108.520E-03         1.48486         1.48486
            2135     1.07731E+03     1.07731E+03    -160.240E-03    -160.240E-03         1.33284         1.33284
            2136     1.07850E+03     1.07850E+03    -219.148E-03    -219.148E-03         1.11077         1.11077
            2137     1.07943E+03     1.07943E+03    -283.672E-03    -283.672E-03     810.048E-03     810.048E-03
            2138     1.08004E+03     1.08004E+03    -350.943E-03    -350.943E-03     424.714E-03     424.714E-03
            2139     1.08025E+03     1.08025E+03    -416.595E-03    -416.595E-03    -46.6499E-03    -46.6499E-03
            2140     1.07997E+03     1.07997E+03    -474.543E-03    -474.543E-03    -598.970E-03    -598.970E-03
            2141     1.07915E+03     1.07915E+03    -517.137E-03    -517.137E-03        -1.21849        -1.21849
            2142     1.07772E+03     1.07772E+03    -535.572E-03    -535.572E-03        -1.88099        -1.88099
            2143     1.07567E+03     1.07567E+03    -520.735E-03    -520.735E-03        -2.55087        -2.55087
            2144     1.07301E+03     1.07301E+03    -464.906E-03    -464.906E-03        -3.18140        -3.18140
            2145     1.06980E+03     1.06980E+03    -361.989E-03    -361.989E-03        -3.71582        -3.71582
            2146         997.656         997.656         288.156         288.156        -77.2804        -77.2804
            2147     1.00844E+03     1.00844E+03         262.130         262.130        -76.7645        -76.7645
            2148     1.01892E+03     1.01892E+03         236.031         236.031        -74.1591        -74.1591
            2149     1.02871E+03     1.02871E+03         210.506         210.506        -70.2331        -70.2331
            2150     1.03759E+03     1.03759E+03         186.040         186.040        -65.1805        -65.1805
            2151     1.04538E+03     1.04538E+03         163.025         163.025        -59.2092        -59.2092
            2152     1.05196E+03     1.05196E+03         141.764         141.764        -52.6261        -52.6261
            2153     1.05735E+03     1.05735E+03         122.415         122.415        -45.7156        -45.7156
            2154     1.06157E+03     1.06157E+03         105.050         105.050        -38.7506        -38.7506
            2155     1.06476E+03     1.06476E+03         89.6297         89.6297        -31.9640        -31.9640
            2156     1.06701E+03     1.06701E+03         76.0646         76.0646        -25.5180        -25.5180
            2157     1.06850E+03     1.06850E+03         64.2218         64.2218        -19.5422        -19.5422
            2158     1.06933E+03     1.06933E+03         53.9431         53.9431        -14.0950        -14.0950
            2159     1.06964E+03     1.06964E+03         45.0752         45.0752        -9.21583        -9.21583
            2160     1.06953E+03     1.06953E+03         37.4556         37.4556        -4.89746        -4.89746
            2161     1.06910E+03     1.06910E+03         30.9436         30.9436        -1.12441        -1.12441
            2162     1.06841E+03     1.06841E+03         25.3981         25.3981         2.14258         2.14258
            2163     1.06755E+03     1.06755E+03         20.7001         20.7001         4.94450         4.94450
            2164     1.06654E+03     1.06654E+03         16.7339         16.7339         7.33150         7.33150
            2165     1.06544E+03     1.06544E+03         13.4012         13.4012         9.35210         9.35210
            2166     1.06428E+03     1.06428E+03         10.6081         10.6081         11.0564         11.0564
            2167     1.06307E+03     1.06307E+03         8.27299         8.27299         12.4916         12.4916
            2168     1.06186E+03     1.06186E+03         6.31784         6.31784         13.7031         13.7031
            2169     1.06065E+03     1.06065E+03         4.67286         4.67286         14.7330         14.7330
            2170     1.05947E+03     1.05947E+03         3.27080         3.27080         15.6211         15.6211
            2171     1.05833E+03     1.05833E+03         2.04908         2.04908         16.4043         16.4043
            2172     1.05725E+03     1.05725E+03     946.223E-03     946.223E-03         17.1170         17.1170
            2173     1.05627E+03     1.05627E+03    -97.4178E-03    -97.4178E-03         17.7914         17.7914
            2174     1.05540E+03     1.05540E+03        -1.14206        -1.14206         18.4575         18.4575
            2175     1.05469E+03     1.05469E+03        -2.24869        -2.24869         19.1429         19.1429
            2176     1.05417E+03     1.05417E+03        -3.48067        -3.48067         19.8721         19.8721
            2177     1.05392E+03     1.05392E+03        -4.90449        -4.90449         20.6647         20.6647
            2178     1.05400E+03     1.05400E+03        -6.59033        -6.59033         21.5325         21.5325
            2179     1.05452E+03     1.05452E+03        -8.61252        -8.61252         22.4744         22.4744
            2180     1.05560E+03     1.05560E+03        -11.0467        -11.0467         23.4679         23.4679
            2181     1.05740E+03     1.05740E+03        -13.9667        -13.9667         24.4564         24.4564
            2182     1.06011E+03     1.06011E+03        -17.4291        -17.4291         25.3289         25.3289
            2183     1.06396E+03     1.06396E+03        -21.4533        -21.4533         25.8967         25.8967
            2184     1.06916E+03     1.06916E+03        -25.9670        -25.9670         25.8577         25.8577
            2185     1.07589E+03     1.07589E+03        -30.7363        -30.7363         24.7875         24.7875
            2186     1.08414E+03     1.08414E+03        -35.2460        -35.2460         22.1421         22.1421
            2187     1.09363E+03     1.09363E+03        -38.6566        -38.6566         17.4201         17.4201
            2188     1.00058E+03     1.00058E+03         287.523         287.523        -88.3459        -88.3459
            2189     1.01192E+03     1.01192E+03         259.991         259.991        -87.6813        -87.6813
            2190     1.02279E+03     1.02279E+03         232.389         232.389        -84.4501        -84.4501
            2191     1.03284E+03     1.03284E+03         205.484         205.484        -79.6388        -79.6388
            2192     1.04175E+03     1.04175E+03         179.875         179.875        -73.4271        -73.4271
            2193     1.04933E+03     1.04933E+03         156.058         156.058        -66.1940        -66.1940
            2194     1.05552E+03     1.05552E+03         134.323         134.323        -58.2983        -58.2983
            2195     1.06032E+03     1.06032E+03         114.844         114.844        -50.1323        -50.1323
            2196     1.06390E+03     1.06390E+03         97.6128         97.6128        -42.0342        -42.0342
            2197     1.06636E+03     1.06636E+03         82.5433         82.5433        -34.2507        -34.2507
            2198     1.06792E+03     1.06792E+03         69.4746         69.4746        -26.9843        -26.9843
            2199     1.06875E+03     1.06875E+03         58.2080         58.2080        -20.3281        -20.3281
            2200     1.06901E+03     1.06901E+03         48.5520         48.5520        -14.3527        -14.3527
            2201     1.06883E+03     1.06883E+03         40.3011         40.3011        -9.05571        -9.05571
            2202     1.06834E+03     1.06834E+03         33.2848         33.2848        -4.42649        -4.42649
            2203     1.06761E+03     1.06761E+03         27.3312         27.3312    -418.573E-03    -418.573E-03
            2204     1.06673E+03     1.06673E+03         22.3023         22.3023         3.01501         3.01501
            2205     1.06575E+03     1.06575E+03         18.0637         18.0637         5.93465         5.93465
            2206     1.06470E+03     1.06470E+03         14.5068         14.5068         8.39758         8.39758
            2207     1.06363E+03     1.06363E+03         11.5274         11.5274         10.4633         10.4633
            2208     1.06256E+03     1.06256E+03         9.03891         9.03891         12.1868         12.1868
            2209     1.06150E+03     1.06150E+03         6.95873         6.95873         13.6207         13.6207
            2210     1.06047E+03     1.06047E+03         5.21531         5.21531         14.8126         14.8126
            2211     1.05949E+03     1.05949E+03         3.74016         3.74016         15.8066         15.8066
            2212     1.05858E+03     1.05858E+03         2.47106         2.47106         16.6421         16.6421
            2213     1.05774E+03     1.05774E+03         1.34749         1.34749         17.3547         17.3547
            2214     1.05700E+03     1.05700E+03     311.946E-03     311.946E-03         17.9759         17.9759
            2215     1.05638E+03     1.05638E+03    -692.854E-03    -692.854E-03         18.5336         18.5336
            2216     1.05591E+03     1.05591E+03        -1.72351        -1.72351         19.0512         19.0512
            2217     1.05563E+03     1.05563E+03        -2.83747        -2.83747         19.5481         19.5481
            2218     1.05558E+03     1.05558E+03        -4.09291        -4.09291         20.0375         20.0375
            2219     1.05582E+03     1.05582E+03        -5.54881        -5.54881         20.5251         20.5251
            2220     1.05642E+03     1.05642E+03        -7.26411        -7.26411         21.0051         21.0051
            2221     1.05747E+03     1.05747E+03        -9.29488        -9.29488         21.4553         21.4553
            2222     1.05908E+03     1.05908E+03        -11.6901        -11.6901         21.8297         21.8297
            2223     1.06137E+03     1.06137E+03        -14.4812        -14.4812         22.0466         22.0466
            2224     1.06448E+03     1.06448E+03        -17.6669        -17.6669         21.9775         21.9775
            2225     1.06852E+03     1.06852E+03        -21.1836        -21.1836         21.4299         21.4299
            2226     1.07359E+03     1.07359E+03        -24.8644        -24.8644         20.1451         20.1451
            2227     1.07967E+03     1.07967E+03        -28.3843        -28.3843         17.7999         17.7999
            2228     1.08658E+03     1.08658E+03        -31.2071        -31.2071         14.0750         14.0750
            2229     1.09401E+03     1.09401E+03        -32.6184        -32.6184         8.68389         8.68389
            2230     1.00442E+03     1.00442E+03         286.751         286.751        -100.021        -100.021
            2231     1.01631E+03     1.01631E+03         257.374         257.374        -99.0953        -99.0953
            2232     1.02769E+03     1.02769E+03         227.878         227.878        -95.1300        -95.1300
            2233     1.03796E+03     1.03796E+03         199.281         199.281        -89.1336        -89.1336
            2234     1.04679E+03     1.04679E+03         172.360         172.360        -81.5378        -81.5378
            2235     1.05401E+03     1.05401E+03         147.647         147.647        -72.7568        -72.7568
            2236     1.05954E+03     1.05954E+03         125.511         125.511        -63.3511        -63.3511
            2237     1.06356E+03     1.06356E+03         106.014         106.014        -53.8054        -53.8054
            2238     1.06620E+03     1.06620E+03         89.0991         89.0991        -44.4994        -44.4994
            2239     1.06776E+03     1.06776E+03         74.5691         74.5691        -35.7485        -35.7485
            2240     1.06846E+03     1.06846E+03         62.1686         62.1686        -27.6979        -27.6979
            2241     1.06852E+03     1.06852E+03         51.6487         51.6487        -20.4658        -20.4658
            2242     1.06813E+03     1.06813E+03         42.7386         42.7386        -14.0538        -14.0538
            2243     1.06743E+03     1.06743E+03         35.2252         35.2252        -8.45798        -8.45798
            2244     1.06653E+03     1.06653E+03         28.8906         28.8906        -3.61979        -3.61979
            2245     1.06553E+03     1.06553E+03         23.5710         23.5710     516.681E-03     516.681E-03
            2246     1.06446E+03     1.06446E+03         19.1054         19.1054         4.02631         4.02631
            2247     1.06340E+03     1.06340E+03         15.3711         15.3711         6.97826         6.97826
            2248     1.06235E+03     1.06235E+03         12.2507         12.2507         9.44450         9.44450
            2249     1.06134E+03     1.06134E+03         9.65100         9.65100         11.4903         11.4903
            2250     1.06040E+03     1.06040E+03         7.48388         7.48388         13.1776         13.1776
            2251     1.05952E+03     1.05952E+03         5.67589         5.67589         14.5616         14.5616
            2252     1.05872E+03     1.05872E+03         4.15728         4.15728         15.6923         15.6923
            2253     1.05801E+03     1.05801E+03         2.86677         2.86677         16.6137         16.6137
            2254     1.05739E+03     1.05739E+03         1.74526         1.74526         17.3643         17.3643
            2255     1.05688E+03     1.05688E+03     738.029E-03     738.029E-03         17.9772         17.9772
            2256     1.05649E+03     1.05649E+03    -208.821E-03    -208.821E-03         18.4803         18.4803
            2257     1.05624E+03     1.05624E+03        -1.14737        -1.14737         18.8962         18.8962
            2258     1.05615E+03     1.05615E+03        -2.12971        -2.12971         19.2419         19.2419
            2259     1.05627E+03     1.05627E+03        -3.20724        -3.20724         19.5283         19.5283
            2260     1.05663E+03     1.05663E+03        -4.43095        -4.43095         19.7587         19.7587
            2261     1.05728E+03     1.05728E+03        -5.84994        -5.84994         19.9273         19.9273
            2262     1.05828E+03     1.05828E+03        -7.50927        -7.50927         20.0151         20.0151
            2263     1.05971E+03     1.05971E+03        -9.44591        -9.44591         19.9868         19.9868
            2264     1.06165E+03     1.06165E+03        -11.6814        -11.6814         19.7840         19.7840
            2265     1.06418E+03     1.06418E+03        -14.2112        -14.2112         19.3196         19.3196
            2266     1.06736E+03     1.06736E+03        -16.9869        -16.9869         18.4698         18.4698
            2267     1.07125E+03     1.07125E+03        -19.8922        -19.8922         17.0741         17.0741
            2268     1.07583E+03     1.07583E+03        -22.7135        -22.7135         14.9373         14.9373
            2269     1.08100E+03     1.08100E+03        -25.1042        -25.1042         11.8597         11.8597
            2270     1.08652E+03     1.08652E+03        -26.5859        -26.5859         7.67134         7.67134
            2271     1.09200E+03     1.09200E+03        -26.4878        -26.4878         2.25752         2.25752
            2272     1.00932E+03     1.00932E+03         285.872         285.872        -112.391        -112.391
            2273     1.02204E+03     1.02204E+03         254.094         254.094        -111.175        -111.175
            2274     1.03389E+03     1.03389E+03         222.236         222.236        -106.124        -106.124
            2275     1.04432E+03     1.04432E+03         191.599         191.599        -98.6882        -98.6882
            2276     1.05291E+03     1.05291E+03         163.133         163.133        -89.2640        -89.2640
            2277     1.05941E+03     1.05941E+03         137.567         137.567        -78.6385        -78.6385
            2278     1.06401E+03     1.06401E+03         115.129         115.129        -67.4914        -67.4914
            2279     1.06682E+03     1.06682E+03         95.8588         95.8588        -56.4220        -56.4220
            2280     1.06829E+03     1.06829E+03         79.5137         79.5137        -45.9280        -45.9280
            2281     1.06869E+03     1.06869E+03         65.7607         65.7607        -36.2373        -36.2373
            2282     1.06837E+03     1.06837E+03         54.2629         54.2629        -27.5446        -27.5446
            2283     1.06756E+03     1.06756E+03         44.6487         44.6487        -19.8521        -19.8521
            2284     1.06647E+03     1.06647E+03         36.6426         36.6426        -13.1639        -13.1639
            2285     1.06523E+03     1.06523E+03         29.9585         29.9585        -7.40040        -7.40040
            2286     1.06394E+03     1.06394E+03         24.3968         24.3968        -2.49133        -2.49133
            2287     1.06268E+03     1.06268E+03         19.7592         19.7592         1.65965         1.65965
            2288     1.06149E+03     1.06149E+03         15.9048         15.9048         5.13871         5.13871
            2289     1.06039E+03     1.06039E+03         12.6980         12.6980         8.03455         8.03455
            2290     1.05940E+03     1.05940E+03         10.0378         10.0378         10.4263         10.4263
            2291     1.05852E+03     1.05852E+03         7.82867         7.82867         12.3877         12.3877
            2292     1.05776E+03     1.05776E+03         5.99509         5.99509         13.9839         13.9839
            2293     1.05711E+03     1.05711E+03         4.46585         4.46585         15.2728         15.2728
            2294     1.05658E+03     1.05658E+03         3.18090         3.18090         16.3045         16.3045
            2295     1.05618E+03     1.05618E+03         2.08288         2.08288         17.1223         17.1223
            2296     1.05589E+03     1.05589E+03         1.12037         1.12037         17.7625         17.7625
            2297     1.05572E+03     1.05572E+03     243.200E-03     243.200E-03         18.2551         18.2551
            2298     1.05569E+03     1.05569E+03    -595.960E-03    -595.960E-03         18.6237         18.6237
            2299     1.05581E+03     1.05581E+03        -1.44400        -1.44400         18.8855         18.8855
            2300     1.05610E+03     1.05610E+03        -2.34638        -2.34638         19.0512         19.0512
            2301     1.05659E+03     1.05659E+03        -3.34769        -3.34769         19.1242         19.1242
            2302     1.05731E+03     1.05731E+03        -4.49026        -4.49026         19.0999         19.0999
            2303     1.05829E+03     1.05829E+03        -5.81255        -5.81255         18.9636         18.9636
            2304     1.05960E+03     1.05960E+03        -7.34590        -7.34590         18.6885         18.6885
            2305     1.06128E+03     1.06128E+03        -9.10938        -9.10938         18.2330         18.2330
            2306     1.06338E+03     1.06338E+03        -11.1022        -11.1022         17.5375         17.5375
            2307     1.06594E+03     1.06594E+03        -13.2926        -13.2926         16.5212         16.5212
            2308     1.06900E+03     1.06900E+03        -15.6029        -15.6029         15.0829         15.0829
            2309     1.07253E+03     1.07253E+03        -17.8922        -17.8922         13.1034         13.1034
            2310     1.07646E+03     1.07646E+03        -19.9343        -19.9343         10.4609         10.4609
            2311     1.08065E+03     1.08065E+03        -21.4119        -21.4119         7.05365         7.05365
            2312     1.08485E+03     1.08485E+03        -21.8945        -21.8945         2.82796         2.82796
            2313     1.08867E+03     1.08867E+03        -20.8487        -20.8487        -2.15053        -2.15053
            2314     1.01595E+03     1.01595E+03         284.743         284.743        -125.707        -125.707
            2315     1.02942E+03     1.02942E+03         249.952         249.952        -123.890        -123.890
            2316     1.04187E+03     1.04187E+03         215.080         215.080        -117.532        -117.532
            2317     1.05230E+03     1.05230E+03         181.919         181.919        -107.989        -107.989
            2318     1.06019E+03     1.06019E+03         151.841         151.841        -96.3148        -96.3148
            2319     1.06563E+03     1.06563E+03         125.449         125.449        -83.4128        -83.4128
            2320     1.06865E+03     1.06865E+03         103.048         103.048        -70.2612        -70.2612
            2321     1.06992E+03     1.06992E+03         84.3481         84.3481        -57.6626        -57.6626
            2322     1.06978E+03     1.06978E+03         68.9172         68.9172        -45.9876        -45.9876
            2323     1.06880E+03     1.06880E+03         56.2777         56.2777        -35.5626        -35.5626
            2324     1.06730E+03     1.06730E+03         45.8945         45.8945        -26.3797        -26.3797
            2325     1.06555E+03     1.06555E+03         37.4010         37.4010        -18.4520        -18.4520
            2326     1.06375E+03     1.06375E+03         30.4070         30.4070        -11.6617        -11.6617
            2327     1.06200E+03     1.06200E+03         24.6651         24.6651        -5.91423        -5.91423
            2328     1.06038E+03     1.06038E+03         19.9238         19.9238        -1.08064        -1.08064
            2329     1.05894E+03     1.05894E+03         16.0195         16.0195         2.95025         2.95025
            2330     1.05769E+03     1.05769E+03         12.7923         12.7923         6.28991         6.28991
            2331     1.05663E+03     1.05663E+03         10.1320         10.1320         9.03612         9.03612
            2332     1.05577E+03     1.05577E+03         7.93386         7.93386         11.2776         11.2776
            2333     1.05509E+03     1.05509E+03         6.12008         6.12008         13.0921         13.0921
            2334     1.05458E+03     1.05458E+03         4.61760         4.61760         14.5470         14.5470
            2335     1.05423E+03     1.05423E+03         3.36792         3.36792         15.7007         15.7007
            2336     1.05404E+03     1.05404E+03         2.31567         2.31567         16.6021         16.6021
            2337     1.05398E+03     1.05398E+03         1.41312         1.41312         17.2926         17.2926
            2338     1.05406E+03     1.05406E+03     614.186E-03     614.186E-03         17.8054         17.8054
            2339     1.05427E+03     1.05427E+03    -123.435E-03    -123.435E-03         18.1667         18.1667
            2340     1.05462E+03     1.05462E+03    -841.345E-03    -841.345E-03         18.3955         18.3955
            2341     1.05512E+03     1.05512E+03        -1.57922        -1.57922         18.5038         18.5038
            2342     1.05577E+03     1.05577E+03        -2.37592        -2.37592         18.4965         18.4965
            2343     1.05661E+03     1.05661E+03        -3.26817        -3.26817         18.3710         18.3710
            2344     1.05764E+03     1.05764E+03        -4.28973        -4.28973         18.1164         18.1164
            2345     1.05891E+03     1.05891E+03        -5.46882        -5.46882         17.7127         17.7127
            2346     1.06044E+03     1.06044E+03        -6.82473        -6.82473         17.1292         17.1292
            2347     1.06226E+03     1.06226E+03        -8.36238        -8.36238         16.3243         16.3243
            2348     1.06440E+03     1.06440E+03        -10.0652        -10.0652         15.2435         15.2435
            2349     1.06687E+03     1.06687E+03        -11.8852        -11.8852         13.8213         13.8213
            2350     1.06966E+03     1.06966E+03        -13.7323        -13.7323         11.9835         11.9835
            2351     1.07273E+03     1.07273E+03        -15.4605        -15.4605         9.65601         9.65601
            2352     1.07598E+03     1.07598E+03        -16.8613        -16.8613         6.77962         6.77962
            2353     1.07925E+03     1.07925E+03        -17.6531        -17.6531         3.32878         3.32878
            2354     1.08230E+03     1.08230E+03        -17.4908        -17.4908    -649.038E-03    -649.038E-03
            2355     1.08483E+03     1.08483E+03        -15.9901        -15.9901        -4.99524        -4.99524
            2356     1.02462E+03     1.02462E+03         283.420         283.420        -140.038        -140.038
            2357     1.03938E+03     1.03938E+03         244.504         244.504        -137.567        -137.567
            2358     1.05222E+03     1.05222E+03         205.738         205.738        -128.974        -128.974
            2359     1.06218E+03     1.06218E+03         169.690         169.690        -116.787        -116.787
            2360     1.06895E+03     1.06895E+03         137.811         137.811        -102.045        -102.045
            2361     1.07230E+03     1.07230E+03         111.060         111.060        -86.3972        -86.3972
            2362     1.07324E+03     1.07324E+03         89.1530         89.1530        -71.1648        -71.1648
            2363     1.07224E+03     1.07224E+03         71.5542         71.5542        -56.9936        -56.9936
            2364     1.07019E+03     1.07019E+03         57.5445         57.5445        -44.4579        -44.4579
            2365     1.06759E+03     1.06759E+03         46.3077         46.3077        -33.5095        -33.5095
            2366     1.06483E+03     1.06483E+03         37.3421         37.3421        -24.1676        -24.1676
            2367     1.06214E+03     1.06214E+03         30.0950         30.0950        -16.2449        -16.2449
            2368     1.05968E+03     1.05968E+03         24.2557         24.2557        -9.60313        -9.60313
            2369     1.05751E+03     1.05751E+03         19.4979         19.4979        -4.06377        -4.06377
            2370     1.05566E+03     1.05566E+03         15.6304         15.6304     522.433E-03     522.433E-03
            2371     1.05415E+03     1.05415E+03         12.4628         12.4628         4.29783         4.29783
            2372     1.05295E+03     1.05295E+03         9.87423         9.87423         7.38549         7.38549
            2373     1.05205E+03     1.05205E+03         7.74911         7.74911         9.89271         9.89271
            2374     1.05141E+03     1.05141E+03         6.00760         6.00760         11.9128         11.9128
            2375     1.05103E+03     1.05103E+03         4.57465         4.57465         13.5244         13.5244
            2376     1.05085E+03     1.05085E+03         3.39377         3.39377         14.7954         14.7954
            2377     1.05087E+03     1.05087E+03         2.41186         2.41186         15.7816         15.7816
            2378     1.05107E+03     1.05107E+03         1.58530         1.58530         16.5301         16.5301
            2379     1.05142E+03     1.05142E+03     872.429E-03     872.429E-03         17.0784         17.0784
            2380     1.05191E+03     1.05191E+03     236.266E-03     236.266E-03         17.4562         17.4562
            2381     1.05253E+03     1.05253E+03    -359.286E-03    -359.286E-03         17.6852         17.6852
            2382     1.05329E+03     1.05329E+03    -948.013E-03    -948.013E-03         17.7800         17.7800
            2383     1.05417E+03     1.05417E+03        -1.56307        -1.56307         17.7477         17.7477
            2384     1.05520E+03     1.05520E+03        -2.23575        -2.23575         17.5883         17.5883
            2385     1.05636E+03     1.05636E+03        -2.99543        -2.99543         17.2943         17.2943
            2386     1.05769E+03     1.05769E+03        -3.86761        -3.86761         16.8507         16.8507
            2387     1.05919E+03     1.05919E+03        -4.87186        -4.87186         16.2346         16.2346
            2388     1.06088E+03     1.06088E+03        -6.01800        -6.01800         15.4151         15.4151
            2389     1.06277E+03     1.06277E+03        -7.30151        -7.30151         14.3538         14.3538
            2390     1.06488E+03     1.06488E+03        -8.69682        -8.69682         13.0056         13.0056
            2391     1.06718E+03     1.06718E+03        -10.1504        -10.1504         11.3223         11.3223
            2392     1.06965E+03     1.06965E+03        -11.5714        -11.5714         9.25736         9.25736
            2393     1.07223E+03     1.07223E+03        -12.8265        -12.8265         6.77613         6.77613
            2394     1.07482E+03     1.07482E+03        -13.7330        -13.7330         3.86782         3.86782
            2395     1.07726E+03     1.07726E+03        -14.0635        -14.0635     567.653E-03     567.653E-03
            2396     1.07938E+03     1.07938E+03        -13.5583        -13.5583        -3.02141        -3.02141
            2397     1.08094E+03     1.08094E+03        -11.9585        -11.9585        -6.69850        -6.69850
            2398     1.03709E+03     1.03709E+03         281.472         281.472        -155.971        -155.971
            2399     1.05269E+03     1.05269E+03         237.113         237.113        -151.810        -151.810
            2400     1.06578E+03     1.06578E+03         193.371         193.371        -140.462        -140.462
            2401     1.07475E+03     1.07475E+03         153.699         153.699        -124.072        -124.072
            2402     1.07875E+03     1.07875E+03         120.610         120.610        -105.452        -105.452
            2403     1.07927E+03     1.07927E+03         94.0668         94.0668        -86.7726        -86.7726
            2404     1.07684E+03     1.07684E+03         73.5391         73.5391        -69.2907        -69.2907
            2405     1.07308E+03     1.07308E+03         57.8529         57.8529        -54.0941        -54.0941
            2406     1.06875E+03     1.06875E+03         45.6663         45.6663        -41.0119        -41.0119
            2407     1.06443E+03     1.06443E+03         36.2750         36.2750        -30.0518        -30.0518
            2408     1.06044E+03     1.06044E+03         28.8652         28.8652        -20.8974        -20.8974
            2409     1.05691E+03     1.05691E+03         23.0453         23.0453        -13.3302        -13.3302
            2410     1.05394E+03     1.05394E+03         18.3855         18.3855        -7.09536        -7.09536
            2411     1.05150E+03     1.05150E+03         14.6637         14.6637        -1.98518        -1.98518
            2412     1.04959E+03     1.04959E+03         11.6518         11.6518         2.18385         2.18385
            2413     1.04817E+03     1.04817E+03         9.21905         9.21905         5.56909         5.56909
            2414     1.04717E+03     1.04717E+03         7.23817         7.23817         8.29989         8.29989
            2415     1.04656E+03     1.04656E+03         5.62814         5.62814         10.4886         10.4886
            2416     1.04628E+03     1.04628E+03         4.31261         4.31261         12.2259         12.2259
            2417     1.04629E+03     1.04629E+03         3.23781         3.23781         13.5903         13.5903
            2418     1.04655E+03     1.04655E+03         2.35351         2.35351         14.6447         14.6447
            2419     1.04703E+03     1.04703E+03         1.62072         1.62072         15.4423         15.4423
            2420     1.04769E+03     1.04769E+03         1.00253         1.00253         16.0249         16.0249
            2421     1.04850E+03     1.04850E+03     467.592E-03     467.592E-03         16.4264         16.4264
            2422     1.04946E+03     1.04946E+03    -14.4887E-03    -14.4887E-03         16.6714         16.6714
            2423     1.05054E+03     1.05054E+03    -471.446E-03    -471.446E-03         16.7776         16.7776
            2424     1.05173E+03     1.05173E+03    -930.536E-03    -930.536E-03         16.7547         16.7547
            2425     1.05303E+03     1.05303E+03        -1.41740        -1.41740         16.6059         16.6059
            2426     1.05443E+03     1.05443E+03        -1.95665        -1.95665         16.3270         16.3270
            2427     1.05593E+03     1.05593E+03        -2.57038        -2.57038         15.9070         15.9070
            2428     1.05753E+03     1.05753E+03        -3.27722        -3.27722         15.3286         15.3286
            2429     1.05924E+03     1.05924E+03        -4.08969        -4.08969         14.5679         14.5679
            2430     1.06107E+03     1.06107E+03        -5.01142        -5.01142         13.5957         13.5957
            2431     1.06300E+03     1.06300E+03        -6.03262        -6.03262         12.3788         12.3788
            2432     1.06502E+03     1.06502E+03        -7.12546        -7.12546         10.8825         10.8825
            2433     1.06712E+03     1.06712E+03        -8.23792        -8.23792         9.07498         9.07498
            2434     1.06926E+03     1.06926E+03        -9.28930        -9.28930         6.93360         6.93360
            2435     1.07136E+03     1.07136E+03        -10.1653        -10.1653         4.45352         4.45352
            2436     1.07334E+03     1.07334E+03        -10.7191        -10.7191         1.66077         1.66077
            2437     1.07507E+03     1.07507E+03        -10.7767        -10.7767        -1.37462        -1.37462
            2438     1.07642E+03     1.07642E+03        -10.1539        -10.1539        -4.52105        -4.52105
            2439     1.07724E+03     1.07724E+03        -8.68630        -8.68630        -7.57404        -7.57404
            2440     1.05402E+03     1.05402E+03         278.923         278.923        -173.299        -173.299
            2441     1.07158E+03     1.07158E+03         226.550         226.550        -167.336        -167.336
            2442     1.08414E+03     1.08414E+03         175.917         175.917        -150.378        -150.378
            2443     1.08960E+03     1.08960E+03         133.115         133.115        -128.498        -128.498
            2444     1.08976E+03     1.08976E+03         99.3225         99.3225        -105.059        -105.059
            2445     1.08490E+03     1.08490E+03         74.6172         74.6172        -82.8554        -82.8554
            2446     1.07827E+03     1.07827E+03         56.8775         56.8775        -64.1668        -64.1668
            2447     1.07121E+03     1.07121E+03         43.6606         43.6606        -48.4612        -48.4612
            2448     1.06451E+03     1.06451E+03         33.9652         33.9652        -35.6633        -35.6633
            2449     1.05859E+03     1.05859E+03         26.5463         26.5463        -25.2169        -25.2169
            2450     1.05355E+03     1.05355E+03         20.9172         20.9172        -16.7493        -16.7493
            2451     1.04945E+03     1.04945E+03         16.5087         16.5087        -9.89270        -9.89270
            2452     1.04621E+03     1.04621E+03         13.0683         13.0683        -4.34819        -4.34819
            2453     1.04377E+03     1.04377E+03         10.3266         10.3266     119.548E-03     119.548E-03
            2454     1.04203E+03     1.04203E+03         8.14513         8.14513         3.71376         3.71376
            2455     1.04090E+03     1.04090E+03         6.38718         6.38718         6.58795         6.58795
            2456     1.04029E+03     1.04029E+03         4.97243         4.97243         8.87660         8.87660
            2457     1.04013E+03     1.04013E+03         3.82526         3.82526         10.6821         10.6821
            2458     1.04035E+03     1.04035E+03         2.89583         2.89583         12.0937         12.0937
            2459     1.04089E+03     1.04089E+03         2.13802         2.13802         13.1802         13.1802
            2460     1.04169E+03     1.04169E+03         1.51800         1.51800         14.0006         14.0006
            2461     1.04271E+03     1.04271E+03         1.00424         1.00424         14.6002         14.6002
            2462     1.04392E+03     1.04392E+03     571.136E-03     571.136E-03         15.0165         15.0165
            2463     1.04527E+03     1.04527E+03     194.204E-03     194.204E-03         15.2768         15.2768
            2464     1.04675E+03     1.04675E+03    -148.215E-03    -148.215E-03         15.4018         15.4018
            2465     1.04833E+03     1.04833E+03    -477.373E-03    -477.373E-03         15.4040         15.4040
            2466     1.05000E+03     1.05000E+03    -813.068E-03    -813.068E-03         15.2895         15.2895
            2467     1.05174E+03     1.05174E+03        -1.17464        -1.17464         15.0576         15.0576
            2468     1.05353E+03     1.05353E+03        -1.57991        -1.57991         14.7012         14.7012
            2469     1.05538E+03     1.05538E+03        -2.04498        -2.04498         14.2073         14.2073
            2470     1.05727E+03     1.05727E+03        -2.58253        -2.58253         13.5573         13.5573
            2471     1.05920E+03     1.05920E+03        -3.20026        -3.20026         12.7280         12.7280
            2472     1.06114E+03     1.06114E+03        -3.89804        -3.89804         11.6929         11.6929
            2473     1.06310E+03     1.06310E+03        -4.66498        -4.66498         10.4243         10.4243
            2474     1.06504E+03     1.06504E+03        -5.47524        -5.47524         8.89707         8.89707
            2475     1.06694E+03     1.06694E+03        -6.28472        -6.28472         7.09269         7.09269
            2476     1.06874E+03     1.06874E+03        -7.02713        -7.02713         5.00594         5.00594
            2477     1.07040E+03     1.07040E+03        -7.61325        -7.61325         2.65326         2.65326
            2478     1.07182E+03     1.07182E+03        -7.93211        -7.93211     81.5091E-03     81.5091E-03
            2479     1.07294E+03     1.07294E+03        -7.85890        -7.85890        -2.62107        -2.62107
            2480     1.07364E+03     1.07364E+03        -7.26965        -7.26965        -5.31764        -5.31764
            2481     1.07386E+03     1.07386E+03        -6.06377        -6.06377        -7.81820        -7.81820
            2482     1.08112E+03     1.08112E+03         274.145         274.145        -193.867        -193.867
            2483     1.09864E+03     1.09864E+03         209.973         209.973        -181.633        -181.633
            2484     1.10766E+03     1.10766E+03         151.681         151.681        -157.476        -157.476
            2485     1.10808E+03     1.10808E+03         105.349         105.349        -127.059        -127.059
            2486     1.09876E+03     1.09876E+03         74.2322         74.2322        -97.4389        -97.4389
            2487     1.08704E+03     1.08704E+03         54.0864         54.0864        -73.9653        -73.9653
            2488     1.07552E+03     1.07552E+03         39.8541         39.8541        -55.0386        -55.0386
            2489     1.06512E+03     1.06512E+03         30.1357         30.1357        -40.2318        -40.2318
            2490     1.05640E+03     1.05640E+03         22.9750         22.9750        -28.5566        -28.5566
            2491     1.04925E+03     1.04925E+03         17.7874         17.7874        -19.3376        -19.3376
            2492     1.04365E+03     1.04365E+03         13.8351         13.8351        -12.0521        -12.0521
            2493     1.03937E+03     1.03937E+03         10.8403         10.8403        -6.26109        -6.26109
            2494     1.03626E+03     1.03626E+03         8.49980         8.49980        -1.67168        -1.67168
            2495     1.03414E+03     1.03414E+03         6.67175         6.67175         1.97796         1.97796
            2496     1.03286E+03     1.03286E+03         5.21785         5.21785         4.86337         4.86337
            2497     1.03228E+03     1.03228E+03         4.06122         4.06122         7.14261         7.14261
            2498     1.03228E+03     1.03228E+03         3.13167         3.13167         8.92641         8.92641
            2499     1.03276E+03     1.03276E+03         2.38473         2.38473         10.3133         10.3133
            2500     1.03364E+03     1.03364E+03         1.78062         1.78062         11.3752         11.3752
            2501     1.03484E+03     1.03484E+03         1.29132         1.29132         12.1748         12.1748
            2502     1.03630E+03     1.03630E+03     891.435E-03     891.435E-03         12.7591         12.7591
            2503     1.03797E+03     1.03797E+03     561.226E-03     561.226E-03         13.1674         13.1674
            2504     1.03980E+03     1.03980E+03     282.181E-03     282.181E-03         13.4286         13.4286
            2505     1.04177E+03     1.04177E+03     38.5169E-03     38.5169E-03         13.5654         13.5654
            2506     1.04383E+03     1.04383E+03    -185.134E-03    -185.134E-03         13.5924         13.5924
            2507     1.04597E+03     1.04597E+03    -402.834E-03    -402.834E-03         13.5185         13.5185
            2508     1.04816E+03     1.04816E+03    -628.487E-03    -628.487E-03         13.3460         13.3460
            2509     1.05038E+03     1.05038E+03    -875.075E-03    -875.075E-03         13.0718         13.0718
            2510     1.05261E+03     1.05261E+03        -1.15493        -1.15493         12.6868         12.6868
            2511     1.05483E+03     1.05483E+03        -1.47870        -1.47870         12.1772         12.1772
            2512     1.05703E+03     1.05703E+03        -1.85469        -1.85469         11.5247         11.5247
            2513     1.05918E+03     1.05918E+03        -2.28717        -2.28717         10.7075         10.7075
            2514     1.06128E+03     1.06128E+03        -2.77473        -2.77473         9.70240         9.70240
            2515     1.06328E+03     1.06328E+03        -3.30765        -3.30765         8.48695         8.48695
            2516     1.06515E+03     1.06515E+03        -3.86568        -3.86568         7.04314         7.04314
            2517     1.06687E+03     1.06687E+03        -4.41511        -4.41511         5.36187         5.36187
            2518     1.06837E+03     1.06837E+03        -4.90740        -4.90740         3.44905         3.44905
            2519     1.06962E+03     1.06962E+03        -5.27843        -5.27843         1.33191         1.33191
            2520     1.07054E+03     1.07054E+03        -5.45132        -5.45132    -933.361E-03    -933.361E-03
            2521     1.07109E+03     1.07109E+03        -5.34257        -5.34257        -3.25610        -3.25610
            2522     1.07121E+03     1.07121E+03        -4.87323        -4.87323        -5.50735        -5.50735
            2523     1.07088E+03     1.07088E+03        -3.98501        -3.98501        -7.52117        -7.52117
            2524     1.12075E+03     1.12075E+03         265.871         265.871        -214.628        -214.628
            2525     1.13872E+03     1.13872E+03         183.641         183.641        -195.786        -195.786
            2526     1.14150E+03     1.14150E+03         113.190         113.190        -154.602        -154.602
            2527     1.12288E+03     1.12288E+03         71.1042         71.1042        -111.997        -111.997
            2528     1.10126E+03     1.10126E+03         48.6124         48.6124        -81.7412        -81.7412
            2529     1.08218E+03     1.08218E+03         33.6844         33.6844        -59.1161        -59.1161
            2530     1.06602E+03     1.06602E+03         24.5212         24.5212        -42.3906        -42.3906
            2531     1.05326E+03     1.05326E+03         18.0717         18.0717        -29.8792        -29.8792
            2532     1.04327E+03     1.04327E+03         13.6723         13.6723        -20.3185        -20.3185
            2533     1.03576E+03     1.03576E+03         10.4366         10.4366        -13.0151        -13.0151
            2534     1.03024E+03     1.03024E+03         8.06859         8.06859        -7.32774        -7.32774
            2535     1.02640E+03     1.02640E+03         6.26546         6.26546        -2.91829        -2.91829
            2536     1.02391E+03     1.02391E+03         4.88546         4.88546     541.311E-03     541.311E-03
            2537     1.02254E+03     1.02254E+03         3.80734         3.80734         3.23694         3.23694
            2538     1.02206E+03     1.02206E+03         2.95976         2.95976         5.34657         5.34657
            2539     1.02232E+03     1.02232E+03         2.28641         2.28641         6.98106         6.98106
            2540     1.02317E+03     1.02317E+03         1.74928         1.74928         8.24330         8.24330
            2541     1.02450E+03     1.02450E+03         1.31844         1.31844         9.20289         9.20289
            2542     1.02620E+03     1.02620E+03     971.947E-03     971.947E-03         9.92234         9.92234
            2543     1.02820E+03     1.02820E+03     691.719E-03     691.719E-03         10.4463         10.4463
            2544     1.03044E+03     1.03044E+03     463.641E-03     463.641E-03         10.8134         10.8134
            2545     1.03285E+03     1.03285E+03     275.208E-03     275.208E-03         11.0515         11.0515
            2546     1.03541E+03     1.03541E+03     115.988E-03     115.988E-03         11.1834         11.1834
            2547     1.03806E+03     1.03806E+03    -23.9314E-03    -23.9314E-03         11.2243         11.2243
            2548     1.04077E+03     1.04077E+03    -153.415E-03    -153.415E-03         11.1848         11.1848
            2549     1.04352E+03     1.04352E+03    -281.257E-03    -281.257E-03         11.0696         11.0696
            2550     1.04628E+03     1.04628E+03    -415.664E-03    -415.664E-03         10.8788         10.8788
            2551     1.04903E+03     1.04903E+03    -564.723E-03    -564.723E-03         10.6076         10.6076
            2552     1.05173E+03     1.05173E+03    -735.777E-03    -735.777E-03         10.2467         10.2467
            2553     1.05438E+03     1.05438E+03    -935.359E-03    -935.359E-03         9.78271         9.78271
            2554     1.05693E+03     1.05693E+03        -1.16824        -1.16824         9.19882         9.19882
            2555     1.05936E+03     1.05936E+03        -1.43676        -1.43676         8.47600         8.47600
            2556     1.06163E+03     1.06163E+03        -1.73931        -1.73931         7.59459         7.59459
            2557     1.06372E+03     1.06372E+03        -2.06918        -2.06918         6.53669         6.53669
            2558     1.06557E+03     1.06557E+03        -2.41262        -2.41262         5.28940         5.28940
            2559     1.06715E+03     1.06715E+03        -2.74766        -2.74766         3.84903         3.84903
            2560     1.06840E+03     1.06840E+03        -3.04293        -3.04293         2.22585         2.22585
            2561     1.06927E+03     1.06927E+03        -3.25801        -3.25801     449.661E-03     449.661E-03
            2562     1.06973E+03     1.06973E+03        -3.34528        -3.34528        -1.42545        -1.42545
            2563     1.06974E+03     1.06974E+03        -3.25438        -3.25438        -3.31723        -3.31723
            2564     1.06928E+03     1.06928E+03        -2.93949        -2.93949        -5.11490        -5.11490
            2565     1.06837E+03     1.06837E+03        -2.36878        -2.36878        -6.68182        -6.68182
            2566     1.20030E+03     1.20030E+03         245.067         245.067        -244.877        -244.877
            2567     1.20755E+03     1.20755E+03         126.790         126.790        -189.370        -189.370
            2568     1.16569E+03     1.16569E+03         62.5839         62.5839        -122.720        -122.720
            2569     1.12299E+03     1.12299E+03         39.2146         39.2146        -83.0232        -83.0232
            2570     1.09083E+03     1.09083E+03         24.7265         24.7265        -57.4181        -57.4181
            2571     1.06587E+03     1.06587E+03         17.0949         17.0949        -39.7434        -39.7434
            2572     1.04759E+03     1.04759E+03         12.0590         12.0590        -27.5728        -27.5728
            2573     1.03405E+03     1.03405E+03         8.84120         8.84120        -18.5985        -18.5985
            2574     1.02438E+03     1.02438E+03         6.60599         6.60599        -12.0642        -12.0642
            2575     1.01759E+03     1.01759E+03         5.01456         5.01456        -7.08360        -7.08360
            2576     1.01312E+03     1.01312E+03         3.85617         3.85617        -3.33213        -3.33213
            2577     1.01042E+03     1.01042E+03         2.97952         2.97952    -429.402E-03    -429.402E-03
            2578     1.00915E+03     1.00915E+03         2.31612         2.31612         1.79160         1.79160
            2579     1.00898E+03     1.00898E+03         1.79683         1.79683         3.51320         3.51320
            2580     1.00969E+03     1.00969E+03         1.39258         1.39258         4.83094         4.83094
            2581     1.01110E+03     1.01110E+03         1.07058         1.07058         5.84134         5.84134
            2582     1.01305E+03     1.01305E+03     815.410E-03     815.410E-03         6.60274         6.60274
            2583     1.01542E+03     1.01542E+03     610.501E-03     610.501E-03         7.17048         7.17048
            2584     1.01812E+03     1.01812E+03     446.295E-03     446.295E-03         7.58146         7.58146
            2585     1.02106E+03     1.02106E+03     313.534E-03     313.534E-03         7.86898         7.86898
            2586     1.02419E+03     1.02419E+03     205.543E-03     205.543E-03         8.05630         8.05630
            2587     1.02745E+03     1.02745E+03     116.313E-03     116.313E-03         8.16322         8.16322
            2588     1.03081E+03     1.03081E+03     40.6222E-03     40.6222E-03         8.20330         8.20330
            2589     1.03421E+03     1.03421E+03    -26.1864E-03    -26.1864E-03         8.18677         8.18677
            2590     1.03764E+03     1.03764E+03    -88.6676E-03    -88.6676E-03         8.11927         8.11927
            2591     1.04106E+03     1.04106E+03    -150.996E-03    -150.996E-03         8.00316         8.00316
            2592     1.04445E+03     1.04445E+03    -217.418E-03    -217.418E-03         7.83692         7.83692
            2593     1.04778E+03     1.04778E+03    -291.841E-03    -291.841E-03         7.61581         7.61581
            2594     1.05101E+03     1.05101E+03    -378.061E-03    -378.061E-03         7.33167         7.33167
            2595     1.05413E+03     1.05413E+03    -479.240E-03    -479.240E-03         6.97350         6.97350
            2596     1.05710E+03     1.05710E+03    -597.815E-03    -597.815E-03         6.52783         6.52783
            2597     1.05987E+03     1.05987E+03    -734.768E-03    -734.768E-03         5.97969         5.97969
            2598     1.06240E+03     1.06240E+03    -889.199E-03    -889.199E-03         5.31393         5.31393
            2599     1.06464E+03     1.06464E+03        -1.05733        -1.05733         4.51709         4.51709
            2600     1.06654E+03     1.06654E+03        -1.23192        -1.23192         3.58005         3.58005
            2601     1.06804E+03     1.06804E+03        -1.40128        -1.40128         2.50112         2.50112
            2602     1.06909E+03     1.06909E+03        -1.54911        -1.54911         1.28991         1.28991
            2603     1.06964E+03     1.06964E+03        -1.65444        -1.65444    -29.0035E-03    -29.0035E-03
            2604     1.06965E+03     1.06965E+03        -1.69299        -1.69299        -1.41246        -1.41246
            2605     1.06911E+03     1.06911E+03        -1.63950        -1.63950        -2.79685        -2.79685
            2606     1.06802E+03     1.06802E+03        -1.47144        -1.47144        -4.09834        -4.09834
            2607     1.06643E+03     1.06643E+03        -1.17381        -1.17381        -5.21527        -5.21527
            2608     1.35309E+03     1.35309E+03         166.275         166.275        -215.032        -215.032
            2609     1.23977E+03     1.23977E+03         46.9373         46.9373        -116.557        -116.557
            2610     1.15081E+03     1.15081E+03         25.0173         25.0173        -66.8555        -66.8555
            2611     1.09717E+03     1.09717E+03         13.9988         13.9988        -43.7624        -43.7624
            2612     1.06030E+03     1.06030E+03         8.75804         8.75804        -28.5276        -28.5276
            2613     1.03555E+03     1.03555E+03         5.98345         5.98345        -19.4486        -19.4486
            2614     1.01847E+03     1.01847E+03         4.11547         4.11547        -12.8914        -12.8914
            2615     1.00694E+03     1.00694E+03         3.05625         3.05625        -8.45700        -8.45700
            2616         999.373         999.373         2.23185         2.23185        -5.12195        -5.12195
            2617         994.748         994.748         1.72065         1.72065        -2.70887        -2.70887
            2618         992.327         992.327         1.30197         1.30197    -859.266E-03    -859.266E-03
            2619         991.584         991.584         1.01864         1.01864     524.237E-03     524.237E-03
            2620         992.123         992.123     784.020E-03     784.020E-03         1.58970         1.58970
            2621         993.647         993.647     613.706E-03     613.706E-03         2.39456         2.39456
            2622         995.925         995.925     473.127E-03     473.127E-03         3.00911         3.00911
            2623         998.779         998.779     365.998E-03     365.998E-03         3.46866         3.46866
            2624     1.00207E+03     1.00207E+03     278.188E-03     278.188E-03         3.81063         3.81063
            2625     1.00568E+03     1.00568E+03     209.211E-03     209.211E-03         4.05737         4.05737
            2626     1.00953E+03     1.00953E+03     152.977E-03     152.977E-03         4.23050         4.23050
            2627     1.01355E+03     1.01355E+03     107.838E-03     107.838E-03         4.34424         4.34424
            2628     1.01768E+03     1.01768E+03     70.8380E-03     70.8380E-03         4.41146         4.41146
            2629     1.02187E+03     1.02187E+03     40.1760E-03     40.1760E-03         4.44080         4.44080
            2630     1.02610E+03     1.02610E+03     14.0651E-03     14.0651E-03         4.43942         4.43942
            2631     1.03033E+03     1.03033E+03    -9.21077E-03    -9.21077E-03         4.41163         4.41163
            2632     1.03452E+03     1.03452E+03    -31.0643E-03    -31.0643E-03         4.36014         4.36014
            2633     1.03867E+03     1.03867E+03    -53.1193E-03    -53.1193E-03         4.28542         4.28542
            2634     1.04274E+03     1.04274E+03    -76.7003E-03    -76.7003E-03         4.18626         4.18626
            2635     1.04671E+03     1.04671E+03    -103.322E-03    -103.322E-03         4.05944         4.05944
            2636     1.05054E+03     1.05054E+03    -134.199E-03    -134.199E-03         3.90009         3.90009
            2637     1.05421E+03     1.05421E+03    -170.546E-03    -170.546E-03         3.70169         3.70169
            2638     1.05766E+03     1.05766E+03    -213.129E-03    -213.129E-03         3.45640         3.45640
            2639     1.06086E+03     1.06086E+03    -262.351E-03    -262.351E-03         3.15558         3.15558
            2640     1.06374E+03     1.06374E+03    -317.781E-03    -317.781E-03         2.79049         2.79049
            2641     1.06624E+03     1.06624E+03    -378.091E-03    -378.091E-03         2.35346         2.35346
            2642     1.06829E+03     1.06829E+03    -440.545E-03    -440.545E-03         1.83920         1.83920
            2643     1.06981E+03     1.06981E+03    -500.963E-03    -500.963E-03         1.24681         1.24681
            2644     1.07075E+03     1.07075E+03    -553.332E-03    -553.332E-03     581.685E-03     581.685E-03
            2645     1.07102E+03     1.07102E+03    -590.166E-03    -590.166E-03    -142.187E-03    -142.187E-03
            2646     1.07060E+03     1.07060E+03    -602.653E-03    -602.653E-03    -900.512E-03    -900.512E-03
            2647     1.06947E+03     1.06947E+03    -581.890E-03    -581.890E-03        -1.65767        -1.65767
            2648     1.06765E+03     1.06765E+03    -520.064E-03    -520.064E-03        -2.36702        -2.36702
            2649     1.06521E+03     1.06521E+03    -411.874E-03    -411.874E-03        -2.97173        -2.97173
            2650     1.11508E+03     1.11508E+03        -34.8414        -34.8414         2.28202         2.28202
            2651     1.10796E+03     1.10796E+03        -24.1967        -24.1967         9.06175         9.06175
            2652     1.10029E+03     1.10029E+03        -16.0967        -16.0967         12.3585         12.3585
            2653     1.09318E+03     1.09318E+03        -10.3139        -10.3139         13.5974         13.5974
            2654     1.08691E+03     1.08691E+03        -6.35673        -6.35673         13.6986         13.6986
            2655     1.08146E+03     1.08146E+03        -3.74114        -3.74114         13.2014         13.2014
            2656     1.07670E+03     1.07670E+03        -2.07509        -2.07509         12.3824         12.3824
            2657     1.07246E+03     1.07246E+03        -1.06238        -1.06238         11.3504         11.3504
            2658     1.06860E+03     1.06860E+03    -485.675E-03    -485.675E-03         10.0989         10.0989
            2659     1.06499E+03     1.06499E+03    -186.640E-03    -186.640E-03         8.53091         8.53091
            2660     1.06153E+03     1.06153E+03    -51.6505E-03    -51.6505E-03         6.46225         6.46225
            2661     1.05813E+03     1.05813E+03    -5.42334E-03    -5.42334E-03         3.62691         3.62691
            2662     1.12286E+03     1.12286E+03        -20.6921        -20.6921         16.7679         16.7679
            2663     1.11095E+03     1.11095E+03        -10.0621        -10.0621         19.3889         19.3889
            2664     1.10077E+03     1.10077E+03        -3.46415        -3.46415         19.2413         19.2413
            2665     1.09243E+03     1.09243E+03     311.321E-03     311.321E-03         17.9425         17.9425
            2666     1.08564E+03     1.08564E+03         2.23675         2.23675         16.2787         16.2787
            2667     1.07999E+03     1.07999E+03         2.99182         2.99182         14.5911         14.5911
            2668     1.07515E+03     1.07515E+03         3.02735         3.02735         12.9903         12.9903
            2669     1.07083E+03     1.07083E+03         2.64055         2.64055         11.4654         11.4654
            2670     1.06677E+03     1.06677E+03         2.03449         2.03449         9.93076         9.93076
            2671     1.06275E+03     1.06275E+03         1.35858         1.35858         8.23910         8.23910
            2672     1.05857E+03     1.05857E+03     735.132E-03     735.132E-03         6.17418         6.17418
            2673     1.05399E+03     1.05399E+03     277.214E-03     277.214E-03         3.44707         3.44707
            2674     1.12390E+03     1.12390E+03         5.16115         5.16115         29.0179         29.0179
            2675     1.10896E+03     1.10896E+03         11.2219         11.2219         25.9867         25.9867
            2676     1.09786E+03     1.09786E+03         13.2846         13.2846         22.2738         22.2738
            2677     1.08949E+03     1.08949E+03         13.2003         13.2003         18.8265         18.8265
            2678     1.08298E+03     1.08298E+03         12.0134         12.0134         15.9140         15.9140
            2679     1.07768E+03     1.07768E+03         10.3003         10.3003         13.5260         13.5260
            2680     1.07312E+03     1.07312E+03         8.37635         8.37635         11.5637         11.5637
            2681     1.06896E+03     1.06896E+03         6.42421         6.42421         9.89783         9.89783
            2682     1.06489E+03     1.06489E+03         4.56271         4.56271         8.38181         8.38181
            2683     1.06064E+03     1.06064E+03         2.88887         2.88887         6.84609         6.84609
            2684     1.05590E+03     1.05590E+03         1.50767         1.50767         5.08065         5.08065
            2685     1.05033E+03     1.05033E+03     553.758E-03     553.758E-03         2.82211         2.82211
            2686     1.11770E+03     1.11770E+03         38.9909         38.9909         31.8584         31.8584
            2687     1.10298E+03     1.10298E+03         35.5112         35.5112         24.7261         24.7261
            2688     1.09287E+03     1.09287E+03         30.6808         30.6808         19.2166         19.2166
            2689     1.08554E+03     1.08554E+03         25.7102         25.7102         15.1113         15.1113
            2690     1.07990E+03     1.07990E+03         21.0433         21.0433         12.0673         12.0673
            2691     1.07527E+03     1.07527E+03         16.8009         16.8009         9.79341         9.79341
            2692     1.07119E+03     1.07119E+03         12.9985         12.9985         8.06261         8.06261
            2693     1.06733E+03     1.06733E+03         9.62181         9.62181         6.69545         6.69545
            2694     1.06337E+03     1.06337E+03         6.66370         6.66370         5.53839         5.53839
            2695     1.05902E+03     1.05902E+03         4.14558         4.14558         4.44579         4.44579
            2696     1.05392E+03     1.05392E+03         2.13673         2.13673         3.26054         3.26054
            2697     1.04764E+03     1.04764E+03     776.730E-03     776.730E-03         1.79881         1.79881
            2698     1.10884E+03     1.10884E+03         69.1791         69.1791         20.2108         20.2108
            2699     1.09666E+03     1.09666E+03         54.9380         54.9380         13.9054         13.9054
            2700     1.08841E+03     1.08841E+03         43.5802         43.5802         9.80304         9.80304
            2701     1.08238E+03     1.08238E+03         34.5029         34.5029         7.05762         7.05762
            2702     1.07763E+03     1.07763E+03         27.1275         27.1275         5.17238         5.17238
            2703     1.07362E+03     1.07362E+03         21.0332         21.0332         3.85659         3.85659
            2704     1.06997E+03     1.06997E+03         15.9218         15.9218         2.92493         2.92493
            2705     1.06638E+03     1.06638E+03         11.5943         11.5943         2.25042         2.25042
            2706     1.06255E+03     1.06255E+03         7.93222         7.93222         1.74067         1.74067
            2707     1.05820E+03     1.05820E+03         4.89199         4.89199         1.32098         1.32098
            2708     1.05295E+03     1.05295E+03         2.50834         2.50834     925.595E-03     925.595E-03
            2709     1.04633E+03     1.04633E+03     910.312E-03     910.312E-03     493.022E-03     493.022E-03
            2710     1.10531E+03     1.10531E+03         79.5279         79.5279        -3.47604        -3.47604
            2711     1.09461E+03     1.09461E+03         60.6645         60.6645        -3.74819        -3.74819
            2712     1.08719E+03     1.08719E+03         46.9700         46.9700        -3.74601        -3.74601
            2713     1.08166E+03     1.08166E+03         36.5734         36.5734        -3.64506        -3.64506
            2714     1.07723E+03     1.07723E+03         28.4074         28.4074        -3.48991        -3.48991
            2715     1.07344E+03     1.07344E+03         21.8188         21.8188        -3.29987        -3.29987
            2716     1.06993E+03     1.06993E+03         16.3903         16.3903        -3.07858        -3.07858
            2717     1.06644E+03     1.06644E+03         11.8569         11.8569        -2.82052        -2.82052
            2718     1.06269E+03     1.06269E+03         8.06334         8.06334        -2.51169        -2.51169
            2719     1.05839E+03     1.05839E+03         4.94412         4.94412        -2.12608        -2.12608
            2720     1.05319E+03     1.05319E+03         2.52082         2.52082        -1.61935        -1.61935
            2721     1.04663E+03     1.04663E+03     910.286E-03     910.286E-03    -919.196E-03    -919.196E-03
            2722     1.11114E+03     1.11114E+03         61.2679         61.2679        -26.4930        -26.4930
            2723     1.09871E+03     1.09871E+03         48.6767         48.6767        -20.7900        -20.7900
            2724     1.09019E+03     1.09019E+03         38.7438         38.7438        -16.8581        -16.8581
            2725     1.08392E+03     1.08392E+03         30.7609         30.7609        -14.0213        -14.0213
            2726     1.07901E+03     1.07901E+03         24.2292         24.2292        -11.9005        -11.9005
            2727     1.07489E+03     1.07489E+03         18.7944         18.7944        -10.2516        -10.2516
            2728     1.07119E+03     1.07119E+03         14.2119         14.2119        -8.90493        -8.90493
            2729     1.06759E+03     1.06759E+03         10.3211         10.3211        -7.72927        -7.72927
            2730     1.06384E+03     1.06384E+03         7.02948         7.02948        -6.60919        -6.60919
            2731     1.05964E+03     1.05964E+03         4.30773         4.30773        -5.42498        -5.42498
            2732     1.05468E+03     1.05468E+03         2.19169         2.19169        -4.03064        -4.03064
            2733     1.04856E+03     1.04856E+03     789.384E-03     789.384E-03        -2.24152        -2.24152
            2734     1.12030E+03     1.12030E+03         24.3805         24.3805        -34.0408        -34.0408
            2735     1.10574E+03     1.10574E+03         24.0889         24.0889        -28.6978        -28.6978
            2736     1.09554E+03     1.09554E+03         21.7863         21.7863        -24.1782        -24.1782
            2737     1.08804E+03     1.08804E+03         18.8150         18.8150        -20.5499        -20.5499
            2738     1.08224E+03     1.08224E+03         15.7091         15.7091        -17.6509        -17.6509
            2739     1.07751E+03     1.07751E+03         12.7004         12.7004        -15.2980        -15.2980
            2740     1.07341E+03     1.07341E+03         9.89185         9.89185        -13.3202        -13.3202
            2741     1.06960E+03     1.06960E+03         7.33489         7.33489        -11.5620        -11.5620
            2742     1.06582E+03     1.06582E+03         5.06745         5.06745        -9.86999        -9.86999
            2743     1.06179E+03     1.06179E+03         3.13546         3.13546        -8.07558        -8.07558
            2744     1.05725E+03     1.05725E+03         1.60730         1.60730        -5.97175        -5.97175
            2745     1.05190E+03     1.05190E+03     583.497E-03     583.497E-03        -3.30395        -3.30395
            2746     1.12283E+03     1.12283E+03        -10.4390        -10.4390        -24.5548        -24.5548
            2747     1.10992E+03     1.10992E+03        -1.90150        -1.90150        -24.9892        -24.9892
            2748     1.09973E+03     1.09973E+03         2.62638         2.62638        -23.5197        -23.5197
            2749     1.09178E+03     1.09178E+03         4.70004         4.70004        -21.4760        -21.4760
            2750     1.08548E+03     1.08548E+03         5.32936         5.32936        -19.3763        -19.3763
            2751     1.08032E+03     1.08032E+03         5.12050         5.12050        -17.3812        -17.3812
            2752     1.07593E+03     1.07593E+03         4.44561         4.44561        -15.5043        -15.5043
            2753     1.07200E+03     1.07200E+03         3.54050         3.54050        -13.6830        -13.6830
            2754     1.06827E+03     1.06827E+03         2.56452         2.56452        -11.8067        -11.8067
            2755     1.06455E+03     1.06455E+03         1.63632         1.63632        -9.71784        -9.71784
            2756     1.06061E+03     1.06061E+03     855.272E-03     855.272E-03        -7.20192        -7.20192
            2757     1.05627E+03     1.05627E+03     314.413E-03     314.413E-03        -3.98419        -3.98419
            2758     1.11553E+03     1.11553E+03        -30.6451        -30.6451        -8.20088        -8.20088
            2759     1.10780E+03     1.10780E+03        -20.2077        -20.2077        -14.2820        -14.2820
            2760     1.10006E+03     1.10006E+03        -12.6575        -12.6575        -16.9396        -16.9396
            2761     1.09319E+03     1.09319E+03        -7.53143        -7.53143        -17.6738        -17.6738
            2762     1.08732E+03     1.08732E+03        -4.20413        -4.20413        -17.3787        -17.3787
            2763     1.08234E+03     1.08234E+03        -2.13534        -2.13534        -16.5353        -16.5353
            2764     1.07804E+03     1.07804E+03    -923.463E-03    -923.463E-03        -15.3697        -15.3697
            2765     1.07424E+03     1.07424E+03    -277.456E-03    -277.456E-03        -13.9592        -13.9592
            2766     1.07078E+03     1.07078E+03     11.5865E-03     11.5865E-03        -12.2801        -12.2801
            2767     1.06751E+03     1.06751E+03     94.2485E-03     94.2485E-03        -10.2303        -10.2303
            2768     1.06434E+03     1.06434E+03     78.5552E-03     78.5552E-03        -7.62932        -7.62932
            2769     1.06118E+03     1.06118E+03     36.7005E-03     36.7005E-03        -4.22886        -4.22886
            2770         993.198         993.198         289.265         289.265         53.7893         53.7893
            2771     1.00315E+03     1.00315E+03         265.584         265.584         53.4844         53.4844
            2772     1.01289E+03     1.01289E+03         241.882         241.882         51.8431         51.8431
            2773     1.02217E+03     1.02217E+03         218.607         218.607         49.4001         49.4001
            2774     1.03082E+03     1.03082E+03         196.071         196.071         46.2433         46.2433
            2775     1.03870E+03     1.03870E+03         174.555         174.555         42.4782         42.4782
            2776     1.04571E+03     1.04571E+03         154.291         154.291         38.2602         38.2602
            2777     1.05180E+03     1.05180E+03         135.444         135.444         33.7442         33.7442
            2778     1.05693E+03     1.05693E+03         118.120         118.120         29.0934         29.0934
            2779     1.06115E+03     1.06115E+03         102.362         102.362         24.4525         24.4525
            2780     1.06449E+03     1.06449E+03         88.1646         88.1646         19.9428         19.9428
            2781     1.06704E+03     1.06704E+03         75.4827         75.4827         15.6627         15.6627
            2782     1.06886E+03     1.06886E+03         64.2416         64.2416         11.6768         11.6768
            2783     1.07006E+03     1.07006E+03         54.3494         54.3494         8.03089         8.03089
            2784     1.07070E+03     1.07070E+03         45.7014         45.7014         4.74208         4.74208
            2785     1.07086E+03     1.07086E+03         38.1908         38.1908         1.81588         1.81588
            2786     1.07063E+03     1.07063E+03         31.7076         31.7076    -761.097E-03    -761.097E-03
            2787     1.07006E+03     1.07006E+03         26.1475         26.1475        -3.00769        -3.00769
            2788     1.06922E+03     1.06922E+03         21.4075         21.4075        -4.95295        -4.95295
            2789     1.06814E+03     1.06814E+03         17.3927         17.3927        -6.62734        -6.62734
            2790     1.06687E+03     1.06687E+03         14.0119         14.0119        -8.06583        -8.06583
            2791     1.06546E+03     1.06546E+03         11.1814         11.1814        -9.30275        -9.30275
            2792     1.06392E+03     1.06392E+03         8.82182         8.82182        -10.3740        -10.3740
            2793     1.06229E+03     1.06229E+03         6.85992         6.85992        -11.3143        -11.3143
            2794     1.06058E+03     1.06058E+03         5.22631         5.22631        -12.1590        -12.1590
            2795     1.05883E+03     1.05883E+03         3.85614         3.85614        -12.9428        -12.9428
            2796     1.05703E+03     1.05703E+03         2.68725         2.68725        -13.7015        -13.7015
            2797     1.05522E+03     1.05522E+03         1.66006         1.66006        -14.4718        -14.4718
            2798     1.05340E+03     1.05340E+03     715.905E-03     715.905E-03        -15.2926        -15.2926
            2799     1.05159E+03     1.05159E+03    -203.985E-03    -203.985E-03        -16.2058        -16.2058
            2800     1.04982E+03     1.04982E+03        -1.16054        -1.16054        -17.2576        -17.2576
            2801     1.04813E+03     1.04813E+03        -2.21911        -2.21911        -18.4995        -18.4995
            2802     1.04654E+03     1.04654E+03        -3.45287        -3.45287        -19.9890        -19.9890
            2803     1.04513E+03     1.04513E+03        -4.94758        -4.94758        -21.7899        -21.7899
            2804     1.04399E+03     1.04399E+03        -6.80755        -6.80755        -23.9709        -23.9709
            2805     1.04327E+03     1.04327E+03        -9.16523        -9.16523        -26.6009        -26.6009
            2806     1.04319E+03     1.04319E+03        -12.1905        -12.1905        -29.7383        -29.7383
            2807     1.04408E+03     1.04408E+03        -16.1061        -16.1061        -33.4058        -33.4058
            2808     1.04645E+03     1.04645E+03        -21.1882        -21.1882        -37.5399        -37.5399
            2809     1.05105E+03     1.05105E+03        -27.7597        -27.7597        -41.8856        -41.8856
            2810     1.05887E+03     1.05887E+03        -36.0370        -36.0370        -45.7990        -45.7990
            2811     1.07109E+03     1.07109E+03        -45.8454        -45.8454        -48.0193        -48.0193
            2812         991.586         991.586         289.704         289.704         41.3262         41.3262
            2813     1.00121E+03     1.00121E+03         266.907         266.907         41.0791         41.0791
            2814     1.01065E+03     1.01065E+03         244.111         244.111         39.8374         39.8374
            2815     1.01971E+03     1.01971E+03         221.693         221.693         38.0220         38.0220
            2816     1.02823E+03     1.02823E+03         199.916         199.916         35.6779         35.6779
            2817     1.03609E+03     1.03609E+03         179.019         179.019         32.8898         32.8898
            2818     1.04319E+03     1.04319E+03         159.205         159.205         29.7503         29.7503
            2819     1.04946E+03     1.04946E+03         140.632         140.632         26.3750         26.3750
            2820     1.05489E+03     1.05489E+03         123.408         123.408         22.8738         22.8738
            2821     1.05945E+03     1.05945E+03         107.599         107.599         19.3532         19.3532
            2822     1.06318E+03     1.06318E+03         93.2243         93.2243         15.9061         15.9061
            2823     1.06612E+03     1.06612E+03         80.2671         80.2671         12.6057         12.6057
            2824     1.06833E+03     1.06833E+03         68.6835         68.6835         9.51012         9.51012
            2825     1.06988E+03     1.06988E+03         58.4068         58.4068         6.65457         6.65457
            2826     1.07084E+03     1.07084E+03         49.3574         49.3574         4.06252         4.06252
            2827     1.07127E+03     1.07127E+03         41.4445         41.4445         1.73883         1.73883
            2828     1.07125E+03     1.07125E+03         34.5749         34.5749    -318.776E-03    -318.776E-03
            2829     1.07083E+03     1.07083E+03         28.6519         28.6519        -2.12465        -2.12465
            2830     1.07007E+03     1.07007E+03         23.5820         23.5820        -3.69640        -3.69640
            2831     1.06903E+03     1.06903E+03         19.2729         19.2729        -5.05821        -5.05821
            2832     1.06774E+03     1.06774E+03         15.6377         15.6377        -6.23510        -6.23510
            2833     1.06625E+03     1.06625E+03         12.5929         12.5929        -7.25516        -7.25516
            2834     1.06458E+03     1.06458E+03         10.0608         10.0608        -8.14626        -8.14626
            2835     1.06277E+03     1.06277E+03         7.96787         7.96787        -8.93775        -8.93775
            2836     1.06083E+03     1.06083E+03         6.24605         6.24605        -9.65892        -9.65892
            2837     1.05878E+03     1.05878E+03         4.83118         4.83118        -10.3404        -10.3404
            2838     1.05663E+03     1.05663E+03         3.66349         3.66349        -11.0140        -11.0140
            2839     1.05439E+03     1.05439E+03         2.68641         2.68641        -11.7138        -11.7138
            2840     1.05207E+03     1.05207E+03         1.84620         1.84620        -12.4776        -12.4776
            2841     1.04967E+03     1.04967E+03         1.09066         1.09066        -13.3478        -13.3478
            2842     1.04718E+03     1.04718E+03     367.822E-03     367.822E-03        -14.3738        -14.3738
            2843     1.04461E+03     1.04461E+03    -376.186E-03    -376.186E-03        -15.6145        -15.6145
            2844     1.04196E+03     1.04196E+03        -1.20029        -1.20029        -17.1410        -17.1410
            2845     1.03923E+03     1.03923E+03        -2.17293        -2.17293        -19.0410        -19.0410
            2846     1.03645E+03     1.03645E+03        -3.37979        -3.37979        -21.4233        -21.4233
            2847     1.03368E+03     1.03368E+03        -4.93407        -4.93407        -24.4233        -24.4233
            2848     1.03101E+03     1.03101E+03        -6.99599        -6.99599        -28.2089        -28.2089
            2849     1.02864E+03     1.02864E+03        -9.79749        -9.79749        -32.9829        -32.9829
            2850     1.02693E+03     1.02693E+03        -13.6912        -13.6912        -38.9745        -38.9745
            2851     1.02657E+03     1.02657E+03        -19.2049        -19.2049        -46.4000        -46.4000
            2852     1.02880E+03     1.02880E+03        -27.1425        -27.1425        -55.3015        -55.3015
            2853     1.03576E+03     1.03576E+03        -38.4737        -38.4737        -65.1750        -65.1750
            2854         990.480         990.480         290.030         290.030         29.2312         29.2312
            2855         999.867         999.867         267.857         267.857         29.0203         29.0203
            2856     1.00910E+03     1.00910E+03         245.695         245.695         28.1292         28.1292
            2857     1.01798E+03     1.01798E+03         223.882         223.882         26.8474         26.8474
            2858     1.02640E+03     1.02640E+03         202.647         202.647         25.2148         25.2148
            2859     1.03422E+03     1.03422E+03         182.199         182.199         23.2755         23.2755
            2860     1.04136E+03     1.04136E+03         162.723         162.723         21.0989         21.0989
            2861     1.04775E+03     1.04775E+03         144.367         144.367         18.7535         18.7535
            2862     1.05334E+03     1.05334E+03         127.243         127.243         16.3162         16.3162
            2863     1.05813E+03     1.05813E+03         111.424         111.424         13.8571         13.8571
            2864     1.06212E+03     1.06212E+03         96.9457         96.9457         11.4392         11.4392
            2865     1.06533E+03     1.06533E+03         83.8114         83.8114         9.11608         9.11608
            2866     1.06782E+03     1.06782E+03         71.9962         71.9962         6.92663         6.92663
            2867     1.06963E+03     1.06963E+03         61.4533         61.4533         4.90083         4.90083
            2868     1.07081E+03     1.07081E+03         52.1185         52.1185         3.05371         3.05371
            2869     1.07144E+03     1.07144E+03         43.9170         43.9170         1.39395         1.39395
            2870     1.07158E+03     1.07158E+03         36.7648         36.7648    -81.2503E-03    -81.2503E-03
            2871     1.07128E+03     1.07128E+03         30.5757         30.5757        -1.37821        -1.37821
            2872     1.07059E+03     1.07059E+03         25.2609         25.2609        -2.51048        -2.51048
            2873     1.06958E+03     1.06958E+03         20.7335         20.7335        -3.49301        -3.49301
            2874     1.06828E+03     1.06828E+03         16.9085         16.9085        -4.34465        -4.34465
            2875     1.06673E+03     1.06673E+03         13.7051         13.7051        -5.08447        -5.08447
            2876     1.06497E+03     1.06497E+03         11.0460         11.0460        -5.73353        -5.73353
            2877     1.06302E+03     1.06302E+03         8.85956         8.85956        -6.31286        -6.31286
            2878     1.06089E+03     1.06089E+03         7.07835         7.07835        -6.84485        -6.84485
            2879     1.05862E+03     1.05862E+03         5.64042         5.64042        -7.35243        -7.35243
            2880     1.05619E+03     1.05619E+03         4.48847         4.48847        -7.86043        -7.86043
            2881     1.05361E+03     1.05361E+03         3.57012         3.57012        -8.39572        -8.39572
            2882     1.05088E+03     1.05088E+03         2.83733         2.83733        -8.98880        -8.98880
            2883     1.04797E+03     1.04797E+03         2.24609         2.24609        -9.67492        -9.67492
            2884     1.04486E+03     1.04486E+03         1.75569         1.75569        -10.4965        -10.4965
            2885     1.04152E+03     1.04152E+03         1.32767         1.32767        -11.5056        -11.5056
            2886     1.03790E+03     1.03790E+03     924.252E-03     924.252E-03        -12.7682        -12.7682
            2887     1.03394E+03     1.03394E+03     505.383E-03     505.383E-03        -14.3698        -14.3698
            2888     1.02958E+03     1.02958E+03     24.7836E-03     24.7836E-03        -16.4235        -16.4235
            2889     1.02472E+03     1.02472E+03    -578.632E-03    -578.632E-03        -19.0818        -19.0818
            2890     1.01927E+03     1.01927E+03        -1.39223        -1.39223        -22.5555        -22.5555
            2891     1.01315E+03     1.01315E+03        -2.55606        -2.55606        -27.1398        -27.1398
            2892     1.00629E+03     1.00629E+03        -4.30121        -4.30121        -33.2580        -33.2580
            2893         998.754         998.754        -7.04128        -7.04128        -41.5187        -41.5187
            2894         990.914         990.914        -11.5424        -11.5424        -52.8156        -52.8156
            2895         984.070         984.070        -19.2874        -19.2874        -68.3143        -68.3143
            2896         989.781         989.781         290.248         290.248         17.3852         17.3852
            2897         999.022         999.022         268.471         268.471         17.2034         17.2034
            2898     1.00812E+03     1.00812E+03         246.710         246.710         16.6234         16.6234
            2899     1.01689E+03     1.01689E+03         225.280         225.280         15.8274         15.8274
            2900     1.02523E+03     1.02523E+03         204.388         204.388         14.8308         14.8308
            2901     1.03302E+03     1.03302E+03         184.228         184.228         13.6677         13.6677
            2902     1.04018E+03     1.04018E+03         164.970         164.970         12.3707         12.3707
            2903     1.04663E+03     1.04663E+03         146.759         146.759         10.9845         10.9845
            2904     1.05233E+03     1.05233E+03         129.705         129.705         9.54919         9.54919
            2905     1.05725E+03     1.05725E+03         113.888         113.888         8.10643         8.10643
            2906     1.06140E+03     1.06140E+03         99.3513         99.3513         6.69196         6.69196
            2907     1.06478E+03     1.06478E+03         86.1101         86.1101         5.33534         5.33534
            2908     1.06743E+03     1.06743E+03         74.1518         74.1518         4.06075         4.06075
            2909     1.06940E+03     1.06940E+03         63.4412         63.4412         2.88304         2.88304
            2910     1.07073E+03     1.07073E+03         53.9256         53.9256         1.81329         1.81329
            2911     1.07149E+03     1.07149E+03         45.5385         45.5385     853.921E-03     853.921E-03
            2912     1.07173E+03     1.07173E+03         38.2049         38.2049     5.32706E-03     5.32706E-03
            2913     1.07150E+03     1.07150E+03         31.8431         31.8431    -738.382E-03    -738.382E-03
            2914     1.07087E+03     1.07087E+03         26.3698         26.3698        -1.38374        -1.38374
            2915     1.06988E+03     1.06988E+03         21.7004         21.7004        -1.94112        -1.94112
            2916     1.06857E+03     1.06857E+03         17.7525         17.7525        -2.42072        -2.42072
            2917     1.06699E+03     1.06699E+03         14.4463         14.4463        -2.83482        -2.83482
            2918     1.06517E+03     1.06517E+03         11.7061         11.7061        -3.19527        -3.19527
            2919     1.06313E+03     1.06313E+03         9.46063         9.46063        -3.51508        -3.51508
            2920     1.06088E+03     1.06088E+03         7.64395         7.64395        -3.80706        -3.80706
            2921     1.05846E+03     1.05846E+03         6.19538         6.19538        -4.08504        -4.08504
            2922     1.05584E+03     1.05584E+03         5.05999         5.05999        -4.36336        -4.36336
            2923     1.05303E+03     1.05303E+03         4.18853         4.18853        -4.65795        -4.65795
            2924     1.05002E+03     1.05002E+03         3.53768         3.53768        -4.98660        -4.98660
            2925     1.04676E+03     1.04676E+03         3.07007         3.07007        -5.37022        -5.37022
            2926     1.04322E+03     1.04322E+03         2.75437         2.75437        -5.83395        -5.83395
            2927     1.03934E+03     1.03934E+03         2.56542         2.56542        -6.40928        -6.40928
            2928     1.03503E+03     1.03503E+03         2.48405         2.48405        -7.13656        -7.13656
            2929     1.03017E+03     1.03017E+03         2.49723         2.49723        -8.06940        -8.06940
            2930     1.02462E+03     1.02462E+03         2.59702         2.59702        -9.28044        -9.28044
            2931     1.01817E+03     1.01817E+03         2.78020         2.78020        -10.8717        -10.8717
            2932     1.01053E+03     1.01053E+03         3.04389         3.04389        -12.9894        -12.9894
            2933     1.00132E+03     1.00132E+03         3.38213         3.38213        -15.8519        -15.8519
            2934         989.988         989.988         3.76819         3.76819        -19.7930        -19.7930
            2935         975.754         975.754         4.12998         4.12998        -25.3530        -25.3530
            2936         957.475         957.475         4.27391         4.27391        -33.4455        -33.4455
            2937         933.474         933.474         3.66030         3.66030        -45.7913        -45.7913
            2938         989.444         989.444         290.354         290.354         5.69786         5.69786
            2939         998.613         998.613         268.764         268.764         5.54805         5.54805
            2940     1.00764E+03     1.00764E+03         247.192         247.192         5.27715         5.27715
            2941     1.01637E+03     1.01637E+03         225.942         225.942         4.94213         4.94213
            2942     1.02468E+03     1.02468E+03         205.210         205.210         4.55692         4.55692
            2943     1.03246E+03     1.03246E+03         185.182         185.182         4.12865         4.12865
            2944     1.03962E+03     1.03962E+03         166.024         166.024         3.67466         3.67466
            2945     1.04610E+03     1.04610E+03         147.877         147.877         3.20577         3.20577
            2946     1.05185E+03     1.05185E+03         130.853         130.853         2.73784         2.73784
            2947     1.05683E+03     1.05683E+03         115.033         115.033         2.28180         2.28180
            2948     1.06104E+03     1.06104E+03         100.466         100.466         1.84833         1.84833
            2949     1.06450E+03     1.06450E+03         87.1724         87.1724         1.44566         1.44566
            2950     1.06723E+03     1.06723E+03         75.1447         75.1447         1.07844         1.07844
            2951     1.06928E+03     1.06928E+03         64.3539         64.3539     751.006E-03     751.006E-03
            2952     1.07068E+03     1.07068E+03         54.7522         54.7522     463.154E-03     463.154E-03
            2953     1.07149E+03     1.07149E+03         46.2778         46.2778     215.627E-03     215.627E-03
            2954     1.07178E+03     1.07178E+03         38.8588         38.8588     5.30469E-03     5.30469E-03
            2955     1.07159E+03     1.07159E+03         32.4167         32.4167    -169.535E-03    -169.535E-03
            2956     1.07097E+03     1.07097E+03         26.8696         26.8696    -313.245E-03    -313.245E-03
            2957     1.06999E+03     1.06999E+03         22.1348         22.1348    -428.796E-03    -428.796E-03
            2958     1.06868E+03     1.06868E+03         18.1305         18.1305    -520.668E-03    -520.668E-03
            2959     1.06708E+03     1.06708E+03         14.7775         14.7775    -592.179E-03    -592.179E-03
            2960     1.06523E+03     1.06523E+03         12.0005         12.0005    -647.383E-03    -647.383E-03
            2961     1.06315E+03     1.06315E+03         9.72846         9.72846    -689.439E-03    -689.439E-03
            2962     1.06086E+03     1.06086E+03         7.89590         7.89590    -721.808E-03    -721.808E-03
            2963     1.05837E+03     1.05837E+03         6.44261         6.44261    -747.315E-03    -747.315E-03
            2964     1.05567E+03     1.05567E+03         5.31456         5.31456    -768.895E-03    -768.895E-03
            2965     1.05276E+03     1.05276E+03         4.46373         4.46373    -789.073E-03    -789.073E-03
            2966     1.04963E+03     1.04963E+03         3.84882         3.84882    -810.455E-03    -810.455E-03
            2967     1.04622E+03     1.04622E+03         3.43516         3.43516    -835.437E-03    -835.437E-03
            2968     1.04250E+03     1.04250E+03         3.19559         3.19559    -866.584E-03    -866.584E-03
            2969     1.03839E+03     1.03839E+03         3.11057         3.11057    -906.440E-03    -906.440E-03
            2970     1.03378E+03     1.03378E+03         3.16953         3.16953    -957.943E-03    -957.943E-03
            2971     1.02855E+03     1.02855E+03         3.37117         3.37117        -1.02420        -1.02420
            2972     1.02250E+03     1.02250E+03         3.72620         3.72620        -1.10922        -1.10922
            2973     1.01536E+03     1.01536E+03         4.25746         4.25746        -1.21732        -1.21732
            2974     1.00678E+03     1.00678E+03         5.00619         5.00619        -1.35483        -1.35483
            2975         996.215         996.215         6.03091         6.03091        -1.52819        -1.52819
            2976         982.887         982.887         7.42205         7.42205        -1.74771        -1.74771
            2977         965.589         965.589         9.29818         9.29818        -2.02068        -2.02068
            2978         942.365         942.365         11.8436         11.8436        -2.35346        -2.35346
            2979         909.707         909.707         15.3213         15.3213        -2.67622        -2.67622
            2980         989.443         989.443         290.354         290.354        -5.92059        -5.92059
            2981         998.618         998.618         268.756         268.756        -6.01065        -6.01065
            2982     1.00765E+03     1.00765E+03         247.174         247.174        -5.96028        -5.96028
            2983     1.01639E+03     1.01639E+03         225.912         225.912        -5.81856        -5.81856
            2984     1.02470E+03     1.02470E+03         205.166         205.166        -5.59210        -5.59210
            2985     1.03248E+03     1.03248E+03         185.122         185.122        -5.28190        -5.28190
            2986     1.03965E+03     1.03965E+03         165.948         165.948        -4.90136        -4.90136
            2987     1.04614E+03     1.04614E+03         147.786         147.786        -4.45951        -4.45951
            2988     1.05188E+03     1.05188E+03         130.748         130.748        -3.97297        -3.97297
            2989     1.05687E+03     1.05687E+03         114.917         114.917        -3.45543        -3.45543
            2990     1.06108E+03     1.06108E+03         100.342         100.342        -2.92215        -2.92215
            2991     1.06453E+03     1.06453E+03         87.0430         87.0430        -2.38708        -2.38708
            2992     1.06725E+03     1.06725E+03         75.0133         75.0133        -1.86119        -1.86119
            2993     1.06929E+03     1.06929E+03         64.2234         64.2234        -1.35529        -1.35529
            2994     1.07068E+03     1.07068E+03         54.6251         54.6251    -875.286E-03    -875.286E-03
            2995     1.07149E+03     1.07149E+03         46.1561         46.1561    -427.481E-03    -427.481E-03
            2996     1.07176E+03     1.07176E+03         38.7440         38.7440    -13.3640E-03    -13.3640E-03
            2997     1.07156E+03     1.07156E+03         32.3098         32.3098     365.027E-03     365.027E-03
            2998     1.07095E+03     1.07095E+03         26.7710         26.7710     709.403E-03     709.403E-03
            2999     1.06996E+03     1.06996E+03         22.0444         22.0444         1.02102         1.02102
            3000     1.06865E+03     1.06865E+03         18.0478         18.0478         1.30370         1.30370
            3001     1.06705E+03     1.06705E+03         14.7015         14.7015         1.56102         1.56102
            3002     1.06521E+03     1.06521E+03         11.9298         11.9298         1.79827         1.79827
            3003     1.06314E+03     1.06314E+03         9.66135         9.66135         2.02083         2.02083
            3004     1.06086E+03     1.06086E+03         7.82999         7.82999         2.23541         2.23541
            3005     1.05838E+03     1.05838E+03         6.37512         6.37512         2.44926         2.44926
            3006     1.05571E+03     1.05571E+03         5.24187         5.24187         2.67117         2.67117
            3007     1.05284E+03     1.05284E+03         4.38144         4.38144         2.91126         2.91126
            3008     1.04974E+03     1.04974E+03         3.75119         3.75119         3.18203         3.18203
            3009     1.04639E+03     1.04639E+03         3.31493         3.31493         3.49879         3.49879
            3010     1.04274E+03     1.04274E+03         3.04306         3.04306         3.88115         3.88115
            3011     1.03873E+03     1.03873E+03         2.91293         2.91293         4.35444         4.35444
            3012     1.03425E+03     1.03425E+03         2.90906         2.90906         4.95258         4.95258
            3013     1.02919E+03     1.02919E+03         3.02358         3.02358         5.72132         5.72132
            3014     1.02337E+03     1.02337E+03         3.25624         3.25624         6.72513         6.72513
            3015     1.01657E+03     1.01657E+03         3.61466         3.61466         8.05497         8.05497
            3016     1.00847E+03     1.00847E+03         4.11289         4.11289         9.84652         9.84652
            3017         998.619         998.619         4.76907         4.76907         12.3026         12.3026
            3018         986.389         986.389         5.59581         5.59581         15.7478         15.7478
            3019         970.858         970.858         6.57906         6.57906         20.7112         20.7112
            3020         950.651         950.651         7.61468         7.61468         28.1363         28.1363
            3021         923.796         923.796         8.27035         8.27035         39.8268         39.8268
            3022         989.781         989.781         290.252         290.252        -17.5752        -17.5752
            3023         999.036         999.036         268.454         268.454        -17.5947        -17.5947
            3024     1.00814E+03     1.00814E+03         246.667         246.667        -17.2010        -17.2010
            3025     1.01694E+03     1.01694E+03         225.205         225.205        -16.5677        -16.5677
            3026     1.02529E+03     1.02529E+03         204.276         204.276        -15.7037        -15.7037
            3027     1.03310E+03     1.03310E+03         184.075         184.075        -14.6380        -14.6380
            3028     1.04027E+03     1.04027E+03         164.775         164.775        -13.3998        -13.3998
            3029     1.04673E+03     1.04673E+03         146.524         146.524        -12.0329        -12.0329
            3030     1.05243E+03     1.05243E+03         129.434         129.434        -10.5780        -10.5780
            3031     1.05735E+03     1.05735E+03         113.588         113.588        -9.07970        -9.07970
            3032     1.06148E+03     1.06148E+03         99.0297         99.0297        -7.57797        -7.57797
            3033     1.06485E+03     1.06485E+03         85.7752         85.7752        -6.10745        -6.10745
            3034     1.06748E+03     1.06748E+03         73.8118         73.8118        -4.69789        -4.69789
            3035     1.06943E+03     1.06943E+03         63.1037         63.1037        -3.36962        -3.36962
            3036     1.07074E+03     1.07074E+03         53.5970         53.5970        -2.13895        -2.13895
            3037     1.07147E+03     1.07147E+03         45.2241         45.2241        -1.01279        -1.01279
            3038     1.07169E+03     1.07169E+03         37.9085         37.9085     4.58759E-03     4.58759E-03
            3039     1.07144E+03     1.07144E+03         31.5671         31.5671     916.135E-03     916.135E-03
            3040     1.07080E+03     1.07080E+03         26.1152         26.1152         1.72621         1.72621
            3041     1.06979E+03     1.06979E+03         21.4671         21.4671         2.44389         2.44389
            3042     1.06849E+03     1.06849E+03         17.5392         17.5392         3.07885         3.07885
            3043     1.06691E+03     1.06691E+03         14.2504         14.2504         3.64359         3.64359
            3044     1.06510E+03     1.06510E+03         11.5241         11.5241         4.15095         4.15095
            3045     1.06308E+03     1.06308E+03         9.28801         9.28801         4.61563         4.61563
            3046     1.06087E+03     1.06087E+03         7.47488         7.47488         5.05292         5.05292
            3047     1.05849E+03     1.05849E+03         6.02265         6.02265         5.47997         5.47997
            3048     1.05594E+03     1.05594E+03         4.87466         4.87466         5.91547         5.91547
            3049     1.05322E+03     1.05322E+03         3.97941         3.97941         6.38093         6.38093
            3050     1.05031E+03     1.05031E+03         3.29063         3.29063         6.90124         6.90124
            3051     1.04719E+03     1.04719E+03         2.76689         2.76689         7.50647         7.50647
            3052     1.04384E+03     1.04384E+03         2.37131         2.37131         8.23354         8.23354
            3053     1.04019E+03     1.04019E+03         2.07089         2.07089         9.12941         9.12941
            3054     1.03620E+03     1.03620E+03         1.83538         1.83538         10.2547         10.2547
            3055     1.03177E+03     1.03177E+03         1.63552         1.63552         11.6901         11.6901
            3056     1.02681E+03     1.02681E+03         1.43954         1.43954         13.5446         13.5446
            3057     1.02117E+03     1.02117E+03         1.20771         1.20771         15.9703         15.9703
            3058     1.01470E+03     1.01470E+03     880.798E-03     880.798E-03         19.1807         19.1807
            3059     1.00718E+03     1.00718E+03     361.618E-03     361.618E-03         23.4891         23.4891
            3060         998.420         998.420    -527.636E-03    -527.636E-03         29.3559         29.3559
            3061         988.209         988.209        -2.12189        -2.12189         37.4877         37.4877
            3062         976.557         976.557        -5.10783        -5.10783         48.9690         48.9690
            3063         964.181         964.181        -10.8961        -10.8961         65.3738         65.3738
            3064         990.480         990.480         290.037         290.037        -29.3777        -29.3777
            3065         999.886         999.886         267.841         267.841        -29.3182        -29.3182
            3066     1.00914E+03     1.00914E+03         245.645         245.645        -28.5670        -28.5670
            3067     1.01805E+03     1.01805E+03         223.790         223.790        -27.4067        -27.4067
            3068     1.02648E+03     1.02648E+03         202.506         202.506        -25.8716        -25.8716
            3069     1.03432E+03     1.03432E+03         182.004         182.004        -24.0019        -24.0019
            3070     1.04148E+03     1.04148E+03         162.473         162.473        -21.8648        -21.8648
            3071     1.04788E+03     1.04788E+03         144.065         144.065        -19.5279        -19.5279
            3072     1.05347E+03     1.05347E+03         126.896         126.896        -17.0700        -17.0700
            3073     1.05826E+03     1.05826E+03         111.040         111.040        -14.5634        -14.5634
            3074     1.06223E+03     1.06223E+03         96.5349         96.5349        -12.0753        -12.0753
            3075     1.06542E+03     1.06542E+03         83.3848         83.3848        -9.66326        -9.66326
            3076     1.06788E+03     1.06788E+03         71.5642         71.5642        -7.37077        -7.37077
            3077     1.06966E+03     1.06966E+03         61.0256         61.0256        -5.23207        -5.23207
            3078     1.07081E+03     1.07081E+03         51.7032         51.7032        -3.26595        -3.26595
            3079     1.07141E+03     1.07141E+03         43.5205         43.5205        -1.48444        -1.48444
            3080     1.07152E+03     1.07152E+03         36.3918         36.3918     112.676E-03     112.676E-03
            3081     1.07119E+03     1.07119E+03         30.2291         30.2291         1.52962         1.52962
            3082     1.07049E+03     1.07049E+03         24.9419         24.9419         2.77862         2.77862
            3083     1.06946E+03     1.06946E+03         20.4419         20.4419         3.87372         3.87372
            3084     1.06816E+03     1.06816E+03         16.6425         16.6425         4.83352         4.83352
            3085     1.06662E+03     1.06662E+03         13.4615         13.4615         5.67723         5.67723
            3086     1.06487E+03     1.06487E+03         10.8207         10.8207         6.42657         6.42657
            3087     1.06295E+03     1.06295E+03         8.64676         8.64676         7.10358         7.10358
            3088     1.06087E+03     1.06087E+03         6.87109         6.87109         7.73213         7.73213
            3089     1.05865E+03     1.05865E+03         5.43007         5.43007         8.33707         8.33707
            3090     1.05630E+03     1.05630E+03         4.26442         4.26442         8.94562         8.94562
            3091     1.05383E+03     1.05383E+03         3.31925         3.31925         9.58761         9.58761
            3092     1.05122E+03     1.05122E+03         2.54315         2.54315         10.2972         10.2972
            3093     1.04848E+03     1.04848E+03         1.88772         1.88772         11.1139         11.1139
            3094     1.04559E+03     1.04559E+03         1.30620         1.30620         12.0855         12.0855
            3095     1.04253E+03     1.04253E+03     751.866E-03     751.866E-03         13.2703         13.2703
            3096     1.03928E+03     1.03928E+03     175.457E-03     175.457E-03         14.7419         14.7419
            3097     1.03581E+03     1.03581E+03    -479.244E-03    -479.244E-03         16.5938         16.5938
            3098     1.03211E+03     1.03211E+03        -1.28151        -1.28151         18.9479         18.9479
            3099     1.02816E+03     1.02816E+03        -2.32571        -2.32571         21.9635         21.9635
            3100     1.02397E+03     1.02397E+03        -3.74747        -3.74747         25.8530         25.8530
            3101     1.01964E+03     1.01964E+03        -5.75838        -5.75838         30.8959         30.8959
            3102     1.01537E+03     1.01537E+03        -8.69186        -8.69186         37.4613         37.4613
            3103     1.01166E+03     1.01166E+03        -13.1073        -13.1073         46.0024         46.0024
            3104     1.00958E+03     1.00958E+03        -19.9222        -19.9222         56.9917         56.9917
            3105     1.01123E+03     1.01123E+03        -30.5351        -30.5351         70.6320         70.6320
            3106         991.586         991.586         289.713         289.713        -41.4282        -41.4282
            3107     1.00123E+03     1.00123E+03         266.893         266.893        -41.2830        -41.2830
            3108     1.01069E+03     1.01069E+03         244.064         244.064        -40.1336        -40.1336
            3109     1.01977E+03     1.01977E+03         221.605         221.605        -38.3982        -38.3982
            3110     1.02831E+03     1.02831E+03         199.780         199.780        -36.1168        -36.1168
            3111     1.03619E+03     1.03619E+03         178.833         178.833        -33.3716        -33.3716
            3112     1.04330E+03     1.04330E+03         158.966         158.966        -30.2533        -30.2533
            3113     1.04958E+03     1.04958E+03         140.345         140.345        -26.8781        -26.8781
            3114     1.05501E+03     1.05501E+03         123.080         123.080        -23.3571        -23.3571
            3115     1.05956E+03     1.05956E+03         107.238         107.238        -19.7996        -19.7996
            3116     1.06327E+03     1.06327E+03         92.8399         92.8399        -16.3013        -16.3013
            3117     1.06619E+03     1.06619E+03         79.8702         79.8702        -12.9387        -12.9387
            3118     1.06838E+03     1.06838E+03         68.2838         68.2838        -9.77329        -9.77329
            3119     1.06990E+03     1.06990E+03         58.0131         58.0131        -6.84297        -6.84297
            3120     1.07083E+03     1.07083E+03         48.9770         48.9770        -4.17382        -4.17382
            3121     1.07123E+03     1.07123E+03         41.0831         41.0831        -1.77257        -1.77257
            3122     1.07118E+03     1.07118E+03         34.2364         34.2364     361.392E-03     361.392E-03
            3123     1.07074E+03     1.07074E+03         28.3388         28.3388         2.24138         2.24138
            3124     1.06996E+03     1.06996E+03         23.2951         23.2951         3.88423         3.88423
            3125     1.06891E+03     1.06891E+03         19.0118         19.0118         5.31374         5.31374
            3126     1.06762E+03     1.06762E+03         15.4007         15.4007         6.55481         6.55481
            3127     1.06613E+03     1.06613E+03         12.3771         12.3771         7.63564         7.63564
            3128     1.06448E+03     1.06448E+03         9.86247         9.86247         8.58445         8.58445
            3129     1.06269E+03     1.06269E+03         7.78211         7.78211         9.43109         9.43109
            3130     1.06079E+03     1.06079E+03         6.06681         6.06681         10.2055         10.2055
            3131     1.05879E+03     1.05879E+03         4.65115         4.65115         10.9390         10.9390
            3132     1.05671E+03     1.05671E+03         3.47383         3.47383         11.6644         11.6644
            3133     1.05456E+03     1.05456E+03         2.47634         2.47634         12.4167         12.4167
            3134     1.05235E+03     1.05235E+03         1.60247         1.60247         13.2346         13.2346
            3135     1.05009E+03     1.05009E+03     796.755E-03     796.755E-03         14.1616         14.1616
            3136     1.04778E+03     1.04778E+03     2.94041E-03     2.94041E-03         15.2478         15.2478
            3137     1.04544E+03     1.04544E+03    -838.488E-03    -838.488E-03         16.5521         16.5521
            3138     1.04309E+03     1.04309E+03        -1.79399        -1.79399         18.1447         18.1447
            3139     1.04075E+03     1.04075E+03        -2.94183        -2.94183         20.1101         20.1101
            3140     1.03848E+03     1.03848E+03        -4.38080        -4.38080         22.5497         22.5497
            3141     1.03638E+03     1.03638E+03        -6.24042        -6.24042         25.5841         25.5841
            3142     1.03462E+03     1.03462E+03        -8.70151        -8.70151         29.3512         29.3512
            3143     1.03347E+03     1.03347E+03        -12.0163        -12.0163         33.9975         33.9975
            3144     1.03342E+03     1.03342E+03        -16.5521        -16.5521         39.6453         39.6453
            3145     1.03527E+03     1.03527E+03        -22.8072        -22.8072         46.3114         46.3114
            3146     1.04028E+03     1.04028E+03        -31.4219        -31.4219         53.6989         53.6989
            3147     1.05038E+03     1.05038E+03        -42.9514        -42.9514         60.8799         60.8799
            3148         993.194         993.194         289.271         289.271        -53.8442        -53.8442
            3149     1.00316E+03     1.00316E+03         265.573         265.573        -53.5884        -53.5884
            3150     1.01291E+03     1.01291E+03         241.850         241.850        -51.9918        -51.9918
            3151     1.02220E+03     1.02220E+03         218.548         218.548        -49.5875        -49.5875
            3152     1.03087E+03     1.03087E+03         195.982         195.982        -46.4606        -46.4606
            3153     1.03876E+03     1.03876E+03         174.434         174.434        -42.7146        -42.7146
            3154     1.04578E+03     1.04578E+03         154.138         154.138        -38.5044        -38.5044
            3155     1.05187E+03     1.05187E+03         135.261         135.261        -33.9854        -33.9854
            3156     1.05700E+03     1.05700E+03         117.912         117.912        -29.3217        -29.3217
            3157     1.06121E+03     1.06121E+03         102.135         102.135        -24.6597        -24.6597
            3158     1.06454E+03     1.06454E+03         87.9254         87.9254        -20.1225        -20.1225
            3159     1.06707E+03     1.06707E+03         75.2373         75.2373        -15.8103        -15.8103
            3160     1.06888E+03     1.06888E+03         63.9960         63.9960        -11.7892        -11.7892
            3161     1.07005E+03     1.07005E+03         54.1091         54.1091        -8.10669        -8.10669
            3162     1.07068E+03     1.07068E+03         45.4704         45.4704        -4.78080        -4.78080
            3163     1.07082E+03     1.07082E+03         37.9726         37.9726        -1.81809        -1.81809
            3164     1.07057E+03     1.07057E+03         31.5043         31.5043     794.304E-03     794.304E-03
            3165     1.06999E+03     1.06999E+03         25.9604         25.9604         3.07470         3.07470
            3166     1.06913E+03     1.06913E+03         21.2369         21.2369         5.05197         5.05197
            3167     1.06805E+03     1.06805E+03         17.2383         17.2383         6.75639         6.75639
            3168     1.06679E+03     1.06679E+03         13.8725         13.8725         8.22297         8.22297
            3169     1.06537E+03     1.06537E+03         11.0554         11.0554         9.48608         9.48608
            3170     1.06385E+03     1.06385E+03         8.70680         8.70680         10.5817         10.5817
            3171     1.06223E+03     1.06223E+03         6.75302         6.75302         11.5449         11.5449
            3172     1.06055E+03     1.06055E+03         5.12403         5.12403         12.4109         12.4109
            3173     1.05882E+03     1.05882E+03         3.75431         3.75431         13.2148         13.2148
            3174     1.05706E+03     1.05706E+03         2.58090         2.58090         13.9924         13.9924
            3175     1.05530E+03     1.05530E+03         1.54325         1.54325         14.7804         14.7804
            3176     1.05354E+03     1.05354E+03     581.419E-03     581.419E-03         15.6176         15.6176
            3177     1.05182E+03     1.05182E+03    -364.916E-03    -364.916E-03         16.5455         16.5455
            3178     1.05015E+03     1.05015E+03        -1.35865        -1.35865         17.6094         17.6094
            3179     1.04858E+03     1.04858E+03        -2.46765        -2.46765         18.8589         18.8589
            3180     1.04715E+03     1.04715E+03        -3.76801        -3.76801         20.3488         20.3488
            3181     1.04595E+03     1.04595E+03        -5.34909        -5.34909         22.1375         22.1375
            3182     1.04507E+03     1.04507E+03        -7.31864        -7.31864         24.2853         24.2853
            3183     1.04468E+03     1.04468E+03        -9.81245        -9.81245         26.8464         26.8464
            3184     1.04502E+03     1.04502E+03        -12.9999        -12.9999         29.8555         29.8555
            3185     1.04644E+03     1.04644E+03        -17.0967        -17.0967         33.2971         33.2971
            3186     1.04945E+03     1.04945E+03        -22.3505        -22.3505         37.0480         37.0480
            3187     1.05476E+03     1.05476E+03        -29.0165        -29.0165         40.7757         40.7757
            3188     1.06325E+03     1.06325E+03        -37.1783        -37.1783         43.7734         43.7734
            3189     1.07585E+03     1.07585E+03        -46.4832        -46.4832         44.7649         44.7649
            3190     1.09380E+03     1.09380E+03        -38.5768        -38.5768        -17.3199        -17.3199
            3191     1.08433E+03     1.08433E+03        -35.2615        -35.2615        -22.1221        -22.1221
            3192     1.07603E+03     1.07603E+03        -30.7689        -30.7689        -24.8289        -24.8289
            3193     1.06925E+03     1.06925E+03        -25.9861        -25.9861        -25.9227        -25.9227
            3194     1.06400E+03     1.06400E+03        -21.4540        -21.4540        -25.9608        -25.9608
            3195     1.06012E+03     1.06012E+03        -17.4170        -17.4170        -25.3809        -25.3809
            3196     1.05740E+03     1.05740E+03        -13.9487        -13.9487        -24.4945        -24.4945
            3197     1.05559E+03     1.05559E+03        -11.0275        -11.0275        -23.4941        -23.4941
            3198     1.05451E+03     1.05451E+03        -8.59449        -8.59449        -22.4916        -22.4916
            3199     1.05400E+03     1.05400E+03        -6.57475        -6.57475        -21.5431        -21.5431
            3200     1.05392E+03     1.05392E+03        -4.89161        -4.89161        -20.6709        -20.6709
            3201     1.05417E+03     1.05417E+03        -3.47040        -3.47040        -19.8753        -19.8753
            3202     1.05469E+03     1.05469E+03        -2.24068        -2.24068        -19.1442        -19.1442
            3203     1.05540E+03     1.05540E+03        -1.13594        -1.13594        -18.4576        -18.4576
            3204     1.05627E+03     1.05627E+03    -92.7918E-03    -92.7918E-03        -17.7907        -17.7907
            3205     1.05726E+03     1.05726E+03     949.678E-03     949.678E-03        -17.1158        -17.1158
            3206     1.05833E+03     1.05833E+03         2.05167         2.05167        -16.4029        -16.4029
            3207     1.05947E+03     1.05947E+03         3.27275         3.27275        -15.6196        -15.6196
            3208     1.06065E+03     1.06065E+03         4.67436         4.67436        -14.7314        -14.7314
            3209     1.06186E+03     1.06186E+03         6.31903         6.31903        -13.7014        -13.7014
            3210     1.06308E+03     1.06308E+03         8.27399         8.27399        -12.4899        -12.4899
            3211     1.06428E+03     1.06428E+03         10.6090         10.6090        -11.0546        -11.0546
            3212     1.06544E+03     1.06544E+03         13.4020         13.4020        -9.35022        -9.35022
            3213     1.06654E+03     1.06654E+03         16.7347         16.7347        -7.32952        -7.32952
            3214     1.06755E+03     1.06755E+03         20.7008         20.7008        -4.94242        -4.94242
            3215     1.06841E+03     1.06841E+03         25.3988         25.3988        -2.14037        -2.14037
            3216     1.06909E+03     1.06909E+03         30.9442         30.9442         1.12674         1.12674
            3217     1.06953E+03     1.06953E+03         37.4561         37.4561         4.89993         4.89993
            3218     1.06963E+03     1.06963E+03         45.0755         45.0755         9.21842         9.21842
            3219     1.06932E+03     1.06932E+03         53.9432         53.9432         14.0977         14.0977
            3220     1.06849E+03     1.06849E+03         64.2216         64.2216         19.5450         19.5450
            3221     1.06701E+03     1.06701E+03         76.0640         76.0640         25.5209         25.5209
            3222     1.06476E+03     1.06476E+03         89.6285         89.6285         31.9670         31.9670
            3223     1.06157E+03     1.06157E+03         105.048         105.048         38.7535         38.7535
            3224     1.05735E+03     1.05735E+03         122.413         122.413         45.7186         45.7186
            3225     1.05196E+03     1.05196E+03         141.761         141.761         52.6289         52.6289
            3226     1.04538E+03     1.04538E+03         163.020         163.020         59.2118         59.2118
            3227     1.03759E+03     1.03759E+03         186.034         186.034         65.1827         65.1827
            3228     1.02871E+03     1.02871E+03         210.499         210.499         70.2344         70.2344
            3229     1.01892E+03     1.01892E+03         236.022         236.022         74.1590         74.1590
            3230     1.00845E+03     1.00845E+03         262.120         262.120         76.7620         76.7620
            3231         997.659         997.659         288.148         288.148         77.2740         77.2740
            3232     1.09406E+03     1.09406E+03        -32.4971        -32.4971        -8.64340        -8.64340
            3233     1.08668E+03     1.08668E+03        -31.1641        -31.1641        -14.0412        -14.0412
            3234     1.07976E+03     1.07976E+03        -28.3816        -28.3816        -17.7989        -17.7989
            3235     1.07366E+03     1.07366E+03        -24.8714        -24.8714        -20.1686        -20.1686
            3236     1.06857E+03     1.06857E+03        -21.1870        -21.1870        -21.4638        -21.4638
            3237     1.06451E+03     1.06451E+03        -17.6637        -17.6637        -22.0118        -22.0118
            3238     1.06139E+03     1.06139E+03        -14.4729        -14.4729        -22.0760        -22.0760
            3239     1.05909E+03     1.05909E+03        -11.6792        -11.6792        -21.8527        -21.8527
            3240     1.05747E+03     1.05747E+03        -9.28340        -9.28340        -21.4724        -21.4724
            3241     1.05642E+03     1.05642E+03        -7.25330        -7.25330        -21.0172        -21.0172
            3242     1.05582E+03     1.05582E+03        -5.53933        -5.53933        -20.5334        -20.5334
            3243     1.05558E+03     1.05558E+03        -4.08495        -4.08495        -20.0431        -20.0431
            3244     1.05563E+03     1.05563E+03        -2.83102        -2.83102        -19.5516        -19.5516
            3245     1.05591E+03     1.05591E+03        -1.71840        -1.71840        -19.0534        -19.0534
            3246     1.05638E+03     1.05638E+03    -688.894E-03    -688.894E-03        -18.5347        -18.5347
            3247     1.05700E+03     1.05700E+03     314.987E-03     314.987E-03        -17.9765        -17.9765
            3248     1.05774E+03     1.05774E+03         1.34981         1.34981        -17.3548        -17.3548
            3249     1.05858E+03     1.05858E+03         2.47284         2.47284        -16.6420        -16.6420
            3250     1.05949E+03     1.05949E+03         3.74153         3.74153        -15.8063        -15.8063
            3251     1.06047E+03     1.06047E+03         5.21641         5.21641        -14.8121        -14.8121
            3252     1.06150E+03     1.06150E+03         6.95965         6.95965        -13.6201        -13.6201
            3253     1.06256E+03     1.06256E+03         9.03970         9.03970        -12.1861        -12.1861
            3254     1.06363E+03     1.06363E+03         11.5282         11.5282        -10.4625        -10.4625
            3255     1.06470E+03     1.06470E+03         14.5075         14.5075        -8.39663        -8.39663
            3256     1.06575E+03     1.06575E+03         18.0644         18.0644        -5.93356        -5.93356
            3257     1.06673E+03     1.06673E+03         22.3028         22.3028        -3.01379        -3.01379
            3258     1.06761E+03     1.06761E+03         27.3316         27.3316     419.945E-03     419.945E-03
            3259     1.06834E+03     1.06834E+03         33.2851         33.2851         4.42801         4.42801
            3260     1.06883E+03     1.06883E+03         40.3012         40.3012         9.05739         9.05739
            3261     1.06901E+03     1.06901E+03         48.5519         48.5519         14.3546         14.3546
            3262     1.06875E+03     1.06875E+03         58.2077         58.2077         20.3301         20.3301
            3263     1.06792E+03     1.06792E+03         69.4738         69.4738         26.9863         26.9863
            3264     1.06636E+03     1.06636E+03         82.5421         82.5421         34.2529         34.2529
            3265     1.06390E+03     1.06390E+03         97.6110         97.6110         42.0364         42.0364
            3266     1.06032E+03     1.06032E+03         114.841         114.841         50.1345         50.1345
            3267     1.05552E+03     1.05552E+03         134.319         134.319         58.3004         58.3004
            3268     1.04933E+03     1.04933E+03         156.054         156.054         66.1958         66.1958
            3269     1.04175E+03     1.04175E+03         179.870         179.870         73.4285         73.4285
            3270     1.03284E+03     1.03284E+03         205.478         205.478         79.6393         79.6393
            3271     1.02279E+03     1.02279E+03         232.383         232.383         84.4492         84.4492
            3272     1.01192E+03     1.01192E+03         259.985         259.985         87.6782         87.6782
            3273     1.00059E+03     1.00059E+03         287.519         287.519         88.3406         88.3406
            3274     1.09200E+03     1.09200E+03        -26.3927        -26.3927        -2.27515        -2.27515
            3275     1.08655E+03     1.08655E+03        -26.5287        -26.5287        -7.66156        -7.66156
            3276     1.08105E+03     1.08105E+03        -25.0797        -25.0797        -11.8535        -11.8535
            3277     1.07589E+03     1.07589E+03        -22.7063        -22.7063        -14.9431        -14.9431
            3278     1.07130E+03     1.07130E+03        -19.8903        -19.8903        -17.0893        -17.0893
            3279     1.06740E+03     1.06740E+03        -16.9846        -16.9846        -18.4892        -18.4892
            3280     1.06420E+03     1.06420E+03        -14.2068        -14.2068        -19.3390        -19.3390
            3281     1.06166E+03     1.06166E+03        -11.6752        -11.6752        -19.8010        -19.8010
            3282     1.05972E+03     1.05972E+03        -9.43884        -9.43884        -20.0006        -20.0006
            3283     1.05829E+03     1.05829E+03        -7.50215        -7.50215        -20.0256        -20.0256
            3284     1.05728E+03     1.05728E+03        -5.84332        -5.84332        -19.9350        -19.9350
            3285     1.05663E+03     1.05663E+03        -4.42515        -4.42515        -19.7642        -19.7642
            3286     1.05627E+03     1.05627E+03        -3.20236        -3.20236        -19.5319        -19.5319
            3287     1.05615E+03     1.05615E+03        -2.12572        -2.12572        -19.2442        -19.2442
            3288     1.05624E+03     1.05624E+03        -1.14419        -1.14419        -18.8975        -18.8975
            3289     1.05649E+03     1.05649E+03    -206.327E-03    -206.327E-03        -18.4810        -18.4810
            3290     1.05688E+03     1.05688E+03     739.972E-03     739.972E-03        -17.9774        -17.9774
            3291     1.05739E+03     1.05739E+03         1.74677         1.74677        -17.3641        -17.3641
            3292     1.05801E+03     1.05801E+03         2.86796         2.86796        -16.6133        -16.6133
            3293     1.05872E+03     1.05872E+03         4.15823         4.15823        -15.6917        -15.6917
            3294     1.05952E+03     1.05952E+03         5.67668         5.67668        -14.5608        -14.5608
            3295     1.06040E+03     1.06040E+03         7.48456         7.48456        -13.1767        -13.1767
            3296     1.06135E+03     1.06135E+03         9.65160         9.65160        -11.4893        -11.4893
            3297     1.06235E+03     1.06235E+03         12.2512         12.2512        -9.44336        -9.44336
            3298     1.06340E+03     1.06340E+03         15.3716         15.3716        -6.97701        -6.97701
            3299     1.06446E+03     1.06446E+03         19.1058         19.1058        -4.02492        -4.02492
            3300     1.06552E+03     1.06552E+03         23.5713         23.5713    -515.179E-03    -515.179E-03
            3301     1.06653E+03     1.06653E+03         28.8908         28.8908         3.62142         3.62142
            3302     1.06743E+03     1.06743E+03         35.2252         35.2252         8.45973         8.45973
            3303     1.06813E+03     1.06813E+03         42.7384         42.7384         14.0557         14.0557
            3304     1.06852E+03     1.06852E+03         51.6482         51.6482         20.4677         20.4677
            3305     1.06846E+03     1.06846E+03         62.1678         62.1678         27.6999         27.6999
            3306     1.06776E+03     1.06776E+03         74.5679         74.5679         35.7505         35.7505
            3307     1.06620E+03     1.06620E+03         89.0974         89.0974         44.5014         44.5014
            3308     1.06356E+03     1.06356E+03         106.011         106.011         53.8073         53.8073
            3309     1.05954E+03     1.05954E+03         125.508         125.508         63.3528         63.3528
            3310     1.05401E+03     1.05401E+03         147.644         147.644         72.7581         72.7581
            3311     1.04679E+03     1.04679E+03         172.355         172.355         81.5385         81.5385
            3312     1.03796E+03     1.03796E+03         199.276         199.276         89.1335         89.1335
            3313     1.02769E+03     1.02769E+03         227.873         227.873         95.1286         95.1286
            3314     1.01632E+03     1.01632E+03         257.370         257.370         99.0923         99.0923
            3315     1.00442E+03     1.00442E+03         286.749         286.749         100.017         100.017
            3316     1.08867E+03     1.08867E+03        -20.7973        -20.7973         2.10549         2.10549
            3317     1.08487E+03     1.08487E+03        -21.8490        -21.8490        -2.83998        -2.83998
            3318     1.08068E+03     1.08068E+03        -21.3829        -21.3829        -7.05499        -7.05499
            3319     1.07649E+03     1.07649E+03        -19.9191        -19.9191        -10.4631        -10.4631
            3320     1.07256E+03     1.07256E+03        -17.8847        -17.8847        -13.1099        -13.1099
            3321     1.06902E+03     1.06902E+03        -15.5985        -15.5985        -15.0929        -15.0929
            3322     1.06596E+03     1.06596E+03        -13.2888        -13.2888        -16.5328        -16.5328
            3323     1.06339E+03     1.06339E+03        -11.0980        -11.0980        -17.5488        -17.5488
            3324     1.06129E+03     1.06129E+03        -9.10483        -9.10483        -18.2430        -18.2430
            3325     1.05961E+03     1.05961E+03        -7.34125        -7.34125        -18.6967        -18.6967
            3326     1.05830E+03     1.05830E+03        -5.80810        -5.80810        -18.9699        -18.9699
            3327     1.05731E+03     1.05731E+03        -4.48622        -4.48622        -19.1046        -19.1046
            3328     1.05659E+03     1.05659E+03        -3.34419        -3.34419        -19.1275        -19.1275
            3329     1.05610E+03     1.05610E+03        -2.34344        -2.34344        -19.0533        -19.0533
            3330     1.05581E+03     1.05581E+03        -1.44161        -1.44161        -18.8867        -18.8867
            3331     1.05569E+03     1.05569E+03    -594.034E-03    -594.034E-03        -18.6243        -18.6243
            3332     1.05572E+03     1.05572E+03     244.725E-03     244.725E-03        -18.2552        -18.2552
            3333     1.05589E+03     1.05589E+03         1.12157         1.12157        -17.7623        -17.7623
            3334     1.05618E+03     1.05618E+03         2.08384         2.08384        -17.1217        -17.1217
            3335     1.05659E+03     1.05659E+03         3.18167         3.18167        -16.3037        -16.3037
            3336     1.05711E+03     1.05711E+03         4.46650         4.46650        -15.2718        -15.2718
            3337     1.05776E+03     1.05776E+03         5.99565         5.99565        -13.9829        -13.9829
            3338     1.05852E+03     1.05852E+03         7.82916         7.82916        -12.3865        -12.3865
            3339     1.05940E+03     1.05940E+03         10.0382         10.0382        -10.4250        -10.4250
            3340     1.06039E+03     1.06039E+03         12.6984         12.6984        -8.03316        -8.03316
            3341     1.06149E+03     1.06149E+03         15.9052         15.9052        -5.13722        -5.13722
            3342     1.06268E+03     1.06268E+03         19.7595         19.7595        -1.65805        -1.65805
            3343     1.06394E+03     1.06394E+03         24.3969         24.3969         2.49302         2.49302
            3344     1.06523E+03     1.06523E+03         29.9584         29.9584         7.40217         7.40217
            3345     1.06647E+03     1.06647E+03         36.6424         36.6424         13.1657         13.1657
            3346     1.06756E+03     1.06756E+03         44.6482         44.6482         19.8539         19.8539
            3347     1.06837E+03     1.06837E+03         54.2621         54.2621         27.5465         27.5465
            3348     1.06869E+03     1.06869E+03         65.7595         65.7595         36.2392         36.2392
            3349     1.06829E+03     1.06829E+03         79.5121         79.5121         45.9297         45.9297
            3350     1.06682E+03     1.06682E+03         95.8566         95.8566         56.4236         56.4236
            3351     1.06401E+03     1.06401E+03         115.126         115.126         67.4927         67.4927
            3352     1.05941E+03     1.05941E+03         137.564         137.564         78.6394         78.6394
            3353     1.05291E+03     1.05291E+03         163.129         163.129         89.2642         89.2642
            3354     1.04432E+03     1.04432E+03         191.595         191.595         98.6876         98.6876
            3355     1.03389E+03     1.03389E+03         222.233         222.233         106.123         106.123
            3356     1.02204E+03     1.02204E+03         254.091         254.091         111.173         111.173
            3357     1.00932E+03     1.00932E+03         285.871         285.871         112.387         112.387
            3358     1.08484E+03     1.08484E+03        -15.9759        -15.9759         4.94688         4.94688
            3359     1.08231E+03     1.08231E+03        -17.4643        -17.4643     626.294E-03     626.294E-03
            3360     1.07926E+03     1.07926E+03        -17.6295        -17.6295        -3.33771        -3.33771
            3361     1.07600E+03     1.07600E+03        -16.8447        -16.8447        -6.78361        -6.78361
            3362     1.07275E+03     1.07275E+03        -15.4502        -15.4502        -9.65996        -9.65996
            3363     1.06968E+03     1.06968E+03        -13.7259        -13.7259        -11.9889        -11.9889
            3364     1.06688E+03     1.06688E+03        -11.8808        -11.8808        -13.8280        -13.8280
            3365     1.06441E+03     1.06441E+03        -10.0616        -10.0616        -15.2506        -15.2506
            3366     1.06227E+03     1.06227E+03        -8.35904        -8.35904        -16.3310        -16.3310
            3367     1.06044E+03     1.06044E+03        -6.82155        -6.82155        -17.1351        -17.1351
            3368     1.05891E+03     1.05891E+03        -5.46583        -5.46583        -17.7173        -17.7173
            3369     1.05765E+03     1.05765E+03        -4.28701        -4.28701        -18.1200        -18.1200
            3370     1.05661E+03     1.05661E+03        -3.26577        -3.26577        -18.3735        -18.3735
            3371     1.05577E+03     1.05577E+03        -2.37388        -2.37388        -18.4981        -18.4981
            3372     1.05512E+03     1.05512E+03        -1.57751        -1.57751        -18.5047        -18.5047
            3373     1.05462E+03     1.05462E+03    -839.953E-03    -839.953E-03        -18.3958        -18.3958
            3374     1.05427E+03     1.05427E+03    -122.311E-03    -122.311E-03        -18.1667        -18.1667
            3375     1.05406E+03     1.05406E+03     615.088E-03     615.088E-03        -17.8050        -17.8050
            3376     1.05398E+03     1.05398E+03         1.41385         1.41385        -17.2920        -17.2920
            3377     1.05404E+03     1.05404E+03         2.31626         2.31626        -16.6012        -16.6012
            3378     1.05424E+03     1.05424E+03         3.36842         3.36842        -15.6996        -15.6996
            3379     1.05458E+03     1.05458E+03         4.61802         4.61802        -14.5458        -14.5458
            3380     1.05509E+03     1.05509E+03         6.12046         6.12046        -13.0908        -13.0908
            3381     1.05577E+03     1.05577E+03         7.93419         7.93419        -11.2762        -11.2762
            3382     1.05663E+03     1.05663E+03         10.1323         10.1323        -9.03464        -9.03464
            3383     1.05769E+03     1.05769E+03         12.7925         12.7925        -6.28834        -6.28834
            3384     1.05894E+03     1.05894E+03         16.0196         16.0196        -2.94860        -2.94860
            3385     1.06038E+03     1.06038E+03         19.9239         19.9239         1.08236         1.08236
            3386     1.06200E+03     1.06200E+03         24.6650         24.6650         5.91599         5.91599
            3387     1.06375E+03     1.06375E+03         30.4067         30.4067         11.6635         11.6635
            3388     1.06555E+03     1.06555E+03         37.4004         37.4004         18.4538         18.4538
            3389     1.06730E+03     1.06730E+03         45.8937         45.8937         26.3815         26.3815
            3390     1.06880E+03     1.06880E+03         56.2766         56.2766         35.5643         35.5643
            3391     1.06978E+03     1.06978E+03         68.9157         68.9157         45.9891         45.9891
            3392     1.06992E+03     1.06992E+03         84.3462         84.3462         57.6639         57.6639
            3393     1.06865E+03     1.06865E+03         103.046         103.046         70.2621         70.2621
            3394     1.06563E+03     1.06563E+03         125.447         125.447         83.4133         83.4133
            3395     1.06019E+03     1.06019E+03         151.838         151.838         96.3147         96.3147
            3396     1.05230E+03     1.05230E+03         181.916         181.916         107.988         107.988
            3397     1.04187E+03     1.04187E+03         215.077         215.077         117.531         117.531
            3398     1.02942E+03     1.02942E+03         249.950         249.950         123.888         123.888
            3399     1.01596E+03     1.01596E+03         284.742         284.742         125.704         125.704
            3400     1.08096E+03     1.08096E+03        -11.9671        -11.9671         6.65976         6.65976
            3401     1.07939E+03     1.07939E+03        -13.5485        -13.5485         2.99742         2.99742
            3402     1.07727E+03     1.07727E+03        -14.0483        -14.0483    -580.289E-03    -580.289E-03
            3403     1.07483E+03     1.07483E+03        -13.7192        -13.7192        -3.87428        -3.87428
            3404     1.07225E+03     1.07225E+03        -12.8159        -12.8159        -6.78020        -6.78020
            3405     1.06967E+03     1.06967E+03        -11.5640        -11.5640        -9.26112        -9.26112
            3406     1.06719E+03     1.06719E+03        -10.1453        -10.1453        -11.3263        -11.3263
            3407     1.06489E+03     1.06489E+03        -8.69318        -8.69318        -13.0099        -13.0099
            3408     1.06278E+03     1.06278E+03        -7.29867        -7.29867        -14.3580        -14.3580
            3409     1.06089E+03     1.06089E+03        -6.01564        -6.01564        -15.4189        -15.4189
            3410     1.05919E+03     1.05919E+03        -4.86981        -4.86981        -16.2377        -16.2377
            3411     1.05769E+03     1.05769E+03        -3.86581        -3.86581        -16.8531        -16.8531
            3412     1.05637E+03     1.05637E+03        -2.99387        -2.99387        -17.2960        -17.2960
            3413     1.05520E+03     1.05520E+03        -2.23440        -2.23440        -17.5893        -17.5893
            3414     1.05418E+03     1.05418E+03        -1.56194        -1.56194        -17.7482        -17.7482
            3415     1.05329E+03     1.05329E+03    -947.074E-03    -947.074E-03        -17.7801        -17.7801
            3416     1.05253E+03     1.05253E+03    -358.517E-03    -358.517E-03        -17.6849        -17.6849
            3417     1.05191E+03     1.05191E+03     236.894E-03     236.894E-03        -17.4556        -17.4556
            3418     1.05142E+03     1.05142E+03     872.943E-03     872.943E-03        -17.0775        -17.0775
            3419     1.05107E+03     1.05107E+03         1.58573         1.58573        -16.5291        -16.5291
            3420     1.05087E+03     1.05087E+03         2.41222         2.41222        -15.7804        -15.7804
            3421     1.05085E+03     1.05085E+03         3.39408         3.39408        -14.7941        -14.7941
            3422     1.05103E+03     1.05103E+03         4.57492         4.57492        -13.5231        -13.5231
            3423     1.05141E+03     1.05141E+03         6.00783         6.00783        -11.9114        -11.9114
            3424     1.05205E+03     1.05205E+03         7.74930         7.74930        -9.89119        -9.89119
            3425     1.05295E+03     1.05295E+03         9.87437         9.87437        -7.38390        -7.38390
            3426     1.05415E+03     1.05415E+03         12.4628         12.4628        -4.29619        -4.29619
            3427     1.05566E+03     1.05566E+03         15.6304         15.6304    -520.748E-03    -520.748E-03
            3428     1.05751E+03     1.05751E+03         19.4977         19.4977         4.06548         4.06548
            3429     1.05968E+03     1.05968E+03         24.2554         24.2554         9.60484         9.60484
            3430     1.06214E+03     1.06214E+03         30.0945         30.0945         16.2465         16.2465
            3431     1.06483E+03     1.06483E+03         37.3414         37.3414         24.1692         24.1692
            3432     1.06759E+03     1.06759E+03         46.3067         46.3067         33.5110         33.5110
            3433     1.07019E+03     1.07019E+03         57.5432         57.5432         44.4592         44.4592
            3434     1.07224E+03     1.07224E+03         71.5526         71.5526         56.9947         56.9947
            3435     1.07324E+03     1.07324E+03         89.1510         89.1510         71.1655         71.1655
            3436     1.07230E+03     1.07230E+03         111.058         111.058         86.3974         86.3974
            3437     1.06896E+03     1.06896E+03         137.808         137.808         102.044         102.044
            3438     1.06218E+03     1.06218E+03         169.688         169.688         116.786         116.786
            3439     1.05222E+03     1.05222E+03         205.736         205.736         128.973         128.973
            3440     1.03938E+03     1.03938E+03         244.502         244.502         137.565         137.565
            3441     1.02462E+03     1.02462E+03         283.419         283.419         140.036         140.036
            3442     1.07726E+03     1.07726E+03        -8.70525        -8.70525         7.54818         7.54818
            3443     1.07643E+03     1.07643E+03        -10.1549        -10.1549         4.50133         4.50133
            3444     1.07508E+03     1.07508E+03        -10.7691        -10.7691         1.36174         1.36174
            3445     1.07334E+03     1.07334E+03        -10.7091        -10.7091        -1.66852        -1.66852
            3446     1.07137E+03     1.07137E+03        -10.1562        -10.1562        -4.45836        -4.45836
            3447     1.06927E+03     1.06927E+03        -9.28220        -9.28220        -6.93708        -6.93708
            3448     1.06713E+03     1.06713E+03        -8.23281        -8.23281        -9.07797        -9.07797
            3449     1.06503E+03     1.06503E+03        -7.12186        -7.12186        -10.8853        -10.8853
            3450     1.06300E+03     1.06300E+03        -6.03007        -6.03007        -12.3814        -12.3814
            3451     1.06107E+03     1.06107E+03        -5.00953        -5.00953        -13.5979        -13.5979
            3452     1.05925E+03     1.05925E+03        -4.08823        -4.08823        -14.5697        -14.5697
            3453     1.05753E+03     1.05753E+03        -3.27603        -3.27603        -15.3300        -15.3300
            3454     1.05593E+03     1.05593E+03        -2.56939        -2.56939        -15.9079        -15.9079
            3455     1.05443E+03     1.05443E+03        -1.95582        -1.95582        -16.3274        -16.3274
            3456     1.05303E+03     1.05303E+03        -1.41671        -1.41671        -16.6060        -16.6060
            3457     1.05173E+03     1.05173E+03    -929.954E-03    -929.954E-03        -16.7545        -16.7545
            3458     1.05054E+03     1.05054E+03    -470.961E-03    -470.961E-03        -16.7770        -16.7770
            3459     1.04946E+03     1.04946E+03    -14.0872E-03    -14.0872E-03        -16.6706        -16.6706
            3460     1.04850E+03     1.04850E+03     467.927E-03     467.927E-03        -16.4254        -16.4254
            3461     1.04769E+03     1.04769E+03         1.00282         1.00282        -16.0238        -16.0238
            3462     1.04703E+03     1.04703E+03         1.62096         1.62096        -15.4411        -15.4411
            3463     1.04655E+03     1.04655E+03         2.35373         2.35373        -14.6434        -14.6434
            3464     1.04629E+03     1.04629E+03         3.23800         3.23800        -13.5889        -13.5889
            3465     1.04628E+03     1.04628E+03         4.31277         4.31277        -12.2245        -12.2245
            3466     1.04656E+03     1.04656E+03         5.62827         5.62827        -10.4871        -10.4871
            3467     1.04717E+03     1.04717E+03         7.23826         7.23826        -8.29834        -8.29834
            3468     1.04817E+03     1.04817E+03         9.21909         9.21909        -5.56750        -5.56750
            3469     1.04959E+03     1.04959E+03         11.6518         11.6518        -2.18224        -2.18224
            3470     1.05150E+03     1.05150E+03         14.6636         14.6636         1.98679         1.98679
            3471     1.05394E+03     1.05394E+03         18.3852         18.3852         7.09695         7.09695
            3472     1.05691E+03     1.05691E+03         23.0449         23.0449         13.3317         13.3317
            3473     1.06044E+03     1.06044E+03         28.8646         28.8646         20.8988         20.8988
            3474     1.06443E+03     1.06443E+03         36.2742         36.2742         30.0531         30.0531
            3475     1.06875E+03     1.06875E+03         45.6652         45.6652         41.0130         41.0130
            3476     1.07308E+03     1.07308E+03         57.8516         57.8516         54.0949         54.0949
            3477     1.07684E+03     1.07684E+03         73.5375         73.5375         69.2912         69.2912
            3478     1.07927E+03     1.07927E+03         94.0651         94.0651         86.7726         86.7726
            3479     1.07875E+03     1.07875E+03         120.608         120.608         105.451         105.451
            3480     1.07476E+03     1.07476E+03         153.697         153.697         124.071         124.071
            3481     1.06578E+03     1.06578E+03         193.369         193.369         140.460         140.460
            3482     1.05269E+03     1.05269E+03         237.112         237.112         151.808         151.808
            3483     1.03709E+03     1.03709E+03         281.471         281.471         155.969         155.969
            3484     1.07388E+03     1.07388E+03        -6.08494        -6.08494         7.80400         7.80400
            3485     1.07365E+03     1.07365E+03        -7.27560        -7.27560         5.30365         5.30365
            3486     1.07294E+03     1.07294E+03        -7.85607        -7.85607         2.61000         2.61000
            3487     1.07183E+03     1.07183E+03        -7.92560        -7.92560    -89.4381E-03    -89.4381E-03
            3488     1.07040E+03     1.07040E+03        -7.60619        -7.60619        -2.65863        -2.65863
            3489     1.06875E+03     1.06875E+03        -7.02110        -7.02110        -5.00962        -5.00962
            3490     1.06694E+03     1.06694E+03        -6.28011        -6.28011        -7.09532        -7.09532
            3491     1.06505E+03     1.06505E+03        -5.47198        -5.47198        -8.89909        -8.89909
            3492     1.06310E+03     1.06310E+03        -4.66274        -4.66274        -10.4259        -10.4259
            3493     1.06115E+03     1.06115E+03        -3.89653        -3.89653        -11.6941        -11.6941
            3494     1.05920E+03     1.05920E+03        -3.19920        -3.19920        -12.7289        -12.7289
            3495     1.05727E+03     1.05727E+03        -2.58176        -2.58176        -13.5579        -13.5579
            3496     1.05538E+03     1.05538E+03        -2.04439        -2.04439        -14.2075        -14.2075
            3497     1.05353E+03     1.05353E+03        -1.57944        -1.57944        -14.7011        -14.7011
            3498     1.05174E+03     1.05174E+03        -1.17425        -1.17425        -15.0573        -15.0573
            3499     1.05000E+03     1.05000E+03    -812.744E-03    -812.744E-03        -15.2890        -15.2890
            3500     1.04833E+03     1.04833E+03    -477.100E-03    -477.100E-03        -15.4033        -15.4033
            3501     1.04675E+03     1.04675E+03    -147.985E-03    -147.985E-03        -15.4009        -15.4009
            3502     1.04527E+03     1.04527E+03     194.401E-03     194.401E-03        -15.2758        -15.2758
            3503     1.04392E+03     1.04392E+03     571.307E-03     571.307E-03        -15.0154        -15.0154
            3504     1.04271E+03     1.04271E+03         1.00439         1.00439        -14.5990        -14.5990
            3505     1.04169E+03     1.04169E+03         1.51814         1.51814        -13.9993        -13.9993
            3506     1.04089E+03     1.04089E+03         2.13813         2.13813        -13.1789        -13.1789
            3507     1.04035E+03     1.04035E+03         2.89593         2.89593        -12.0923        -12.0923
            3508     1.04013E+03     1.04013E+03         3.82535         3.82535        -10.6807        -10.6807
            3509     1.04029E+03     1.04029E+03         4.97248         4.97248        -8.87515        -8.87515
            3510     1.04090E+03     1.04090E+03         6.38719         6.38719        -6.58647        -6.58647
            3511     1.04203E+03     1.04203E+03         8.14508         8.14508        -3.71227        -3.71227
            3512     1.04377E+03     1.04377E+03         10.3265         10.3265    -118.074E-03    -118.074E-03
            3513     1.04621E+03     1.04621E+03         13.0680         13.0680         4.34962         4.34962
            3514     1.04945E+03     1.04945E+03         16.5084         16.5084         9.89406         9.89406
            3515     1.05355E+03     1.05355E+03         20.9167         20.9167         16.7505         16.7505
            3516     1.05859E+03     1.05859E+03         26.5457         26.5457         25.2180         25.2180
            3517     1.06451E+03     1.06451E+03         33.9643         33.9643         35.6642         35.6642
            3518     1.07121E+03     1.07121E+03         43.6596         43.6596         48.4618         48.4618
            3519     1.07827E+03     1.07827E+03         56.8763         56.8763         64.1670         64.1670
            3520     1.08490E+03     1.08490E+03         74.6159         74.6159         82.8553         82.8553
            3521     1.08976E+03     1.08976E+03         99.3212         99.3212         105.058         105.058
            3522     1.08960E+03     1.08960E+03         133.114         133.114         128.497         128.497
            3523     1.08414E+03     1.08414E+03         175.916         175.916         150.377         150.377
            3524     1.07158E+03     1.07158E+03         226.549         226.549         167.334         167.334
            3525     1.05402E+03     1.05402E+03         278.922         278.922         173.297         173.297
            3526     1.07089E+03     1.07089E+03        -4.00355        -4.00355         7.51554         7.51554
            3527     1.07122E+03     1.07122E+03        -4.87993        -4.87993         5.49839         5.49839
            3528     1.07109E+03     1.07109E+03        -5.34199        -5.34199         3.24716         3.24716
            3529     1.07054E+03     1.07054E+03        -5.44725        -5.44725     925.939E-03     925.939E-03
            3530     1.06962E+03     1.06962E+03        -5.27341        -5.27341        -1.33744        -1.33744
            3531     1.06837E+03     1.06837E+03        -4.90277        -4.90277        -3.45286        -3.45286
            3532     1.06687E+03     1.06687E+03        -4.41146        -4.41146        -5.36439        -5.36439
            3533     1.06515E+03     1.06515E+03        -3.86304        -3.86304        -7.04474        -7.04474
            3534     1.06328E+03     1.06328E+03        -3.30587        -3.30587        -8.48794        -8.48794
            3535     1.06128E+03     1.06128E+03        -2.77357        -2.77357        -9.70295        -9.70295
            3536     1.05919E+03     1.05919E+03        -2.28643        -2.28643        -10.7077        -10.7077
            3537     1.05703E+03     1.05703E+03        -1.85421        -1.85421        -11.5247        -11.5247
            3538     1.05483E+03     1.05483E+03        -1.47837        -1.47837        -12.1770        -12.1770
            3539     1.05260E+03     1.05260E+03        -1.15469        -1.15469        -12.6864        -12.6864
            3540     1.05038E+03     1.05038E+03    -874.887E-03    -874.887E-03        -13.0712        -13.0712
            3541     1.04816E+03     1.04816E+03    -628.331E-03    -628.331E-03        -13.3453        -13.3453
            3542     1.04597E+03     1.04597E+03    -402.703E-03    -402.703E-03        -13.5176        -13.5176
            3543     1.04383E+03     1.04383E+03    -185.019E-03    -185.019E-03        -13.5914        -13.5914
            3544     1.04177E+03     1.04177E+03     38.6185E-03     38.6185E-03        -13.5644        -13.5644
            3545     1.03980E+03     1.03980E+03     282.272E-03     282.272E-03        -13.4275        -13.4275
            3546     1.03797E+03     1.03797E+03     561.310E-03     561.310E-03        -13.1662        -13.1662
            3547     1.03630E+03     1.03630E+03     891.512E-03     891.512E-03        -12.7579        -12.7579
            3548     1.03484E+03     1.03484E+03         1.29139         1.29139        -12.1736        -12.1736
            3549     1.03364E+03     1.03364E+03         1.78068         1.78068        -11.3739        -11.3739
            3550     1.03276E+03     1.03276E+03         2.38477         2.38477        -10.3120        -10.3120
            3551     1.03228E+03     1.03228E+03         3.13170         3.13170        -8.92511        -8.92511
            3552     1.03228E+03     1.03228E+03         4.06122         4.06122        -7.14130        -7.14130
            3553     1.03286E+03     1.03286E+03         5.21781         5.21781        -4.86205        -4.86205
            3554     1.03414E+03     1.03414E+03         6.67166         6.67166        -1.97667        -1.97667
            3555     1.03626E+03     1.03626E+03         8.49964         8.49964         1.67292         1.67292
            3556     1.03937E+03     1.03937E+03         10.8400         10.8400         6.26226         6.26226
            3557     1.04365E+03     1.04365E+03         13.8347         13.8347         12.0531         12.0531
            3558     1.04925E+03     1.04925E+03         17.7869         17.7869         19.3385         19.3385
            3559     1.05640E+03     1.05640E+03         22.9744         22.9744         28.5573         28.5573
            3560     1.06512E+03     1.06512E+03         30.1350         30.1350         40.2323         40.2323
            3561     1.07553E+03     1.07553E+03         39.8533         39.8533         55.0387         55.0387
            3562     1.08705E+03     1.08705E+03         54.0855         54.0855         73.9651         73.9651
            3563     1.09876E+03     1.09876E+03         74.2312         74.2312         97.4383         97.4383
            3564     1.10808E+03     1.10808E+03         105.348         105.348         127.058         127.058
            3565     1.10767E+03     1.10767E+03         151.681         151.681         157.475         157.475
            3566     1.09864E+03     1.09864E+03         209.972         209.972         181.631         181.631
            3567     1.08112E+03     1.08112E+03         274.144         274.144         193.865         193.865
            3568     1.06838E+03     1.06838E+03        -2.38204        -2.38204         6.68112         6.68112
            3569     1.06929E+03     1.06929E+03        -2.94436        -2.94436         5.10904         5.10904
            3570     1.06974E+03     1.06974E+03        -3.25432        -3.25432         3.30997         3.30997
            3571     1.06973E+03     1.06973E+03        -3.34283        -3.34283         1.41880         1.41880
            3572     1.06927E+03     1.06927E+03        -3.25475        -3.25475    -454.850E-03    -454.850E-03
            3573     1.06840E+03     1.06840E+03        -3.03983        -3.03983        -2.22949        -2.22949
            3574     1.06715E+03     1.06715E+03        -2.74514        -2.74514        -3.85132        -3.85132
            3575     1.06557E+03     1.06557E+03        -2.41079        -2.41079        -5.29069        -5.29069
            3576     1.06372E+03     1.06372E+03        -2.06795        -2.06795        -6.53727        -6.53727
            3577     1.06163E+03     1.06163E+03        -1.73854        -1.73854        -7.59470        -7.59470
            3578     1.05936E+03     1.05936E+03        -1.43629        -1.43629        -8.47580        -8.47580
            3579     1.05693E+03     1.05693E+03        -1.16797        -1.16797        -9.19842        -9.19842
            3580     1.05437E+03     1.05437E+03    -935.195E-03    -935.195E-03        -9.78217        -9.78217
            3581     1.05173E+03     1.05173E+03    -735.673E-03    -735.673E-03        -10.2461        -10.2461
            3582     1.04902E+03     1.04902E+03    -564.648E-03    -564.648E-03        -10.6069        -10.6069
            3583     1.04628E+03     1.04628E+03    -415.605E-03    -415.605E-03        -10.8781        -10.8781
            3584     1.04352E+03     1.04352E+03    -281.206E-03    -281.206E-03        -11.0687        -11.0687
            3585     1.04077E+03     1.04077E+03    -153.368E-03    -153.368E-03        -11.1839        -11.1839
            3586     1.03806E+03     1.03806E+03    -23.8874E-03    -23.8874E-03        -11.2233        -11.2233
            3587     1.03541E+03     1.03541E+03     116.030E-03     116.030E-03        -11.1824        -11.1824
            3588     1.03285E+03     1.03285E+03     275.249E-03     275.249E-03        -11.0505        -11.0505
            3589     1.03044E+03     1.03044E+03     463.680E-03     463.680E-03        -10.8124        -10.8124
            3590     1.02820E+03     1.02820E+03     691.756E-03     691.756E-03        -10.4453        -10.4453
            3591     1.02620E+03     1.02620E+03     971.979E-03     971.979E-03        -9.92129        -9.92129
            3592     1.02449E+03     1.02449E+03         1.31846         1.31846        -9.20181        -9.20181
            3593     1.02317E+03     1.02317E+03         1.74929         1.74929        -8.24221        -8.24221
            3594     1.02232E+03     1.02232E+03         2.28641         2.28641        -6.97997        -6.97997
            3595     1.02206E+03     1.02206E+03         2.95973         2.95973        -5.34549        -5.34549
            3596     1.02254E+03     1.02254E+03         3.80728         3.80728        -3.23588        -3.23588
            3597     1.02391E+03     1.02391E+03         4.88535         4.88535    -540.293E-03    -540.293E-03
            3598     1.02640E+03     1.02640E+03         6.26530         6.26530         2.91923         2.91923
            3599     1.03024E+03     1.03024E+03         8.06837         8.06837         7.32859         7.32859
            3600     1.03576E+03     1.03576E+03         10.4363         10.4363         13.0158         13.0158
            3601     1.04327E+03     1.04327E+03         13.6720         13.6720         20.3190         20.3190
            3602     1.05326E+03     1.05326E+03         18.0713         18.0713         29.8795         29.8795
            3603     1.06602E+03     1.06602E+03         24.5207         24.5207         42.3907         42.3907
            3604     1.08218E+03     1.08218E+03         33.6839         33.6839         59.1159         59.1159
            3605     1.10126E+03     1.10126E+03         48.6119         48.6119         81.7406         81.7406
            3606     1.12288E+03     1.12288E+03         71.1036         71.1036         111.996         111.996
            3607     1.14150E+03     1.14150E+03         113.190         113.190         154.601         154.601
            3608     1.13872E+03     1.13872E+03         183.641         183.641         195.785         195.785
            3609     1.12075E+03     1.12075E+03         265.871         265.871         214.626         214.626
            3610     1.06643E+03     1.06643E+03        -1.18089        -1.18089         5.21568         5.21568
            3611     1.06802E+03     1.06802E+03        -1.47372        -1.47372         4.09374         4.09374
            3612     1.06911E+03     1.06911E+03        -1.63939        -1.63939         2.79097         2.79097
            3613     1.06965E+03     1.06965E+03        -1.69166        -1.69166         1.40703         1.40703
            3614     1.06964E+03     1.06964E+03        -1.65268        -1.65268     24.7142E-03     24.7142E-03
            3615     1.06909E+03     1.06909E+03        -1.54741        -1.54741        -1.29288        -1.29288
            3616     1.06804E+03     1.06804E+03        -1.39989        -1.39989        -2.50293        -2.50293
            3617     1.06654E+03     1.06654E+03        -1.23090        -1.23090        -3.58095        -3.58095
            3618     1.06464E+03     1.06464E+03        -1.05665        -1.05665        -4.51737        -4.51737
            3619     1.06239E+03     1.06239E+03    -888.779E-03    -888.779E-03        -5.31379        -5.31379
            3620     1.05986E+03     1.05986E+03    -734.529E-03    -734.529E-03        -5.97931        -5.97931
            3621     1.05709E+03     1.05709E+03    -597.684E-03    -597.684E-03        -6.52731        -6.52731
            3622     1.05413E+03     1.05413E+03    -479.172E-03    -479.172E-03        -6.97291        -6.97291
            3623     1.05101E+03     1.05101E+03    -378.024E-03    -378.024E-03        -7.33103        -7.33103
            3624     1.04777E+03     1.04777E+03    -291.820E-03    -291.820E-03        -7.61515        -7.61515
            3625     1.04445E+03     1.04445E+03    -217.402E-03    -217.402E-03        -7.83624        -7.83624
            3626     1.04106E+03     1.04106E+03    -150.981E-03    -150.981E-03        -8.00247        -8.00247
            3627     1.03764E+03     1.03764E+03    -88.6528E-03    -88.6528E-03        -8.11856        -8.11856
            3628     1.03421E+03     1.03421E+03    -26.1708E-03    -26.1708E-03        -8.18606        -8.18606
            3629     1.03081E+03     1.03081E+03     40.6382E-03     40.6382E-03        -8.20257        -8.20257
            3630     1.02745E+03     1.02745E+03     116.330E-03     116.330E-03        -8.16248        -8.16248
            3631     1.02419E+03     1.02419E+03     205.560E-03     205.560E-03        -8.05554        -8.05554
            3632     1.02106E+03     1.02106E+03     313.550E-03     313.550E-03        -7.86821        -7.86821
            3633     1.01811E+03     1.01811E+03     446.310E-03     446.310E-03        -7.58068        -7.58068
            3634     1.01542E+03     1.01542E+03     610.513E-03     610.513E-03        -7.16969        -7.16969
            3635     1.01305E+03     1.01305E+03     815.416E-03     815.416E-03        -6.60194        -6.60194
            3636     1.01110E+03     1.01110E+03         1.07058         1.07058        -5.84055        -5.84055
            3637     1.00969E+03     1.00969E+03         1.39257         1.39257        -4.83015        -4.83015
            3638     1.00898E+03     1.00898E+03         1.79680         1.79680        -3.51243        -3.51243
            3639     1.00915E+03     1.00915E+03         2.31607         2.31607        -1.79086        -1.79086
            3640     1.01043E+03     1.01043E+03         2.97944         2.97944     430.086E-03     430.086E-03
            3641     1.01312E+03     1.01312E+03         3.85605         3.85605         3.33273         3.33273
            3642     1.01760E+03     1.01760E+03         5.01441         5.01441         7.08410         7.08410
            3643     1.02438E+03     1.02438E+03         6.60581         6.60581         12.0646         12.0646
            3644     1.03406E+03     1.03406E+03         8.84098         8.84098         18.5987         18.5987
            3645     1.04759E+03     1.04759E+03         12.0587         12.0587         27.5728         27.5728
            3646     1.06587E+03     1.06587E+03         17.0946         17.0946         39.7432         39.7432
            3647     1.09083E+03     1.09083E+03         24.7262         24.7262         57.4177         57.4177
            3648     1.12299E+03     1.12299E+03         39.2143         39.2143         83.0225         83.0225
            3649     1.16569E+03     1.16569E+03         62.5836         62.5836         122.719         122.719
            3650     1.20755E+03     1.20755E+03         126.790         126.790         189.369         189.369
            3651     1.20030E+03     1.20030E+03         245.067         245.067         244.876         244.876
            3652     1.06522E+03     1.06522E+03    -414.151E-03    -414.151E-03         2.97129         2.97129
            3653     1.06766E+03     1.06766E+03    -520.645E-03    -520.645E-03         2.36382         2.36382
            3654     1.06948E+03     1.06948E+03    -581.789E-03    -581.789E-03         1.65403         1.65403
            3655     1.07060E+03     1.07060E+03    -602.131E-03    -602.131E-03     897.236E-03     897.236E-03
            3656     1.07102E+03     1.07102E+03    -589.487E-03    -589.487E-03     139.648E-03     139.648E-03
            3657     1.07074E+03     1.07074E+03    -552.688E-03    -552.688E-03    -583.421E-03    -583.421E-03
            3658     1.06981E+03     1.06981E+03    -500.429E-03    -500.429E-03        -1.24782        -1.24782
            3659     1.06828E+03     1.06828E+03    -440.160E-03    -440.160E-03        -1.83966        -1.83966
            3660     1.06623E+03     1.06623E+03    -377.832E-03    -377.832E-03        -2.35353        -2.35353
            3661     1.06373E+03     1.06373E+03    -317.625E-03    -317.625E-03        -2.79033        -2.79033
            3662     1.06085E+03     1.06085E+03    -262.263E-03    -262.263E-03        -3.15527        -3.15527
            3663     1.05766E+03     1.05766E+03    -213.084E-03    -213.084E-03        -3.45603        -3.45603
            3664     1.05420E+03     1.05420E+03    -170.524E-03    -170.524E-03        -3.70128        -3.70128
            3665     1.05054E+03     1.05054E+03    -134.189E-03    -134.189E-03        -3.89968        -3.89968
            3666     1.04670E+03     1.04670E+03    -103.317E-03    -103.317E-03        -4.05902        -4.05902
            3667     1.04274E+03     1.04274E+03    -76.6967E-03    -76.6967E-03        -4.18585        -4.18585
            3668     1.03867E+03     1.03867E+03    -53.1163E-03    -53.1163E-03        -4.28501        -4.28501
            3669     1.03452E+03     1.03452E+03    -31.0603E-03    -31.0603E-03        -4.35973        -4.35973
            3670     1.03032E+03     1.03032E+03    -9.20653E-03    -9.20653E-03        -4.41122        -4.41122
            3671     1.02610E+03     1.02610E+03     14.0702E-03     14.0702E-03        -4.43901        -4.43901
            3672     1.02187E+03     1.02187E+03     40.1813E-03     40.1813E-03        -4.44039        -4.44039
            3673     1.01768E+03     1.01768E+03     70.8435E-03     70.8435E-03        -4.41104        -4.41104
            3674     1.01355E+03     1.01355E+03     107.843E-03     107.843E-03        -4.34382        -4.34382
            3675     1.00953E+03     1.00953E+03     152.982E-03     152.982E-03        -4.23007        -4.23007
            3676     1.00568E+03     1.00568E+03     209.215E-03     209.215E-03        -4.05694        -4.05694
            3677     1.00207E+03     1.00207E+03     278.190E-03     278.190E-03        -3.81020        -3.81020
            3678         998.779         998.779     365.997E-03     365.997E-03        -3.46823        -3.46823
            3679         995.925         995.925     473.121E-03     473.121E-03        -3.00869        -3.00869
            3680         993.648         993.648     613.694E-03     613.694E-03        -2.39415        -2.39415
            3681         992.124         992.124     784.001E-03     784.001E-03        -1.58930        -1.58930
            3682         991.585         991.585         1.01861         1.01861    -523.868E-03    -523.868E-03
            3683         992.329         992.329         1.30193         1.30193     859.591E-03     859.591E-03
            3684         994.750         994.750         1.72060         1.72060         2.70914         2.70914
            3685         999.375         999.375         2.23178         2.23178         5.12214         5.12214
            3686     1.00695E+03     1.00695E+03         3.05617         3.05617         8.45710         8.45710
            3687     1.01847E+03     1.01847E+03         4.11538         4.11538         12.8914         12.8914
            3688     1.03555E+03     1.03555E+03         5.98334         5.98334         19.4485         19.4485
            3689     1.06030E+03     1.06030E+03         8.75793         8.75793         28.5273         28.5273
            3690     1.09717E+03     1.09717E+03         13.9987         13.9987         43.7619         43.7619
            3691     1.15081E+03     1.15081E+03         25.0172         25.0172         66.8550         66.8550
            3692     1.23977E+03     1.23977E+03         46.9371         46.9371         116.557         116.557
            3693     1.35309E+03     1.35309E+03         166.274         166.274         215.031         215.031
            3694         62.2449         62.2449        -471.119        -471.119        -59.0335        -59.0335
            3695         224.852         224.852        -192.065        -192.065        -153.590        -153.590
            3696         436.460         436.460        -59.9258        -59.9258        -166.632        -166.632
            3697         634.906         634.906        -9.98427        -9.98427        -137.482        -137.482
            3698         789.799         789.799         3.56782         3.56782        -97.2583        -97.2583
            3699         197.903         197.903        -348.368        -348.368        -134.979        -134.979
            3700         435.334         435.334        -192.823        -192.823        -268.313        -268.313
            3701         646.266         646.266        -113.568        -113.568        -266.098        -266.098
            3702         803.210         803.210        -70.5052        -70.5052        -206.694        -206.694
            3703         907.920         907.920        -44.5470        -44.5470        -140.385        -140.385
            3704         423.178         423.178        -199.544        -199.544        -223.237        -223.237
            3705         717.516         717.516        -194.565        -194.565        -314.578        -314.578
            3706         890.031         890.031        -162.922        -162.922        -272.937        -272.937
            3707         979.426         979.426        -119.575        -119.575        -195.457        -195.457
            3708     1.02285E+03     1.02285E+03        -80.3746        -80.3746        -125.513        -125.513
            3709         719.160         719.160        -67.3833        -67.3833        -297.953        -297.953
            3710         994.845         994.845        -187.174        -187.174        -285.453        -285.453
            3711     1.08788E+03     1.08788E+03        -179.709        -179.709        -211.136        -211.136
            3712     1.10464E+03     1.10464E+03        -134.192        -134.192        -138.113        -138.113
            3713     1.09668E+03     1.09668E+03        -89.0242        -89.0242        -83.2031        -83.2031
            3714     1.18467E+03     1.18467E+03         132.987         132.987         47.5117         47.5117
            3715     1.28232E+03     1.28232E+03         204.612         204.612         55.4459         55.4459
            3716     1.45737E+03     1.45737E+03         278.204         278.204         39.0586         39.0586
            3717     1.76146E+03     1.76146E+03         316.385         316.385        -31.9960        -31.9960
            3718     2.25569E+03     2.25569E+03         259.943         259.943        -191.440        -191.440
            3719     1.19800E+03     1.19800E+03         49.2807         49.2807         56.8242         56.8242
            3720     1.28864E+03     1.28864E+03         90.1867         90.1867         67.2573         67.2573
            3721     1.43148E+03     1.43148E+03         148.732         148.732         44.6758         44.6758
            3722     1.65594E+03     1.65594E+03         215.123         215.123        -63.2266        -63.2266
            3723     2.00626E+03     2.00626E+03         256.559         256.559        -327.526        -327.526
            3724     1.19387E+03     1.19387E+03        -26.0828        -26.0828         30.1772         30.1772
            3725     1.27384E+03     1.27384E+03        -22.6664        -22.6664         32.5274         32.5274
            3726     1.38290E+03     1.38290E+03         3.13156         3.13156         7.09987         7.09987
            3727     1.51733E+03     1.51733E+03         76.7749         76.7749        -100.123        -100.123
            3728     1.67591E+03     1.67591E+03         220.369         220.369        -386.402        -386.402
            3729     1.16894E+03     1.16894E+03        -66.5399        -66.5399        -7.38341        -7.38341
            3730     1.23253E+03     1.23253E+03        -92.4288        -92.4288        -21.5596        -21.5596
            3731     1.30954E+03     1.30954E+03        -105.056        -105.056        -57.6744        -57.6744
            3732     1.36880E+03     1.36880E+03        -58.0047        -58.0047        -150.601        -150.601
            3733     1.33848E+03     1.33848E+03         139.695         139.695        -382.813        -382.813
            3734         768.650         768.650        -47.2265        -47.2265         309.141         309.141
            3735     1.03717E+03     1.03717E+03        -185.352        -185.352         277.847         277.847
            3736     1.11619E+03     1.11619E+03        -180.732        -180.732         199.122         199.122
            3737     1.12157E+03     1.12157E+03        -134.884        -134.884         127.678         127.678
            3738     1.10618E+03     1.10618E+03        -89.1429        -89.1429         75.7467         75.7467
            3739         511.465         511.465        -151.937        -151.937         251.399         251.399
            3740         813.067         813.067        -194.706        -194.706         316.092         316.092
            3741         964.952         964.952        -174.597        -174.597         261.159         261.159
            3742     1.03004E+03     1.03004E+03        -130.190        -130.190         181.361         181.361
            3743     1.05422E+03     1.05422E+03        -87.5332        -87.5332         113.850         113.850
            3744         296.031         296.031        -276.251        -276.251         177.990         177.990
            3745         569.224         569.224        -194.881        -194.881         303.812         303.812
            3746         768.676         768.676        -141.790        -141.790         284.513         284.513
            3747         895.491         895.491        -99.8131        -99.8131         213.052         213.052
            3748         969.937         969.937        -66.6910        -66.6910         140.975         140.975
            3749         139.259         139.259        -399.862        -399.862         106.361         106.361
            3750         349.609         349.609        -193.735        -193.735         238.524         238.524
            3751         563.889         563.889        -94.2819        -94.2819         246.669         246.669
            3752         739.180         739.180        -49.2678        -49.2678         197.232         197.232
            3753         864.024         864.024        -28.1271        -28.1271         136.580         136.580
            3754         46.7214         46.7214        -493.155        -493.155         47.4718         47.4718
            3755         197.397         197.397        -194.318        -194.318         130.929         130.929
            3756         406.087         406.087        -52.6303        -52.6303         144.354         144.354
            3757         608.432         608.432    -98.6586E-03    -98.6586E-03         120.598         120.598
            3758         770.133         770.133         12.0967         12.0967         86.1938         86.1938
            3759     1.17021E+03     1.17021E+03        -68.3318        -68.3318         9.81247         9.81247
            3760     1.23369E+03     1.23369E+03        -93.9651        -93.9651         23.3983         23.3983
            3761     1.31060E+03     1.31060E+03        -106.308        -106.308         59.0488         59.0488
            3762     1.37000E+03     1.37000E+03        -58.9793        -58.9793         151.668         151.668
            3763     1.34001E+03     1.34001E+03         139.048         139.048         383.727         383.727
            3764     1.19482E+03     1.19482E+03        -27.4425        -27.4425        -27.8776        -27.8776
            3765     1.27472E+03     1.27472E+03        -23.7590        -23.7590        -30.7672        -30.7672
            3766     1.38373E+03     1.38373E+03         2.37169         2.37169        -5.77746        -5.77746
            3767     1.51829E+03     1.51829E+03         76.3820         76.3820         101.081         101.081
            3768     1.67738E+03     1.67738E+03         220.488         220.488         387.262         387.262
            3769     1.19860E+03     1.19860E+03         48.4117         48.4117        -54.6070        -54.6070
            3770     1.28918E+03     1.28918E+03         89.5720         89.5720        -65.4883        -65.4883
            3771     1.43198E+03     1.43198E+03         148.440         148.440        -43.2895        -43.2895
            3772     1.65656E+03     1.65656E+03         215.225         215.225         64.3214         64.3214
            3773     2.00746E+03     2.00746E+03         256.919         256.919         328.448         328.448
            3774     1.18495E+03     1.18495E+03         132.583         132.583        -45.3052        -45.3052
            3775     1.28257E+03     1.28257E+03         204.371         204.371        -53.6003        -53.6003
            3776     1.45758E+03     1.45758E+03         278.187         278.187        -37.4990        -37.4990
            3777     1.76176E+03     1.76176E+03         316.581         316.581         33.3085         33.3085
            3778     2.25639E+03     2.25639E+03         260.194         260.194         192.376         192.376
            3779     1.28495E+03     1.28495E+03         125.735         125.735        -380.318        -380.318
            3780     1.34521E+03     1.34521E+03        -78.7177        -78.7177        -160.005        -160.005
            3781     1.29751E+03     1.29751E+03        -120.884        -120.884        -69.9673        -69.9673
            3782     1.22587E+03     1.22587E+03        -102.602        -102.602        -32.3223        -32.3223
            3783     1.16538E+03     1.16538E+03        -72.9973        -72.9973        -15.8978        -15.8978
            3784     1.56287E+03     1.56287E+03         201.488         201.488        -394.440        -394.440
            3785     1.46970E+03     1.46970E+03         29.8727         29.8727        -115.622        -115.622
            3786     1.36311E+03     1.36311E+03        -40.7444        -40.7444        -12.7010        -12.7010
            3787     1.26498E+03     1.26498E+03        -54.4222        -54.4222         14.1184         14.1184
            3788     1.18957E+03     1.18957E+03        -46.6531        -46.6531         15.6199         15.6199
            3789     1.85045E+03     1.85045E+03         246.265         246.265        -370.953        -370.953
            3790     1.59105E+03     1.59105E+03         149.913         149.913        -81.5272        -81.5272
            3791     1.41199E+03     1.41199E+03         74.0895         74.0895         31.0481         31.0481
            3792     1.28668E+03     1.28668E+03         28.5549         28.5549         54.4184         54.4184
            3793     1.20079E+03     1.20079E+03         5.91266         5.91266         45.6326         45.6326
            3794     2.10961E+03     2.10961E+03         260.892         260.892        -295.135        -295.135
            3795     1.69973E+03     1.69973E+03         256.789         256.789        -54.5866        -54.5866
            3796     1.44404E+03     1.44404E+03         198.769         198.769         47.4235         47.4235
            3797     1.28915E+03     1.28915E+03         132.326         132.326         69.5629         69.5629
            3798     1.19576E+03     1.19576E+03         78.7253         78.7253         58.4531         58.4531
            3799     2.29328E+03     2.29328E+03         258.082         258.082        -165.268        -165.268
            3800     1.77823E+03     1.77823E+03         328.752         328.752        -28.5587        -28.5587
            3801     1.46180E+03     1.46180E+03         296.471         296.471         33.4319         33.4319
            3802     1.28109E+03     1.28109E+03         222.154         222.154         48.1707         48.1707
            3803     1.18204E+03     1.18204E+03         146.523         146.523         41.1581         41.1581
            3804     1.16874E+03     1.16874E+03        -66.7485        -66.7485         7.59419         7.59419
            3805     1.23224E+03     1.23224E+03        -92.7292        -92.7292         21.8765         21.8765
            3806     1.30913E+03     1.30913E+03        -105.415        -105.415         58.0908         58.0908
            3807     1.36835E+03     1.36835E+03        -58.4799        -58.4799         151.035         151.035
            3808     1.33804E+03     1.33804E+03         138.906         138.906         382.929         382.929
            3809     1.19377E+03     1.19377E+03        -26.3969        -26.3969        -29.9698        -29.9698
            3810     1.27366E+03     1.27366E+03        -23.0509        -23.0509        -32.2091        -32.2091
            3811     1.38258E+03     1.38258E+03         2.72725         2.72725        -6.67980        -6.67980
            3812     1.51679E+03     1.51679E+03         76.3449         76.3449         100.468         100.468
            3813     1.67515E+03     1.67515E+03         220.085         220.085         386.428         386.428
            3814     1.19800E+03     1.19800E+03         48.8762         48.8762        -56.6310        -56.6310
            3815     1.28855E+03     1.28855E+03         89.7718         89.7718        -66.9188        -66.9188
            3816     1.43121E+03     1.43121E+03         148.346         148.346        -44.2682        -44.2682
            3817     1.65533E+03     1.65533E+03         214.839         214.839         63.6233         63.6233
            3818     2.00509E+03     2.00509E+03         256.365         256.365         327.711         327.711
            3819     1.18480E+03     1.18480E+03         132.532         132.532        -47.3982        -47.3982
            3820     1.28238E+03     1.28238E+03         204.127         204.127        -55.1698        -55.1698
            3821     1.45716E+03     1.45716E+03         277.881         277.881        -38.6223        -38.6223
            3822     1.76083E+03     1.76083E+03         316.389         316.389         32.4241         32.4241
            3823     2.25418E+03     2.25418E+03         260.139         260.139         191.596         191.596
            3824         770.026         770.026        -47.8756        -47.8756         309.763         309.763
            3825     1.03888E+03     1.03888E+03        -186.655        -186.655         278.629         278.629
            3826     1.11797E+03     1.11797E+03        -182.312        -182.312         200.164         200.164
            3827     1.12348E+03     1.12348E+03        -136.738        -136.738         129.141         129.141
            3828     1.10829E+03     1.10829E+03        -91.3681        -91.3681         77.8300         77.8300
            3829         512.453         512.453        -153.046        -153.046         251.908         251.908
            3830         814.581         814.581        -196.235        -196.235         316.920         316.920
            3831         966.706         966.706        -176.346        -176.346         262.179         262.179
            3832     1.03203E+03     1.03203E+03        -132.187        -132.187         182.661         182.661
            3833     1.05653E+03     1.05653E+03        -89.9088        -89.9088         115.625         115.625
            3834         296.632         296.632        -277.870        -277.870         178.353         178.353
            3835         570.381         570.381        -196.589        -196.589         304.622         304.622
            3836         770.239         770.239        -143.629        -143.629         285.482         285.482
            3837         897.439         897.439        -101.892        -101.892         214.180         214.180
            3838         972.367         972.367        -69.1713        -69.1713         142.418         142.418
            3839         139.523         139.523        -401.985        -401.985         106.593         106.593
            3840         350.348         350.348        -195.570        -195.570         239.201         239.201
            3841         565.139         565.139        -96.1327        -96.1327         247.484         247.484
            3842         740.972         740.972        -51.3543        -51.3543         198.122         198.122
            3843         866.462         866.462        -30.6502        -30.6502         137.641         137.641
            3844         46.7545         46.7545        -495.665        -495.665         47.6066         47.6066
            3845         197.782         197.782        -196.234        -196.234         131.358         131.358
            3846         407.027         407.027        -54.4482        -54.4482         144.870         144.870
            3847         610.029         610.029        -2.14297        -2.14297         121.133         121.133
            3848         772.511         772.511         9.58141         9.58141         86.7892         86.7892
            3849     1.09874E+03     1.09874E+03        -91.2385        -91.2385        -85.2230        -85.2230
            3850     1.10641E+03     1.10641E+03        -135.999        -135.999        -139.546        -139.546
            3851     1.08937E+03     1.08937E+03        -181.199        -181.199        -212.147        -212.147
            3852         996.120         996.120        -188.450        -188.450        -286.064        -286.064
            3853         720.137         720.137        -68.3228        -68.3228        -298.204        -298.204
            3854     1.02513E+03     1.02513E+03        -82.7519        -82.7519        -127.134        -127.134
            3855         981.238         981.238        -121.536        -121.536        -196.653        -196.653
            3856         891.461         891.461        -164.639        -164.639        -273.842        -273.842
            3857         718.608         718.608        -196.189        -196.189        -315.226        -315.226
            3858         423.748         423.748        -201.096        -201.096        -223.444        -223.444
            3859         910.261         910.261        -47.0047        -47.0047        -141.544        -141.544
            3860         804.911         804.911        -72.5253        -72.5253        -207.588        -207.588
            3861         647.439         647.439        -115.368        -115.368        -266.834        -266.834
            3862         436.015         436.015        -194.638        -194.638        -268.859        -268.859
            3863         198.114         198.114        -350.481        -350.481        -135.062        -135.062
            3864         792.120         792.120         1.08818         1.08818        -97.8521        -97.8521
            3865         636.444         636.444        -11.9946        -11.9946        -137.949        -137.949
            3866         437.339         437.339        -61.7206        -61.7206        -167.022        -167.022
            3867         225.181         225.181        -193.981        -193.981        -153.864        -153.864
            3868         62.2338         62.2338        -473.653        -473.653        -59.0224        -59.0224


  Minimum               -17.4818        -17.4818        -744.571        -744.571        -593.704        -593.704
         At Node              28              28              28              28             590             590

  Maximum            2.68956E+03     2.68956E+03         353.546         353.546         590.154         590.154
         At Node              27              27             585             585             574             574

           Total     4.08870E+06     4.08870E+06     65.9447E+03     65.9447E+03     1.96547E+03     1.96547E+03


