********************************************************************************
Field Output Report, written Sat Feb 24 11:10:47 2024

Source 1
---------

   ODB: C:/Users/Isabel Haycock/OneDrive - Imperial College London/Fourth Year/FYP/Isabel Haycock/06 - FE models/Specimen_2/Plate_hole_1.odb
   Step: load
   Frame: Increment      3: Step Time =   0.2143

Loc 1 : Nodal values at shell < composite > < elset = ASSEMBLY_PLATE_1-1_COMPOSITELAYUP-1-1 > from source 1 : SNEG, (fraction = -1.0), Layer = 1
Loc 2 : Nodal values at shell < composite > < elset = ASSEMBLY_PLATE_1-1_COMPOSITELAYUP-1-1 > from source 1 : SPOS, (fraction = 1.0), Layer = 8

Output sorted by column "Node Label".

Field Output reported at nodes for part: PLATE_1-1
   Computation algorithm: EXTRAPOLATE_COMPUTE_AVERAGE
   Averaged at nodes
   Averaging regions: ODB_REGIONS

      Node Label           S.S11           S.S11           S.S22           S.S22           S.S12           S.S12
                          @Loc 1          @Loc 2          @Loc 1          @Loc 2          @Loc 1          @Loc 2
-----------------------------------------------------------------------------------------------------------------
               1         369.834         369.834        -17.2878        -17.2878        -7.44294        -7.44294
               2         351.716         351.716     487.753E-03     487.753E-03    -22.3245E-03    -22.3245E-03
               3         351.784         351.784     2.28267E-03     2.28267E-03    -2.51880E-03    -2.51880E-03
               4         355.580         355.580    -22.6981E-03    -22.6981E-03     751.212E-03     751.212E-03
               5         369.983         369.983        -17.2255        -17.2255         7.16668         7.16668
               6         351.716         351.716     487.823E-03     487.823E-03     22.3225E-03     22.3225E-03
               7         283.095         283.095         7.92410         7.92410        -1.09623        -1.09623
               8         354.270         354.270    -27.7551E-03    -27.7551E-03    -631.568E-03    -631.568E-03
               9         370.594         370.594        -18.0146        -18.0146         8.19346         8.19346
              10         376.111         376.111         37.0899         37.0899     429.306E-03     429.306E-03
              11         355.650         355.650    -23.5911E-03    -23.5911E-03    -751.196E-03    -751.196E-03
              12         351.784         351.784     2.28315E-03     2.28315E-03     2.51931E-03     2.51931E-03
              13         330.728         330.728         100.591         100.591        -21.9322        -21.9322
              14         538.097         538.097         74.7042         74.7042        -87.0834        -87.0834
              15         370.196         370.196        -18.1313        -18.1313        -8.68886        -8.68886
              16         354.314         354.314    -28.8700E-03    -28.8700E-03     632.220E-03     632.220E-03
              17         375.969         375.969         37.5568         37.5568        -1.08493        -1.08493
              18         330.730         330.730         100.588         100.588         21.9272         21.9272
              19         284.162         284.162         6.88700         6.88700        -1.09493        -1.09493
              20         538.097         538.097         74.7041         74.7041         87.0832         87.0832
              21        -5.75275        -5.75275        -249.354        -249.354     229.124E-03     229.124E-03
              22         291.245         291.245         65.1496         65.1496        -141.806        -141.806
              23         897.981         897.981         58.3414         58.3414     103.830E-03     103.830E-03
              24         295.747         295.747         67.1037         67.1037         143.789         143.789
              25         296.290         296.290         67.1808         67.1808         144.076         144.076
              26         285.955         285.955         64.2050         64.2050        -140.294        -140.294
              27         899.750         899.750         57.7286         57.7286         4.15507         4.15507
              28        -5.79283        -5.79283        -250.447        -250.447     247.400E-03     247.400E-03
              29         362.946         362.946        -13.8974        -13.8974        -8.79627        -8.79627
              30         358.942         358.942        -11.7085        -11.7085        -9.68711        -9.68711
              31         355.760         355.760        -9.40265        -9.40265        -9.74874        -9.74874
              32         353.389         353.389        -7.28307        -7.28307        -9.31340        -9.31340
              33         351.697         351.697        -5.45485        -5.45485        -8.63021        -8.63021
              34         350.536         350.536        -3.93146        -3.93146        -7.85961        -7.85961
              35         349.769         349.769        -2.68317        -2.68317        -7.09176        -7.09176
              36         349.292         349.292        -1.67128        -1.67128        -6.37174        -6.37174
              37         349.022         349.022    -857.126E-03    -857.126E-03        -5.71879        -5.71879
              38         348.900         348.900    -207.162E-03    -207.162E-03        -5.13740        -5.13740
              39         348.882         348.882     306.984E-03     306.984E-03        -4.62470        -4.62470
              40         348.938         348.938     708.665E-03     708.665E-03        -4.17420        -4.17420
              41         349.043         349.043         1.01715         1.01715        -3.77825        -3.77825
              42         349.180         349.180         1.24837         1.24837        -3.42917        -3.42917
              43         349.338         349.338         1.41554         1.41554        -3.11988        -3.11988
              44         349.507         349.507         1.52979         1.52979        -2.84418        -2.84418
              45         349.681         349.681         1.60046         1.60046        -2.59680        -2.59680
              46         349.855         349.855         1.63550         1.63550        -2.37334        -2.37334
              47         350.024         350.024         1.64166         1.64166        -2.17025        -2.17025
              48         350.188         350.188         1.62470         1.62470        -1.98462        -1.98462
              49         350.344         350.344         1.58953         1.58953        -1.81414        -1.81414
              50         350.491         350.491         1.54034         1.54034        -1.65696        -1.65696
              51         350.628         350.628         1.48067         1.48067        -1.51160        -1.51160
              52         350.756         350.756         1.41354         1.41354        -1.37688        -1.37688
              53         350.874         350.874         1.34148         1.34148        -1.25182        -1.25182
              54         350.982         350.982         1.26662         1.26662        -1.13562        -1.13562
              55         351.081         351.081         1.19072         1.19072        -1.02759        -1.02759
              56         351.170         351.170         1.11526         1.11526    -927.133E-03    -927.133E-03
              57         351.251         351.251         1.04143         1.04143    -833.706E-03    -833.706E-03
              58         351.324         351.324     970.214E-03     970.214E-03    -746.807E-03    -746.807E-03
              59         351.388         351.388     902.405E-03     902.405E-03    -665.958E-03    -665.958E-03
              60         351.446         351.446     838.630E-03     838.630E-03    -590.694E-03    -590.694E-03
              61         351.497         351.497     779.386E-03     779.386E-03    -520.557E-03    -520.557E-03
              62         351.542         351.542     725.058E-03     725.058E-03    -455.092E-03    -455.092E-03
              63         351.580         351.580     675.941E-03     675.941E-03    -393.844E-03    -393.844E-03
              64         351.614         351.614     632.257E-03     632.257E-03    -336.353E-03    -336.353E-03
              65         351.642         351.642     594.169E-03     594.169E-03    -282.158E-03    -282.158E-03
              66         351.665         351.665     561.796E-03     561.796E-03    -230.794E-03    -230.794E-03
              67         351.684         351.684     535.220E-03     535.220E-03    -181.795E-03    -181.795E-03
              68         351.698         351.698     514.499E-03     514.499E-03    -134.689E-03    -134.689E-03
              69         351.708         351.708     499.669E-03     499.669E-03    -89.0057E-03    -89.0057E-03
              70         351.714         351.714     490.742E-03     490.742E-03    -44.3927E-03    -44.3927E-03
              71         351.758         351.758     439.011E-03     439.011E-03    -24.2002E-03    -24.2002E-03
              72         351.799         351.799     390.145E-03     390.145E-03    -25.3461E-03    -25.3461E-03
              73         351.837         351.837     339.612E-03     339.612E-03    -25.9055E-03    -25.9055E-03
              74         351.873         351.873     288.605E-03     288.605E-03    -25.8482E-03    -25.8482E-03
              75         351.903         351.903     238.355E-03     238.355E-03    -25.1626E-03    -25.1626E-03
              76         351.926         351.926     190.109E-03     190.109E-03    -23.8470E-03    -23.8470E-03
              77         351.940         351.940     145.097E-03     145.097E-03    -21.9179E-03    -21.9179E-03
              78         351.943         351.943     104.508E-03     104.508E-03    -19.4020E-03    -19.4020E-03
              79         351.934         351.934     69.4532E-03     69.4532E-03    -16.3516E-03    -16.3516E-03
              80         351.910         351.910     40.9364E-03     40.9364E-03    -12.8204E-03    -12.8204E-03
              81         351.871         351.871     19.8051E-03     19.8051E-03    -8.91460E-03    -8.91460E-03
              82         351.816         351.816     6.73073E-03     6.73073E-03    -4.70503E-03    -4.70503E-03
              83         351.788         351.788     2.33352E-03     2.33352E-03    -4.62270E-03    -4.62270E-03
              84         351.802         351.802     2.40591E-03     2.40591E-03    -9.05695E-03    -9.05695E-03
              85         351.824         351.824     2.47831E-03     2.47831E-03    -13.7909E-03    -13.7909E-03
              86         351.857         351.857     2.60129E-03     2.60129E-03    -18.7230E-03    -18.7230E-03
              87         351.898         351.898     2.75986E-03     2.75986E-03    -23.9394E-03    -23.9394E-03
              88         351.951         351.951     2.95342E-03     2.95342E-03    -29.5111E-03    -29.5111E-03
              89         352.015         352.015     3.18300E-03     3.18300E-03    -35.5104E-03    -35.5104E-03
              90         352.092         352.092     3.44671E-03     3.44671E-03    -42.0087E-03    -42.0087E-03
              91         352.181         352.181     3.74491E-03     3.74491E-03    -49.0765E-03    -49.0765E-03
              92         352.286         352.286     4.07551E-03     4.07551E-03    -56.7826E-03    -56.7826E-03
              93         352.406         352.406     4.43713E-03     4.43713E-03    -65.1932E-03    -65.1932E-03
              94         352.543         352.543     4.82651E-03     4.82651E-03    -74.3698E-03    -74.3698E-03
              95         352.700         352.700     5.23978E-03     5.23978E-03    -84.3679E-03    -84.3679E-03
              96         352.877         352.877     5.67111E-03     5.67111E-03    -95.2337E-03    -95.2337E-03
              97         353.076         353.076     6.11271E-03     6.11271E-03    -107.001E-03    -107.001E-03
              98         353.299         353.299     6.55430E-03     6.55430E-03    -119.685E-03    -119.685E-03
              99         353.549         353.549     6.98179E-03     6.98179E-03    -133.278E-03    -133.278E-03
             100         353.826         353.826     7.37784E-03     7.37784E-03    -147.744E-03    -147.744E-03
             101         354.132         354.132     7.71853E-03     7.71853E-03    -163.004E-03    -163.004E-03
             102         354.469         354.469     7.97594E-03     7.97594E-03    -178.930E-03    -178.930E-03
             103         354.838         354.838     8.11144E-03     8.11144E-03    -195.328E-03    -195.328E-03
             104         355.239         355.239     8.08241E-03     8.08241E-03    -211.923E-03    -211.923E-03
             105         355.673         355.673     7.82948E-03     7.82948E-03    -228.342E-03    -228.342E-03
             106         356.139         356.139     7.29168E-03     7.29168E-03    -244.090E-03    -244.090E-03
             107         356.634         356.634     6.38351E-03     6.38351E-03    -258.529E-03    -258.529E-03
             108         357.156         357.156     5.02538E-03     5.02538E-03    -270.854E-03    -270.854E-03
             109         357.699         357.699     3.10565E-03     3.10565E-03    -280.070E-03    -280.070E-03
             110         358.256         358.256     535.306E-06     535.306E-06    -284.980E-03    -284.980E-03
             111         358.818         358.818    -2.80778E-03    -2.80778E-03    -284.178E-03    -284.178E-03
             112         359.370         359.370    -6.99313E-03    -6.99313E-03    -276.055E-03    -276.055E-03
             113         359.897         359.897    -12.1047E-03    -12.1047E-03    -258.853E-03    -258.853E-03
             114         360.380         360.380    -18.1314E-03    -18.1314E-03    -230.724E-03    -230.724E-03
             115         360.795         360.795    -25.0183E-03    -25.0183E-03    -189.885E-03    -189.885E-03
             116         361.115         361.115    -32.5748E-03    -32.5748E-03    -134.776E-03    -134.776E-03
             117         361.311         361.311    -40.4567E-03    -40.4567E-03    -64.3641E-03    -64.3641E-03
             118         361.353         361.353    -48.1778E-03    -48.1778E-03     21.5841E-03     21.5841E-03
             119         361.211         361.211    -54.9762E-03    -54.9762E-03     122.070E-03     122.070E-03
             120         360.859         360.859    -60.0238E-03    -60.0238E-03     234.532E-03     234.532E-03
             121         360.277         360.277    -62.2133E-03    -62.2133E-03     354.501E-03     354.501E-03
             122         359.458         359.458    -60.5662E-03    -60.5662E-03     475.434E-03     475.434E-03
             123         358.407         358.407    -54.1742E-03    -54.1742E-03     588.922E-03     588.922E-03
             124         357.151         357.151    -42.4143E-03    -42.4143E-03     684.421E-03     684.421E-03
             125         355.893         355.893    -65.2538E-03    -65.2538E-03         1.38563         1.38563
             126         356.581         356.581    -188.624E-03    -188.624E-03         2.49273         2.49273
             127         357.386         357.386    -390.640E-03    -390.640E-03         3.31444         3.31444
             128         358.294         358.294    -684.659E-03    -684.659E-03         3.91815         3.91815
             129         359.311         359.311        -1.10115        -1.10115         4.34755         4.34755
             130         360.452         360.452        -1.68638        -1.68638         4.61705         4.61705
             131         361.735         361.735        -2.50244        -2.50244         4.70852         4.70852
             132         363.171         363.171        -3.62630        -3.62630         4.56423         4.56423
             133         364.744         364.744        -5.14469        -5.14469         4.07148         4.07148
             134         366.372         366.372        -7.13195        -7.13195         3.04906         3.04906
             135         367.839         367.839        -9.60574        -9.60574         1.23770         1.23770
             136         368.708         368.708        -12.4229        -12.4229        -1.63916        -1.63916
             137         363.131         363.131        -13.8588        -13.8588         8.51883         8.51883
             138         359.157         359.157        -11.7195        -11.7195         9.45920         9.45920
             139         355.984         355.984        -9.45018        -9.45018         9.57805         9.57805
             140         353.600         353.600        -7.34923        -7.34923         9.19727         9.19727
             141         351.883         351.883        -5.52496        -5.52496         8.55797         8.55797
             142         350.693         350.693        -3.99672        -3.99672         7.81917         7.81917
             143         349.899         349.899        -2.73990        -2.73990         7.07254         7.07254
             144         349.397         349.397        -1.71883        -1.71883         6.36624         6.36624
             145         349.107         349.107    -896.094E-03    -896.094E-03         5.72174         5.72174
             146         348.969         348.969    -238.738E-03    -238.738E-03         5.14536         5.14536
             147         348.939         348.939     281.558E-03     281.558E-03         4.63540         4.63540
             148         348.984         348.984     688.211E-03     688.211E-03         4.18619         4.18619
             149         349.080         349.080         1.00067         1.00067         3.79062         3.79062
             150         349.211         349.211         1.23502         1.23502         3.44133         3.44133
             151         349.364         349.364         1.40467         1.40467         3.13151         3.13151
             152         349.529         349.529         1.52086         1.52086         2.85507         2.85507
             153         349.699         349.699         1.59307         1.59307         2.60684         2.60684
             154         349.870         349.870         1.62932         1.62932         2.38251         2.38251
             155         350.037         350.037         1.63645         1.63645         2.17853         2.17853
             156         350.199         350.199         1.62028         1.62028         1.99205         1.99205
             157         350.353         350.353         1.58575         1.58575         1.82076         1.82076
             158         350.498         350.498         1.53709         1.53709         1.66282         1.66282
             159         350.635         350.635         1.47787         1.47787         1.51675         1.51675
             160         350.761         350.761         1.41112         1.41112         1.38138         1.38138
             161         350.878         350.878         1.33938         1.33938         1.25573         1.25573
             162         350.986         350.986         1.26480         1.26480         1.13899         1.13899
             163         351.084         351.084         1.18915         1.18915         1.03048         1.03048
             164         351.173         351.173         1.11390         1.11390     929.597E-03     929.597E-03
             165         351.253         351.253         1.04026         1.04026     835.788E-03     835.788E-03
             166         351.325         351.325     969.222E-03     969.222E-03     748.553E-03     748.553E-03
             167         351.390         351.390     901.565E-03     901.565E-03     667.408E-03     667.408E-03
             168         351.447         351.447     837.924E-03     837.924E-03     591.886E-03     591.886E-03
             169         351.498         351.498     778.799E-03     778.799E-03     521.525E-03     521.525E-03
             170         351.542         351.542     724.577E-03     724.577E-03     455.869E-03     455.869E-03
             171         351.581         351.581     675.554E-03     675.554E-03     394.456E-03     394.456E-03
             172         351.614         351.614     631.954E-03     631.954E-03     336.826E-03     336.826E-03
             173         351.642         351.642     593.941E-03     593.941E-03     282.515E-03     282.515E-03
             174         351.665         351.665     561.636E-03     561.636E-03     231.055E-03     231.055E-03
             175         351.684         351.684     535.123E-03     535.123E-03     181.977E-03     181.977E-03
             176         351.698         351.698     514.459E-03     514.459E-03     134.807E-03     134.807E-03
             177         351.708         351.708     499.683E-03     499.683E-03     89.0705E-03     89.0705E-03
             178         351.714         351.714     490.796E-03     490.796E-03     44.4120E-03     44.4120E-03
             179         351.671         351.671     537.230E-03     537.230E-03     19.5383E-03     19.5383E-03
             180         351.629         351.629     581.809E-03     581.809E-03     15.9625E-03     15.9625E-03
             181         351.595         351.595     616.694E-03     616.694E-03     11.8272E-03     11.8272E-03
             182         351.572         351.572     640.656E-03     640.656E-03     7.27719E-03     7.27719E-03
             183         351.560         351.560     652.849E-03     652.849E-03     2.47068E-03     2.47068E-03
             184         351.560         351.560     652.837E-03     652.837E-03    -2.42483E-03    -2.42483E-03
             185         351.572         351.572     640.630E-03     640.630E-03    -7.23797E-03    -7.23797E-03
             186         351.595         351.595     616.658E-03     616.658E-03    -11.8024E-03    -11.8024E-03
             187         351.629         351.629     581.757E-03     581.757E-03    -15.9535E-03    -15.9535E-03
             188         351.671         351.671     537.164E-03     537.164E-03    -19.5345E-03    -19.5345E-03
             189         290.957         290.957         4.09689         4.09689         19.3770         19.3770
             190         312.059         312.059        -5.55652        -5.55652         30.4202         30.4202
             191         335.335         335.335        -14.6353        -14.6353         30.9041         30.9041
             192         353.300         353.300        -19.4205        -19.4205         24.5028         24.5028
             193         363.925         363.925        -19.7852        -19.7852         16.0083         16.0083
             194         361.987         361.987        -19.7606        -19.7606        -17.6944        -17.6944
             195         346.647         346.647        -17.7775        -17.7775        -27.2378        -27.2378
             196         321.791         321.791        -9.44337        -9.44337        -31.0568        -31.0568
             197         295.603         295.603         1.94572         1.94572        -21.8329        -21.8329
             198         354.611         354.611    -79.9591E-03    -79.9591E-03        -1.15315        -1.15315
             199         355.374         355.374    -231.104E-03    -231.104E-03        -2.04213        -2.04213
             200         356.285         356.285    -476.525E-03    -476.525E-03        -2.66410        -2.66410
             201         357.325         357.325    -826.821E-03    -826.821E-03        -3.09142        -3.09142
             202         358.494         358.494        -1.30977        -1.30977        -3.37089        -3.37089
             203         359.801         359.801        -1.96900        -1.96900        -3.51914        -3.51914
             204         361.261         361.261        -2.86420        -2.86420        -3.51946        -3.51946
             205         362.878         362.878        -4.06998        -4.06998        -3.31472        -3.31472
             206         364.633         364.633        -5.67096        -5.67096        -2.79210        -2.79210
             207         366.437         366.437        -7.73950        -7.73950        -1.76916        -1.76916
             208         368.072         368.072        -10.2913        -10.2913     15.3198E-03     15.3198E-03
             209         369.092         369.092        -13.1835        -13.1835         2.84423         2.84423
             210         378.183         378.183        -15.7181        -15.7181     586.054E-03     586.054E-03
             211         382.957         382.957        -7.20939        -7.20939        -7.68345        -7.68345
             212         382.841         382.841         9.40509         9.40509        -13.5485        -13.5485
             213         378.723         378.723         28.3413         28.3413        -10.9888        -10.9888
             214         378.628         378.628         28.5077         28.5077         11.8551         11.8551
             215         382.646         382.646         9.74195         9.74195         14.4412         14.4412
             216         382.657         382.657        -6.70484        -6.70484         8.62570         8.62570
             217         377.773         377.773        -15.0569        -15.0569     425.596E-03     425.596E-03
             218         353.624         353.624     6.99315E-03     6.99315E-03     768.263E-03     768.263E-03
             219         351.590         351.590     41.9786E-03     41.9786E-03     704.444E-03     704.444E-03
             220         349.859         349.859     74.4121E-03     74.4121E-03     548.330E-03     548.330E-03
             221         348.664         348.664     97.3260E-03     97.3260E-03     316.461E-03     316.461E-03
             222         348.169         348.169     105.309E-03     105.309E-03     42.2876E-03     42.2876E-03
             223         348.429         348.429     96.2887E-03     96.2887E-03    -230.432E-03    -230.432E-03
             224         349.380         349.380     72.3384E-03     72.3384E-03    -457.940E-03    -457.940E-03
             225         350.852         350.852     38.8848E-03     38.8848E-03    -606.801E-03    -606.801E-03
             226         352.603         352.603     2.87479E-03     2.87479E-03    -660.462E-03    -660.462E-03
             227         368.648         368.648        -12.4492        -12.4492         1.67946         1.67946
             228         367.797         367.797        -9.63302        -9.63302        -1.20868        -1.20868
             229         366.340         366.340        -7.16106        -7.16106        -3.02432        -3.02432
             230         364.721         364.721        -5.17575        -5.17575        -4.04968        -4.04968
             231         363.158         363.158        -3.65808        -3.65808        -4.54585        -4.54585
             232         361.729         361.729        -2.53285        -2.53285        -4.69413        -4.69413
             233         360.454         360.454        -1.71324        -1.71324        -4.60657        -4.60657
             234         359.320         359.320        -1.12285        -1.12285        -4.34022        -4.34022
             235         358.312         358.312    -700.458E-03    -700.458E-03        -3.91297        -3.91297
             236         357.414         357.414    -400.616E-03    -400.616E-03        -3.31055        -3.31055
             237         356.624         356.624    -193.824E-03    -193.824E-03        -2.48980        -2.48980
             238         355.953         355.953    -67.2976E-03    -67.2976E-03        -1.38442        -1.38442
             239         357.171         357.171    -42.3554E-03    -42.3554E-03    -683.690E-03    -683.690E-03
             240         358.426         358.426    -54.2183E-03    -54.2183E-03    -587.990E-03    -587.990E-03
             241         359.475         359.475    -60.5684E-03    -60.5684E-03    -474.470E-03    -474.470E-03
             242         360.293         360.293    -62.2263E-03    -62.2263E-03    -353.528E-03    -353.528E-03
             243         360.872         360.872    -60.0002E-03    -60.0002E-03    -233.578E-03    -233.578E-03
             244         361.222         361.222    -54.9497E-03    -54.9497E-03    -121.172E-03    -121.172E-03
             245         361.363         361.363    -48.1347E-03    -48.1347E-03    -20.7603E-03    -20.7603E-03
             246         361.319         361.319    -40.4107E-03    -40.4107E-03     65.0946E-03     65.0946E-03
             247         361.122         361.122    -32.5270E-03    -32.5270E-03     135.410E-03     135.410E-03
             248         360.801         360.801    -24.9718E-03    -24.9718E-03     190.422E-03     190.422E-03
             249         360.385         360.385    -18.0906E-03    -18.0906E-03     231.172E-03     231.172E-03
             250         359.901         359.901    -12.0678E-03    -12.0678E-03     259.222E-03     259.222E-03
             251         359.373         359.373    -6.96375E-03    -6.96375E-03     276.357E-03     276.357E-03
             252         358.820         358.820    -2.78236E-03    -2.78236E-03     284.424E-03     284.424E-03
             253         358.259         358.259     554.429E-06     554.429E-06     285.182E-03     285.182E-03
             254         357.701         357.701     3.12196E-03     3.12196E-03     280.236E-03     280.236E-03
             255         357.158         357.158     5.03732E-03     5.03732E-03     270.991E-03     270.991E-03
             256         356.636         356.636     6.39384E-03     6.39384E-03     258.644E-03     258.644E-03
             257         356.140         356.140     7.29922E-03     7.29922E-03     244.187E-03     244.187E-03
             258         355.674         355.674     7.83621E-03     7.83621E-03     228.424E-03     228.424E-03
             259         355.240         355.240     8.08740E-03     8.08740E-03     211.993E-03     211.993E-03
             260         354.838         354.838     8.11605E-03     8.11605E-03     195.388E-03     195.388E-03
             261         354.469         354.469     7.97945E-03     7.97945E-03     178.982E-03     178.982E-03
             262         354.132         354.132     7.72183E-03     7.72183E-03     163.050E-03     163.050E-03
             263         353.826         353.826     7.38042E-03     7.38042E-03     147.784E-03     147.784E-03
             264         353.549         353.549     6.98425E-03     6.98425E-03     133.312E-03     133.312E-03
             265         353.300         353.300     6.55626E-03     6.55626E-03     119.714E-03     119.714E-03
             266         353.076         353.076     6.11457E-03     6.11457E-03     107.026E-03     107.026E-03
             267         352.877         352.877     5.67263E-03     5.67263E-03     95.2562E-03     95.2562E-03
             268         352.700         352.700     5.24120E-03     5.24120E-03     84.3874E-03     84.3874E-03
             269         352.543         352.543     4.82769E-03     4.82769E-03     74.3867E-03     74.3867E-03
             270         352.406         352.406     4.43823E-03     4.43823E-03     65.2077E-03     65.2077E-03
             271         352.286         352.286     4.07644E-03     4.07644E-03     56.7952E-03     56.7952E-03
             272         352.181         352.181     3.74579E-03     3.74579E-03     49.0872E-03     49.0872E-03
             273         352.092         352.092     3.44747E-03     3.44747E-03     42.0178E-03     42.0178E-03
             274         352.015         352.015     3.18371E-03     3.18371E-03     35.5181E-03     35.5181E-03
             275         351.951         351.951     2.95405E-03     2.95405E-03     29.5174E-03     29.5174E-03
             276         351.899         351.899     2.76046E-03     2.76046E-03     23.9446E-03     23.9446E-03
             277         351.857         351.857     2.60184E-03     2.60184E-03     18.7270E-03     18.7270E-03
             278         351.824         351.824     2.47884E-03     2.47884E-03     13.7938E-03     13.7938E-03
             279         351.802         351.802     2.40640E-03     2.40640E-03     9.05889E-03     9.05889E-03
             280         351.788         351.788     2.33401E-03     2.33401E-03     4.62368E-03     4.62368E-03
             281         351.816         351.816     6.73215E-03     6.73215E-03     4.70601E-03     4.70601E-03
             282         351.871         351.871     19.8093E-03     19.8093E-03     8.91645E-03     8.91645E-03
             283         351.910         351.910     40.9450E-03     40.9450E-03     12.8231E-03     12.8231E-03
             284         351.934         351.934     69.4678E-03     69.4678E-03     16.3549E-03     16.3549E-03
             285         351.943         351.943     104.530E-03     104.530E-03     19.4060E-03     19.4060E-03
             286         351.940         351.940     145.127E-03     145.127E-03     21.9223E-03     21.9223E-03
             287         351.926         351.926     190.148E-03     190.148E-03     23.8518E-03     23.8518E-03
             288         351.903         351.903     238.404E-03     238.404E-03     25.1674E-03     25.1674E-03
             289         351.873         351.873     288.663E-03     288.663E-03     25.8531E-03     25.8531E-03
             290         351.837         351.837     339.679E-03     339.679E-03     25.9095E-03     25.9095E-03
             291         351.799         351.799     390.219E-03     390.219E-03     25.3497E-03     25.3497E-03
             292         351.758         351.758     439.085E-03     439.085E-03     24.1965E-03     24.1965E-03
             293         332.454         332.454         96.4884         96.4884        -22.0773        -22.0773
             294         335.912         335.912         88.2263         88.2263        -21.9627        -21.9627
             295         339.273         339.273         79.9507         79.9507        -21.2715        -21.2715
             296         342.458         342.458         71.8318         71.8318        -20.2380        -20.2380
             297         345.390         345.390         64.0011         64.0011        -18.8874        -18.8874
             298         348.018         348.018         56.5725         56.5725        -17.2847        -17.2847
             299         350.309         350.309         49.6307         49.6307        -15.4912        -15.4912
             300         352.243         352.243         43.2384         43.2384        -13.5863        -13.5863
             301         353.832         353.832         37.4225         37.4225        -11.6390        -11.6390
             302         355.086         355.086         32.1913         32.1913        -9.71216        -9.71216
             303         356.042         356.042         27.5293         27.5293        -7.85851        -7.85851
             304         356.727         356.727         23.4089         23.4089        -6.11287        -6.11287
             305         357.181         357.181         19.7939         19.7939        -4.50361        -4.50361
             306         357.436         357.436         16.6414         16.6414        -3.04154        -3.04154
             307         357.528         357.528         13.9098         13.9098        -1.73456        -1.73456
             308         357.484         357.484         11.5545         11.5545    -578.337E-03    -578.337E-03
             309         357.329         357.329         9.53606         9.53606     432.007E-03     432.007E-03
             310         357.086         357.086         7.81410         7.81410         1.30827         1.30827
             311         356.772         356.772         6.35397         6.35397         2.06162         2.06162
             312         356.404         356.404         5.12102         5.12102         2.70646         2.70646
             313         355.995         355.995         4.08548         4.08548         3.25608         3.25608
             314         355.555         355.555         3.21807         3.21807         3.72493         3.72493
             315         355.093         355.093         2.49316         2.49316         4.12632         4.12632
             316         354.618         354.618         1.88567         1.88567         4.47377         4.47377
             317         354.138         354.138         1.37303         1.37303         4.77986         4.77986
             318         353.658         353.658     933.023E-03     933.023E-03         5.05711         5.05711
             319         353.186         353.186     544.895E-03     544.895E-03         5.31749         5.31749
             320         352.730         352.730     187.862E-03     187.862E-03         5.57297         5.57297
             321         352.298         352.298    -158.446E-03    -158.446E-03         5.83534         5.83534
             322         351.901         351.901    -515.093E-03    -515.093E-03         6.11652         6.11652
             323         351.553         351.553    -903.896E-03    -903.896E-03         6.42838         6.42838
             324         351.270         351.270        -1.34842        -1.34842         6.78264         6.78264
             325         351.078         351.078        -1.87450        -1.87450         7.19012         7.19012
             326         351.009         351.009        -2.51116        -2.51116         7.65963         7.65963
             327         351.106         351.106        -3.29150        -3.29150         8.19553         8.19553
             328         351.429         351.429        -4.25258        -4.25258         8.79371         8.79371
             329         352.057         352.057        -5.43529        -5.43529         9.43449         9.43449
             330         353.095         353.095        -6.87816        -6.87816         10.0712         10.0712
             331         354.671         354.671        -8.60820        -8.60820         10.6132         10.6132
             332         356.925         356.925        -10.6077        -10.6077         10.9023         10.9023
             333         359.980         359.980        -12.7695        -12.7695         10.6979         10.6979
             334         363.843         363.843        -14.7946        -14.7946         9.67815         9.67815
             335         355.570         355.570    -48.2680E-03    -48.2680E-03    -552.849E-03    -552.849E-03
             336         356.556         356.556    -60.7277E-03    -60.7277E-03    -444.817E-03    -444.817E-03
             337         357.308         357.308    -67.8637E-03    -67.8637E-03    -317.299E-03    -317.299E-03
             338         357.801         357.801    -70.1940E-03    -70.1940E-03    -180.848E-03    -180.848E-03
             339         358.023         358.023    -68.7630E-03    -68.7630E-03    -43.8613E-03    -43.8613E-03
             340         357.981         357.981    -64.3775E-03    -64.3775E-03     87.1261E-03     87.1261E-03
             341         357.691         357.691    -58.3377E-03    -58.3377E-03     207.633E-03     207.633E-03
             342         357.176         357.176    -51.2185E-03    -51.2185E-03     315.083E-03     315.083E-03
             343         356.463         356.463    -44.0715E-03    -44.0715E-03     408.429E-03     408.429E-03
             344         355.580         355.580    -36.9818E-03    -36.9818E-03     487.836E-03     487.836E-03
             345         354.552         354.552    -30.7691E-03    -30.7691E-03     554.228E-03     554.228E-03
             346         353.405         353.405    -24.9593E-03    -24.9593E-03     609.024E-03     609.024E-03
             347         352.160         352.160    -20.4162E-03    -20.4162E-03     653.811E-03     653.811E-03
             348         350.835         350.835    -16.0314E-03    -16.0314E-03     690.189E-03     690.189E-03
             349         349.445         349.445    -13.1045E-03    -13.1045E-03     719.606E-03     719.606E-03
             350         348.003         348.003    -9.67429E-03    -9.67429E-03     743.283E-03     743.283E-03
             351         346.519         346.519    -7.98148E-03    -7.98148E-03     762.154E-03     762.154E-03
             352         345.001         345.001    -4.73735E-03    -4.73735E-03     776.838E-03     776.838E-03
             353         343.458         343.458    -3.85819E-03    -3.85819E-03     787.639E-03     787.639E-03
             354         341.898         341.898     152.673E-06     152.673E-06     794.509E-03     794.509E-03
             355         340.328         340.328     519.834E-06     519.834E-06     797.094E-03     797.094E-03
             356         338.758         338.758     6.49224E-03     6.49224E-03     794.637E-03     794.637E-03
             357         337.199         337.199     6.43643E-03     6.43643E-03     786.090E-03     786.090E-03
             358         335.664         335.664     16.0271E-03     16.0271E-03     769.850E-03     769.850E-03
             359         334.170         334.170     15.3287E-03     15.3287E-03     744.066E-03     744.066E-03
             360         332.738         332.738     31.1055E-03     31.1055E-03     705.933E-03     705.933E-03
             361         331.396         331.396     29.0740E-03     29.0740E-03     652.555E-03     652.555E-03
             362         330.179         330.179     55.4212E-03     55.4212E-03     579.042E-03     579.042E-03
             363         329.131         329.131     50.5565E-03     50.5565E-03     481.059E-03     481.059E-03
             364         328.307         328.307     95.6753E-03     95.6753E-03     349.408E-03     349.408E-03
             365         327.783         327.783     84.8425E-03     84.8425E-03     177.871E-03     177.871E-03
             366         327.652         327.652     165.774E-03     165.774E-03    -53.1034E-03    -53.1034E-03
             367         328.044         328.044     141.825E-03     141.825E-03    -351.349E-03    -351.349E-03
             368         329.133         329.133     299.014E-03     299.014E-03    -764.951E-03    -764.951E-03
             369         331.160         331.160     242.895E-03     242.895E-03        -1.29889        -1.29889
             370         334.481         334.481     590.046E-03     590.046E-03        -2.09193        -2.09193
             371         339.619         339.619     441.294E-03     441.294E-03        -3.12251        -3.12251
             372         347.460         347.460         1.37823         1.37823        -4.87680        -4.87680
             373         359.385         359.385     908.414E-03     908.414E-03        -7.19545        -7.19545
             374         378.631         378.631         4.44830         4.44830        -12.4182        -12.4182
             375         410.506         410.506         2.59750         2.59750        -19.7451        -19.7451
             376         484.209         484.209         34.7803         34.7803        -55.0086        -55.0086
             377         470.790         470.790         90.7871         90.7871        -92.6429        -92.6429
             378         392.882         392.882         104.632         104.632        -86.5398        -86.5398
             379         371.621         371.621         102.710         102.710        -72.7332        -72.7332
             380         356.997         356.997         102.552         102.552        -65.4051        -65.4051
             381         349.207         349.207         101.805         101.805        -57.8134        -57.8134
             382         343.492         343.492         101.423         101.423        -52.0997        -52.0997
             383         339.816         339.816         101.114         101.114        -46.5830        -46.5830
             384         337.009         337.009         100.901         100.901        -41.8642        -41.8642
             385         335.036         335.036         100.776         100.776        -37.3589        -37.3589
             386         333.490         333.490         100.678         100.678        -33.2727        -33.2727
             387         332.350         332.350         100.634         100.634        -29.3597        -29.3597
             388         331.443         331.443         100.595         100.595        -25.6949        -25.6949
             389         368.946         368.946        -13.2443        -13.2443        -3.03368        -3.03368
             390         367.985         367.985        -10.3946        -10.3946    -193.463E-03    -193.463E-03
             391         366.403         366.403        -7.86553        -7.86553         1.62378         1.62378
             392         364.634         364.634        -5.79847        -5.79847         2.68637         2.68637
             393         362.898         362.898        -4.18424        -4.18424         3.24487         3.24487
             394         361.288         361.288        -2.95825        -2.95825         3.47733         3.47733
             395         359.829         359.829        -2.04166        -2.04166         3.49642         3.49642
             396         358.520         358.520        -1.36263        -1.36263         3.36098         3.36098
             397         357.350         357.350    -862.630E-03    -862.630E-03         3.08934         3.08934
             398         356.310         356.310    -498.286E-03    -498.286E-03         2.66616         2.66616
             399         355.403         355.403    -241.919E-03    -241.919E-03         2.04537         2.04537
             400         354.649         354.649    -83.5758E-03    -83.5758E-03         1.15505         1.15505
             401         352.763         352.763    -907.737E-06    -907.737E-06     666.391E-03     666.391E-03
             402         351.134         351.134     31.7093E-03     31.7093E-03     630.788E-03     630.788E-03
             403         349.697         349.697     63.7835E-03     63.7835E-03     514.326E-03     514.326E-03
             404         348.646         348.646     89.2281E-03     89.2281E-03     326.078E-03     326.078E-03
             405         348.134         348.134     105.097E-03     105.097E-03     86.4665E-03     86.4665E-03
             406         348.251         348.251     104.689E-03     104.689E-03    -171.779E-03    -171.779E-03
             407         348.991         348.991     90.3498E-03     90.3498E-03    -411.229E-03    -411.229E-03
             408         350.271         350.271     67.0682E-03     67.0682E-03    -603.630E-03    -603.630E-03
             409         351.946         351.946     35.7478E-03     35.7478E-03    -727.993E-03    -727.993E-03
             410         353.833         353.833     3.68890E-03     3.68890E-03    -773.762E-03    -773.762E-03
             411         377.823         377.823         31.6904         31.6904         9.94486         9.94486
             412         381.838         381.838         16.2315         16.2315         14.3796         14.3796
             413         383.878         383.878     210.762E-06     210.762E-06         11.6421         11.6421
             414         382.071         382.071        -11.3279        -11.3279         4.96574         4.96574
             415         377.214         377.214        -16.6590        -16.6590        -1.92763        -1.92763
             416         377.723         377.723        -15.1188        -15.1188    -368.268E-03    -368.268E-03
             417         382.635         382.635        -6.82213        -6.82213        -8.56651        -8.56651
             418         382.669         382.669         9.56132         9.56132        -14.4132        -14.4132
             419         378.697         378.697         28.2912         28.2912        -11.9065        -11.9065
             420         332.456         332.456         96.4864         96.4864         22.0710         22.0710
             421         335.912         335.912         88.2260         88.2260         21.9537         21.9537
             422         339.272         339.272         79.9527         79.9527         21.2594         21.2594
             423         342.456         342.456         71.8367         71.8367         20.2231         20.2231
             424         345.386         345.386         64.0092         64.0092         18.8701         18.8701
             425         348.013         348.013         56.5840         56.5840         17.2662         17.2662
             426         350.303         350.303         49.6453         49.6453         15.4722         15.4722
             427         352.237         352.237         43.2560         43.2560         13.5678         13.5678
             428         353.827         353.827         37.4423         37.4423         11.6217         11.6217
             429         355.081         355.081         32.2130         32.2130         9.69676         9.69676
             430         356.038         356.038         27.5521         27.5521         7.84548         7.84548
             431         356.724         356.724         23.4323         23.4323         6.10255         6.10255
             432         357.181         357.181         19.8172         19.8172         4.49621         4.49621
             433         357.438         357.438         16.6641         16.6641         3.03709         3.03709
             434         357.532         357.532         13.9316         13.9316         1.73310         1.73310
             435         357.488         357.488         11.5750         11.5750     579.726E-03     579.726E-03
             436         357.336         357.336         9.55513         9.55513    -427.826E-03    -427.826E-03
             437         357.093         357.093         7.83157         7.83157        -1.30151        -1.30151
             438         356.781         356.781         6.36988         6.36988        -2.05239        -2.05239
             439         356.414         356.414         5.13535         5.13535        -2.69497        -2.69497
             440         356.004         356.004         4.09841         4.09841        -3.24246        -3.24246
             441         355.564         355.564         3.22973         3.22973        -3.70938        -3.70938
             442         355.102         355.102         2.50381         2.50381        -4.10896        -4.10896
             443         354.625         354.625         1.89559         1.89559        -4.45477        -4.45477
             444         354.143         354.143         1.38258         1.38258        -4.75935        -4.75935
             445         353.660         353.660     942.611E-03     942.611E-03        -5.03527        -5.03527
             446         353.185         353.185     555.045E-03     555.045E-03        -5.29447        -5.29447
             447         352.724         352.724     199.153E-03     199.153E-03        -5.54901        -5.54901
             448         352.286         352.286    -145.280E-03    -145.280E-03        -5.81072        -5.81072
             449         351.881         351.881    -499.213E-03    -499.213E-03        -6.09167        -6.09167
             450         351.524         351.524    -884.265E-03    -884.265E-03        -6.40393        -6.40393
             451         351.230         351.230        -1.32387        -1.32387        -6.75955        -6.75955
             452         351.024         351.024        -1.84365        -1.84365        -7.16985        -7.16985
             453         350.937         350.937        -2.47261        -2.47261        -7.64448        -7.64448
             454         351.012         351.012        -3.24385        -3.24385        -8.18894        -8.18894
             455         351.309         351.309        -4.19508        -4.19508        -8.80094        -8.80094
             456         351.908         351.908        -5.36833        -5.36833        -9.46301        -9.46301
             457         352.915         352.915        -6.80526        -6.80526        -10.1315        -10.1315
             458         354.464         354.464        -8.53779        -8.53779        -10.7173        -10.7173
             459         356.705         356.705        -10.5543        -10.5543        -11.0605        -11.0605
             460         359.767         359.767        -12.7507        -12.7507        -10.9117        -10.9117
             461         363.662         363.662        -14.8234        -14.8234        -9.93768        -9.93768
             462         362.787         362.787        -20.6579        -20.6579        -18.5750        -18.5750
             463         347.578         347.578        -18.7417        -18.7417        -27.9376        -27.9376
             464         322.805         322.805        -10.4515        -10.4515        -31.5473        -31.5473
             465         296.655         296.655     916.931E-03     916.931E-03        -22.0836        -22.0836
             466         292.027         292.027         3.05752         3.05752         19.6084         19.6084
             467         313.111         313.111        -6.58645        -6.58645         30.8521         30.8521
             468         336.337         336.337        -15.6377        -15.6377         31.5143         31.5143
             469         354.213         354.213        -20.3753        -20.3753         25.2728         25.2728
             470         364.714         364.714        -20.6771        -20.6771         16.9214         16.9214
             471         330.106         330.106         100.583         100.583        -17.8937        -17.8937
             472         329.629         329.629         100.586         100.586        -13.7587        -13.7587
             473         329.298         329.298         100.590         100.590        -9.75345        -9.75345
             474         329.092         329.092         100.596         100.596        -5.82412        -5.82412
             475         328.992         328.992         100.597         100.597        -1.94961        -1.94961
             476         328.993         328.993         100.595         100.595         1.91652         1.91652
             477         329.094         329.094         100.591         100.591         5.79505         5.79505
             478         329.300         329.300         100.584         100.584         9.73036         9.73036
             479         329.632         329.632         100.580         100.580         13.7425         13.7425
             480         330.109         330.109         100.578         100.578         17.8840         17.8840
             481         331.444         331.444         100.593         100.593         25.6920         25.6920
             482         332.350         332.350         100.633         100.633         29.3577         29.3577
             483         333.491         333.491         100.677         100.677         33.2712         33.2712
             484         335.036         335.036         100.776         100.776         37.3577         37.3577
             485         337.009         337.009         100.901         100.901         41.8632         41.8632
             486         339.816         339.816         101.114         101.114         46.5821         46.5821
             487         343.492         343.492         101.423         101.423         52.0989         52.0989
             488         349.207         349.207         101.805         101.805         57.8128         57.8128
             489         356.998         356.998         102.552         102.552         65.4046         65.4046
             490         371.621         371.621         102.710         102.710         72.7327         72.7327
             491         392.882         392.882         104.632         104.632         86.5394         86.5394
             492         470.789         470.789         90.7870         90.7870         92.6426         92.6426
             493         484.209         484.209         34.7803         34.7803         55.0084         55.0084
             494         410.506         410.506         2.59748         2.59748         19.7450         19.7450
             495         378.631         378.631         4.44828         4.44828         12.4181         12.4181
             496         359.386         359.386     908.400E-03     908.400E-03         7.19537         7.19537
             497         347.461         347.461         1.37822         1.37822         4.87675         4.87675
             498         339.619         339.619     441.282E-03     441.282E-03         3.12248         3.12248
             499         334.481         334.481     590.035E-03     590.035E-03         2.09193         2.09193
             500         331.161         331.161     242.885E-03     242.885E-03         1.29891         1.29891
             501         329.133         329.133     299.006E-03     299.006E-03     764.985E-03     764.985E-03
             502         328.045         328.045     141.819E-03     141.819E-03     351.397E-03     351.397E-03
             503         327.652         327.652     165.769E-03     165.769E-03     53.1622E-03     53.1622E-03
             504         327.783         327.783     84.8393E-03     84.8393E-03    -177.804E-03    -177.804E-03
             505         328.307         328.307     95.6729E-03     95.6729E-03    -349.336E-03    -349.336E-03
             506         329.131         329.131     50.5553E-03     50.5553E-03    -480.983E-03    -480.983E-03
             507         330.179         330.179     55.4204E-03     55.4204E-03    -578.965E-03    -578.965E-03
             508         331.396         331.396     29.0739E-03     29.0739E-03    -652.476E-03    -652.476E-03
             509         332.738         332.738     31.1056E-03     31.1056E-03    -705.855E-03    -705.855E-03
             510         334.169         334.169     15.3289E-03     15.3289E-03    -743.988E-03    -743.988E-03
             511         335.663         335.663     16.0277E-03     16.0277E-03    -769.773E-03    -769.773E-03
             512         337.198         337.198     6.43654E-03     6.43654E-03    -786.013E-03    -786.013E-03
             513         338.757         338.757     6.49304E-03     6.49304E-03    -794.561E-03    -794.561E-03
             514         340.327         340.327     519.502E-06     519.502E-06    -797.019E-03    -797.019E-03
             515         341.897         341.897     153.551E-06     153.551E-06    -794.433E-03    -794.433E-03
             516         343.457         343.457    -3.85922E-03    -3.85922E-03    -787.562E-03    -787.562E-03
             517         344.999         344.999    -4.73643E-03    -4.73643E-03    -776.760E-03    -776.760E-03
             518         346.517         346.517    -7.98342E-03    -7.98342E-03    -762.075E-03    -762.075E-03
             519         348.001         348.001    -9.67328E-03    -9.67328E-03    -743.202E-03    -743.202E-03
             520         349.443         349.443    -13.1072E-03    -13.1072E-03    -719.524E-03    -719.524E-03
             521         350.833         350.833    -16.0296E-03    -16.0296E-03    -690.104E-03    -690.104E-03
             522         352.158         352.158    -20.4175E-03    -20.4175E-03    -653.725E-03    -653.725E-03
             523         353.403         353.403    -24.9536E-03    -24.9536E-03    -608.941E-03    -608.941E-03
             524         354.549         354.549    -30.7622E-03    -30.7622E-03    -554.157E-03    -554.157E-03
             525         355.577         355.577    -36.9638E-03    -36.9638E-03    -487.786E-03    -487.786E-03
             526         356.460         356.460    -44.0422E-03    -44.0422E-03    -408.425E-03    -408.425E-03
             527         357.173         357.173    -51.1753E-03    -51.1753E-03    -315.148E-03    -315.148E-03
             528         357.688         357.688    -58.2708E-03    -58.2708E-03    -207.806E-03    -207.806E-03
             529         357.979         357.979    -64.3066E-03    -64.3066E-03    -87.4328E-03    -87.4328E-03
             530         358.022         358.022    -68.6721E-03    -68.6721E-03     43.3956E-03     43.3956E-03
             531         357.800         357.800    -70.1384E-03    -70.1384E-03     180.238E-03     180.238E-03
             532         357.309         357.309    -67.8328E-03    -67.8328E-03     316.605E-03     316.605E-03
             533         356.558         356.558    -60.7724E-03    -60.7724E-03     444.140E-03     444.140E-03
             534         355.574         355.574    -48.4415E-03    -48.4415E-03     552.600E-03     552.600E-03
             535         5.61423         5.61423        -176.518        -176.518    -801.620E-03    -801.620E-03
             536         48.0474         48.0474        -65.7796        -65.7796        -2.19060        -2.19060
             537         116.192         116.192        -12.6144        -12.6144        -2.50778        -2.50778
             538         186.559         186.559         6.36454         6.36454        -2.19221        -2.19221
             539         245.016         245.016         9.48673         9.48673        -1.58245        -1.58245
             540         380.018         380.018        -27.5954        -27.5954        -13.9454        -13.9454
             541         393.986         393.986        -41.5577        -41.5577        -25.1088        -25.1088
             542         407.188         407.188        -54.5625        -54.5625        -43.2377        -43.2377
             543         404.134         404.134        -51.0223        -51.0223        -71.6732        -71.6732
             544         343.417         343.417         11.4976         11.4976        -115.369        -115.369
             545         172.317         172.317         11.0308         11.0308        -91.0454        -91.0454
             546         79.9432         79.9432        -67.0481        -67.0481        -41.6710        -41.6710
             547         25.7502         25.7502        -152.862        -152.862        -6.92064        -6.92064
             548     829.420E-03     829.420E-03        -221.011        -221.011         5.07433         5.07433
             549         392.301         392.301         57.4033         57.4033     377.158E-03     377.158E-03
             550         425.569         425.569         85.5721         85.5721     323.025E-03     323.025E-03
             551         488.368         488.368         111.782         111.782     282.566E-03     282.566E-03
             552         600.714         600.714         120.059         120.059     240.461E-03     240.461E-03
             553         785.058         785.058         87.7397         87.7397     159.712E-03     159.712E-03
             554         855.660         855.660         67.8416         67.8416        -98.6846        -98.6846
             555         742.087         742.087         89.0226         89.0226        -168.672        -168.672
             556         588.726         588.726         103.481         103.481        -195.450        -195.450
             557         430.322         430.322         95.6563         95.6563        -181.682        -181.682
             558         347.388         347.388         12.6487         12.6487         116.060         116.060
             559         406.855         406.855        -50.7657        -50.7657         70.8042         70.8042
             560         408.715         408.715        -54.4107        -54.4107         42.1963         42.1963
             561         394.759         394.759        -41.4146        -41.4146         24.3055         24.3055
             562         380.383         380.383        -27.4674        -27.4674         13.4065         13.4065
             563        -1.49832        -1.49832        -232.672        -232.672        -5.75164        -5.75164
             564         13.9256         13.9256        -181.422        -181.422    -732.667E-03    -732.667E-03
             565         47.1199         47.1199        -111.479        -111.479         20.5896         20.5896
             566         104.418         104.418        -38.8803        -38.8803         56.4632         56.4632
             567         188.809         188.809         22.9499         22.9499         99.5176         99.5176
             568         381.002         381.002        -28.1459        -28.1459         14.1767         14.1767
             569         395.349         395.349        -41.9693        -41.9693         24.8355         24.8355
             570         409.288         409.288        -54.8615        -54.8615         42.5475         42.5475
             571         407.448         407.448        -51.1002        -51.1002         71.0404         71.0404
             572         347.964         347.964         12.5558         12.5558         116.302         116.302
             573         430.900         430.900         95.5108         95.5108         181.974         181.974
             574         589.364         589.364         103.629         103.629         195.767         195.767
             575         742.654         742.654         89.1601         89.1601         168.964         168.964
             576         855.997         855.997         67.9190         67.9190         98.9197         98.9197
             577         339.667         339.667         10.1313         10.1313        -114.942        -114.942
             578         402.507         402.507        -52.5747        -52.5747        -72.6379        -72.6379
             579         406.442         406.442        -55.6960        -55.6960        -44.4928        -44.4928
             580         393.753         393.753        -42.4365        -42.4365        -26.3148        -26.3148
             581         380.131         380.131        -28.4071        -28.4071        -15.1461        -15.1461
             582         392.180         392.180         57.9824         57.9824        -1.17586        -1.17586
             583         425.577         425.577         86.1863         86.1863        -1.25578        -1.25578
             584         488.667         488.667         112.255         112.255    -904.099E-03    -904.099E-03
             585         601.460         601.460         120.239         120.239     235.743E-03     235.743E-03
             586         786.444         786.444         87.4420         87.4420         2.60039         2.60039
             587         872.561         872.561         64.2494         64.2494        -84.8356        -84.8356
             588         789.411         789.411         81.6245         81.6245        -151.901        -151.901
             589         670.115         670.115         99.0829         99.0829        -189.928        -189.928
             590         535.643         535.643         105.329         105.329        -196.904        -196.904
             591         405.078         405.078         93.6458         93.6458        -177.939        -177.939
             592         430.165         430.165         95.3239         95.3239         181.624         181.624
             593         588.443         588.443         103.441         103.441         195.391         195.391
             594         741.583         741.583         88.9513         88.9513         168.670         168.670
             595         854.910         854.910         67.9186         67.9186         98.6724         98.6724
             596         245.802         245.802         8.63907         8.63907        -1.57321        -1.57321
             597         187.061         187.061         5.68226         5.68226        -2.17359        -2.17359
             598         116.456         116.456        -13.2233        -13.2233        -2.48091        -2.48091
             599         48.1223         48.1223        -66.4431        -66.4431        -2.16098        -2.16098
             600         5.59165         5.59165        -177.428        -177.428    -777.938E-03    -777.938E-03
             601        -1.52151        -1.52151        -233.679        -233.679        -5.78265        -5.78265
             602         13.9391         13.9391        -182.226        -182.226    -770.858E-03    -770.858E-03
             603         47.2108         47.2108        -112.020        -112.020         20.5930         20.5930
             604         104.622         104.622        -39.1631        -39.1631         56.5546         56.5546
             605         189.177         189.177         22.8884         22.8884         99.7008         99.7008
             606         172.581         172.581         10.7969         10.7969        -91.0800        -91.0800
             607         80.0199         80.0199        -67.5602        -67.5602        -41.6333        -41.6333
             608         25.7466         25.7466        -153.660        -153.660        -6.83366        -6.83366
             609     793.139E-03     793.139E-03        -222.028        -222.028         5.14840         5.14840
             610         364.951         364.951        -12.1619        -12.1619        -4.42028        -4.42028
             611         361.708         361.708        -10.9489        -10.9489        -5.96583        -5.96583
             612         358.841         358.841        -9.34752        -9.34752        -6.80294        -6.80294
             613         356.467         356.467        -7.64996        -7.64996        -7.09054        -7.09054
             614         354.595         354.595        -6.03918        -6.03918        -7.01402        -7.01402
             615         353.170         353.170        -4.60001        -4.60001        -6.72060        -6.72060
             616         352.118         352.118        -3.36022        -3.36022        -6.31633        -6.31633
             617         351.363         351.363        -2.31587        -2.31587        -5.86790        -5.86790
             618         350.840         350.840        -1.45074        -1.45074        -5.41528        -5.41528
             619         350.493         350.493    -743.589E-03    -743.589E-03        -4.98016        -4.98016
             620         350.279         350.279    -173.147E-03    -173.147E-03        -4.57311        -4.57311
             621         350.164         350.164     280.594E-03     280.594E-03        -4.19790        -4.19790
             622         350.123         350.123     635.425E-03     635.425E-03        -3.85456        -3.85456
             623         350.134         350.134     907.022E-03     907.022E-03        -3.54115        -3.54115
             624         350.183         350.183         1.10895         1.10895        -3.25490        -3.25490
             625         350.258         350.258         1.25293         1.25293        -2.99283        -2.99283
             626         350.349         350.349         1.34904         1.34904        -2.75208        -2.75208
             627         350.450         350.450         1.40593         1.40593        -2.53012        -2.53012
             628         350.556         350.556         1.43101         1.43101        -2.32478        -2.32478
             629         350.664         350.664         1.43059         1.43059        -2.13423        -2.13423
             630         350.769         350.769         1.41004         1.41004        -1.95697        -1.95697
             631         350.871         350.871         1.37394         1.37394        -1.79180        -1.79180
             632         350.969         350.969         1.32612         1.32612        -1.63770        -1.63770
             633         351.060         351.060         1.26982         1.26982        -1.49386        -1.49386
             634         351.145         351.145         1.20775         1.20775        -1.35958        -1.35958
             635         351.224         351.224         1.14216         1.14216        -1.23426        -1.23426
             636         351.296         351.296         1.07489         1.07489        -1.11734        -1.11734
             637         351.361         351.361         1.00748         1.00748        -1.00835        -1.00835
             638         351.420         351.420     941.169E-03     941.169E-03    -906.797E-03    -906.797E-03
             639         351.474         351.474     876.954E-03     876.954E-03    -812.222E-03    -812.222E-03
             640         351.521         351.521     815.638E-03     815.638E-03    -724.164E-03    -724.164E-03
             641         351.563         351.563     757.856E-03     757.856E-03    -642.160E-03    -642.160E-03
             642         351.600         351.600     704.102E-03     704.102E-03    -565.739E-03    -565.739E-03
             643         351.633         351.633     654.761E-03     654.761E-03    -494.424E-03    -494.424E-03
             644         351.661         351.661     610.122E-03     610.122E-03    -427.729E-03    -427.729E-03
             645         351.685         351.685     570.404E-03     570.404E-03    -365.161E-03    -365.161E-03
             646         351.705         351.705     535.765E-03     535.765E-03    -306.219E-03    -306.219E-03
             647         351.722         351.722     506.319E-03     506.319E-03    -250.396E-03    -250.396E-03
             648         351.735         351.735     482.148E-03     482.148E-03    -197.179E-03    -197.179E-03
             649         351.746         351.746     463.304E-03     463.304E-03    -146.053E-03    -146.053E-03
             650         351.753         351.753     449.825E-03     449.825E-03    -96.4985E-03    -96.4985E-03
             651         351.757         351.757     441.720E-03     441.720E-03    -48.1251E-03    -48.1251E-03
             652         365.214         365.214        -10.1873        -10.1873        -1.44417        -1.44417
             653         362.694         362.694        -9.64860        -9.64860        -3.18286        -3.18286
             654         360.325         360.325        -8.63035        -8.63035        -4.35998        -4.35998
             655         358.218         358.218        -7.37058        -7.37058        -5.06382        -5.06382
             656         356.438         356.438        -6.05448        -6.05448        -5.39827        -5.39827
             657         354.990         354.990        -4.79640        -4.79640        -5.47320        -5.47320
             658         353.847         353.847        -3.65640        -3.65640        -5.37795        -5.37795
             659         352.969         352.969        -2.65916        -2.65916        -5.18005        -5.18005
             660         352.309         352.309        -1.80817        -1.80817        -4.92544        -4.92544
             661         351.826         351.826        -1.09626        -1.09626        -4.64435        -4.64435
             662         351.483         351.483    -510.833E-03    -510.833E-03        -4.35542        -4.35542
             663         351.249         351.249    -37.4973E-03    -37.4973E-03        -4.06970        -4.06970
             664         351.099         351.099     338.390E-03     338.390E-03        -3.79324        -3.79324
             665         351.012         351.012     630.665E-03     630.665E-03        -3.52900        -3.52900
             666         350.973         350.973     852.043E-03     852.043E-03        -3.27814        -3.27814
             667         350.969         350.969         1.01389         1.01389        -3.04079        -3.04079
             668         350.989         350.989         1.12627         1.12627        -2.81659        -2.81659
             669         351.027         351.027         1.19793         1.19793        -2.60492        -2.60492
             670         351.075         351.075         1.23647         1.23647        -2.40515        -2.40515
             671         351.131         351.131         1.24841         1.24841        -2.21666        -2.21666
             672         351.189         351.189         1.23930         1.23930        -2.03889        -2.03889
             673         351.249         351.249         1.21387         1.21387        -1.87136        -1.87136
             674         351.307         351.307         1.17608         1.17608        -1.71363        -1.71363
             675         351.363         351.363         1.12926         1.12926        -1.56532        -1.56532
             676         351.416         351.416         1.07617         1.07617        -1.42607        -1.42607
             677         351.465         351.465         1.01911         1.01911        -1.29552        -1.29552
             678         351.510         351.510     959.948E-03     959.948E-03        -1.17332        -1.17332
             679         351.552         351.552     900.221E-03     900.221E-03        -1.05911        -1.05911
             680         351.589         351.589     841.167E-03     841.167E-03    -952.504E-03    -952.504E-03
             681         351.623         351.623     783.780E-03     783.780E-03    -853.104E-03    -853.104E-03
             682         351.653         351.653     728.848E-03     728.848E-03    -760.485E-03    -760.485E-03
             683         351.679         351.679     676.994E-03     676.994E-03    -674.205E-03    -674.205E-03
             684         351.702         351.702     628.699E-03     628.699E-03    -593.797E-03    -593.797E-03
             685         351.722         351.722     584.333E-03     584.333E-03    -518.778E-03    -518.778E-03
             686         351.740         351.740     544.174E-03     544.174E-03    -448.648E-03    -448.648E-03
             687         351.754         351.754     508.430E-03     508.430E-03    -382.893E-03    -382.893E-03
             688         351.767         351.767     477.251E-03     477.251E-03    -320.988E-03    -320.988E-03
             689         351.777         351.777     450.744E-03     450.744E-03    -262.397E-03    -262.397E-03
             690         351.785         351.785     428.984E-03     428.984E-03    -206.579E-03    -206.579E-03
             691         351.791         351.791     412.020E-03     412.020E-03    -152.984E-03    -152.984E-03
             692         351.795         351.795     399.885E-03     399.885E-03    -101.061E-03    -101.061E-03
             693         351.798         351.798     392.587E-03     392.587E-03    -50.3973E-03    -50.3973E-03
             694         364.707         364.707        -8.20153        -8.20153     725.584E-03     725.584E-03
             695         362.869         362.869        -8.17354        -8.17354        -1.00422        -1.00422
             696         361.007         361.007        -7.61360        -7.61360        -2.31902        -2.31902
             697         359.252         359.252        -6.74562        -6.74562        -3.25468        -3.25468
             698         357.680         357.680        -5.73086        -5.73086        -3.86528        -3.86528
             699         356.330         356.330        -4.68885        -4.68885        -4.21706        -4.21706
             700         355.207         355.207        -3.69464        -3.69464        -4.37658        -4.37658
             701         354.297         354.297        -2.79047        -2.79047        -4.39965        -4.39965
             702         353.576         353.576        -1.99561        -1.99561        -4.33019        -4.33019
             703         353.016         353.016        -1.31479        -1.31479        -4.20012        -4.20012
             704         352.589         352.589    -744.262E-03    -744.262E-03        -4.03214        -4.03214
             705         352.269         352.269    -275.567E-03    -275.567E-03        -3.84169        -3.84169
             706         352.036         352.036     101.872E-03     101.872E-03        -3.63922        -3.63922
             707         351.870         351.870     399.368E-03     399.368E-03        -3.43160        -3.43160
             708         351.756         351.756     628.006E-03     628.006E-03        -3.22340        -3.22340
             709         351.682         351.682     798.213E-03     798.213E-03        -3.01761        -3.01761
             710         351.637         351.637     919.471E-03     919.471E-03        -2.81621        -2.81621
             711         351.615         351.615         1.00025         1.00025        -2.62053        -2.62053
             712         351.608         351.608         1.04796         1.04796        -2.43150        -2.43150
             713         351.613         351.613         1.06905         1.06905        -2.24974        -2.24974
             714         351.624         351.624         1.06902         1.06902        -2.07570        -2.07570
             715         351.640         351.640         1.05256         1.05256        -1.90968        -1.90968
             716         351.659         351.659         1.02362         1.02362        -1.75187        -1.75187
             717         351.678         351.678     985.497E-03     985.497E-03        -1.60236        -1.60236
             718         351.697         351.697     940.919E-03     940.919E-03        -1.46116        -1.46116
             719         351.716         351.716     892.141E-03     892.141E-03        -1.32819        -1.32819
             720         351.734         351.734     841.003E-03     841.003E-03        -1.20332        -1.20332
             721         351.750         351.750     788.998E-03     788.998E-03        -1.08632        -1.08632
             722         351.764         351.764     737.327E-03     737.327E-03    -976.935E-03    -976.935E-03
             723         351.777         351.777     686.946E-03     686.946E-03    -874.836E-03    -874.836E-03
             724         351.788         351.788     638.612E-03     638.612E-03    -779.649E-03    -779.649E-03
             725         351.798         351.798     592.914E-03     592.914E-03    -690.961E-03    -690.961E-03
             726         351.806         351.806     550.310E-03     550.310E-03    -608.321E-03    -608.321E-03
             727         351.813         351.813     511.145E-03     511.145E-03    -531.251E-03    -531.251E-03
             728         351.819         351.819     475.680E-03     475.680E-03    -459.244E-03    -459.244E-03
             729         351.824         351.824     444.107E-03     444.107E-03    -391.778E-03    -391.778E-03
             730         351.828         351.828     416.563E-03     416.563E-03    -328.312E-03    -328.312E-03
             731         351.831         351.831     393.146E-03     393.146E-03    -268.292E-03    -268.292E-03
             732         351.833         351.833     373.922E-03     373.922E-03    -211.157E-03    -211.157E-03
             733         351.835         351.835     358.936E-03     358.936E-03    -156.336E-03    -156.336E-03
             734         351.836         351.836     348.216E-03     348.216E-03    -103.256E-03    -103.256E-03
             735         351.837         351.837     341.769E-03     341.769E-03    -51.4927E-03    -51.4927E-03
             736         363.779         363.779        -6.39171        -6.39171         2.18793         2.18793
             737         362.530         362.530        -6.68734        -6.68734     614.823E-03     614.823E-03
             738         361.147         361.147        -6.47010        -6.47010    -701.563E-03    -701.563E-03
             739         359.759         359.759        -5.91778        -5.91778        -1.73718        -1.73718
             740         358.448         358.448        -5.17505        -5.17505        -2.50862        -2.50862
             741         357.266         357.266        -4.34976        -4.34976        -3.04909        -3.04909
             742         356.237         356.237        -3.52015        -3.52015        -3.39971        -3.39971
             743         355.366         355.366        -2.73604        -2.73604        -3.60162        -3.60162
             744         354.645         354.645        -2.02627        -2.02627        -3.69064        -3.69064
             745         354.058         354.058        -1.40431        -1.40431        -3.69621        -3.69621
             746         353.587         353.587    -873.505E-03    -873.505E-03        -3.64114        -3.64114
             747         353.214         353.214    -430.901E-03    -430.901E-03        -3.54285        -3.54285
             748         352.922         352.922    -69.8668E-03    -69.8668E-03        -3.41427        -3.41427
             749         352.695         352.695     218.041E-03     218.041E-03        -3.26504        -3.26504
             750         352.520         352.520     441.954E-03     441.954E-03        -3.10231        -3.10231
             751         352.386         352.386     610.914E-03     610.914E-03        -2.93144        -2.93144
             752         352.284         352.284     733.473E-03     733.473E-03        -2.75648        -2.75648
             753         352.206         352.206     817.425E-03     817.425E-03        -2.58050        -2.58050
             754         352.147         352.147     869.729E-03     869.729E-03        -2.40588        -2.40588
             755         352.102         352.102     896.469E-03     896.469E-03        -2.23445        -2.23445
             756         352.067         352.067     902.895E-03     902.895E-03        -2.06762        -2.06762
             757         352.039         352.039     893.480E-03     893.480E-03        -1.90645        -1.90645
             758         352.018         352.018     871.993E-03     871.993E-03        -1.75176        -1.75176
             759         352.000         352.000     841.580E-03     841.580E-03        -1.60410        -1.60410
             760         351.985         351.985     804.847E-03     804.847E-03        -1.46385        -1.46385
             761         351.972         351.972     763.932E-03     763.932E-03        -1.33122        -1.33122
             762         351.961         351.961     720.574E-03     720.574E-03        -1.20628        -1.20628
             763         351.950         351.950     676.178E-03     676.178E-03        -1.08897        -1.08897
             764         351.941         351.941     631.870E-03     631.870E-03    -979.141E-03    -979.141E-03
             765         351.932         351.932     588.540E-03     588.540E-03    -876.544E-03    -876.544E-03
             766         351.924         351.924     546.889E-03     546.889E-03    -780.864E-03    -780.864E-03
             767         351.916         351.916     507.460E-03     507.460E-03    -691.721E-03    -691.721E-03
             768         351.909         351.909     470.670E-03     470.670E-03    -608.689E-03    -608.689E-03
             769         351.902         351.902     436.834E-03     436.834E-03    -531.300E-03    -531.300E-03
             770         351.896         351.896     406.187E-03     406.187E-03    -459.053E-03    -459.053E-03
             771         351.891         351.891     378.900E-03     378.900E-03    -391.423E-03    -391.423E-03
             772         351.886         351.886     355.096E-03     355.096E-03    -327.865E-03    -327.865E-03
             773         351.882         351.882     334.859E-03     334.859E-03    -267.817E-03    -267.817E-03
             774         351.879         351.879     318.248E-03     318.248E-03    -210.709E-03    -210.709E-03
             775         351.876         351.876     305.299E-03     305.299E-03    -155.960E-03    -155.960E-03
             776         351.874         351.874     296.037E-03     296.037E-03    -102.986E-03    -102.986E-03
             777         351.873         351.873     290.467E-03     290.467E-03    -51.3594E-03    -51.3594E-03
             778         362.692         362.692        -4.85100        -4.85100         3.09541         3.09541
             779         361.905         361.905        -5.30514        -5.30514         1.73983         1.73983
             780         360.943         360.943        -5.31154        -5.31154     512.933E-03     512.933E-03
             781         359.905         359.905        -4.99772        -4.99772    -531.080E-03    -531.080E-03
             782         358.870         358.870        -4.47927        -4.47927        -1.37525        -1.37525
             783         357.891         357.891        -3.85135        -3.85135        -2.02759        -2.02759
             784         357.000         357.000        -3.18532        -3.18532        -2.50799        -2.50799
             785         356.215         356.215        -2.53210        -2.53210        -2.84198        -2.84198
             786         355.537         355.537        -1.92409        -1.92409        -3.05580        -3.05580
             787         354.963         354.963        -1.37978        -1.37978        -3.17339        -3.17339
             788         354.482         354.482    -907.332E-03    -907.332E-03        -3.21549        -3.21549
             789         354.083         354.083    -507.976E-03    -507.976E-03        -3.19919        -3.19919
             790         353.754         353.754    -178.501E-03    -178.501E-03        -3.13843        -3.13843
             791         353.483         353.483     86.8916E-03     86.8916E-03        -3.04437        -3.04437
             792         353.259         353.259     295.277E-03     295.277E-03        -2.92592        -2.92592
             793         353.075         353.075     454.157E-03     454.157E-03        -2.79018        -2.79018
             794         352.921         352.921     570.886E-03     570.886E-03        -2.64283        -2.64283
             795         352.792         352.792     652.358E-03     652.358E-03        -2.48838        -2.48838
             796         352.684         352.684     704.813E-03     704.813E-03        -2.33046        -2.33046
             797         352.591         352.591     733.772E-03     733.772E-03        -2.17192        -2.17192
             798         352.510         352.510     744.027E-03     744.027E-03        -2.01503        -2.01503
             799         352.440         352.440     739.674E-03     739.674E-03        -1.86155        -1.86155
             800         352.378         352.378     724.168E-03     724.168E-03        -1.71283        -1.71283
             801         352.322         352.322     700.396E-03     700.396E-03        -1.56986        -1.56986
             802         352.272         352.272     670.738E-03     670.738E-03        -1.43336        -1.43336
             803         352.227         352.227     637.146E-03     637.146E-03        -1.30379        -1.30379
             804         352.186         352.186     601.202E-03     601.202E-03        -1.18140        -1.18140
             805         352.149         352.149     564.178E-03     564.178E-03        -1.06629        -1.06629
             806         352.115         352.115     527.085E-03     527.085E-03    -958.412E-03    -958.412E-03
             807         352.084         352.084     490.725E-03     490.725E-03    -857.589E-03    -857.589E-03
             808         352.056         352.056     455.720E-03     455.720E-03    -763.562E-03    -763.562E-03
             809         352.031         352.031     422.552E-03     422.552E-03    -675.992E-03    -675.992E-03
             810         352.008         352.008     391.589E-03     391.589E-03    -594.477E-03    -594.477E-03
             811         351.987         351.987     363.105E-03     363.105E-03    -518.568E-03    -518.568E-03
             812         351.969         351.969     337.305E-03     337.305E-03    -447.776E-03    -447.776E-03
             813         351.954         351.954     314.335E-03     314.335E-03    -381.583E-03    -381.583E-03
             814         351.940         351.940     294.299E-03     294.299E-03    -319.449E-03    -319.449E-03
             815         351.929         351.929     277.268E-03     277.268E-03    -260.817E-03    -260.817E-03
             816         351.919         351.919     263.291E-03     263.291E-03    -205.116E-03    -205.116E-03
             817         351.912         351.912     252.396E-03     252.396E-03    -151.770E-03    -151.770E-03
             818         351.907         351.907     244.605E-03     244.605E-03    -100.195E-03    -100.195E-03
             819         351.904         351.904     239.921E-03     239.921E-03    -49.9703E-03    -49.9703E-03
             820         361.591         361.591        -3.59041        -3.59041         3.58963         3.58963
             821         361.162         361.162        -4.08458        -4.08458         2.45923         2.45923
             822         360.550         360.550        -4.21325        -4.21325         1.36442         1.36442
             823         359.829         359.829        -4.06218        -4.06218     372.909E-03     372.909E-03
             824         359.061         359.061        -3.71799        -3.71799    -480.232E-03    -480.232E-03
             825         358.295         358.295        -3.25723        -3.25723        -1.18279        -1.18279
             826         357.566         357.566        -2.74208        -2.74208        -1.73834        -1.73834
             827         356.895         356.895        -2.21858        -2.21858        -2.15902        -2.15902
             828         356.291         356.291        -1.71883        -1.71883        -2.46136        -2.46136
             829         355.757         355.757        -1.26267        -1.26267        -2.66316        -2.66316
             830         355.291         355.291    -860.765E-03    -860.765E-03        -2.78155        -2.78155
             831         354.886         354.886    -516.955E-03    -516.955E-03        -2.83214        -2.83214
             832         354.537         354.537    -230.537E-03    -230.537E-03        -2.82857        -2.82857
             833         354.234         354.234     2.08557E-03     2.08557E-03        -2.78252        -2.78252
             834         353.973         353.973     186.126E-03     186.126E-03        -2.70385        -2.70385
             835         353.745         353.745     327.522E-03     327.522E-03        -2.60077        -2.60077
             836         353.545         353.545     432.350E-03     432.350E-03        -2.48009        -2.48009
             837         353.369         353.369     506.433E-03     506.433E-03        -2.34739        -2.34739
             838         353.213         353.213     555.135E-03     555.135E-03        -2.20722        -2.20722
             839         353.074         353.074     583.245E-03     583.245E-03        -2.06325        -2.06325
             840         352.948         352.948     594.944E-03     594.944E-03        -1.91841        -1.91841
             841         352.835         352.835     593.818E-03     593.818E-03        -1.77502        -1.77502
             842         352.733         352.733     582.894E-03     582.894E-03        -1.63486        -1.63486
             843         352.639         352.639     564.698E-03     564.698E-03        -1.49927        -1.49927
             844         352.554         352.554     541.315E-03     541.315E-03        -1.36923        -1.36923
             845         352.476         352.476     514.444E-03     514.444E-03        -1.24540        -1.24540
             846         352.406         352.406     485.459E-03     485.459E-03        -1.12821        -1.12821
             847         352.341         352.341     455.461E-03     455.461E-03        -1.01785        -1.01785
             848         352.282         352.282     425.322E-03     425.322E-03    -914.357E-03    -914.357E-03
             849         352.229         352.229     395.728E-03     395.728E-03    -817.636E-03    -817.636E-03
             850         352.181         352.181     367.210E-03     367.210E-03    -727.469E-03    -727.469E-03
             851         352.138         352.138     340.176E-03     340.176E-03    -643.553E-03    -643.553E-03
             852         352.099         352.099     314.935E-03     314.935E-03    -565.515E-03    -565.515E-03
             853         352.065         352.065     291.717E-03     291.717E-03    -492.928E-03    -492.928E-03
             854         352.035         352.035     270.689E-03     270.689E-03    -425.322E-03    -425.322E-03
             855         352.009         352.009     251.973E-03     251.973E-03    -362.196E-03    -362.196E-03
             856         351.986         351.986     235.652E-03     235.652E-03    -303.026E-03    -303.026E-03
             857         351.968         351.968     221.782E-03     221.782E-03    -247.268E-03    -247.268E-03
             858         351.953         351.953     210.402E-03     210.402E-03    -194.368E-03    -194.368E-03
             859         351.941         351.941     201.534E-03     201.534E-03    -143.761E-03    -143.761E-03
             860         351.933         351.933     195.193E-03     195.193E-03    -94.8818E-03    -94.8818E-03
             861         351.928         351.928     191.381E-03     191.381E-03    -47.3248E-03    -47.3248E-03
             862         360.553         360.553        -2.58344        -2.58344         3.77562         3.77562
             863         360.404         360.404        -3.04061        -3.04061         2.85115         2.85115
             864         360.085         360.085        -3.21617        -3.21617         1.90200         1.90200
             865         359.642         359.642        -3.16437        -3.16437     996.747E-03     996.747E-03
             866         359.123         359.123        -2.94651        -2.94651     179.729E-03     179.729E-03
             867         358.568         358.568        -2.62098        -2.62098    -525.342E-03    -525.342E-03
             868         358.007         358.007        -2.23750        -2.23750        -1.10970        -1.10970
             869         357.463         357.463        -1.83528        -1.83528        -1.57526        -1.57526
             870         356.949         356.949        -1.44254        -1.44254        -1.93033        -1.93033
             871         356.472         356.472        -1.07812        -1.07812        -2.18678        -2.18678
             872         356.036         356.036    -752.926E-03    -752.926E-03        -2.35792        -2.35792
             873         355.639         355.639    -471.997E-03    -471.997E-03        -2.45712        -2.45712
             874         355.280         355.280    -236.122E-03    -236.122E-03        -2.49698        -2.49698
             875         354.956         354.956    -43.3219E-03    -43.3219E-03        -2.48896        -2.48896
             876         354.662         354.662     110.061E-03     110.061E-03        -2.44316        -2.44316
             877         354.395         354.395     228.534E-03     228.534E-03        -2.36829        -2.36829
             878         354.153         354.153     316.887E-03     316.887E-03        -2.27176        -2.27176
             879         353.932         353.932     379.823E-03     379.823E-03        -2.15981        -2.15981
             880         353.730         353.730     421.725E-03     421.725E-03        -2.03755        -2.03755
             881         353.545         353.545     446.545E-03     446.545E-03        -1.90918        -1.90918
             882         353.375         353.375     457.748E-03     457.748E-03        -1.77808        -1.77808
             883         353.219         353.219     458.311E-03     458.311E-03        -1.64690        -1.64690
             884         353.076         353.076     450.751E-03     450.751E-03        -1.51772        -1.51772
             885         352.945         352.945     437.165E-03     437.165E-03        -1.39212        -1.39212
             886         352.825         352.825     419.279E-03     419.279E-03        -1.27123        -1.27123
             887         352.714         352.714     398.497E-03     398.497E-03        -1.15586        -1.15586
             888         352.613         352.613     375.951E-03     375.951E-03        -1.04652        -1.04652
             889         352.522         352.522     352.543E-03     352.543E-03    -943.511E-03    -943.511E-03
             890         352.438         352.438     328.985E-03     328.985E-03    -846.913E-03    -846.913E-03
             891         352.363         352.363     305.833E-03     305.833E-03    -756.675E-03    -756.675E-03
             892         352.295         352.295     283.515E-03     283.515E-03    -672.620E-03    -672.620E-03
             893         352.234         352.234     262.359E-03     262.359E-03    -594.478E-03    -594.478E-03
             894         352.180         352.180     242.611E-03     242.611E-03    -521.905E-03    -521.905E-03
             895         352.132         352.132     224.452E-03     224.452E-03    -454.502E-03    -454.502E-03
             896         352.090         352.090     208.013E-03     208.013E-03    -391.825E-03    -391.825E-03
             897         352.054         352.054     193.388E-03     193.388E-03    -333.398E-03    -333.398E-03
             898         352.023         352.023     180.640E-03     180.640E-03    -278.725E-03    -278.725E-03
             899         351.997         351.997     169.811E-03     169.811E-03    -227.289E-03    -227.289E-03
             900         351.976         351.976     160.929E-03     160.929E-03    -178.564E-03    -178.564E-03
             901         351.961         351.961     154.009E-03     154.009E-03    -132.015E-03    -132.015E-03
             902         351.949         351.949     149.061E-03     149.061E-03    -87.1008E-03    -87.1008E-03
             903         351.942         351.942     146.089E-03     146.089E-03    -43.4517E-03    -43.4517E-03
             904         359.614         359.614        -1.78959        -1.78959         3.71937         3.71937
             905         359.699         359.699        -2.16658        -2.16658         2.97288         2.97288
             906         359.630         359.630        -2.33833        -2.33833         2.16748         2.16748
             907         359.436         359.436        -2.33792        -2.33792         1.36667         1.36667
             908         359.146         359.146        -2.20650        -2.20650     616.399E-03     616.399E-03
             909         358.791         358.791        -1.98585        -1.98585    -53.6376E-03    -53.6376E-03
             910         358.395         358.395        -1.71341        -1.71341    -627.677E-03    -627.677E-03
             911         357.980         357.980        -1.41963        -1.41963        -1.10037        -1.10037
             912         357.561         357.561        -1.12751        -1.12751        -1.47397        -1.47397
             913         357.147         357.147    -852.781E-03    -852.781E-03        -1.75548        -1.75548
             914         356.747         356.747    -605.212E-03    -605.212E-03        -1.95469        -1.95469
             915         356.363         356.363    -389.724E-03    -389.724E-03        -2.08261        -2.08261
             916         356.000         356.000    -207.767E-03    -207.767E-03        -2.15043        -2.15043
             917         355.656         355.656    -58.3770E-03    -58.3770E-03        -2.16880        -2.16880
             918         355.332         355.332     60.8939E-03     60.8939E-03        -2.14749        -2.14749
             919         355.029         355.029     153.308E-03     153.308E-03        -2.09518        -2.09518
             920         354.744         354.744     222.452E-03     222.452E-03        -2.01939        -2.01939
             921         354.478         354.478     271.908E-03     271.908E-03        -1.92651        -1.92651
             922         354.231         354.231     305.056E-03     305.056E-03        -1.82187        -1.82187
             923         354.000         354.000     324.960E-03     324.960E-03        -1.70986        -1.70986
             924         353.785         353.785     334.313E-03     334.313E-03        -1.59399        -1.59399
             925         353.586         353.586     335.433E-03     335.433E-03        -1.47709        -1.47709
             926         353.403         353.403     330.278E-03     330.278E-03        -1.36132        -1.36132
             927         353.233         353.233     320.477E-03     320.477E-03        -1.24833        -1.24833
             928         353.077         353.077     307.368E-03     307.368E-03        -1.13935        -1.13935
             929         352.935         352.935     292.036E-03     292.036E-03        -1.03523        -1.03523
             930         352.804         352.804     275.350E-03     275.350E-03    -936.509E-03    -936.509E-03
             931         352.686         352.686     258.001E-03     258.001E-03    -843.514E-03    -843.514E-03
             932         352.578         352.578     240.533E-03     240.533E-03    -756.367E-03    -756.367E-03
             933         352.481         352.481     223.367E-03     223.367E-03    -675.039E-03    -675.039E-03
             934         352.394         352.394     206.825E-03     206.825E-03    -599.382E-03    -599.382E-03
             935         352.316         352.316     191.153E-03     191.153E-03    -529.155E-03    -529.155E-03
             936         352.247         352.247     176.533E-03     176.533E-03    -464.044E-03    -464.044E-03
             937         352.186         352.186     163.099E-03     163.099E-03    -403.682E-03    -403.682E-03
             938         352.132         352.132     150.945E-03     150.945E-03    -347.659E-03    -347.659E-03
             939         352.086         352.086     140.140E-03     140.140E-03    -295.539E-03    -295.539E-03
             940         352.047         352.047     130.727E-03     130.727E-03    -246.862E-03    -246.862E-03
             941         352.015         352.015     122.735E-03     122.735E-03    -201.155E-03    -201.155E-03
             942         351.989         351.989     116.182E-03     116.182E-03    -157.932E-03    -157.932E-03
             943         351.969         351.969     111.079E-03     111.079E-03    -116.702E-03    -116.702E-03
             944         351.955         351.955     107.429E-03     107.429E-03    -76.9705E-03    -76.9705E-03
             945         351.946         351.946     105.238E-03     105.238E-03    -38.4097E-03    -38.4097E-03
             946         358.792         358.792        -1.16987        -1.16987         3.45178         3.45178
             947         359.092         359.092        -1.44777        -1.44777         2.85747         2.85747
             948         359.254         359.254        -1.58646        -1.58646         2.18998         2.18998
             949         359.287         359.287        -1.60505        -1.60505         1.50471         1.50471
             950         359.210         359.210        -1.52972        -1.52972     844.854E-03     844.854E-03
             951         359.041         359.041        -1.38832        -1.38832     240.914E-03     240.914E-03
             952         358.801         358.801        -1.20674        -1.20674    -288.206E-03    -288.206E-03
             953         358.508         358.508        -1.00674        -1.00674    -733.427E-03    -733.427E-03
             954         358.177         358.177    -805.066E-03    -805.066E-03        -1.09305        -1.09305
             955         357.823         357.823    -613.602E-03    -613.602E-03        -1.37068        -1.37068
             956         357.456         357.456    -439.856E-03    -439.856E-03        -1.57328        -1.57328
             957         357.083         357.083    -287.892E-03    -287.892E-03        -1.70967        -1.70967
             958         356.711         356.711    -159.119E-03    -159.119E-03        -1.78942        -1.78942
             959         356.345         356.345    -53.1442E-03    -53.1442E-03        -1.82203        -1.82203
             960         355.990         355.990     31.6022E-03     31.6022E-03        -1.81646        -1.81646
             961         355.646         355.646     97.3361E-03     97.3361E-03        -1.78079        -1.78079
             962         355.318         355.318     146.559E-03     146.559E-03        -1.72216        -1.72216
             963         355.005         355.005     181.803E-03     181.803E-03        -1.64666        -1.64666
             964         354.710         354.710     205.470E-03     205.470E-03        -1.55941        -1.55941
             965         354.432         354.432     219.744E-03     219.744E-03        -1.46461        -1.46461
             966         354.172         354.172     226.551E-03     226.551E-03        -1.36567        -1.36567
             967         353.929         353.929     227.544E-03     227.544E-03        -1.26528        -1.26528
             968         353.705         353.705     224.119E-03     224.119E-03        -1.16553        -1.16553
             969         353.497         353.497     217.434E-03     217.434E-03        -1.06800        -1.06800
             970         353.306         353.306     208.436E-03     208.436E-03    -973.858E-03    -973.858E-03
             971         353.132         353.132     197.891E-03     197.891E-03    -883.904E-03    -883.904E-03
             972         352.972         352.972     186.412E-03     186.412E-03    -798.669E-03    -798.669E-03
             973         352.828         352.828     174.482E-03     174.482E-03    -718.456E-03    -718.456E-03
             974         352.697         352.697     162.479E-03     162.479E-03    -643.387E-03    -643.387E-03
             975         352.579         352.579     150.693E-03     150.693E-03    -573.442E-03    -573.442E-03
             976         352.473         352.473     139.348E-03     139.348E-03    -508.491E-03    -508.491E-03
             977         352.379         352.379     128.611E-03     128.611E-03    -448.320E-03    -448.320E-03
             978         352.296         352.296     118.604E-03     118.604E-03    -392.649E-03    -392.649E-03
             979         352.222         352.222     109.418E-03     109.418E-03    -341.151E-03    -341.151E-03
             980         352.159         352.159     101.115E-03     101.115E-03    -293.464E-03    -293.464E-03
             981         352.104         352.104     93.7389E-03     93.7389E-03    -249.199E-03    -249.199E-03
             982         352.057         352.057     87.3183E-03     87.3183E-03    -207.951E-03    -207.951E-03
             983         352.019         352.019     81.8715E-03     81.8715E-03    -169.302E-03    -169.302E-03
             984         351.988         351.988     77.4074E-03     77.4074E-03    -132.828E-03    -132.828E-03
             985         351.964         351.964     73.9296E-03     73.9296E-03    -98.0961E-03    -98.0961E-03
             986         351.947         351.947     71.4425E-03     71.4425E-03    -64.6724E-03    -64.6724E-03
             987         351.937         351.937     69.9502E-03     69.9502E-03    -32.2927E-03    -32.2927E-03
             988         358.104         358.104    -693.644E-03    -693.644E-03         2.97378         2.97378
             989         358.627         358.627    -871.869E-03    -871.869E-03         2.51454         2.51454
             990         359.016         359.016    -965.261E-03    -965.261E-03         1.98344         1.98344
             991         359.269         359.269    -984.243E-03    -984.243E-03         1.42608         1.42608
             992         359.390         359.390    -943.965E-03    -943.965E-03     879.570E-03     879.570E-03
             993         359.393         359.393    -861.205E-03    -861.205E-03     371.580E-03     371.580E-03
             994         359.293         359.293    -751.926E-03    -751.926E-03    -79.6485E-03    -79.6485E-03
             995         359.108         359.108    -629.804E-03    -629.804E-03    -464.080E-03    -464.080E-03
             996         358.852         358.852    -505.585E-03    -505.585E-03    -778.381E-03    -778.381E-03
             997         358.544         358.544    -386.953E-03    -386.953E-03        -1.02411        -1.02411
             998         358.196         358.196    -278.902E-03    -278.902E-03        -1.20617        -1.20617
             999         357.822         357.822    -184.158E-03    -184.158E-03        -1.33145        -1.33145
            1000         357.433         357.433    -103.773E-03    -103.773E-03        -1.40778        -1.40778
            1001         357.036         357.036    -37.5830E-03    -37.5830E-03        -1.44315        -1.44315
            1002         356.640         356.640     15.3363E-03     15.3363E-03        -1.44521        -1.44521
            1003         356.251         356.251     56.3547E-03     56.3547E-03        -1.42098        -1.42098
            1004         355.873         355.873     87.0345E-03     87.0345E-03        -1.37663        -1.37663
            1005         355.509         355.509     108.968E-03     108.968E-03        -1.31750        -1.31750
            1006         355.163         355.163     123.669E-03     123.669E-03        -1.24804        -1.24804
            1007         354.835         354.835     132.516E-03     132.516E-03        -1.17194        -1.17194
            1008         354.528         354.528     136.721E-03     136.721E-03        -1.09214        -1.09214
            1009         354.241         354.241     137.324E-03     137.324E-03        -1.01099        -1.01099
            1010         353.976         353.976     135.201E-03     135.201E-03    -930.285E-03    -930.285E-03
            1011         353.730         353.730     131.074E-03     131.074E-03    -851.386E-03    -851.386E-03
            1012         353.505         353.505     125.535E-03     125.535E-03    -775.276E-03    -775.276E-03
            1013         353.299         353.299     119.057E-03     119.057E-03    -702.641E-03    -702.641E-03
            1014         353.112         353.112     112.020E-03     112.020E-03    -633.923E-03    -633.923E-03
            1015         352.942         352.942     104.720E-03     104.720E-03    -569.369E-03    -569.369E-03
            1016         352.789         352.789     97.3879E-03     97.3879E-03    -509.076E-03    -509.076E-03
            1017         352.651         352.651     90.2006E-03     90.2006E-03    -453.019E-03    -453.019E-03
            1018         352.529         352.529     83.2923E-03     83.2923E-03    -401.084E-03    -401.084E-03
            1019         352.420         352.420     76.7631E-03     76.7631E-03    -353.085E-03    -353.085E-03
            1020         352.324         352.324     70.6860E-03     70.6860E-03    -308.785E-03    -308.785E-03
            1021         352.239         352.239     65.1137E-03     65.1137E-03    -267.910E-03    -267.910E-03
            1022         352.166         352.166     60.0824E-03     60.0824E-03    -230.157E-03    -230.157E-03
            1023         352.104         352.104     55.6171E-03     55.6171E-03    -195.203E-03    -195.203E-03
            1024         352.051         352.051     51.7337E-03     51.7337E-03    -162.713E-03    -162.713E-03
            1025         352.007         352.007     48.4414E-03     48.4414E-03    -132.344E-03    -132.344E-03
            1026         351.972         351.972     45.7471E-03     45.7471E-03    -103.745E-03    -103.745E-03
            1027         351.945         351.945     43.6482E-03     43.6482E-03    -76.5710E-03    -76.5710E-03
            1028         351.926         351.926     42.1401E-03     42.1401E-03    -50.4628E-03    -50.4628E-03
            1029         351.914         351.914     41.2352E-03     41.2352E-03    -25.2248E-03    -25.2248E-03
            1030         357.576         357.576    -343.708E-03    -343.708E-03         2.25895         2.25895
            1031         358.353         358.353    -436.107E-03    -436.107E-03         1.93204         1.93204
            1032         358.985         358.985    -485.703E-03    -485.703E-03         1.54730         1.54730
            1033         359.457         359.457    -497.412E-03    -497.412E-03         1.13870         1.13870
            1034         359.769         359.769    -478.676E-03    -478.676E-03     734.344E-03     734.344E-03
            1035         359.928         359.928    -437.872E-03    -437.872E-03     355.657E-03     355.657E-03
            1036         359.947         359.947    -383.121E-03    -383.121E-03     17.2352E-03     17.2352E-03
            1037         359.844         359.844    -321.472E-03    -321.472E-03    -272.578E-03    -272.578E-03
            1038         359.639         359.639    -258.480E-03    -258.480E-03    -510.558E-03    -510.558E-03
            1039         359.352         359.352    -198.181E-03    -198.181E-03    -697.406E-03    -697.406E-03
            1040         359.002         359.002    -143.181E-03    -143.181E-03    -836.490E-03    -836.490E-03
            1041         358.606         358.606    -94.9446E-03    -94.9446E-03    -932.840E-03    -932.840E-03
            1042         358.180         358.180    -54.0267E-03    -54.0267E-03    -992.282E-03    -992.282E-03
            1043         357.737         357.737    -20.3673E-03    -20.3673E-03        -1.02085        -1.02085
            1044         357.288         357.288     6.50752E-03     6.50752E-03        -1.02434        -1.02434
            1045         356.842         356.842     27.2996E-03     27.2996E-03        -1.00808        -1.00808
            1046         356.406         356.406     42.8150E-03     42.8150E-03    -976.764E-03    -976.764E-03
            1047         355.985         355.985     53.8752E-03     53.8752E-03    -934.435E-03    -934.435E-03
            1048         355.583         355.583     61.2601E-03     61.2601E-03    -884.467E-03    -884.467E-03
            1049         355.203         355.203     65.6787E-03     65.6787E-03    -829.624E-03    -829.624E-03
            1050         354.846         354.846     67.7524E-03     67.7524E-03    -772.121E-03    -772.121E-03
            1051         354.514         354.514     68.0136E-03     68.0136E-03    -713.695E-03    -713.695E-03
            1052         354.207         354.207     66.9081E-03     66.9081E-03    -655.678E-03    -655.678E-03
            1053         353.924         353.924     64.8039E-03     64.8039E-03    -599.063E-03    -599.063E-03
            1054         353.665         353.665     61.9993E-03     61.9993E-03    -544.564E-03    -544.564E-03
            1055         353.430         353.430     58.7339E-03     58.7339E-03    -492.671E-03    -492.671E-03
            1056         353.216         353.216     55.1971E-03     55.1971E-03    -443.693E-03    -443.693E-03
            1057         353.023         353.023     51.5373E-03     51.5373E-03    -397.797E-03    -397.797E-03
            1058         352.850         352.850     47.8692E-03     47.8692E-03    -355.039E-03    -355.039E-03
            1059         352.695         352.695     44.2802E-03     44.2802E-03    -315.389E-03    -315.389E-03
            1060         352.557         352.557     40.8362E-03     40.8362E-03    -278.752E-03    -278.752E-03
            1061         352.435         352.435     37.5859E-03     37.5859E-03    -244.983E-03    -244.983E-03
            1062         352.328         352.328     34.5646E-03     34.5646E-03    -213.903E-03    -213.903E-03
            1063         352.234         352.234     31.7973E-03     31.7973E-03    -185.305E-03    -185.305E-03
            1064         352.153         352.153     29.3015E-03     29.3015E-03    -158.965E-03    -158.965E-03
            1065         352.084         352.084     27.0882E-03     27.0882E-03    -134.645E-03    -134.645E-03
            1066         352.025         352.025     25.1651E-03     25.1651E-03    -112.101E-03    -112.101E-03
            1067         351.977         351.977     23.5360E-03     23.5360E-03    -91.0822E-03    -91.0822E-03
            1068         351.938         351.938     22.2037E-03     22.2037E-03    -71.3353E-03    -71.3353E-03
            1069         351.909         351.909     21.1725E-03     21.1725E-03    -52.6078E-03    -52.6078E-03
            1070         351.888         351.888     20.4269E-03     20.4269E-03    -34.6577E-03    -34.6577E-03
            1071         351.876         351.876     19.9632E-03     19.9632E-03    -17.3810E-03    -17.3810E-03
            1072         357.253         357.253    -120.768E-03    -120.768E-03         1.26091         1.26091
            1073         358.339         358.339    -153.958E-03    -153.958E-03         1.08349         1.08349
            1074         359.244         359.244    -171.936E-03    -171.936E-03     873.169E-03     873.169E-03
            1075         359.946         359.946    -176.450E-03    -176.450E-03     648.950E-03     648.950E-03
            1076         360.439         360.439    -170.064E-03    -170.064E-03     426.485E-03     426.485E-03
            1077         360.731         360.731    -155.732E-03    -155.732E-03     217.792E-03     217.792E-03
            1078         360.838         360.838    -136.372E-03    -136.372E-03     31.1137E-03     31.1137E-03
            1079         360.783         360.783    -114.494E-03    -114.494E-03    -128.775E-03    -128.775E-03
            1080         360.591         360.591    -92.1170E-03    -92.1170E-03    -260.027E-03    -260.027E-03
            1081         360.289         360.289    -70.6799E-03    -70.6799E-03    -362.976E-03    -362.976E-03
            1082         359.902         359.902    -51.1352E-03    -51.1352E-03    -439.511E-03    -439.511E-03
            1083         359.455         359.455    -34.0017E-03    -34.0017E-03    -492.431E-03    -492.431E-03
            1084         358.966         358.966    -19.4843E-03    -19.4843E-03    -525.011E-03    -525.011E-03
            1085         358.454         358.454    -7.55745E-03    -7.55745E-03    -540.619E-03    -540.619E-03
            1086         357.934         357.934     1.95022E-03     1.95022E-03    -542.503E-03    -542.503E-03
            1087         357.417         357.417     9.29202E-03     9.29202E-03    -533.624E-03    -533.624E-03
            1088         356.911         356.911     14.7594E-03     14.7594E-03    -516.592E-03    -516.592E-03
            1089         356.424         356.424     18.6467E-03     18.6467E-03    -493.638E-03    -493.638E-03
            1090         355.961         355.961     21.2346E-03     21.2346E-03    -466.617E-03    -466.617E-03
            1091         355.525         355.525     22.7756E-03     22.7756E-03    -437.043E-03    -437.043E-03
            1092         355.117         355.117     23.4921E-03     23.4921E-03    -406.118E-03    -406.118E-03
            1093         354.739         354.739     23.5727E-03     23.5727E-03    -374.781E-03    -374.781E-03
            1094         354.390         354.390     23.1758E-03     23.1758E-03    -343.746E-03    -343.746E-03
            1095         354.071         354.071     22.4311E-03     22.4311E-03    -313.539E-03    -313.539E-03
            1096         353.780         353.780     21.4439E-03     21.4439E-03    -284.535E-03    -284.535E-03
            1097         353.517         353.517     20.2980E-03     20.2980E-03    -256.987E-03    -256.987E-03
            1098         353.279         353.279     19.0598E-03     19.0598E-03    -231.052E-03    -231.052E-03
            1099         353.065         353.065     17.7809E-03     17.7809E-03    -206.809E-03    -206.809E-03
            1100         352.874         352.874     16.5011E-03     16.5011E-03    -184.279E-03    -184.279E-03
            1101         352.704         352.704     15.2507E-03     15.2507E-03    -163.438E-03    -163.438E-03
            1102         352.553         352.553     14.0521E-03     14.0521E-03    -144.227E-03    -144.227E-03
            1103         352.421         352.421     12.9222E-03     12.9222E-03    -126.564E-03    -126.564E-03
            1104         352.304         352.304     11.8729E-03     11.8729E-03    -110.348E-03    -110.348E-03
            1105         352.203         352.203     10.9127E-03     10.9127E-03    -95.4642E-03    -95.4642E-03
            1106         352.116         352.116     10.0471E-03     10.0471E-03    -81.7893E-03    -81.7893E-03
            1107         352.042         352.042     9.28035E-03     9.28035E-03    -69.1947E-03    -69.1947E-03
            1108         351.979         351.979     8.61401E-03     8.61401E-03    -57.5478E-03    -57.5478E-03
            1109         351.928         351.928     8.05073E-03     8.05073E-03    -46.7134E-03    -46.7134E-03
            1110         351.887         351.887     7.58918E-03     7.58918E-03    -36.5565E-03    -36.5565E-03
            1111         351.856         351.856     7.23498E-03     7.23498E-03    -26.9376E-03    -26.9376E-03
            1112         351.833         351.833     6.98899E-03     6.98899E-03    -17.7272E-03    -17.7272E-03
            1113         351.820         351.820     6.81070E-03     6.81070E-03    -8.95744E-03    -8.95744E-03
            1114         358.636         358.636        -14.6914        -14.6914         13.8636         13.8636
            1115         354.269         354.269        -11.4496        -11.4496         13.5069         13.5069
            1116         351.261         351.261        -8.59030        -8.59030         12.4618         12.4618
            1117         349.308         349.308        -6.23664        -6.23664         11.1566         11.1566
            1118         348.113         348.113        -4.36402        -4.36402         9.83138         9.83138
            1119         347.439         347.439        -2.89021        -2.89021         8.60049         8.60049
            1120         347.114         347.114        -1.73504        -1.73504         7.50801         7.50801
            1121         347.021         347.021    -829.509E-03    -829.509E-03         6.56160         6.56160
            1122         347.079         347.079    -120.538E-03    -120.538E-03         5.75220         5.75220
            1123         347.233         347.233     432.986E-03     432.986E-03         5.06406         5.06406
            1124         347.447         347.447     862.050E-03     862.050E-03         4.47976         4.47976
            1125         347.696         347.696         1.19060         1.19060         3.98268         3.98268
            1126         347.962         347.962         1.43715         1.43715         3.55796         3.55796
            1127         348.236         348.236         1.61643         1.61643         3.19286         3.19286
            1128         348.509         348.509         1.74027         1.74027         2.87668         2.87668
            1129         348.776         348.776         1.81840         1.81840         2.60064         2.60064
            1130         349.034         349.034         1.85890         1.85890         2.35757         2.35757
            1131         349.280         349.280         1.86861         1.86861         2.14172         2.14172
            1132         349.512         349.512         1.85335         1.85335         1.94850         1.94850
            1133         349.731         349.731         1.81809         1.81809         1.77425         1.77425
            1134         349.936         349.936         1.76709         1.76709         1.61610         1.61610
            1135         350.126         350.126         1.70405         1.70405         1.47174         1.47174
            1136         350.302         350.302         1.63210         1.63210         1.33939         1.33939
            1137         350.464         350.464         1.55395         1.55395         1.21761         1.21761
            1138         350.612         350.612         1.47190         1.47190         1.10524         1.10524
            1139         350.748         350.748         1.38789         1.38789         1.00134         1.00134
            1140         350.872         350.872         1.30358         1.30358     905.139E-03     905.139E-03
            1141         350.984         350.984         1.22034         1.22034     815.972E-03     815.972E-03
            1142         351.085         351.085         1.13930         1.13930     733.259E-03     733.259E-03
            1143         351.176         351.176         1.06141         1.06141     656.484E-03     656.484E-03
            1144         351.258         351.258     987.431E-03     987.431E-03     585.167E-03     585.167E-03
            1145         351.330         351.330     917.977E-03     917.977E-03     518.858E-03     518.858E-03
            1146         351.394         351.394     853.538E-03     853.538E-03     457.124E-03     457.124E-03
            1147         351.450         351.450     794.500E-03     794.500E-03     399.543E-03     399.543E-03
            1148         351.499         351.499     741.159E-03     741.159E-03     345.698E-03     345.698E-03
            1149         351.541         351.541     693.741E-03     693.741E-03     295.178E-03     295.178E-03
            1150         351.577         351.577     652.416E-03     652.416E-03     247.570E-03     247.570E-03
            1151         351.606         351.606     617.307E-03     617.307E-03     202.463E-03     202.463E-03
            1152         351.630         351.630     588.504E-03     588.504E-03     159.445E-03     159.445E-03
            1153         351.648         351.648     566.068E-03     566.068E-03     118.102E-03     118.102E-03
            1154         351.661         351.661     550.041E-03     550.041E-03     78.0237E-03     78.0237E-03
            1155         351.668         351.668     540.432E-03     540.432E-03     38.8936E-03     38.8936E-03
            1156         349.969         349.969        -13.4612        -13.4612         19.4778         19.4778
            1157         346.399         346.399        -9.45208        -9.45208         17.0567         17.0567
            1158         344.520         344.520        -6.42535        -6.42535         14.5468         14.5468
            1159         343.696         343.696        -4.19860        -4.19860         12.2640         12.2640
            1160         343.497         343.497        -2.55975        -2.55975         10.3121         10.3121
            1161         343.655         343.655        -1.34375        -1.34375         8.68886         8.68886
            1162         344.007         344.007    -430.027E-03    -430.027E-03         7.35583         7.35583
            1163         344.459         344.459     262.939E-03     262.939E-03         6.26600         6.26600
            1164         344.952         344.952     791.911E-03     791.911E-03         5.37515         5.37515
            1165         345.456         345.456         1.19569         1.19569         4.64488         4.64488
            1166         345.950         345.950         1.50186         1.50186         4.04344         4.04344
            1167         346.426         346.426         1.73017         1.73017         3.54498         3.54498
            1168         346.877         346.877         1.89534         1.89534         3.12879         3.12879
            1169         347.302         347.302         2.00863         2.00863         2.77832         2.77832
            1170         347.700         347.700         2.07896         2.07896         2.48047         2.48047
            1171         348.071         348.071         2.11359         2.11359         2.22486         2.22486
            1172         348.416         348.416         2.11859         2.11859         2.00332         2.00332
            1173         348.735         348.735         2.09916         2.09916         1.80941         1.80941
            1174         349.031         349.031         2.05976         2.05976         1.63809         1.63809
            1175         349.305         349.305         2.00431         2.00431         1.48540         1.48540
            1176         349.556         349.556         1.93623         1.93623         1.34824         1.34824
            1177         349.788         349.788         1.85855         1.85855         1.22419         1.22419
            1178         350.001         350.001         1.77388         1.77388         1.11135         1.11135
            1179         350.195         350.195         1.68454         1.68454         1.00821         1.00821
            1180         350.373         350.373         1.59253         1.59253     913.584E-03     913.584E-03
            1181         350.535         350.535         1.49955         1.49955     826.511E-03     826.511E-03
            1182         350.681         350.681         1.40710         1.40710     746.206E-03     746.206E-03
            1183         350.814         350.814         1.31642         1.31642     672.015E-03     672.015E-03
            1184         350.934         350.934         1.22857         1.22857     603.381E-03     603.381E-03
            1185         351.042         351.042         1.14442         1.14442     539.811E-03     539.811E-03
            1186         351.138         351.138         1.06470         1.06470     480.867E-03     480.867E-03
            1187         351.224         351.224     989.987E-03     989.987E-03     426.141E-03     426.141E-03
            1188         351.300         351.300     920.762E-03     920.762E-03     375.253E-03     375.253E-03
            1189         351.367         351.367     857.398E-03     857.398E-03     327.834E-03     327.834E-03
            1190         351.425         351.425     800.187E-03     800.187E-03     283.529E-03     283.529E-03
            1191         351.475         351.475     749.355E-03     749.355E-03     241.991E-03     241.991E-03
            1192         351.517         351.517     705.071E-03     705.071E-03     202.874E-03     202.874E-03
            1193         351.552         351.552     667.460E-03     667.460E-03     165.837E-03     165.837E-03
            1194         351.580         351.580     636.615E-03     636.615E-03     130.541E-03     130.541E-03
            1195         351.602         351.602     612.601E-03     612.601E-03     96.6464E-03     96.6464E-03
            1196         351.617         351.617     595.462E-03     595.462E-03     63.8160E-03     63.8160E-03
            1197         351.626         351.626     585.213E-03     585.213E-03     31.7936E-03     31.7936E-03
            1198         336.709         336.709        -9.23421        -9.23421         23.0009         23.0009
            1199         335.942         335.942        -5.51814        -5.51814         18.4117         18.4117
            1200         336.420         336.420        -3.08752        -3.08752         14.6952         14.6952
            1201         337.437         337.437        -1.47409        -1.47409         11.7894         11.7894
            1202         338.633         338.633    -370.890E-03    -370.890E-03         9.53962         9.53962
            1203         339.841         339.841     408.196E-03     408.196E-03         7.79636         7.79636
            1204         340.986         340.986     972.743E-03     972.743E-03         6.43761         6.43761
            1205         342.039         342.039         1.39047         1.39047         5.37101         5.37101
            1206         342.994         342.994         1.70282         1.70282         4.52673         4.52673
            1207         343.853         343.853         1.93645         1.93645         3.85279         3.85279
            1208         344.626         344.626         2.10866         2.10866         3.30993         3.30993
            1209         345.320         345.320         2.23137         2.23137         2.86860         2.86860
            1210         345.946         345.946         2.31305         2.31305         2.50629         2.50629
            1211         346.510         346.510         2.36014         2.36014         2.20584         2.20584
            1212         347.021         347.021         2.37778         2.37778         1.95403         1.95403
            1213         347.485         347.485         2.37028         2.37028         1.74070         1.74070
            1214         347.907         347.907         2.34141         2.34141         1.55800         1.55800
            1215         348.290         348.290         2.29455         2.29455         1.39985         1.39985
            1216         348.640         348.640         2.23275         2.23275         1.26154         1.26154
            1217         348.960         348.960         2.15883         2.15883         1.13940         1.13940
            1218         349.251         349.251         2.07534         2.07534         1.03061         1.03061
            1219         349.517         349.517         1.98463         1.98463     932.961E-03     932.961E-03
            1220         349.760         349.760         1.88881         1.88881     844.723E-03     844.723E-03
            1221         349.981         349.981         1.78980         1.78980     764.546E-03     764.546E-03
            1222         350.182         350.182         1.68928         1.68928     691.365E-03     691.365E-03
            1223         350.365         350.365         1.58875         1.58875     624.326E-03     624.326E-03
            1224         350.530         350.530         1.48951         1.48951     562.738E-03     562.738E-03
            1225         350.680         350.680         1.39270         1.39270     506.032E-03     506.032E-03
            1226         350.815         350.815         1.29928         1.29928     453.728E-03     453.728E-03
            1227         350.936         350.936         1.21005         1.21005     405.409E-03     405.409E-03
            1228         351.044         351.044         1.12569         1.12569     360.709E-03     360.709E-03
            1229         351.140         351.140         1.04675         1.04675     319.295E-03     319.295E-03
            1230         351.225         351.225     973.700E-03     973.700E-03     280.858E-03     280.858E-03
            1231         351.300         351.300     906.888E-03     906.888E-03     245.105E-03     245.105E-03
            1232         351.365         351.365     846.600E-03     846.600E-03     211.758E-03     211.758E-03
            1233         351.422         351.422     793.056E-03     793.056E-03     180.545E-03     180.545E-03
            1234         351.469         351.469     746.424E-03     746.424E-03     151.202E-03     151.202E-03
            1235         351.509         351.509     706.828E-03     706.828E-03     123.467E-03     123.467E-03
            1236         351.540         351.540     674.360E-03     674.360E-03     97.0841E-03     97.0841E-03
            1237         351.565         351.565     649.086E-03     649.086E-03     71.7985E-03     71.7985E-03
            1238         351.582         351.582     631.054E-03     631.054E-03     47.3583E-03     47.3583E-03
            1239         351.592         351.592     620.274E-03     620.274E-03     23.5728E-03     23.5728E-03
            1240         320.793         320.793        -2.56058        -2.56058         21.4970         21.4970
            1241         324.718         324.718    -465.395E-03    -465.395E-03         15.9741         15.9741
            1242         328.399         328.399     676.982E-03     676.982E-03         12.0950         12.0950
            1243         331.590         331.590         1.34045         1.34045         9.33527         9.33527
            1244         334.286         334.286         1.75493         1.75493         7.33300         7.33300
            1245         336.549         336.549         2.03117         2.03117         5.85215         5.85215
            1246         338.450         338.450         2.22606         2.22606         4.73900         4.73900
            1247         340.055         340.055         2.36865         2.36865         3.88926         3.88926
            1248         341.419         341.419         2.47436         2.47436         3.23197         3.23197
            1249         342.586         342.586         2.55117         2.55117         2.71703         2.71703
            1250         343.594         343.594         2.60346         2.60346         2.30890         2.30890
            1251         344.470         344.470         2.63372         2.63372         1.98166         1.98166
            1252         345.237         345.237         2.64368         2.64368         1.71634         1.71634
            1253         345.914         345.914         2.63479         2.63479         1.49873         1.49873
            1254         346.515         346.515         2.60847         2.60847         1.31824         1.31824
            1255         347.052         347.052         2.56623         2.56623         1.16677         1.16677
            1256         347.533         347.533         2.50973         2.50973         1.03822         1.03822
            1257         347.966         347.966         2.44071         2.44071     927.868E-03     927.868E-03
            1258         348.357         348.357         2.36099         2.36099     832.126E-03     832.126E-03
            1259         348.711         348.711         2.27243         2.27243     748.216E-03     748.216E-03
            1260         349.032         349.032         2.17684         2.17684     673.996E-03     673.996E-03
            1261         349.324         349.324         2.07601         2.07601     607.808E-03     607.808E-03
            1262         349.589         349.589         1.97162         1.97162     548.364E-03     548.364E-03
            1263         349.829         349.829         1.86523         1.86523     494.655E-03     494.655E-03
            1264         350.047         350.047         1.75830         1.75830     445.889E-03     445.889E-03
            1265         350.245         350.245         1.65212         1.65212     401.435E-03     401.435E-03
            1266         350.424         350.424         1.54785         1.54785     360.782E-03     360.782E-03
            1267         350.585         350.585         1.44653         1.44653     323.513E-03     323.513E-03
            1268         350.730         350.730         1.34903         1.34903     289.278E-03     289.278E-03
            1269         350.861         350.861         1.25611         1.25611     257.776E-03     257.776E-03
            1270         350.977         350.977         1.16840         1.16840     228.746E-03     228.746E-03
            1271         351.081         351.081         1.08643         1.08643     201.950E-03     201.950E-03
            1272         351.173         351.173         1.01063         1.01063     177.174E-03     177.174E-03
            1273         351.254         351.254     941.354E-03     941.354E-03     154.216E-03     154.216E-03
            1274         351.324         351.324     878.870E-03     878.870E-03     132.885E-03     132.885E-03
            1275         351.384         351.384     823.393E-03     823.393E-03     112.999E-03     112.999E-03
            1276         351.436         351.436     775.087E-03     775.087E-03     94.3820E-03     94.3820E-03
            1277         351.478         351.478     734.073E-03     734.073E-03     76.8629E-03     76.8629E-03
            1278         351.512         351.512     700.442E-03     700.442E-03     60.2752E-03     60.2752E-03
            1279         351.539         351.539     674.258E-03     674.258E-03     44.4559E-03     44.4559E-03
            1280         351.557         351.557     655.566E-03     655.566E-03     29.2464E-03     29.2464E-03
            1281         351.568         351.568     644.377E-03     644.377E-03     14.5259E-03     14.5259E-03
            1282         307.129         307.129         3.95260         3.95260         13.1569         13.1569
            1283         315.920         315.920         3.87109         3.87109         9.22028         9.22028
            1284         322.475         322.475         3.65419         3.65419         6.71346         6.71346
            1285         327.451         327.451         3.44637         3.44637         5.03241         5.03241
            1286         331.307         331.307         3.28085         3.28085         3.86062         3.86062
            1287         334.350         334.350         3.15966         3.15966         3.02076         3.02076
            1288         336.792         336.792         3.07527         3.07527         2.40408         2.40408
            1289         338.781         338.781         3.01755         3.01755         1.94278         1.94278
            1290         340.423         340.423         2.97699         2.97699         1.59166         1.59166
            1291         341.796         341.796         2.94541         2.94541         1.32055         1.32055
            1292         342.958         342.958         2.91636         2.91636         1.10829         1.10829
            1293         343.952         343.952         2.88495         2.88495     940.014E-03     940.014E-03
            1294         344.810         344.810         2.84772         2.84772     804.937E-03     804.937E-03
            1295         345.559         345.559         2.80241         2.80241     695.210E-03     695.210E-03
            1296         346.216         346.216         2.74779         2.74779     604.992E-03     604.992E-03
            1297         346.797         346.797         2.68339         2.68339     529.938E-03     529.938E-03
            1298         347.315         347.315         2.60940         2.60940     466.765E-03     466.765E-03
            1299         347.778         347.778         2.52647         2.52647     412.991E-03     412.991E-03
            1300         348.194         348.194         2.43559         2.43559     366.725E-03     366.725E-03
            1301         348.569         348.569         2.33796         2.33796     326.521E-03     326.521E-03
            1302         348.908         348.908         2.23494         2.23494     291.269E-03     291.269E-03
            1303         349.215         349.215         2.12793         2.12793     260.112E-03     260.112E-03
            1304         349.493         349.493         2.01834         2.01834     232.386E-03     232.386E-03
            1305         349.744         349.744         1.90751         1.90751     207.574E-03     207.574E-03
            1306         349.972         349.972         1.79674         1.79674     185.264E-03     185.264E-03
            1307         350.179         350.179         1.68720         1.68720     165.132E-03     165.132E-03
            1308         350.365         350.365         1.57998         1.57998     146.913E-03     146.913E-03
            1309         350.533         350.533         1.47601         1.47601     130.390E-03     130.390E-03
            1310         350.685         350.685         1.37614         1.37614     115.382E-03     115.382E-03
            1311         350.820         350.820         1.28107         1.28107     101.732E-03     101.732E-03
            1312         350.942         350.942         1.19143         1.19143     89.3056E-03     89.3056E-03
            1313         351.050         351.050         1.10772         1.10772     77.9811E-03     77.9811E-03
            1314         351.145         351.145         1.03036         1.03036     67.6498E-03     67.6498E-03
            1315         351.229         351.229     959.675E-03     959.675E-03     58.2121E-03     58.2121E-03
            1316         351.302         351.302     895.942E-03     895.942E-03     49.5756E-03     49.5756E-03
            1317         351.365         351.365     839.366E-03     839.366E-03     41.6540E-03     41.6540E-03
            1318         351.418         351.418     790.106E-03     790.106E-03     34.3668E-03     34.3668E-03
            1319         351.462         351.462     748.280E-03     748.280E-03     27.6381E-03     27.6381E-03
            1320         351.498         351.498     713.974E-03     713.974E-03     21.3967E-03     21.3967E-03
            1321         351.525         351.525     687.249E-03     687.249E-03     15.5762E-03     15.5762E-03
            1322         351.544         351.544     668.148E-03     668.148E-03     10.1150E-03     10.1150E-03
            1323         351.556         351.556     656.678E-03     656.678E-03     4.96874E-03     4.96874E-03
            1324         302.364         302.364         6.34761         6.34761    -895.702E-03    -895.702E-03
            1325         313.108         313.108         5.31146         5.31146    -781.815E-03    -781.815E-03
            1326         320.678         320.678         4.58348         4.58348    -664.344E-03    -664.344E-03
            1327         326.248         326.248         4.07345         4.07345    -566.806E-03    -566.806E-03
            1328         330.472         330.472         3.71690         3.71690    -486.944E-03    -486.944E-03
            1329         333.754         333.754         3.47092         3.47092    -422.256E-03    -422.256E-03
            1330         336.357         336.357         3.30161         3.30161    -369.272E-03    -369.272E-03
            1331         338.456         338.456         3.18511         3.18511    -325.815E-03    -325.815E-03
            1332         340.177         340.177         3.10269         3.10269    -289.813E-03    -289.813E-03
            1333         341.607         341.607         3.04100         3.04100    -259.862E-03    -259.862E-03
            1334         342.810         342.810         2.98986         2.98986    -234.743E-03    -234.743E-03
            1335         343.835         343.835         2.94212         2.94212    -213.556E-03    -213.556E-03
            1336         344.717         344.717         2.89265         2.89265    -195.537E-03    -195.537E-03
            1337         345.483         345.483         2.83812         2.83812    -180.092E-03    -180.092E-03
            1338         346.154         346.154         2.77647         2.77647    -166.721E-03    -166.721E-03
            1339         346.747         346.747         2.70668         2.70668    -155.024E-03    -155.024E-03
            1340         347.273         347.273         2.62851         2.62851    -144.667E-03    -144.667E-03
            1341         347.743         347.743         2.54231         2.54231    -135.383E-03    -135.383E-03
            1342         348.165         348.165         2.44884         2.44884    -126.952E-03    -126.952E-03
            1343         348.545         348.545         2.34915         2.34915    -119.199E-03    -119.199E-03
            1344         348.888         348.888         2.24445         2.24445    -111.986E-03    -111.986E-03
            1345         349.198         349.198         2.13607         2.13607    -105.204E-03    -105.204E-03
            1346         349.478         349.478         2.02533         2.02533    -98.7681E-03    -98.7681E-03
            1347         349.732         349.732         1.91355         1.91355    -92.6158E-03    -92.6158E-03
            1348         349.962         349.962         1.80196         1.80196    -86.7000E-03    -86.7000E-03
            1349         350.170         350.170         1.69172         1.69172    -80.9864E-03    -80.9864E-03
            1350         350.358         350.358         1.58389         1.58389    -75.4505E-03    -75.4505E-03
            1351         350.527         350.527         1.47939         1.47939    -70.0750E-03    -70.0750E-03
            1352         350.680         350.680         1.37905         1.37905    -64.8472E-03    -64.8472E-03
            1353         350.816         350.816         1.28357         1.28357    -59.7574E-03    -59.7574E-03
            1354         350.938         350.938         1.19357         1.19357    -54.7970E-03    -54.7970E-03
            1355         351.047         351.047         1.10954         1.10954    -49.9576E-03    -49.9576E-03
            1356         351.143         351.143         1.03189         1.03189    -45.2298E-03    -45.2298E-03
            1357         351.227         351.227     960.963E-03     960.963E-03    -40.6019E-03    -40.6019E-03
            1358         351.301         351.301     897.011E-03     897.011E-03    -36.0601E-03    -36.0601E-03
            1359         351.364         351.364     840.242E-03     840.242E-03    -31.5872E-03    -31.5872E-03
            1360         351.417         351.417     790.812E-03     790.812E-03    -27.1627E-03    -27.1627E-03
            1361         351.462         351.462     748.834E-03     748.834E-03    -22.7622E-03    -22.7622E-03
            1362         351.497         351.497     714.391E-03     714.391E-03    -18.3570E-03    -18.3570E-03
            1363         351.525         351.525     687.541E-03     687.541E-03    -13.9141E-03    -13.9141E-03
            1364         351.544         351.544     668.320E-03     668.320E-03    -9.39550E-03    -9.39550E-03
            1365         351.556         351.556     656.729E-03     656.729E-03    -4.76849E-03    -4.76849E-03
            1366         310.412         310.412         2.38044         2.38044        -15.1251        -15.1251
            1367         318.243         318.243         2.72853         2.72853        -10.9593        -10.9593
            1368         324.150         324.150         2.81345         2.81345        -8.21825        -8.21825
            1369         328.691         328.691         2.81588         2.81588        -6.32549        -6.32549
            1370         332.247         332.247         2.79934         2.79934        -4.97484        -4.97484
            1371         335.078         335.078         2.78560         2.78560        -3.98528        -3.98528
            1372         337.367         337.367         2.78046         2.78046        -3.24502        -3.24502
            1373         339.242         339.242         2.78203         2.78203        -2.68118        -2.68118
            1374         340.799         340.799         2.78660         2.78660        -2.24511        -2.24511
            1375         342.107         342.107         2.78977         2.78977        -1.90316        -1.90316
            1376         343.218         343.218         2.78779         2.78779        -1.63162        -1.63162
            1377         344.172         344.172         2.77763         2.77763        -1.41338        -1.41338
            1378         344.998         344.998         2.75722         2.75722        -1.23594        -1.23594
            1379         345.721         345.721         2.72529         2.72529        -1.08996        -1.08996
            1380         346.357         346.357         2.68138         2.68138    -968.441E-03    -968.441E-03
            1381         346.922         346.922         2.62559         2.62559    -866.072E-03    -866.072E-03
            1382         347.425         347.425         2.55856         2.55856    -778.790E-03    -778.790E-03
            1383         347.876         347.876         2.48128         2.48128    -703.480E-03    -703.480E-03
            1384         348.282         348.282         2.39502         2.39502    -637.740E-03    -637.740E-03
            1385         348.648         348.648         2.30121         2.30121    -579.721E-03    -579.721E-03
            1386         348.979         348.979         2.20137         2.20137    -527.990E-03    -527.990E-03
            1387         349.279         349.279         2.09703         2.09703    -481.441E-03    -481.441E-03
            1388         349.551         349.551         1.98972         1.98972    -439.217E-03    -439.217E-03
            1389         349.797         349.797         1.88087         1.88087    -400.650E-03    -400.650E-03
            1390         350.021         350.021         1.77183         1.77183    -365.222E-03    -365.222E-03
            1391         350.222         350.222         1.66384         1.66384    -332.522E-03    -332.522E-03
            1392         350.405         350.405         1.55800         1.55800    -302.227E-03    -302.227E-03
            1393         350.569         350.569         1.45530         1.45530    -274.073E-03    -274.073E-03
            1394         350.717         350.717         1.35659         1.35659    -247.843E-03    -247.843E-03
            1395         350.850         350.850         1.26260         1.26260    -223.352E-03    -223.352E-03
            1396         350.969         350.969         1.17395         1.17395    -200.439E-03    -200.439E-03
            1397         351.074         351.074         1.09115         1.09115    -178.959E-03    -178.959E-03
            1398         351.167         351.167         1.01462         1.01462    -158.776E-03    -158.776E-03
            1399         351.249         351.249     944.700E-03     944.700E-03    -139.761E-03    -139.761E-03
            1400         351.320         351.320     881.648E-03     881.648E-03    -121.786E-03    -121.786E-03
            1401         351.382         351.382     825.670E-03     825.670E-03    -104.726E-03    -104.726E-03
            1402         351.434         351.434     776.920E-03     776.920E-03    -88.4552E-03    -88.4552E-03
            1403         351.477         351.477     735.512E-03     735.512E-03    -72.8438E-03    -72.8438E-03
            1404         351.511         351.511     701.525E-03     701.525E-03    -57.7607E-03    -57.7607E-03
            1405         351.538         351.538     675.013E-03     675.013E-03    -43.0713E-03    -43.0713E-03
            1406         351.557         351.557     656.009E-03     656.009E-03    -28.6372E-03    -28.6372E-03
            1407         351.568         351.568     644.508E-03     644.508E-03    -14.3523E-03    -14.3523E-03
            1408         327.535         327.535        -5.42123        -5.42123        -22.3884        -22.3884
            1409         329.606         329.606        -2.66703        -2.66703        -17.1668        -17.1668
            1410         332.011         332.011        -1.01426        -1.01426        -13.3427        -13.3427
            1411         334.308         334.308     35.2961E-03     35.2961E-03        -10.5302        -10.5302
            1412         336.369         336.369     738.240E-03     738.240E-03        -8.43190        -8.43190
            1413         338.173         338.173         1.23174         1.23174        -6.84527        -6.84527
            1414         339.736         339.736         1.59080         1.59080        -5.62940        -5.62940
            1415         341.089         341.089         1.85902         1.85902        -4.68624        -4.68624
            1416         342.261         342.261         2.06147         2.06147        -3.94616        -3.94616
            1417         343.281         343.281         2.21356         2.21356        -3.35913        -3.35913
            1418         344.174         344.174         2.32475         2.32475        -2.88856        -2.88856
            1419         344.959         344.959         2.40145         2.40145        -2.50739        -2.50739
            1420         345.654         345.654         2.44820         2.44820        -2.19536        -2.19536
            1421         346.273         346.273         2.46859         2.46859        -1.93714        -1.93714
            1422         346.827         346.827         2.46568         2.46568        -1.72106        -1.72106
            1423         347.324         347.324         2.44226         2.44226        -1.53819        -1.53819
            1424         347.773         347.773         2.40094         2.40094        -1.38164        -1.38164
            1425         348.179         348.179         2.34425         2.34425        -1.24610        -1.24610
            1426         348.547         348.547         2.27463         2.27463        -1.12746        -1.12746
            1427         348.881         348.881         2.19439         2.19439        -1.02255        -1.02255
            1428         349.185         349.185         2.10575         2.10575    -928.905E-03    -928.905E-03
            1429         349.461         349.461         2.01078         2.01078    -844.613E-03    -844.613E-03
            1430         349.713         349.713         1.91139         1.91139    -768.190E-03    -768.190E-03
            1431         349.941         349.941         1.80935         1.80935    -698.478E-03    -698.478E-03
            1432         350.149         350.149         1.70624         1.70624    -634.566E-03    -634.566E-03
            1433         350.337         350.337         1.60346         1.60346    -575.735E-03    -575.735E-03
            1434         350.507         350.507         1.50227         1.50227    -521.406E-03    -521.406E-03
            1435         350.660         350.660         1.40373         1.40373    -471.105E-03    -471.105E-03
            1436         350.798         350.798         1.30879         1.30879    -424.437E-03    -424.437E-03
            1437         350.922         350.922         1.21822         1.21822    -381.062E-03    -381.062E-03
            1438         351.033         351.033         1.13268         1.13268    -340.681E-03    -340.681E-03
            1439         351.131         351.131         1.05270         1.05270    -303.021E-03    -303.021E-03
            1440         351.218         351.218     978.726E-03     978.726E-03    -267.829E-03    -267.829E-03
            1441         351.295         351.295     911.100E-03     911.100E-03    -234.862E-03    -234.862E-03
            1442         351.361         351.361     850.095E-03     850.095E-03    -203.886E-03    -203.886E-03
            1443         351.418         351.418     795.919E-03     795.919E-03    -174.670E-03    -174.670E-03
            1444         351.466         351.466     748.727E-03     748.727E-03    -146.983E-03    -146.983E-03
            1445         351.507         351.507     708.632E-03     708.632E-03    -120.596E-03    -120.596E-03
            1446         351.539         351.539     675.715E-03     675.715E-03    -95.2769E-03    -95.2769E-03
            1447         351.564         351.564     650.027E-03     650.027E-03    -70.7926E-03    -70.7926E-03
            1448         351.581         351.581     631.601E-03     631.601E-03    -46.9079E-03    -46.9079E-03
            1449         351.592         351.592     620.432E-03     620.432E-03    -23.4442E-03    -23.4442E-03
            1450         345.030         345.030        -11.9454        -11.9454        -21.0235        -21.0235
            1451         342.498         342.498        -7.99651        -7.99651        -17.6972        -17.6972
            1452         341.544         341.544        -5.19338        -5.19338        -14.6769        -14.6769
            1453         341.451         341.451        -3.21341        -3.21341        -12.1378        -12.1378
            1454         341.800         341.800        -1.78895        -1.78895        -10.0704        -10.0704
            1455         342.363         342.363    -744.861E-03    -744.861E-03        -8.40516        -8.40516
            1456         343.015         343.015     34.7286E-03     34.7286E-03        -7.06737        -7.06737
            1457         343.688         343.688     624.528E-03     624.528E-03        -5.99083        -5.99083
            1458         344.348         344.348         1.07441         1.07441        -5.12108        -5.12108
            1459         344.977         344.977         1.41763         1.41763        -4.41448        -4.41448
            1460         345.568         345.568         1.67736         1.67736        -3.83659        -3.83659
            1461         346.118         346.118         1.86996         1.86996        -3.36034        -3.36034
            1462         346.626         346.626         2.00760         2.00760        -2.96452        -2.96452
            1463         347.096         347.096         2.09957         2.09957        -2.63247        -2.63247
            1464         347.530         347.530         2.15331         2.15331        -2.35115        -2.35115
            1465         347.930         347.930         2.17496         2.17496        -2.11035        -2.11035
            1466         348.298         348.298         2.16973         2.16973        -1.90206        -1.90206
            1467         348.636         348.636         2.14215         2.14215        -1.72001        -1.72001
            1468         348.948         348.948         2.09621         2.09621        -1.55932        -1.55932
            1469         349.234         349.234         2.03544         2.03544        -1.41616        -1.41616
            1470         349.497         349.497         1.96299         1.96299        -1.28756        -1.28756
            1471         349.738         349.738         1.88166         1.88166        -1.17119        -1.17119
            1472         349.958         349.958         1.79391         1.79391        -1.06523        -1.06523
            1473         350.159         350.159         1.70194         1.70194    -968.256E-03    -968.256E-03
            1474         350.343         350.343         1.60765         1.60765    -879.140E-03    -879.140E-03
            1475         350.509         350.509         1.51270         1.51270    -796.980E-03    -796.980E-03
            1476         350.660         350.660         1.41852         1.41852    -721.043E-03    -721.043E-03
            1477         350.797         350.797         1.32631         1.32631    -650.723E-03    -650.723E-03
            1478         350.920         350.920         1.23710         1.23710    -585.505E-03    -585.505E-03
            1479         351.030         351.030         1.15176         1.15176    -524.939E-03    -524.939E-03
            1480         351.129         351.129         1.07097         1.07097    -468.622E-03    -468.622E-03
            1481         351.216         351.216     995.323E-03     995.323E-03    -416.183E-03    -416.183E-03
            1482         351.294         351.294     925.268E-03     925.268E-03    -367.272E-03    -367.272E-03
            1483         351.362         351.362     861.172E-03     861.172E-03    -321.550E-03    -321.550E-03
            1484         351.421         351.421     803.315E-03     803.315E-03    -278.691E-03    -278.691E-03
            1485         351.472         351.472     751.913E-03     751.913E-03    -238.369E-03    -238.369E-03
            1486         351.515         351.515     707.124E-03     707.124E-03    -200.262E-03    -200.262E-03
            1487         351.550         351.550     669.063E-03     669.063E-03    -164.046E-03    -164.046E-03
            1488         351.579         351.579     637.813E-03     637.813E-03    -129.400E-03    -129.400E-03
            1489         351.601         351.601     613.425E-03     613.425E-03    -95.9982E-03    -95.9982E-03
            1490         351.617         351.617     595.935E-03     595.935E-03    -63.5170E-03    -63.5170E-03
            1491         351.626         351.626     585.337E-03     585.337E-03    -31.7098E-03    -31.7098E-03
            1492         357.023         357.023        -14.4769        -14.4769        -15.0028        -15.0028
            1493         352.779         352.779        -11.0640        -11.0640        -14.2355        -14.2355
            1494         349.988         349.988        -8.16265        -8.16265        -12.8828        -12.8828
            1495         348.267         348.267        -5.83771        -5.83771        -11.3698        -11.3698
            1496         347.281         347.281        -4.02067        -4.02067        -9.91574        -9.91574
            1497         346.780         346.780        -2.60634        -2.60634        -8.60910        -8.60910
            1498         346.593         346.593        -1.50488        -1.50488        -7.47391        -7.47391
            1499         346.608         346.608    -644.794E-03    -644.794E-03        -6.50494        -6.50494
            1500         346.749         346.749     27.1791E-03     27.1791E-03        -5.68504        -5.68504
            1501         346.969         346.969     551.086E-03     551.086E-03        -4.99348        -4.99348
            1502         347.233         347.233     956.731E-03     956.731E-03        -4.40988        -4.40988
            1503         347.521         347.521         1.26685         1.26685        -3.91580        -3.91580
            1504         347.820         347.820         1.49894         1.49894        -3.49529        -3.49529
            1505         348.118         348.118         1.66687         1.66687        -3.13496        -3.13496
            1506         348.411         348.411         1.78179         1.78179        -2.82372        -2.82372
            1507         348.694         348.694         1.85286         1.85286        -2.55257        -2.55257
            1508         348.965         348.965         1.88777         1.88777        -2.31422        -2.31422
            1509         349.222         349.222         1.89300         1.89300        -2.10285        -2.10285
            1510         349.464         349.464         1.87412         1.87412        -1.91382        -1.91382
            1511         349.690         349.690         1.83589         1.83589        -1.74346        -1.74346
            1512         349.901         349.901         1.78245         1.78245        -1.58889        -1.58889
            1513         350.096         350.096         1.71735         1.71735        -1.44783        -1.44783
            1514         350.277         350.277         1.64365         1.64365        -1.31847        -1.31847
            1515         350.443         350.443         1.56401         1.56401        -1.19941        -1.19941
            1516         350.595         350.595         1.48065         1.48065        -1.08949        -1.08949
            1517         350.733         350.733         1.39551         1.39551    -987.805E-03    -987.805E-03
            1518         350.860         350.860         1.31020         1.31020    -893.578E-03    -893.578E-03
            1519         350.974         350.974         1.22607         1.22607    -806.168E-03    -806.168E-03
            1520         351.077         351.077         1.14425         1.14425    -725.013E-03    -725.013E-03
            1521         351.169         351.169         1.06566         1.06566    -649.609E-03    -649.609E-03
            1522         351.252         351.252     991.062E-03     991.062E-03    -579.494E-03    -579.494E-03
            1523         351.326         351.326     921.060E-03     921.060E-03    -514.232E-03    -514.232E-03
            1524         351.391         351.391     856.137E-03     856.137E-03    -453.404E-03    -453.404E-03
            1525         351.448         351.448     796.670E-03     796.670E-03    -396.601E-03    -396.601E-03
            1526         351.497         351.497     742.950E-03     742.950E-03    -343.420E-03    -343.420E-03
            1527         351.539         351.539     695.198E-03     695.198E-03    -293.458E-03    -293.458E-03
            1528         351.575         351.575     653.577E-03     653.577E-03    -246.313E-03    -246.313E-03
            1529         351.605         351.605     618.204E-03     618.204E-03    -201.584E-03    -201.584E-03
            1530         351.629         351.629     589.161E-03     589.161E-03    -158.867E-03    -158.867E-03
            1531         351.648         351.648     566.506E-03     566.506E-03    -117.757E-03    -117.757E-03
            1532         351.661         351.661     550.273E-03     550.273E-03    -77.8485E-03    -77.8485E-03
            1533         351.668         351.668     540.465E-03     540.465E-03    -38.8394E-03    -38.8394E-03
            1534         353.193         353.193     6.34457E-03     6.34457E-03        -1.20844        -1.20844
            1535         354.371         354.371     10.9578E-03     10.9578E-03        -2.15321        -2.15321
            1536         355.557         355.557     1.06364E-03     1.06364E-03        -2.84652        -2.84652
            1537         356.778         356.778    -48.4527E-03    -48.4527E-03        -3.37893        -3.37893
            1538         358.073         358.073    -174.074E-03    -174.074E-03        -3.81531        -3.81531
            1539         359.487         359.487    -426.389E-03    -426.389E-03        -4.19308        -4.19308
            1540         361.077         361.077    -875.679E-03    -875.679E-03        -4.52219        -4.52219
            1541         362.903         362.903        -1.62047        -1.62047        -4.77782        -4.77782
            1542         365.028         365.028        -2.79772        -2.79772        -4.88320        -4.88320
            1543         367.494         367.494        -4.59042        -4.59042        -4.67423        -4.67423
            1544         370.252         370.252        -7.20982        -7.20982        -3.84627        -3.84627
            1545         373.002         373.002        -10.8096        -10.8096        -1.89107        -1.89107
            1546         351.699         351.699     108.069E-03     108.069E-03        -1.11133        -1.11133
            1547         353.294         353.294     297.366E-03     297.366E-03        -1.98766        -1.98766
            1548         354.731         354.731     570.157E-03     570.157E-03        -2.65215        -2.65215
            1549         356.087         356.087     890.830E-03     890.830E-03        -3.20135        -3.20135
            1550         357.437         357.437         1.22400         1.22400        -3.70967        -3.70967
            1551         358.858         358.858         1.52916         1.52916        -4.23188        -4.23188
            1552         360.433         360.433         1.75207         1.75207        -4.80719        -4.80719
            1553         362.267         362.267         1.81165         1.81165        -5.45848        -5.45848
            1554         364.490         364.490         1.57840         1.57840        -6.18241        -6.18241
            1555         367.272         367.272     838.947E-03     838.947E-03        -6.92255        -6.92255
            1556         370.810         370.810    -757.077E-03    -757.077E-03        -7.49637        -7.49637
            1557         375.255         375.255        -3.74092        -3.74092        -7.44353        -7.44353
            1558         350.442         350.442     202.751E-03     202.751E-03    -838.296E-03    -838.296E-03
            1559         352.377         352.377     564.799E-03     564.799E-03        -1.50067        -1.50067
            1560         353.999         353.999         1.10469         1.10469        -2.01171        -2.01171
            1561         355.428         355.428         1.78210         1.78210        -2.45388        -2.45388
            1562         356.765         356.765         2.57187         2.57187        -2.89411        -2.89411
            1563         358.102         358.102         3.45830         3.45830        -3.38853        -3.38853
            1564         359.534         359.534         4.42876         4.42876        -3.98982        -3.98982
            1565         361.176         361.176         5.46505         5.46505        -4.75280        -4.75280
            1566         363.174         363.174         6.52851         6.52851        -5.73846        -5.73846
            1567         365.747         365.747         7.53026         7.53026        -7.01340        -7.01340
            1568         369.237         369.237         8.26076         8.26076        -8.63153        -8.63153
            1569         374.194         374.194         8.22016         8.22016        -10.5518        -10.5518
            1570         349.634         349.634     270.577E-03     270.577E-03    -419.603E-03    -419.603E-03
            1571         351.789         351.789     756.728E-03     756.728E-03    -746.233E-03    -746.233E-03
            1572         353.520         353.520         1.48980         1.48980    -996.019E-03    -996.019E-03
            1573         354.975         354.975         2.42854         2.42854        -1.21759        -1.21759
            1574         356.271         356.271         3.55952         3.55952        -1.45148        -1.45148
            1575         357.504         357.504         4.89279         4.89279        -1.73405        -1.73405
            1576         358.768         358.768         6.46004         6.46004        -2.10318        -2.10318
            1577         360.164         360.164         8.31582         8.31582        -2.60458        -2.60458
            1578         361.821         361.821         10.5413         10.5413        -3.30003        -3.30003
            1579         363.926         363.926         13.2504         13.2504        -4.28042        -4.28042
            1580         366.789         366.789         16.5943         16.5943        -5.69292        -5.69292
            1581         370.977         370.977         20.7374         20.7374        -7.79253        -7.79253
            1582         349.422         349.422     296.135E-03     296.135E-03     82.8539E-03     82.8539E-03
            1583         351.651         351.651     829.154E-03     829.154E-03     162.446E-03     162.446E-03
            1584         353.413         353.413         1.63542         1.63542     237.455E-03     237.455E-03
            1585         354.867         354.867         2.67367         2.67367     305.423E-03     305.423E-03
            1586         356.134         356.134         3.93540         3.93540     364.621E-03     364.621E-03
            1587         357.313         357.313         5.44139         5.44139     413.712E-03     413.712E-03
            1588         358.494         358.494         7.24224         7.24224     451.701E-03     451.701E-03
            1589         359.770         359.770         9.42453         9.42453     477.968E-03     477.968E-03
            1590         361.257         361.257         12.1249         12.1249     492.166E-03     492.166E-03
            1591         363.115         363.115         15.5571         15.5571     494.306E-03     494.306E-03
            1592         365.600         365.600         20.0700         20.0700     484.826E-03     484.826E-03
            1593         369.177         369.177         26.2921         26.2921     463.896E-03     463.896E-03
            1594         349.865         349.865     273.592E-03     273.592E-03     588.085E-03     588.085E-03
            1595         352.010         352.010     765.442E-03     765.442E-03         1.07635         1.07635
            1596         353.724         353.724         1.50743         1.50743         1.47824         1.47824
            1597         355.156         355.156         2.45779         2.45779         1.83745         1.83745
            1598         356.424         356.424         3.60256         3.60256         2.19109         2.19109
            1599         357.627         357.627         4.95129         4.95129         2.57284         2.57284
            1600         358.859         358.859         6.53522         6.53522         3.01866         3.01866
            1601         360.221         360.221         8.40846         8.40846         3.57297         3.57297
            1602         361.844         361.844         10.6518         10.6518         4.29703         4.29703
            1603         363.915         363.915         13.3789         13.3789         5.28165         5.28165
            1604         366.746         366.746         16.7403         16.7403         6.67446         6.67446
            1605         370.903         370.903         20.9003         20.9003         8.73235         8.73235
            1606         350.913         350.913     208.769E-03     208.769E-03         1.01509         1.01509
            1607         352.825         352.825     582.194E-03     582.194E-03         1.84646         1.84646
            1608         354.411         354.411         1.13989         1.13989         2.51583         2.51583
            1609         355.793         355.793         1.84049         1.84049         3.10075         3.10075
            1610         357.075         357.075         2.65774         2.65774         3.66474         3.66474
            1611         358.351         358.351         3.57497         3.57497         4.26134         4.26134
            1612         359.718         359.718         4.57861         4.57861         4.94136         4.94136
            1613         361.290         361.290         5.64960         5.64960         5.75846         5.75846
            1614         363.220         363.220         6.74851         6.74851         6.77316         6.77316
            1615         365.725         365.725         7.78580         7.78580         8.05215         8.05215
            1616         369.149         369.149         8.55167         8.55167         9.64979         9.64979
            1617         374.044         374.044         8.54460         8.54460         11.5258         11.5258
            1618         352.423         352.423     117.069E-03     117.069E-03         1.30195         1.30195
            1619         353.981         353.981     323.386E-03     323.386E-03         2.35951         2.35951
            1620         355.362         355.362     622.809E-03     622.809E-03         3.19268         3.19268
            1621         356.646         356.646     978.106E-03     978.106E-03         3.89306         3.89306
            1622         357.911         357.911         1.35231         1.35231         4.53179         4.53179
            1623         359.237         359.237         1.70336         1.70336         5.16107         5.16107
            1624         360.712         360.712         1.97563         1.97563         5.81840         5.81840
            1625         362.441         362.441         2.08669         2.08669         6.52564         6.52564
            1626         364.559         364.559         1.90586         1.90586         7.27917         7.27917
            1627         367.238         367.238         1.21886         1.21886         8.02296         8.02296
            1628         370.675         370.675    -325.462E-03    -325.462E-03         8.57540         8.57540
            1629         375.025         375.025        -3.25805        -3.25805         8.47610         8.47610
            1630         354.194         354.194     18.3085E-03     18.3085E-03         1.41841         1.41841
            1631         355.318         355.318     45.5370E-03     45.5370E-03         2.56146         2.56146
            1632         356.423         356.423     71.0092E-03     71.0092E-03         3.43784         3.43784
            1633         357.543         357.543     67.4211E-03     67.4211E-03         4.13314         4.13314
            1634         358.720         358.720    -3.87613E-03    -3.87613E-03         4.70903         4.70903
            1635         360.004         360.004    -195.530E-03    -195.530E-03         5.20054         5.20054
            1636         361.454         361.454    -579.777E-03    -579.777E-03         5.61603         5.61603
            1637         363.137         363.137        -1.25696        -1.25696         5.92986         5.92986
            1638         365.120         365.120        -2.36566        -2.36566         6.06524         6.06524
            1639         367.445         367.445        -4.09035        -4.09035         5.85879         5.85879
            1640         370.068         370.068        -6.64311        -6.64311         5.00767         5.00767
            1641         372.690         372.690        -10.1775        -10.1775         3.00551         3.00551
            1642         351.757         351.757     441.802E-03     441.802E-03     48.1244E-03     48.1244E-03
            1643         351.753         351.753     449.917E-03     449.917E-03     96.5085E-03     96.5085E-03
            1644         351.745         351.745     463.401E-03     463.401E-03     146.077E-03     146.077E-03
            1645         351.735         351.735     482.247E-03     482.247E-03     197.215E-03     197.215E-03
            1646         351.722         351.722     506.422E-03     506.422E-03     250.442E-03     250.442E-03
            1647         351.705         351.705     535.872E-03     535.872E-03     306.275E-03     306.275E-03
            1648         351.685         351.685     570.517E-03     570.517E-03     365.227E-03     365.227E-03
            1649         351.661         351.661     610.244E-03     610.244E-03     427.804E-03     427.804E-03
            1650         351.633         351.633     654.893E-03     654.893E-03     494.509E-03     494.509E-03
            1651         351.600         351.600     704.248E-03     704.248E-03     565.836E-03     565.836E-03
            1652         351.563         351.563     758.016E-03     758.016E-03     642.269E-03     642.269E-03
            1653         351.521         351.521     815.817E-03     815.817E-03     724.288E-03     724.288E-03
            1654         351.473         351.473     877.152E-03     877.152E-03     812.362E-03     812.362E-03
            1655         351.420         351.420     941.389E-03     941.389E-03     906.954E-03     906.954E-03
            1656         351.361         351.361         1.00773         1.00773         1.00853         1.00853
            1657         351.295         351.295         1.07516         1.07516         1.11754         1.11754
            1658         351.223         351.223         1.14246         1.14246         1.23448         1.23448
            1659         351.145         351.145         1.20808         1.20808         1.35983         1.35983
            1660         351.060         351.060         1.27018         1.27018         1.49414         1.49414
            1661         350.968         350.968         1.32650         1.32650         1.63801         1.63801
            1662         350.871         350.871         1.37434         1.37434         1.79213         1.79213
            1663         350.769         350.769         1.41046         1.41046         1.95733         1.95733
            1664         350.663         350.663         1.43101         1.43101         2.13461         2.13461
            1665         350.556         350.556         1.43142         1.43142         2.32517         2.32517
            1666         350.449         350.449         1.40631         1.40631         2.53051         2.53051
            1667         350.348         350.348         1.34934         1.34934         2.75242         2.75242
            1668         350.257         350.257         1.25312         1.25312         2.99308         2.99308
            1669         350.182         350.182         1.10897         1.10897         3.25499         3.25499
            1670         350.133         350.133     906.817E-03     906.817E-03         3.54095         3.54095
            1671         350.122         350.122     634.915E-03     634.915E-03         3.85388         3.85388
            1672         350.164         350.164     279.714E-03     279.714E-03         4.19649         4.19649
            1673         350.279         350.279    -174.443E-03    -174.443E-03         4.57059         4.57059
            1674         350.492         350.492    -745.257E-03    -745.257E-03         4.97600         4.97600
            1675         350.839         350.839        -1.45260        -1.45260         5.40875         5.40875
            1676         351.362         351.362        -2.31742        -2.31742         5.85810         5.85810
            1677         352.113         352.113        -3.36049        -3.36049         6.30230         6.30230
            1678         353.160         353.160        -4.59728        -4.59728         6.70163         6.70163
            1679         354.574         354.574        -6.03089        -6.03089         6.99068         6.99068
            1680         356.431         356.431        -7.63394        -7.63394         7.06654         7.06654
            1681         358.784         358.784        -9.32480        -9.32480         6.78592         6.78592
            1682         361.633         361.633        -10.9283        -10.9283         5.96698         5.96698
            1683         364.879         364.879        -12.1619        -12.1619         4.44282         4.44282
            1684         351.798         351.798     392.663E-03     392.663E-03     50.4041E-03     50.4041E-03
            1685         351.795         351.795     399.965E-03     399.965E-03     101.076E-03     101.076E-03
            1686         351.791         351.791     412.104E-03     412.104E-03     153.009E-03     153.009E-03
            1687         351.785         351.785     429.072E-03     429.072E-03     206.616E-03     206.616E-03
            1688         351.777         351.777     450.836E-03     450.836E-03     262.445E-03     262.445E-03
            1689         351.767         351.767     477.347E-03     477.347E-03     321.047E-03     321.047E-03
            1690         351.754         351.754     508.533E-03     508.533E-03     382.962E-03     382.962E-03
            1691         351.739         351.739     544.285E-03     544.285E-03     448.727E-03     448.727E-03
            1692         351.722         351.722     584.454E-03     584.454E-03     518.868E-03     518.868E-03
            1693         351.702         351.702     628.832E-03     628.832E-03     593.899E-03     593.899E-03
            1694         351.679         351.679     677.142E-03     677.142E-03     674.320E-03     674.320E-03
            1695         351.653         351.653     729.012E-03     729.012E-03     760.615E-03     760.615E-03
            1696         351.623         351.623     783.962E-03     783.962E-03     853.249E-03     853.249E-03
            1697         351.589         351.589     841.370E-03     841.370E-03     952.667E-03     952.667E-03
            1698         351.552         351.552     900.446E-03     900.446E-03         1.05929         1.05929
            1699         351.510         351.510     960.198E-03     960.198E-03         1.17352         1.17352
            1700         351.465         351.465         1.01938         1.01938         1.29574         1.29574
            1701         351.415         351.415         1.07648         1.07648         1.42631         1.42631
            1702         351.362         351.362         1.12959         1.12959         1.56559         1.56559
            1703         351.306         351.306         1.17644         1.17644         1.71392         1.71392
            1704         351.248         351.248         1.21425         1.21425         1.87167         1.87167
            1705         351.189         351.189         1.23971         1.23971         2.03922         2.03922
            1706         351.130         351.130         1.24882         1.24882         2.21700         2.21700
            1707         351.075         351.075         1.23689         1.23689         2.40548         2.40548
            1708         351.026         351.026         1.19834         1.19834         2.60522         2.60522
            1709         350.988         350.988         1.12665         1.12665         2.81682         2.81682
            1710         350.968         350.968         1.01422         1.01422         3.04090         3.04090
            1711         350.972         350.972     852.303E-03     852.303E-03         3.27804         3.27804
            1712         351.011         351.011     630.830E-03     630.830E-03         3.52859         3.52859
            1713         351.098         351.098     338.453E-03     338.453E-03         3.79235         3.79235
            1714         351.248         351.248    -37.5286E-03    -37.5286E-03         4.06812         4.06812
            1715         351.481         351.481    -510.889E-03    -510.889E-03         4.35285         4.35285
            1716         351.824         351.824        -1.09620        -1.09620         4.64045         4.64045
            1717         352.306         352.306        -1.80767        -1.80767         4.91979         4.91979
            1718         352.963         352.963        -2.65771        -2.65771         5.17230         5.17230
            1719         353.838         353.838        -3.65321        -3.65321         5.36795         5.36795
            1720         354.974         354.974        -4.79045        -4.79045         5.46144         5.46144
            1721         356.414         356.414        -6.04504        -6.04504         5.38651         5.38651
            1722         358.184         358.184        -7.35826        -7.35826         5.05526         5.05526
            1723         360.281         360.281        -8.61859        -8.61859         4.35909         4.35909
            1724         362.648         362.648        -9.64463        -9.64463         3.19144         3.19144
            1725         365.174         365.174        -10.1956        -10.1956         1.45700         1.45700
            1726         351.837         351.837     341.837E-03     341.837E-03     51.5014E-03     51.5014E-03
            1727         351.836         351.836     348.287E-03     348.287E-03     103.275E-03     103.275E-03
            1728         351.835         351.835     359.010E-03     359.010E-03     156.365E-03     156.365E-03
            1729         351.833         351.833     373.999E-03     373.999E-03     211.196E-03     211.196E-03
            1730         351.831         351.831     393.227E-03     393.227E-03     268.343E-03     268.343E-03
            1731         351.828         351.828     416.649E-03     416.649E-03     328.374E-03     328.374E-03
            1732         351.824         351.824     444.199E-03     444.199E-03     391.852E-03     391.852E-03
            1733         351.819         351.819     475.780E-03     475.780E-03     459.330E-03     459.330E-03
            1734         351.813         351.813     511.254E-03     511.254E-03     531.349E-03     531.349E-03
            1735         351.806         351.806     550.430E-03     550.430E-03     608.433E-03     608.433E-03
            1736         351.798         351.798     593.047E-03     593.047E-03     691.088E-03     691.088E-03
            1737         351.788         351.788     638.759E-03     638.759E-03     779.793E-03     779.793E-03
            1738         351.777         351.777     687.111E-03     687.111E-03     874.997E-03     874.997E-03
            1739         351.764         351.764     737.510E-03     737.510E-03     977.117E-03     977.117E-03
            1740         351.749         351.749     789.203E-03     789.203E-03         1.08652         1.08652
            1741         351.733         351.733     841.230E-03     841.230E-03         1.20354         1.20354
            1742         351.716         351.716     892.393E-03     892.393E-03         1.32844         1.32844
            1743         351.697         351.697     941.197E-03     941.197E-03         1.46144         1.46144
            1744         351.678         351.678     985.802E-03     985.802E-03         1.60267         1.60267
            1745         351.658         351.658         1.02396         1.02396         1.75220         1.75220
            1746         351.640         351.640         1.05292         1.05292         1.91004         1.91004
            1747         351.624         351.624         1.06940         1.06940         2.07608         2.07608
            1748         351.612         351.612         1.06946         1.06946         2.25013         2.25013
            1749         351.608         351.608         1.04839         1.04839         2.43189         2.43189
            1750         351.614         351.614         1.00070         1.00070         2.62090         2.62090
            1751         351.637         351.637     919.936E-03     919.936E-03         2.81652         2.81652
            1752         351.681         351.681     798.689E-03     798.689E-03         3.01781         3.01781
            1753         351.755         351.755     628.496E-03     628.496E-03         3.22343         3.22343
            1754         351.868         351.868     399.885E-03     399.885E-03         3.43136         3.43136
            1755         352.034         352.034     102.444E-03     102.444E-03         3.63859         3.63859
            1756         352.267         352.267    -274.876E-03    -274.876E-03         3.84053         3.84053
            1757         352.586         352.586    -743.346E-03    -743.346E-03         4.03026         4.03026
            1758         353.012         353.012        -1.31346        -1.31346         4.19735         4.19735
            1759         353.571         353.571        -1.99360        -1.99360         4.32637         4.32637
            1760         354.289         354.289        -2.78739        -2.78739         4.39479         4.39479
            1761         355.195         355.195        -3.69009        -3.69009         4.37098         4.37098
            1762         356.314         356.314        -4.68258        -4.68258         4.21154         4.21154
            1763         357.658         357.658        -5.72321        -5.72321         3.86125         3.86125
            1764         359.225         359.225        -6.73806        -6.73806         3.25402         3.25402
            1765         360.977         360.977        -7.60913        -7.60913         2.32275         2.32275
            1766         362.839         362.839        -8.17470        -8.17470         1.01097         1.01097
            1767         364.679         364.679        -8.20836        -8.20836    -718.922E-03    -718.922E-03
            1768         351.873         351.873     290.526E-03     290.526E-03     51.3689E-03     51.3689E-03
            1769         351.874         351.874     296.097E-03     296.097E-03     103.006E-03     103.006E-03
            1770         351.876         351.876     305.362E-03     305.362E-03     155.990E-03     155.990E-03
            1771         351.879         351.879     318.314E-03     318.314E-03     210.749E-03     210.749E-03
            1772         351.882         351.882     334.929E-03     334.929E-03     267.869E-03     267.869E-03
            1773         351.886         351.886     355.170E-03     355.170E-03     327.928E-03     327.928E-03
            1774         351.891         351.891     378.980E-03     378.980E-03     391.499E-03     391.499E-03
            1775         351.896         351.896     406.274E-03     406.274E-03     459.142E-03     459.142E-03
            1776         351.902         351.902     436.929E-03     436.929E-03     531.403E-03     531.403E-03
            1777         351.909         351.909     470.775E-03     470.775E-03     608.807E-03     608.807E-03
            1778         351.916         351.916     507.576E-03     507.576E-03     691.855E-03     691.855E-03
            1779         351.924         351.924     547.018E-03     547.018E-03     781.016E-03     781.016E-03
            1780         351.932         351.932     588.685E-03     588.685E-03     876.716E-03     876.716E-03
            1781         351.941         351.941     632.032E-03     632.032E-03     979.334E-03     979.334E-03
            1782         351.950         351.950     676.359E-03     676.359E-03         1.08919         1.08919
            1783         351.960         351.960     720.775E-03     720.775E-03         1.20652         1.20652
            1784         351.972         351.972     764.156E-03     764.156E-03         1.33149         1.33149
            1785         351.985         351.985     805.096E-03     805.096E-03         1.46415         1.46415
            1786         352.000         352.000     841.856E-03     841.856E-03         1.60443         1.60443
            1787         352.017         352.017     872.297E-03     872.297E-03         1.75212         1.75212
            1788         352.039         352.039     893.814E-03     893.814E-03         1.90685         1.90685
            1789         352.066         352.066     903.261E-03     903.261E-03         2.06804         2.06804
            1790         352.101         352.101     896.868E-03     896.868E-03         2.23490         2.23490
            1791         352.146         352.146     870.165E-03     870.165E-03         2.40634         2.40634
            1792         352.206         352.206     817.903E-03     817.903E-03         2.58095         2.58095
            1793         352.283         352.283     733.999E-03     733.999E-03         2.75690         2.75690
            1794         352.385         352.385     611.502E-03     611.502E-03         2.93179         2.93179
            1795         352.519         352.519     442.622E-03     442.622E-03         3.10254         3.10254
            1796         352.694         352.694     218.822E-03     218.822E-03         3.26509         3.26509
            1797         352.920         352.920    -68.9199E-03    -68.9199E-03         3.41407         3.41407
            1798         353.212         353.212    -429.712E-03    -429.712E-03         3.54231         3.54231
            1799         353.584         353.584    -871.959E-03    -871.959E-03         3.64019         3.64019
            1800         354.053         354.053        -1.40226        -1.40226         3.69479         3.69479
            1801         354.639         354.639        -2.02353        -2.02353         3.68880         3.68880
            1802         355.358         355.358        -2.73242        -2.73242         3.59953         3.59953
            1803         356.226         356.226        -3.51556        -3.51556         3.39778         3.39778
            1804         357.252         357.252        -4.34442        -4.34442         3.04798         3.04798
            1805         358.431         358.431        -5.16962        -5.16962         2.50918         2.50918
            1806         359.738         359.738        -5.91361        -5.91361         1.74000         1.74000
            1807         361.126         361.126        -6.46860        -6.46860     706.377E-03     706.377E-03
            1808         362.508         362.508        -6.68932        -6.68932    -609.221E-03    -609.221E-03
            1809         363.758         363.758        -6.39636        -6.39636        -2.18313        -2.18313
            1810         351.904         351.904     239.970E-03     239.970E-03     49.9799E-03     49.9799E-03
            1811         351.907         351.907     244.655E-03     244.655E-03     100.215E-03     100.215E-03
            1812         351.912         351.912     252.449E-03     252.449E-03     151.800E-03     151.800E-03
            1813         351.919         351.919     263.346E-03     263.346E-03     205.157E-03     205.157E-03
            1814         351.929         351.929     277.326E-03     277.326E-03     260.868E-03     260.868E-03
            1815         351.940         351.940     294.361E-03     294.361E-03     319.513E-03     319.513E-03
            1816         351.954         351.954     314.402E-03     314.402E-03     381.659E-03     381.659E-03
            1817         351.969         351.969     337.378E-03     337.378E-03     447.866E-03     447.866E-03
            1818         351.987         351.987     363.186E-03     363.186E-03     518.672E-03     518.672E-03
            1819         352.008         352.008     391.678E-03     391.678E-03     594.597E-03     594.597E-03
            1820         352.031         352.031     422.651E-03     422.651E-03     676.129E-03     676.129E-03
            1821         352.056         352.056     455.830E-03     455.830E-03     763.718E-03     763.718E-03
            1822         352.084         352.084     490.848E-03     490.848E-03     857.765E-03     857.765E-03
            1823         352.115         352.115     527.224E-03     527.224E-03     958.611E-03     958.611E-03
            1824         352.149         352.149     564.333E-03     564.333E-03         1.06652         1.06652
            1825         352.186         352.186     601.376E-03     601.376E-03         1.18165         1.18165
            1826         352.227         352.227     637.341E-03     637.341E-03         1.30407         1.30407
            1827         352.272         352.272     670.955E-03     670.955E-03         1.43368         1.43368
            1828         352.322         352.322     700.638E-03     700.638E-03         1.57021         1.57021
            1829         352.378         352.378     724.438E-03     724.438E-03         1.71322         1.71322
            1830         352.440         352.440     739.974E-03     739.974E-03         1.86198         1.86198
            1831         352.510         352.510     744.363E-03     744.363E-03         2.01549         2.01549
            1832         352.590         352.590     734.149E-03     734.149E-03         2.17241         2.17241
            1833         352.683         352.683     705.237E-03     705.237E-03         2.33098         2.33098
            1834         352.792         352.792     652.840E-03     652.840E-03         2.48892         2.48892
            1835         352.921         352.921     571.440E-03     571.440E-03         2.64337         2.64337
            1836         353.074         353.074     454.804E-03     454.804E-03         2.79070         2.79070
            1837         353.259         353.259     296.047E-03     296.047E-03         2.92639         2.92639
            1838         353.482         353.482     87.8266E-03     87.8266E-03         3.04477         3.04477
            1839         353.752         353.752    -177.346E-03    -177.346E-03         3.13872         3.13872
            1840         354.081         354.081    -506.525E-03    -506.525E-03         3.19934         3.19934
            1841         354.479         354.479    -905.496E-03    -905.496E-03         3.21550         3.21550
            1842         354.959         354.959        -1.37746        -1.37746         3.17331         3.17331
            1843         355.532         355.532        -1.92120        -1.92120         3.05573         3.05573
            1844         356.208         356.208        -2.52860        -2.52860         2.84215         2.84215
            1845         356.991         356.991        -3.18134        -3.18134         2.50872         2.50872
            1846         357.879         357.879        -3.84721        -3.84721         2.02931         2.02931
            1847         358.856         358.856        -4.47562        -4.47562         1.37830         1.37830
            1848         359.890         359.890        -4.99533        -4.99533     535.456E-03     535.456E-03
            1849         360.928         360.928        -5.31112        -5.31112    -507.673E-03    -507.673E-03
            1850         361.890         361.890        -5.30677        -5.30677        -1.73457        -1.73457
            1851         362.676         362.676        -4.85419        -4.85419        -3.09085        -3.09085
            1852         351.928         351.928     191.421E-03     191.421E-03     47.3342E-03     47.3342E-03
            1853         351.933         351.933     195.233E-03     195.233E-03     94.9008E-03     94.9008E-03
            1854         351.941         351.941     201.576E-03     201.576E-03     143.790E-03     143.790E-03
            1855         351.953         351.953     210.446E-03     210.446E-03     194.407E-03     194.407E-03
            1856         351.968         351.968     221.829E-03     221.829E-03     247.318E-03     247.318E-03
            1857         351.986         351.986     235.702E-03     235.702E-03     303.087E-03     303.087E-03
            1858         352.009         352.009     252.027E-03     252.027E-03     362.270E-03     362.270E-03
            1859         352.035         352.035     270.749E-03     270.749E-03     425.409E-03     425.409E-03
            1860         352.065         352.065     291.782E-03     291.782E-03     493.029E-03     493.029E-03
            1861         352.099         352.099     315.008E-03     315.008E-03     565.632E-03     565.632E-03
            1862         352.138         352.138     340.257E-03     340.257E-03     643.687E-03     643.687E-03
            1863         352.181         352.181     367.301E-03     367.301E-03     727.623E-03     727.623E-03
            1864         352.229         352.229     395.830E-03     395.830E-03     817.811E-03     817.811E-03
            1865         352.282         352.282     425.436E-03     425.436E-03     914.555E-03     914.555E-03
            1866         352.341         352.341     455.589E-03     455.589E-03         1.01807         1.01807
            1867         352.406         352.406     485.603E-03     485.603E-03         1.12846         1.12846
            1868         352.477         352.477     514.606E-03     514.606E-03         1.24569         1.24569
            1869         352.554         352.554     541.497E-03     541.497E-03         1.36955         1.36955
            1870         352.639         352.639     564.903E-03     564.903E-03         1.49963         1.49963
            1871         352.733         352.733     583.125E-03     583.125E-03         1.63526         1.63526
            1872         352.835         352.835     594.078E-03     594.078E-03         1.77546         1.77546
            1873         352.948         352.948     595.241E-03     595.241E-03         1.91889         1.91889
            1874         353.074         353.074     583.584E-03     583.584E-03         2.06377         2.06377
            1875         353.213         353.213     555.526E-03     555.526E-03         2.20779         2.20779
            1876         353.369         353.369     506.889E-03     506.889E-03         2.34800         2.34800
            1877         353.545         353.545     432.890E-03     432.890E-03         2.48074         2.48074
            1878         353.744         353.744     328.171E-03     328.171E-03         2.60146         2.60146
            1879         353.972         353.972     186.915E-03     186.915E-03         2.70456         2.70456
            1880         354.234         354.234     3.05672E-03     3.05672E-03         2.78325         2.78325
            1881         354.536         354.536    -229.332E-03    -229.332E-03         2.82932         2.82932
            1882         354.885         354.885    -515.459E-03    -515.459E-03         2.83294         2.83294
            1883         355.288         355.288    -858.915E-03    -858.915E-03         2.78243         2.78243
            1884         355.754         355.754        -1.26042        -1.26042         2.66420         2.66420
            1885         356.286         356.286        -1.71616        -1.71616         2.46269         2.46269
            1886         356.889         356.889        -2.21556        -2.21556         2.16082         2.16082
            1887         357.559         357.559        -2.73888        -2.73888         1.74084         1.74084
            1888         358.287         358.287        -3.25419        -3.25419         1.18618         1.18618
            1889         359.052         359.052        -3.71551        -3.71551     484.593E-03     484.593E-03
            1890         359.819         359.819        -4.06075        -4.06075    -367.741E-03    -367.741E-03
            1891         360.540         360.540        -4.21310        -4.21310        -1.35888        -1.35888
            1892         361.152         361.152        -4.08573        -4.08573        -2.45389        -2.45389
            1893         361.580         361.580        -3.59258        -3.59258        -3.58492        -3.58492
            1894         351.942         351.942     146.119E-03     146.119E-03     43.4605E-03     43.4605E-03
            1895         351.949         351.949     149.092E-03     149.092E-03     87.1186E-03     87.1186E-03
            1896         351.961         351.961     154.041E-03     154.041E-03     132.042E-03     132.042E-03
            1897         351.976         351.976     160.963E-03     160.963E-03     178.601E-03     178.601E-03
            1898         351.997         351.997     169.848E-03     169.848E-03     227.336E-03     227.336E-03
            1899         352.023         352.023     180.679E-03     180.679E-03     278.783E-03     278.783E-03
            1900         352.054         352.054     193.431E-03     193.431E-03     333.468E-03     333.468E-03
            1901         352.090         352.090     208.060E-03     208.060E-03     391.906E-03     391.906E-03
            1902         352.132         352.132     224.503E-03     224.503E-03     454.597E-03     454.597E-03
            1903         352.180         352.180     242.668E-03     242.668E-03     522.016E-03     522.016E-03
            1904         352.234         352.234     262.423E-03     262.423E-03     594.605E-03     594.605E-03
            1905         352.295         352.295     283.586E-03     283.586E-03     672.765E-03     672.765E-03
            1906         352.363         352.363     305.913E-03     305.913E-03     756.841E-03     756.841E-03
            1907         352.438         352.438     329.075E-03     329.075E-03     847.102E-03     847.102E-03
            1908         352.522         352.522     352.645E-03     352.645E-03     943.726E-03     943.726E-03
            1909         352.614         352.614     376.065E-03     376.065E-03         1.04677         1.04677
            1910         352.714         352.714     398.626E-03     398.626E-03         1.15613         1.15613
            1911         352.825         352.825     419.425E-03     419.425E-03         1.27154         1.27154
            1912         352.945         352.945     437.331E-03     437.331E-03         1.39246         1.39246
            1913         353.077         353.077     450.939E-03     450.939E-03         1.51811         1.51811
            1914         353.220         353.220     458.526E-03     458.526E-03         1.64734         1.64734
            1915         353.376         353.376     457.996E-03     457.996E-03         1.77856         1.77856
            1916         353.545         353.545     446.834E-03     446.834E-03         1.90972         1.90972
            1917         353.730         353.730     422.065E-03     422.065E-03         2.03815         2.03815
            1918         353.932         353.932     380.227E-03     380.227E-03         2.16047         2.16047
            1919         354.153         354.153     317.375E-03     317.375E-03         2.27250         2.27250
            1920         354.396         354.396     229.130E-03     229.130E-03         2.36909         2.36909
            1921         354.662         354.662     110.793E-03     110.793E-03         2.44405         2.44405
            1922         354.956         354.956    -42.4158E-03    -42.4158E-03         2.48996         2.48996
            1923         355.280         355.280    -235.002E-03    -235.002E-03         2.49811         2.49811
            1924         355.638         355.638    -470.621E-03    -470.621E-03         2.45841         2.45841
            1925         356.034         356.034    -751.262E-03    -751.262E-03         2.35945         2.35945
            1926         356.470         356.470        -1.07616        -1.07616         2.18863         2.18863
            1927         356.946         356.946        -1.44031        -1.44031         1.93261         1.93261
            1928         357.460         357.460        -1.83286        -1.83286         1.57810         1.57810
            1929         358.003         358.003        -2.23508        -2.23508         1.11323         1.11323
            1930         358.563         358.563        -2.61878        -2.61878     529.627E-03     529.627E-03
            1931         359.118         359.118        -2.94485        -2.94485    -174.727E-03    -174.727E-03
            1932         359.637         359.637        -3.16343        -3.16343    -991.225E-03    -991.225E-03
            1933         360.079         360.079        -3.21608        -3.21608        -1.89628        -1.89628
            1934         360.398         360.398        -3.04126        -3.04126        -2.84566        -2.84566
            1935         360.547         360.547        -2.58483        -2.58483        -3.77075        -3.77075
            1936         351.946         351.946     105.260E-03     105.260E-03     38.4177E-03     38.4177E-03
            1937         351.955         351.955     107.451E-03     107.451E-03     76.9865E-03     76.9865E-03
            1938         351.969         351.969     111.102E-03     111.102E-03     116.726E-03     116.726E-03
            1939         351.989         351.989     116.207E-03     116.207E-03     157.965E-03     157.965E-03
            1940         352.015         352.015     122.762E-03     122.762E-03     201.197E-03     201.197E-03
            1941         352.047         352.047     130.755E-03     130.755E-03     246.914E-03     246.914E-03
            1942         352.086         352.086     140.171E-03     140.171E-03     295.602E-03     295.602E-03
            1943         352.132         352.132     150.979E-03     150.979E-03     347.733E-03     347.733E-03
            1944         352.186         352.186     163.136E-03     163.136E-03     403.768E-03     403.768E-03
            1945         352.247         352.247     176.575E-03     176.575E-03     464.144E-03     464.144E-03
            1946         352.316         352.316     191.200E-03     191.200E-03     529.271E-03     529.271E-03
            1947         352.394         352.394     206.877E-03     206.877E-03     599.515E-03     599.515E-03
            1948         352.481         352.481     223.425E-03     223.425E-03     675.191E-03     675.191E-03
            1949         352.578         352.578     240.599E-03     240.599E-03     756.540E-03     756.540E-03
            1950         352.686         352.686     258.076E-03     258.076E-03     843.711E-03     843.711E-03
            1951         352.804         352.804     275.435E-03     275.435E-03     936.733E-03     936.733E-03
            1952         352.935         352.935     292.132E-03     292.132E-03         1.03548         1.03548
            1953         353.078         353.078     307.478E-03     307.478E-03         1.13964         1.13964
            1954         353.233         353.233     320.603E-03     320.603E-03         1.24866         1.24866
            1955         353.403         353.403     330.422E-03     330.422E-03         1.36168         1.36168
            1956         353.587         353.587     335.599E-03     335.599E-03         1.47750         1.47750
            1957         353.786         353.786     334.507E-03     334.507E-03         1.59446         1.59446
            1958         354.000         354.000     325.189E-03     325.189E-03         1.71038         1.71038
            1959         354.231         354.231     305.330E-03     305.330E-03         1.82247         1.82247
            1960         354.479         354.479     272.238E-03     272.238E-03         1.92719         1.92719
            1961         354.745         354.745     222.855E-03     222.855E-03         2.02016         2.02016
            1962         355.029         355.029     153.806E-03     153.806E-03         2.09606         2.09606
            1963         355.333         355.333     61.5102E-03     61.5102E-03         2.14849         2.14849
            1964         355.656         355.656    -57.6143E-03    -57.6143E-03         2.16996         2.16996
            1965         356.000         356.000    -206.828E-03    -206.828E-03         2.15179         2.15179
            1966         356.363         356.363    -388.583E-03    -388.583E-03         2.08422         2.08422
            1967         356.746         356.746    -603.854E-03    -603.854E-03         1.95661         1.95661
            1968         357.147         357.147    -851.217E-03    -851.217E-03         1.75780         1.75780
            1969         357.560         357.560        -1.12578        -1.12578         1.47677         1.47677
            1970         357.979         357.979        -1.41783        -1.41783         1.10374         1.10374
            1971         358.394         358.394        -1.71166        -1.71166     631.665E-03     631.665E-03
            1972         358.789         358.789        -1.98434        -1.98434     58.2475E-03     58.2475E-03
            1973         359.145         359.145        -2.20539        -2.20539    -611.247E-03    -611.247E-03
            1974         359.435         359.435        -2.33732        -2.33732        -1.36113        -1.36113
            1975         359.629         359.629        -2.33821        -2.33821        -2.16179        -2.16179
            1976         359.698         359.698        -2.16685        -2.16685        -2.96734        -2.96734
            1977         359.613         359.613        -1.79015        -1.79015        -3.71449        -3.71449
            1978         351.937         351.937     69.9649E-03     69.9649E-03     32.2995E-03     32.2995E-03
            1979         351.947         351.947     71.4576E-03     71.4576E-03     64.6860E-03     64.6860E-03
            1980         351.964         351.964     73.9452E-03     73.9452E-03     98.1167E-03     98.1167E-03
            1981         351.988         351.988     77.4239E-03     77.4239E-03     132.856E-03     132.856E-03
            1982         352.019         352.019     81.8891E-03     81.8891E-03     169.337E-03     169.337E-03
            1983         352.057         352.057     87.3373E-03     87.3373E-03     207.995E-03     207.995E-03
            1984         352.104         352.104     93.7596E-03     93.7596E-03     249.252E-03     249.252E-03
            1985         352.159         352.159     101.138E-03     101.138E-03     293.527E-03     293.527E-03
            1986         352.222         352.222     109.443E-03     109.443E-03     341.225E-03     341.225E-03
            1987         352.296         352.296     118.632E-03     118.632E-03     392.735E-03     392.735E-03
            1988         352.379         352.379     128.642E-03     128.642E-03     448.419E-03     448.419E-03
            1989         352.473         352.473     139.384E-03     139.384E-03     508.605E-03     508.605E-03
            1990         352.579         352.579     150.733E-03     150.733E-03     573.573E-03     573.573E-03
            1991         352.697         352.697     162.524E-03     162.524E-03     643.537E-03     643.537E-03
            1992         352.828         352.828     174.534E-03     174.534E-03     718.627E-03     718.627E-03
            1993         352.973         352.973     186.471E-03     186.471E-03     798.864E-03     798.864E-03
            1994         353.132         353.132     197.958E-03     197.958E-03     884.126E-03     884.126E-03
            1995         353.307         353.307     208.512E-03     208.512E-03     974.111E-03     974.111E-03
            1996         353.498         353.498     217.521E-03     217.521E-03         1.06829         1.06829
            1997         353.705         353.705     224.220E-03     224.220E-03         1.16586         1.16586
            1998         353.930         353.930     227.662E-03     227.662E-03         1.26565         1.26565
            1999         354.172         354.172     226.689E-03     226.689E-03         1.36609         1.36609
            2000         354.432         354.432     219.910E-03     219.910E-03         1.46509         1.46509
            2001         354.710         354.710     205.669E-03     205.669E-03         1.55996         1.55996
            2002         355.006         355.006     182.046E-03     182.046E-03         1.64730         1.64730
            2003         355.319         355.319     146.860E-03     146.860E-03         1.72290         1.72290
            2004         355.647         355.647     97.7091E-03     97.7091E-03         1.78165         1.78165
            2005         355.991         355.991     32.0658E-03     32.0658E-03         1.81747         1.81747
            2006         356.346         356.346    -52.5695E-03    -52.5695E-03         1.82323         1.82323
            2007         356.712         356.712    -158.415E-03    -158.415E-03         1.79085         1.79085
            2008         357.084         357.084    -287.043E-03    -287.043E-03         1.71138         1.71138
            2009         357.457         357.457    -438.861E-03    -438.861E-03         1.57533         1.57533
            2010         357.824         357.824    -612.472E-03    -612.472E-03         1.37313         1.37313
            2011         358.179         358.179    -803.846E-03    -803.846E-03         1.09597         1.09597
            2012         358.509         358.509        -1.00550        -1.00550     736.869E-03     736.869E-03
            2013         358.802         358.802        -1.20558        -1.20558     292.179E-03     292.179E-03
            2014         359.042         359.042        -1.38735        -1.38735    -236.440E-03    -236.440E-03
            2015         359.212         359.212        -1.52903        -1.52903    -839.958E-03    -839.958E-03
            2016         359.290         359.290        -1.60470        -1.60470        -1.49952        -1.49952
            2017         359.257         359.257        -1.58639        -1.58639        -2.18463        -2.18463
            2018         359.096         359.096        -1.44778        -1.44778        -2.85216        -2.85216
            2019         358.796         358.796        -1.16972        -1.16972        -3.44696        -3.44696
            2020         351.914         351.914     41.2439E-03     41.2439E-03     25.2301E-03     25.2301E-03
            2021         351.926         351.926     42.1490E-03     42.1490E-03     50.4735E-03     50.4735E-03
            2022         351.945         351.945     43.6575E-03     43.6575E-03     76.5873E-03     76.5873E-03
            2023         351.972         351.972     45.7569E-03     45.7569E-03     103.767E-03     103.767E-03
            2024         352.007         352.007     48.4519E-03     48.4519E-03     132.372E-03     132.372E-03
            2025         352.051         352.051     51.7450E-03     51.7450E-03     162.748E-03     162.748E-03
            2026         352.104         352.104     55.6295E-03     55.6295E-03     195.245E-03     195.245E-03
            2027         352.166         352.166     60.0960E-03     60.0960E-03     230.207E-03     230.207E-03
            2028         352.240         352.240     65.1287E-03     65.1287E-03     267.969E-03     267.969E-03
            2029         352.324         352.324     70.7029E-03     70.7029E-03     308.853E-03     308.853E-03
            2030         352.420         352.420     76.7820E-03     76.7820E-03     353.163E-03     353.163E-03
            2031         352.529         352.529     83.3136E-03     83.3136E-03     401.174E-03     401.174E-03
            2032         352.652         352.652     90.2246E-03     90.2246E-03     453.123E-03     453.123E-03
            2033         352.789         352.789     97.4151E-03     97.4151E-03     509.195E-03     509.195E-03
            2034         352.942         352.942     104.751E-03     104.751E-03     569.506E-03     569.506E-03
            2035         353.112         353.112     112.055E-03     112.055E-03     634.079E-03     634.079E-03
            2036         353.299         353.299     119.098E-03     119.098E-03     702.820E-03     702.820E-03
            2037         353.505         353.505     125.581E-03     125.581E-03     775.480E-03     775.480E-03
            2038         353.731         353.731     131.127E-03     131.127E-03     851.619E-03     851.619E-03
            2039         353.976         353.976     135.263E-03     135.263E-03     930.552E-03     930.552E-03
            2040         354.242         354.242     137.397E-03     137.397E-03         1.01129         1.01129
            2041         354.529         354.529     136.807E-03     136.807E-03         1.09249         1.09249
            2042         354.836         354.836     132.620E-03     132.620E-03         1.17234         1.17234
            2043         355.164         355.164     123.796E-03     123.796E-03         1.24851         1.24851
            2044         355.510         355.510     109.123E-03     109.123E-03         1.31804         1.31804
            2045         355.874         355.874     87.2282E-03     87.2282E-03         1.37727         1.37727
            2046         356.252         356.252     56.5964E-03     56.5964E-03         1.42174         1.42174
            2047         356.642         356.642     15.6382E-03     15.6382E-03         1.44612         1.44612
            2048         357.038         357.038    -37.2091E-03    -37.2091E-03         1.44424         1.44424
            2049         357.434         357.434    -103.315E-03    -103.315E-03         1.40909         1.40909
            2050         357.824         357.824    -183.610E-03    -183.610E-03         1.33303         1.33303
            2051         358.199         358.199    -278.263E-03    -278.263E-03         1.20807         1.20807
            2052         358.546         358.546    -386.239E-03    -386.239E-03         1.02638         1.02638
            2053         358.855         358.855    -504.824E-03    -504.824E-03     781.062E-03     781.062E-03
            2054         359.111         359.111    -629.045E-03    -629.045E-03     467.196E-03     467.196E-03
            2055         359.297         359.297    -751.227E-03    -751.227E-03     83.1926E-03     83.1926E-03
            2056         359.398         359.398    -860.640E-03    -860.640E-03    -367.647E-03    -367.647E-03
            2057         359.396         359.396    -943.583E-03    -943.583E-03    -875.328E-03    -875.328E-03
            2058         359.275         359.275    -984.076E-03    -984.076E-03        -1.42162        -1.42162
            2059         359.024         359.024    -965.267E-03    -965.267E-03        -1.97887        -1.97887
            2060         358.635         358.635    -871.849E-03    -871.849E-03        -2.50988        -2.50988
            2061         358.113         358.113    -693.105E-03    -693.105E-03        -2.96930        -2.96930
            2062         351.876         351.876     19.9675E-03     19.9675E-03     17.3847E-03     17.3847E-03
            2063         351.888         351.888     20.4313E-03     20.4313E-03     34.6651E-03     34.6651E-03
            2064         351.909         351.909     21.1770E-03     21.1770E-03     52.6190E-03     52.6190E-03
            2065         351.938         351.938     22.2085E-03     22.2085E-03     71.3505E-03     71.3505E-03
            2066         351.977         351.977     23.5411E-03     23.5411E-03     91.1017E-03     91.1017E-03
            2067         352.025         352.025     25.1706E-03     25.1706E-03     112.125E-03     112.125E-03
            2068         352.084         352.084     27.0942E-03     27.0942E-03     134.674E-03     134.674E-03
            2069         352.153         352.153     29.3081E-03     29.3081E-03     158.999E-03     158.999E-03
            2070         352.234         352.234     31.8046E-03     31.8046E-03     185.346E-03     185.346E-03
            2071         352.328         352.328     34.5728E-03     34.5728E-03     213.950E-03     213.950E-03
            2072         352.435         352.435     37.5951E-03     37.5951E-03     245.038E-03     245.038E-03
            2073         352.557         352.557     40.8466E-03     40.8466E-03     278.815E-03     278.815E-03
            2074         352.695         352.695     44.2920E-03     44.2920E-03     315.462E-03     315.462E-03
            2075         352.850         352.850     47.8826E-03     47.8826E-03     355.123E-03     355.123E-03
            2076         353.023         353.023     51.5526E-03     51.5526E-03     397.893E-03     397.893E-03
            2077         353.216         353.216     55.2145E-03     55.2145E-03     443.803E-03     443.803E-03
            2078         353.430         353.430     58.7538E-03     58.7538E-03     492.797E-03     492.797E-03
            2079         353.666         353.666     62.0222E-03     62.0222E-03     544.708E-03     544.708E-03
            2080         353.925         353.925     64.8304E-03     64.8304E-03     599.228E-03     599.228E-03
            2081         354.208         354.208     66.9391E-03     66.9391E-03     655.868E-03     655.868E-03
            2082         354.515         354.515     68.0501E-03     68.0501E-03     713.914E-03     713.914E-03
            2083         354.847         354.847     67.7960E-03     67.7960E-03     772.374E-03     772.374E-03
            2084         355.204         355.204     65.7315E-03     65.7315E-03     829.918E-03     829.918E-03
            2085         355.584         355.584     61.3248E-03     61.3248E-03     884.811E-03     884.811E-03
            2086         355.986         355.986     53.9554E-03     53.9554E-03     934.839E-03     934.839E-03
            2087         356.407         356.407     42.9152E-03     42.9152E-03     977.243E-03     977.243E-03
            2088         356.844         356.844     27.4253E-03     27.4253E-03         1.00865         1.00865
            2089         357.290         357.290     6.66479E-03     6.66479E-03         1.02503         1.02503
            2090         357.739         357.739    -20.1719E-03    -20.1719E-03         1.02168         1.02168
            2091         358.183         358.183    -53.7880E-03    -53.7880E-03     993.296E-03     993.296E-03
            2092         358.609         358.609    -94.6591E-03    -94.6591E-03     934.069E-03     934.069E-03
            2093         359.005         359.005    -142.852E-03    -142.852E-03     837.974E-03     837.974E-03
            2094         359.356         359.356    -197.813E-03    -197.813E-03     699.179E-03     699.179E-03
            2095         359.644         359.644    -258.093E-03    -258.093E-03     512.647E-03     512.647E-03
            2096         359.850         359.850    -321.090E-03    -321.090E-03     274.991E-03     274.991E-03
            2097         359.953         359.953    -382.778E-03    -382.778E-03    -14.5094E-03    -14.5094E-03
            2098         359.935         359.935    -437.598E-03    -437.598E-03    -352.661E-03    -352.661E-03
            2099         359.778         359.778    -478.508E-03    -478.508E-03    -731.140E-03    -731.140E-03
            2100         359.467         359.467    -497.356E-03    -497.356E-03        -1.13537        -1.13537
            2101         358.996         358.996    -485.750E-03    -485.750E-03        -1.54392        -1.54392
            2102         358.366         358.366    -436.154E-03    -436.154E-03        -1.92862        -1.92862
            2103         357.590         357.590    -343.263E-03    -343.263E-03        -2.25551        -2.25551
            2104         351.820         351.820     6.81213E-03     6.81213E-03     8.95934E-03     8.95934E-03
            2105         351.833         351.833     6.99047E-03     6.99047E-03     17.7310E-03     17.7310E-03
            2106         351.856         351.856     7.23651E-03     7.23651E-03     26.9434E-03     26.9434E-03
            2107         351.887         351.887     7.59079E-03     7.59079E-03     36.5643E-03     36.5643E-03
            2108         351.928         351.928     8.05246E-03     8.05246E-03     46.7235E-03     46.7235E-03
            2109         351.979         351.979     8.61588E-03     8.61588E-03     57.5602E-03     57.5602E-03
            2110         352.042         352.042     9.28239E-03     9.28239E-03     69.2097E-03     69.2097E-03
            2111         352.116         352.116     10.0494E-03     10.0494E-03     81.8071E-03     81.8071E-03
            2112         352.203         352.203     10.9152E-03     10.9152E-03     95.4851E-03     95.4851E-03
            2113         352.305         352.305     11.8757E-03     11.8757E-03     110.373E-03     110.373E-03
            2114         352.421         352.421     12.9254E-03     12.9254E-03     126.593E-03     126.593E-03
            2115         352.554         352.554     14.0557E-03     14.0557E-03     144.260E-03     144.260E-03
            2116         352.704         352.704     15.2547E-03     15.2547E-03     163.475E-03     163.475E-03
            2117         352.874         352.874     16.5057E-03     16.5057E-03     184.322E-03     184.322E-03
            2118         353.066         353.066     17.7862E-03     17.7862E-03     206.859E-03     206.859E-03
            2119         353.279         353.279     19.0658E-03     19.0658E-03     231.110E-03     231.110E-03
            2120         353.517         353.517     20.3049E-03     20.3049E-03     257.053E-03     257.053E-03
            2121         353.781         353.781     21.4518E-03     21.4518E-03     284.610E-03     284.610E-03
            2122         354.072         354.072     22.4403E-03     22.4403E-03     313.626E-03     313.626E-03
            2123         354.391         354.391     23.1866E-03     23.1866E-03     343.846E-03     343.846E-03
            2124         354.739         354.739     23.5854E-03     23.5854E-03     374.897E-03     374.897E-03
            2125         355.118         355.118     23.5073E-03     23.5073E-03     406.252E-03     406.252E-03
            2126         355.526         355.526     22.7941E-03     22.7941E-03     437.199E-03     437.199E-03
            2127         355.962         355.962     21.2574E-03     21.2574E-03     466.801E-03     466.801E-03
            2128         356.426         356.426     18.6751E-03     18.6751E-03     493.855E-03     493.855E-03
            2129         356.913         356.913     14.7951E-03     14.7951E-03     516.851E-03     516.851E-03
            2130         357.419         357.419     9.33689E-03     9.33689E-03     533.936E-03     533.936E-03
            2131         357.936         357.936     2.00660E-03     2.00660E-03     542.881E-03     542.881E-03
            2132         358.457         358.457    -7.48738E-03    -7.48738E-03     541.081E-03     541.081E-03
            2133         358.969         358.969    -19.3985E-03    -19.3985E-03     525.574E-03     525.574E-03
            2134         359.458         359.458    -33.8994E-03    -33.8994E-03     493.117E-03     493.117E-03
            2135         359.907         359.907    -51.0168E-03    -51.0168E-03     440.342E-03     440.342E-03
            2136         360.294         360.294    -70.5492E-03    -70.5492E-03     363.971E-03     363.971E-03
            2137         360.597         360.597    -91.9795E-03    -91.9795E-03     261.198E-03     261.198E-03
            2138         360.790         360.790    -114.361E-03    -114.361E-03     130.127E-03     130.127E-03
            2139         360.847         360.847    -136.251E-03    -136.251E-03    -29.5935E-03    -29.5935E-03
            2140         360.741         360.741    -155.642E-03    -155.642E-03    -216.125E-03    -216.125E-03
            2141         360.451         360.451    -170.008E-03    -170.008E-03    -424.717E-03    -424.717E-03
            2142         359.959         359.959    -176.448E-03    -176.448E-03    -647.127E-03    -647.127E-03
            2143         359.259         359.259    -171.962E-03    -171.962E-03    -871.345E-03    -871.345E-03
            2144         358.356         358.356    -154.016E-03    -154.016E-03        -1.08170        -1.08170
            2145         357.272         357.272    -120.602E-03    -120.602E-03        -1.25922        -1.25922
            2146         333.262         333.262         96.2977         96.2977        -25.8456        -25.8456
            2147         336.857         336.857         87.6256         87.6256        -25.6849        -25.6849
            2148         340.350         340.350         78.9252         78.9252        -24.8282        -24.8282
            2149         343.617         343.617         70.4120         70.4120        -23.5305        -23.5305
            2150         346.581         346.581         62.2471         62.2471        -21.8555        -21.8555
            2151         349.183         349.183         54.5619         54.5619        -19.8715        -19.8715
            2152         351.385         351.385         47.4586         47.4586        -17.6802        -17.6802
            2153         353.191         353.191         40.9902         40.9902        -15.3761        -15.3761
            2154         354.607         354.607         35.1820         35.1820        -13.0503        -13.0503
            2155         355.678         355.678         30.0221         30.0221        -10.7810        -10.7810
            2156         356.437         356.437         25.4810         25.4810        -8.62251        -8.62251
            2157         356.937         356.937         21.5150         21.5150        -6.61891        -6.61891
            2158         357.218         357.218         18.0717         18.0717        -4.79011        -4.79011
            2159         357.324         357.324         15.1002         15.1002        -3.14999        -3.14999
            2160         357.290         357.290         12.5463         12.5463        -1.69653        -1.69653
            2161         357.148         357.148         10.3631         10.3631    -424.995E-03    -424.995E-03
            2162         356.921         356.921         8.50353         8.50353     677.386E-03     677.386E-03
            2163         356.631         356.631         6.92772         6.92772         1.62404         1.62404
            2164         356.295         356.295         5.59698         5.59698         2.43152         2.43152
            2165         355.926         355.926         4.47843         4.47843         3.11588         3.11588
            2166         355.536         355.536         3.54059         3.54059         3.69379         3.69379
            2167         355.133         355.133         2.75608         2.75608         4.18089         4.18089
            2168         354.726         354.726         2.09877         2.09877         4.59236         4.59236
            2169         354.321         354.321         1.54524         1.54524         4.94227         4.94227
            2170         353.925         353.925         1.07291         1.07291         5.24390         5.24390
            2171         353.544         353.544     660.763E-03     660.763E-03         5.50957         5.50957
            2172         353.184         353.184     288.150E-03     288.150E-03         5.75084         5.75084
            2173         352.855         352.855    -64.9664E-03    -64.9664E-03         5.97847         5.97847
            2174         352.566         352.566    -418.816E-03    -418.816E-03         6.20250         6.20250
            2175         352.329         352.329    -793.879E-03    -793.879E-03         6.43215         6.43215
            2176         352.160         352.160        -1.21143        -1.21143         6.67551         6.67551
            2177         352.078         352.078        -1.69377        -1.69377         6.93907         6.93907
            2178         352.110         352.110        -2.26440        -2.26440         7.22659         7.22659
            2179         352.289         352.289        -2.94818        -2.94818         7.53746         7.53746
            2180         352.657         352.657        -3.77032        -3.77032         7.86370         7.86370
            2181         353.266         353.266        -4.75527        -4.75527         8.18591         8.18591
            2182         354.183         354.183        -5.92153        -5.92153         8.46624         8.46624
            2183         355.478         355.478        -7.27475        -7.27475         8.64084         8.64084
            2184         357.226         357.226        -8.78954        -8.78954         8.60796         8.60796
            2185         359.480         359.480        -10.3858        -10.3858         8.22534         8.22534
            2186         362.238         362.238        -11.8890        -11.8890         7.31187         7.31187
            2187         365.399         365.399        -13.0166        -13.0166         5.70184         5.70184
            2188         334.238         334.238         96.0923         96.0923        -29.5466        -29.5466
            2189         338.016         338.016         86.9184         86.9184        -29.3392        -29.3392
            2190         341.641         341.641         77.7161         77.7161        -28.2764        -28.2764
            2191         344.995         344.995         68.7405         68.7405        -26.6860        -26.6860
            2192         347.973         347.973         60.1918         60.1918        -24.6260        -24.6260
            2193         350.507         350.507         52.2359         52.2359        -22.2218        -22.2218
            2194         352.583         352.583         44.9708         44.9708        -19.5923        -19.5923
            2195         354.194         354.194         38.4561         38.4561        -16.8681        -16.8681
            2196         355.395         355.395         32.6901         32.6901        -14.1625        -14.1625
            2197         356.224         356.224         27.6451         27.6451        -11.5581        -11.5581
            2198         356.753         356.753         23.2683         23.2683        -9.12345        -9.12345
            2199         357.033         357.033         19.4940         19.4940        -6.89030        -6.89030
            2200         357.123         357.123         16.2584         16.2584        -4.88303        -4.88303
            2201         357.066         357.066         13.4931         13.4931        -3.10138        -3.10138
            2202         356.902         356.902         11.1412         11.1412        -1.54241        -1.54241
            2203         356.660         356.660         9.14521         9.14521    -190.998E-03    -190.998E-03
            2204         356.365         356.365         7.45902         7.45902     968.215E-03     968.215E-03
            2205         356.035         356.035         6.03762         6.03762         1.95514         1.95514
            2206         355.685         355.685         4.84457         4.84457         2.78873         2.78873
            2207         355.325         355.325         3.84500         3.84500         3.48873         3.48873
            2208         354.964         354.964         3.00982         3.00982         4.07342         4.07342
            2209         354.608         354.608         2.31137         2.31137         4.56030         4.56030
            2210         354.263         354.263         1.72560         1.72560         4.96531         4.96531
            2211         353.935         353.935         1.22954         1.22954         5.30312         5.30312
            2212         353.628         353.628     802.276E-03     802.276E-03         5.58692         5.58692
            2213         353.347         353.347     423.488E-03     423.488E-03         5.82862         5.82862
            2214         353.100         353.100     73.8553E-03     73.8553E-03         6.03876         6.03876
            2215         352.894         352.894    -265.858E-03    -265.858E-03         6.22663         6.22663
            2216         352.738         352.738    -614.653E-03    -614.653E-03         6.40014         6.40014
            2217         352.645         352.645    -991.807E-03    -991.807E-03         6.56563         6.56563
            2218         352.630         352.630        -1.41681        -1.41681         6.72753         6.72753
            2219         352.713         352.713        -1.90939        -1.90939         6.88756         6.88756
            2220         352.918         352.918        -2.48921        -2.48921         7.04370         7.04370
            2221         353.275         353.275        -3.17491        -3.17491         7.18825         7.18825
            2222         353.819         353.819        -3.98264        -3.98264         7.30549         7.30549
            2223         354.592         354.592        -4.92248        -4.92248         7.36772         7.36772
            2224         355.636         355.636        -5.99339        -5.99339         7.33162         7.33162
            2225         356.993         356.993        -7.17317        -7.17317         7.13245         7.13245
            2226         358.689         358.689        -8.40485        -8.40485         6.68368         6.68368
            2227         360.719         360.719        -9.57820        -9.57820         5.87773         5.87773
            2228         363.024         363.024        -10.5127        -10.5127         4.60928         4.60928
            2229         365.493         365.493        -10.9685        -10.9685         2.78470         2.78470
            2230         335.518         335.518         95.8416         95.8416        -33.4518        -33.4518
            2231         339.481         339.481         86.0530         86.0530        -33.1604        -33.1604
            2232         343.277         343.277         76.2180         76.2180        -31.8566        -31.8566
            2233         346.707         346.707         66.6754         66.6754        -29.8734        -29.8734
            2234         349.659         349.659         57.6856         57.6856        -27.3535        -27.3535
            2235         352.080         352.080         49.4267         49.4267        -24.4332        -24.4332
            2236         353.934         353.934         42.0238         42.0238        -21.2989        -21.2989
            2237         355.286         355.286         35.4991         35.4991        -18.1124        -18.1124
            2238         356.176         356.176         29.8358         29.8358        -15.0008        -15.0008
            2239         356.706         356.706         24.9691         24.9691        -12.0707        -12.0707
            2240         356.943         356.943         20.8143         20.8143        -9.37134        -9.37134
            2241         356.969         356.969         17.2889         17.2889        -6.94328        -6.94328
            2242         356.840         356.840         14.3025         14.3025        -4.78787        -4.78787
            2243         356.607         356.607         11.7841         11.7841        -2.90450        -2.90450
            2244         356.307         356.307         9.66071         9.66071        -1.27415        -1.27415
            2245         355.969         355.969         7.87751         7.87751     121.462E-03     121.462E-03
            2246         355.613         355.613         6.38057         6.38057         1.30703         1.30703
            2247         355.253         355.253         5.12875         5.12875         2.30547         2.30547
            2248         354.901         354.901         4.08265         4.08265         3.14066         3.14066
            2249         354.563         354.563         3.21101         3.21101         3.83431         3.83431
            2250         354.245         354.245         2.48425         2.48425         4.40702         4.40702
            2251         353.949         353.949         1.87770         1.87770         4.87724         4.87724
            2252         353.680         353.680         1.36795         1.36795         5.26165         5.26165
            2253         353.439         353.439     934.398E-03     934.398E-03         5.57493         5.57493
            2254         353.231         353.231     557.206E-03     557.206E-03         5.82997         5.82997
            2255         353.058         353.058     217.980E-03     217.980E-03         6.03782         6.03782
            2256         352.927         352.927    -101.375E-03    -101.375E-03         6.20782         6.20782
            2257         352.843         352.843    -418.348E-03    -418.348E-03         6.34751         6.34751
            2258         352.816         352.816    -750.407E-03    -750.407E-03         6.46257         6.46257
            2259         352.856         352.856        -1.11478        -1.11478         6.55662         6.55662
            2260         352.978         352.978        -1.52850        -1.52850         6.63071         6.63071
            2261         353.198         353.198        -2.00794        -2.00794         6.68274         6.68274
            2262         353.538         353.538        -2.56806        -2.56806         6.70631         6.70631
            2263         354.020         354.020        -3.22101        -3.22101         6.68943         6.68943
            2264         354.672         354.672        -3.97366        -3.97366         6.61235         6.61235
            2265         355.520         355.520        -4.82400        -4.82400         6.44582         6.44582
            2266         356.589         356.589        -5.75519        -5.75519         6.14832         6.14832
            2267         357.890         357.890        -6.72746        -6.72746         5.66624         5.66624
            2268         359.419         359.419        -7.66843        -7.66843         4.93478         4.93478
            2269         361.139         361.139        -8.46126        -8.46126         3.88809         3.88809
            2270         362.973         362.973        -8.94541        -8.94541         2.47089         2.47089
            2271         364.790         364.790        -8.89631        -8.89631     647.049E-03     647.049E-03
            2272         337.151         337.151         95.5569         95.5569        -37.5893        -37.5893
            2273         341.392         341.392         84.9677         84.9677        -37.2062        -37.2062
            2274         345.346         345.346         74.3436         74.3436        -35.5439        -35.5439
            2275         348.833         348.833         64.1173         64.1173        -33.0841        -33.0841
            2276         351.711         351.711         54.6068         54.6068        -29.9554        -29.9554
            2277         353.891         353.891         46.0582         46.0582        -26.4193        -26.4193
            2278         355.440         355.440         38.5491         38.5491        -22.7019        -22.7019
            2279         356.391         356.391         32.0964         32.0964        -19.0034        -19.0034
            2280         356.892         356.892         26.6206         26.6206        -15.4918        -15.4918
            2281         357.030         357.030         22.0116         22.0116        -12.2442        -12.2442
            2282         356.927         356.927         18.1578         18.1578        -9.32715        -9.32715
            2283         356.659         356.659         14.9349         14.9349        -6.74251        -6.74251
            2284         356.294         356.294         12.2512         12.2512        -4.49258        -4.49258
            2285         355.880         355.880         10.0108         10.0108        -2.55144        -2.55144
            2286         355.449         355.449         8.14676         8.14676    -896.073E-03    -896.073E-03
            2287         355.025         355.025         6.59268         6.59268     505.334E-03     505.334E-03
            2288         354.623         354.623         5.30123         5.30123         1.68136         1.68136
            2289         354.251         354.251         4.22691         4.22691         2.66144         2.66144
            2290         353.916         353.916         3.33579         3.33579         3.47194         3.47194
            2291         353.619         353.619         2.59581         2.59581         4.13741         4.13741
            2292         353.361         353.361         1.98158         1.98158         4.67959         4.67959
            2293         353.143         353.143         1.46919         1.46919         5.11778         5.11778
            2294         352.964         352.964         1.03846         1.03846         5.46878         5.46878
            2295         352.825         352.825     670.120E-03     670.120E-03         5.74701         5.74701
            2296         352.726         352.726     346.880E-03     346.880E-03         5.96465         5.96465
            2297         352.670         352.670     51.9002E-03     51.9002E-03         6.13168         6.13168
            2298         352.659         352.659    -230.721E-03    -230.721E-03         6.25600         6.25600
            2299         352.699         352.699    -516.710E-03    -516.710E-03         6.34337         6.34337
            2300         352.796         352.796    -821.299E-03    -821.299E-03         6.39736         6.39736
            2301         352.960         352.960        -1.15940        -1.15940         6.41908         6.41908
            2302         353.201         353.201        -1.54513        -1.54513         6.40693         6.40693
            2303         353.533         353.533        -1.99126        -1.99126         6.35594         6.35594
            2304         353.972         353.972        -2.50810        -2.50810         6.25714         6.25714
            2305         354.536         354.536        -3.10177        -3.10177         6.09647         6.09647
            2306         355.240         355.240        -3.77162        -3.77162         5.85401         5.85401
            2307         356.098         356.098        -4.50658        -4.50658         5.50276         5.50276
            2308         357.119         357.119        -5.28001        -5.28001         5.00903         5.00903
            2309         358.297         358.297        -6.04414        -6.04414         4.33337         4.33337
            2310         359.608         359.608        -6.72272        -6.72272         3.43569         3.43569
            2311         361.001         361.001        -7.20910        -7.20910         2.28304         2.28304
            2312         362.392         362.392        -7.35918        -7.35918     858.991E-03     858.991E-03
            2313         363.652         363.652        -6.99529        -6.99529    -812.514E-03    -812.514E-03
            2314         339.365         339.365         95.1903         95.1903        -42.0442        -42.0442
            2315         343.853         343.853         83.5976         83.5976        -41.4656        -41.4656
            2316         348.011         348.011         71.9653         71.9653        -39.3737        -39.3737
            2317         351.503         351.503         60.8914         60.8914        -36.2135        -36.2135
            2318         354.149         354.149         50.8369         50.8369        -32.3352        -32.3352
            2319         355.984         355.984         42.0053         42.0053        -28.0376        -28.0376
            2320         357.007         357.007         34.5031         34.5031        -23.6470        -23.6470
            2321         357.442         357.442         28.2370         28.2370        -19.4337        -19.4337
            2322         357.406         357.406         23.0639         23.0639        -15.5227        -15.5227
            2323         357.085         357.085         18.8262         18.8262        -12.0257        -12.0257
            2324         356.584         356.584         15.3447         15.3447        -8.94143        -8.94143
            2325         356.001         356.001         12.4972         12.4972        -6.27549        -6.27549
            2326         355.396         355.396         10.1528         10.1528        -3.98947        -3.98947
            2327         354.808         354.808         8.22860         8.22860        -2.05224        -2.05224
            2328         354.264         354.264         6.64019         6.64019    -421.184E-03    -421.184E-03
            2329         353.777         353.777         5.33258         5.33258     940.658E-03     940.658E-03
            2330         353.354         353.354         4.25216         4.25216         2.07033         2.07033
            2331         352.997         352.997         3.36181         3.36181         3.00045         3.00045
            2332         352.704         352.704         2.62637         2.62637         3.76059         3.76059
            2333         352.473         352.473         2.01967         2.01967         4.37670         4.37670
            2334         352.299         352.299         1.51719         1.51719         4.87130         4.87130
            2335         352.179         352.179         1.09924         1.09924         5.26388         5.26388
            2336         352.109         352.109     747.219E-03     747.219E-03         5.57085         5.57085
            2337         352.087         352.087     445.086E-03     445.086E-03         5.80599         5.80599
            2338         352.111         352.111     177.364E-03     177.364E-03         5.98043         5.98043
            2339         352.181         352.181    -70.1646E-03    -70.1646E-03         6.10292         6.10292
            2340         352.297         352.297    -311.456E-03    -311.456E-03         6.17980         6.17980
            2341         352.462         352.462    -559.813E-03    -559.813E-03         6.21511         6.21511
            2342         352.681         352.681    -828.244E-03    -828.244E-03         6.21047         6.21047
            2343         352.960         352.960        -1.12900        -1.12900         6.16499         6.16499
            2344         353.307         353.307        -1.47332        -1.47332         6.07502         6.07502
            2345         353.731         353.731        -1.87051        -1.87051         5.93385         5.93385
            2346         354.242         354.242        -2.32684        -2.32684         5.73127         5.73127
            2347         354.852         354.852        -2.84368        -2.84368         5.45334         5.45334
            2348         355.567         355.567        -3.41515        -3.41515         5.08196         5.08196
            2349         356.393         356.393        -4.02473        -4.02473         4.59539         4.59539
            2350         357.325         357.325        -4.64185        -4.64185         3.96919         3.96919
            2351         358.347         358.347        -5.21716        -5.21716         3.17914         3.17914
            2352         359.427         359.427        -5.68057        -5.68057         2.20617         2.20617
            2353         360.510         360.510        -5.93780        -5.93780         1.04279         1.04279
            2354         361.517         361.517        -5.87374        -5.87374    -293.803E-03    -293.803E-03
            2355         362.349         362.349        -5.36081        -5.36081        -1.74921        -1.74921
            2356         342.255         342.255         94.7629         94.7629        -46.8388        -46.8388
            2357         347.178         347.178         81.7938         81.7938        -46.0511        -46.0511
            2358         351.470         351.470         68.8582         68.8582        -43.2187        -43.2187
            2359         354.810         354.810         56.8140         56.8140        -39.1807        -39.1807
            2360         357.094         357.094         46.1481         46.1481        -34.2775        -34.2775
            2361         358.231         358.231         37.1888         37.1888        -29.0586        -29.0586
            2362         358.563         358.563         29.8459         29.8459        -23.9678        -23.9678
            2363         358.239         358.239         23.9437         23.9437        -19.2222        -19.2222
            2364         357.563         357.563         19.2448         19.2448        -15.0182        -15.0182
            2365         356.696         356.696         15.4758         15.4758        -11.3418        -11.3418
            2366         355.771         355.771         12.4693         12.4693        -8.20102        -8.20102
            2367         354.871         354.871         10.0399         10.0399        -5.53452        -5.53452
            2368         354.042         354.042         8.08310         8.08310        -3.29664        -3.29664
            2369         353.311         353.311         6.48954         6.48954        -1.42817        -1.42817
            2370         352.688         352.688         5.19487         5.19487     120.589E-03     120.589E-03
            2371         352.175         352.175         4.13508         4.13508         1.39703         1.39703
            2372         351.768         351.768         3.26955         3.26955         2.44227         2.44227
            2373         351.461         351.461         2.55941         2.55941         3.29212         3.29212
            2374         351.244         351.244         1.97780         1.97780         3.97776         3.97776
            2375         351.110         351.110         1.49950         1.49950         4.52550         4.52550
            2376         351.047         351.047         1.10552         1.10552         4.95801         4.95801
            2377         351.051         351.051     778.002E-03     778.002E-03         5.29400         5.29400
            2378         351.112         351.112     502.294E-03     502.294E-03         5.54921         5.54921
            2379         351.226         351.226     264.395E-03     264.395E-03         5.73617         5.73617
            2380         351.387         351.387     51.8800E-03     51.8800E-03         5.86484         5.86484
            2381         351.595         351.595    -147.366E-03    -147.366E-03         5.94247         5.94247
            2382         351.846         351.846    -344.680E-03    -344.680E-03         5.97393         5.97393
            2383         352.141         352.141    -551.165E-03    -551.165E-03         5.96159         5.96159
            2384         352.482         352.482    -777.280E-03    -777.280E-03         5.90545         5.90545
            2385         352.872         352.872        -1.03282        -1.03282         5.80303         5.80303
            2386         353.315         353.315        -1.32623        -1.32623         5.64932         5.64932
            2387         353.816         353.816        -1.66393        -1.66393         5.43668         5.43668
            2388         354.381         354.381        -2.04903        -2.04903         5.15489         5.15489
            2389         355.014         355.014        -2.47976        -2.47976         4.79117         4.79117
            2390         355.716         355.716        -2.94726        -2.94726         4.33071         4.33071
            2391         356.483         356.483        -3.43328        -3.43328         3.75762         3.75762
            2392         357.306         357.306        -3.90710        -3.90710         3.05685         3.05685
            2393         358.163         358.163        -4.32381        -4.32381         2.21737         2.21737
            2394         359.020         359.020        -4.62216        -4.62216         1.23634         1.23634
            2395         359.828         359.828        -4.72620        -4.72620     126.464E-03     126.464E-03
            2396         360.523         360.523        -4.54962        -4.54962        -1.07688        -1.07688
            2397         361.032         361.032        -4.00676        -4.00676        -2.30567        -2.30567
            2398         346.418         346.418         94.1292         94.1292        -52.1719        -52.1719
            2399         351.621         351.621         79.3453         79.3453        -50.8287        -50.8287
            2400         356.004         356.004         64.7424         64.7424        -47.0877        -47.0877
            2401         359.029         359.029         51.4751         51.4751        -41.6484        -41.6484
            2402         360.390         360.390         40.3944         40.3944        -35.4458        -35.4458
            2403         360.589         360.589         31.4948         31.4948        -29.2077        -29.2077
            2404         359.792         359.792         24.6068         24.6068        -23.3548        -23.3548
            2405         358.543         358.543         19.3432         19.3432        -18.2589        -18.2589
            2406         357.100         357.100         15.2540         15.2540        -13.8664        -13.8664
            2407         355.654         355.654         12.1039         12.1039        -10.1819        -10.1819
            2408         354.314         354.314         9.61954         9.61954        -7.10138        -7.10138
            2409         353.129         353.129         7.66941         7.66941        -4.55221        -4.55221
            2410         352.126         352.126         6.10912         6.10912        -2.44982        -2.44982
            2411         351.304         351.304         4.86383         4.86383    -724.740E-03    -724.740E-03
            2412         350.658         350.658         3.85694         3.85694     684.183E-03     684.183E-03
            2413         350.173         350.173         3.04435         3.04435         1.82963         1.82963
            2414         349.833         349.833         2.38333         2.38333         2.75482         2.75482
            2415         349.621         349.621         1.84656         1.84656         3.49736         3.49736
            2416         349.522         349.522         1.40842         1.40842         4.08763         4.08763
            2417         349.521         349.521         1.05079         1.05079         4.55188         4.55188
            2418         349.603         349.603     756.807E-03     756.807E-03         4.91117         4.91117
            2419         349.758         349.758     513.353E-03     513.353E-03         5.18332         5.18332
            2420         349.975         349.975     308.044E-03     308.044E-03         5.38234         5.38234
            2421         350.245         350.245     130.335E-03     130.335E-03         5.51953         5.51953
            2422         350.563         350.563    -29.9680E-03    -29.9680E-03         5.60317         5.60317
            2423         350.922         350.922    -182.177E-03    -182.177E-03         5.63914         5.63914
            2424         351.319         351.319    -335.424E-03    -335.424E-03         5.63073         5.63073
            2425         351.751         351.751    -498.295E-03    -498.295E-03         5.57895         5.57895
            2426         352.217         352.217    -679.000E-03    -679.000E-03         5.48241         5.48241
            2427         352.718         352.718    -884.895E-03    -884.895E-03         5.33752         5.33752
            2428         353.254         353.254        -1.12213        -1.12213         5.13845         5.13845
            2429         353.825         353.825        -1.39479        -1.39479         4.87734         4.87734
            2430         354.433         354.433        -1.70392        -1.70392         4.54452         4.54452
            2431         355.076         355.076        -2.04604        -2.04604         4.12909         4.12909
            2432         355.751         355.751        -2.41161        -2.41161         3.61970         3.61970
            2433         356.450         356.450        -2.78297        -2.78297         3.00607         3.00607
            2434         357.158         357.158        -3.13291        -3.13291         2.28112         2.28112
            2435         357.855         357.855        -3.42303        -3.42303         1.44382         1.44382
            2436         358.508         358.508        -3.60423        -3.60423     503.569E-03     503.569E-03
            2437         359.078         359.078        -3.61855        -3.61855    -515.497E-03    -515.497E-03
            2438         359.518         359.518        -3.40493        -3.40493        -1.56871        -1.56871
            2439         359.783         359.783        -2.90916        -2.90916        -2.58728        -2.58728
            2440         352.066         352.066         93.3030         93.3030        -57.9715        -57.9715
            2441         357.935         357.935         75.8415         75.8415        -56.0482        -56.0482
            2442         362.155         362.155         58.9237         58.9237        -50.4399        -50.4399
            2443         364.015         364.015         44.5963         44.5963        -43.1663        -43.1663
            2444         364.105         364.105         33.2633         33.2633        -35.3464        -35.3464
            2445         362.505         362.505         24.9680         24.9680        -27.9133        -27.9133
            2446         360.302         360.302         19.0124         19.0124        -21.6457        -21.6457
            2447         357.945         357.945         14.5755         14.5755        -16.3720        -16.3720
            2448         355.698         355.698         11.3224         11.3224        -12.0693        -12.0693
            2449         353.711         353.711         8.83493         8.83493        -8.55419        -8.55419
            2450         352.018         352.018         6.94896         6.94896        -5.70200        -5.70200
            2451         350.636         350.636         5.47349         5.47349        -3.39044        -3.39044
            2452         349.542         349.542         4.32312         4.32312        -1.51929        -1.51929
            2453         348.715         348.715         3.40752         3.40752    -9.97434E-03    -9.97434E-03
            2454         348.122         348.122         2.67985         2.67985         1.20566         1.20566
            2455         347.735         347.735         2.09425         2.09425         2.17897         2.17897
            2456         347.523         347.523         1.62359         1.62359         2.95507         2.95507
            2457         347.463         347.463         1.24253         1.24253         3.56825         3.56825
            2458         347.530         347.530     934.260E-03     934.260E-03         4.04842         4.04842
            2459         347.704         347.704     683.310E-03     683.310E-03         4.41866         4.41866
            2460         347.968         347.968     478.297E-03     478.297E-03         4.69871         4.69871
            2461         348.306         348.306     308.643E-03     308.643E-03         4.90378         4.90378
            2462         348.706         348.706     165.747E-03     165.747E-03         5.04637         5.04637
            2463         349.157         349.157     41.3961E-03     41.3961E-03         5.13570         5.13570
            2464         349.649         349.649    -71.6807E-03    -71.6807E-03         5.17861         5.17861
            2465         350.176         350.176    -180.602E-03    -180.602E-03         5.17932         5.17932
            2466         350.732         350.732    -292.003E-03    -292.003E-03         5.13987         5.13987
            2467         351.312         351.312    -412.345E-03    -412.345E-03         5.06000         5.06000
            2468         351.912         351.912    -547.576E-03    -547.576E-03         4.93739         4.93739
            2469         352.528         352.528    -703.041E-03    -703.041E-03         4.76768         4.76768
            2470         353.159         353.159    -882.918E-03    -882.918E-03         4.54474         4.54474
            2471         353.800         353.800        -1.08970        -1.08970         4.26088         4.26088
            2472         354.449         354.449        -1.32321        -1.32321         3.90739         3.90739
            2473         355.100         355.100        -1.57966        -1.57966         3.47526         3.47526
            2474         355.745         355.745        -1.85024        -1.85024         2.95632         2.95632
            2475         356.375         356.375        -2.12004        -2.12004         2.34481         2.34481
            2476         356.973         356.973        -2.36676        -2.36676         1.63943         1.63943
            2477         357.519         357.519        -2.56049        -2.56049     846.251E-03     846.251E-03
            2478         357.988         357.988        -2.66421        -2.66421    -18.4949E-03    -18.4949E-03
            2479         358.351         358.351        -2.63643        -2.63643    -924.749E-03    -924.749E-03
            2480         358.578         358.578        -2.43613        -2.43613        -1.82634        -1.82634
            2481         358.643         358.643        -2.03030        -2.03030        -2.65957        -2.65957
            2482         361.123         361.123         91.7355         91.7355        -64.8683        -64.8683
            2483         366.986         366.986         70.3305         70.3305        -60.8640        -60.8640
            2484         370.041         370.041         50.8368         50.8368        -52.8660        -52.8660
            2485         370.243         370.243         35.2971         35.2971        -42.7323        -42.7323
            2486         367.168         367.168         24.8405         24.8405        -32.8155        -32.8155
            2487         363.263         363.263         18.0734         18.0734        -24.9397        -24.9397
            2488         359.412         359.412         13.2940         13.2940        -18.5828        -18.5828
            2489         355.925         355.925         10.0325         10.0325        -13.6035        -13.6035
            2490         352.995         352.995         7.63203         7.63203        -9.67459        -9.67459
            2491         350.590         350.590         5.89461         5.89461        -6.56929        -6.56929
            2492         348.702         348.702         4.57291         4.57291        -4.11345        -4.11345
            2493         347.256         347.256         3.57262         3.57262        -2.15958        -2.15958
            2494         346.205         346.205         2.79223         2.79223    -609.669E-03    -609.669E-03
            2495         345.483         345.483         2.18361         2.18361     624.199E-03     624.199E-03
            2496         345.044         345.044         1.70049         1.70049         1.60087         1.60087
            2497         344.840         344.840         1.31683         1.31683         2.37340         2.37340
            2498         344.832         344.832         1.00915         1.00915         2.97893         2.97893
            2499         344.986         344.986     762.447E-03     762.447E-03         3.45051         3.45051
            2500         345.273         345.273     563.405E-03     563.405E-03         3.81230         3.81230
            2501         345.669         345.669     402.582E-03     402.582E-03         4.08531         4.08531
            2502         346.153         346.153     271.485E-03     271.485E-03         4.28527         4.28527
            2503         346.709         346.709     163.479E-03     163.479E-03         4.42538         4.42538
            2504         347.320         347.320     72.3695E-03     72.3695E-03         4.51533         4.51533
            2505         347.976         347.976    -7.14021E-03    -7.14021E-03         4.56267         4.56267
            2506         348.665         348.665    -80.1919E-03    -80.1919E-03         4.57232         4.57232
            2507         349.378         349.378    -151.498E-03    -151.498E-03         4.54723         4.54723
            2508         350.109         350.109    -225.705E-03    -225.705E-03         4.48819         4.48819
            2509         350.849         350.849    -307.151E-03    -307.151E-03         4.39411         4.39411
            2510         351.594         351.594    -399.945E-03    -399.945E-03         4.26202         4.26202
            2511         352.336         352.336    -507.617E-03    -507.617E-03         4.08731         4.08731
            2512         353.070         353.070    -632.906E-03    -632.906E-03         3.86388         3.86388
            2513         353.788         353.788    -777.174E-03    -777.174E-03         3.58460         3.58460
            2514         354.484         354.484    -939.869E-03    -939.869E-03         3.24182         3.24182
            2515         355.149         355.149        -1.11765        -1.11765         2.82828         2.82828
            2516         355.771         355.771        -1.30364        -1.30364         2.33824         2.33824
            2517         356.339         356.339        -1.48648        -1.48648         1.76902         1.76902
            2518         356.836         356.836        -1.64987        -1.64987         1.12303         1.12303
            2519         357.245         357.245        -1.77239        -1.77239     409.856E-03     409.856E-03
            2520         357.546         357.546        -1.82842        -1.82842    -351.252E-03    -351.252E-03
            2521         357.722         357.722        -1.79026        -1.79026        -1.12957        -1.12957
            2522         357.755         357.755        -1.63184        -1.63184        -1.88173        -1.88173
            2523         357.638         357.638        -1.33408        -1.33408        -2.55221        -2.55221
            2524         374.356         374.356         89.0207         89.0207        -71.8289        -71.8289
            2525         380.397         380.397         61.5665         61.5665        -65.6743        -65.6743
            2526         381.435         381.435         37.9478         37.9478        -51.9800        -51.9800
            2527         375.275         375.275         23.7940         23.7940        -37.7123        -37.7123
            2528         368.056         368.056         16.2344         16.2344        -27.5521        -27.5521
            2529         361.669         361.669         11.2215         11.2215        -19.9502        -19.9502
            2530         356.247         356.247         8.14626         8.14626        -14.3233        -14.3233
            2531         351.960         351.960         5.98588         5.98588        -10.1123        -10.1123
            2532         348.598         348.598         4.51369         4.51369        -6.89173        -6.89173
            2533         346.067         346.067         3.43337         3.43337        -4.43007        -4.43007
            2534         344.203         344.203         2.64391         2.64391        -2.51157        -2.51157
            2535         342.902         342.902         2.04429         2.04429        -1.02288        -1.02288
            2536         342.055         342.055         1.58623         1.58623     146.250E-03     146.250E-03
            2537         341.582         341.582         1.22936         1.22936         1.05826         1.05826
            2538         341.413         341.413     949.459E-03     949.459E-03         1.77292         1.77292
            2539         341.490         341.490     727.781E-03     727.781E-03         2.32748         2.32748
            2540         341.766         341.766     551.458E-03     551.458E-03         2.75648         2.75648
            2541         342.202         342.202     410.531E-03     410.531E-03         3.08331         3.08331
            2542         342.767         342.767     297.604E-03     297.604E-03         3.32893         3.32893
            2543         343.433         343.433     206.652E-03     206.652E-03         3.50833         3.50833
            2544         344.178         344.178     132.932E-03     132.932E-03         3.63446         3.63446
            2545         344.985         344.985     72.2766E-03     72.2766E-03         3.71667         3.71667
            2546         345.838         345.838     21.1893E-03     21.1893E-03         3.76256         3.76256
            2547         346.724         346.724    -23.6355E-03    -23.6355E-03         3.77726         3.77726
            2548         347.631         347.631    -65.1647E-03    -65.1647E-03         3.76429         3.76429
            2549         348.551         348.551    -106.333E-03    -106.333E-03         3.72521         3.72521
            2550         349.474         349.474    -149.882E-03    -149.882E-03         3.66007         3.66007
            2551         350.392         350.392    -198.507E-03    -198.507E-03         3.56720         3.56720
            2552         351.296         351.296    -254.653E-03    -254.653E-03         3.44354         3.44354
            2553         352.178         352.178    -320.488E-03    -320.488E-03         3.28460         3.28460
            2554         353.030         353.030    -397.582E-03    -397.582E-03         3.08485         3.08485
            2555         353.840         353.840    -486.682E-03    -486.682E-03         2.83801         2.83801
            2556         354.598         354.598    -587.217E-03    -587.217E-03         2.53762         2.53762
            2557         355.290         355.290    -696.890E-03    -696.890E-03         2.17790         2.17790
            2558         355.904         355.904    -811.058E-03    -811.058E-03         1.75478         1.75478
            2559         356.424         356.424    -922.352E-03    -922.352E-03         1.26736         1.26736
            2560         356.835         356.835        -1.02026        -1.02026     719.428E-03     719.428E-03
            2561         357.119         357.119        -1.09132        -1.09132     121.338E-03     121.338E-03
            2562         357.265         357.265        -1.11970        -1.11970    -508.460E-03    -508.460E-03
            2563         357.259         357.259        -1.08871        -1.08871        -1.14217        -1.14217
            2564         357.099         357.099    -983.260E-03    -983.260E-03        -1.74258        -1.74258
            2565         356.788         356.788    -792.925E-03    -792.925E-03        -2.26405        -2.26405
            2566         400.971         400.971         82.1140         82.1140        -82.0558        -82.0558
            2567         403.559         403.559         42.5305         42.5305        -63.6397        -63.6397
            2568         389.662         389.662         20.9413         20.9413        -41.3218        -41.3218
            2569         375.376         375.376         13.0793         13.0793        -27.9762        -27.9762
            2570         364.597         364.597         8.21898         8.21898        -19.3691        -19.3691
            2571         356.221         356.221         5.65855         5.65855        -13.4205        -13.4205
            2572         350.074         350.074         3.97506         3.97506        -9.32320        -9.32320
            2573         345.519         345.519         2.90014         2.90014        -6.30019        -6.30019
            2574         342.256         342.256         2.15634         2.15634        -4.09788        -4.09788
            2575         339.965         339.965         1.62754         1.62754        -2.41826        -2.41826
            2576         338.447         338.447         1.24421         1.24421        -1.15211        -1.15211
            2577         337.530         337.530     954.731E-03     954.731E-03    -171.647E-03    -171.647E-03
            2578         337.088         337.088     736.623E-03     736.623E-03     579.400E-03     579.400E-03
            2579         337.020         337.020     566.386E-03     566.386E-03         1.16224         1.16224
            2580         337.248         337.248     434.493E-03     434.493E-03         1.60907         1.60907
            2581         337.710         337.710     329.834E-03     329.834E-03         1.95226         1.95226
            2582         338.356         338.356     247.345E-03     247.345E-03         2.21145         2.21145
            2583         339.144         339.144     181.439E-03     181.439E-03         2.40521         2.40521
            2584         340.043         340.043     128.966E-03     128.966E-03         2.54595         2.54595
            2585         341.027         341.027     86.8153E-03     86.8153E-03         2.64482         2.64482
            2586         342.073         342.073     52.7841E-03     52.7841E-03         2.70963         2.70963
            2587         343.164         343.164     24.8616E-03     24.8616E-03         2.74701         2.74701
            2588         344.286         344.286     1.31940E-03     1.31940E-03         2.76151         2.76151
            2589         345.426         345.426    -19.3963E-03    -19.3963E-03         2.75653         2.75653
            2590         346.574         346.574    -38.7970E-03    -38.7970E-03         2.73396         2.73396
            2591         347.720         347.720    -58.2740E-03    -58.2740E-03         2.69458         2.69458
            2592         348.854         348.854    -79.2387E-03    -79.2387E-03         2.63787         2.63787
            2593         349.968         349.968    -102.992E-03    -102.992E-03         2.56222         2.56222
            2594         351.051         351.051    -130.796E-03    -130.796E-03         2.46492         2.46492
            2595         352.093         352.093    -163.699E-03    -163.699E-03         2.34230         2.34230
            2596         353.083         353.083    -202.507E-03    -202.507E-03         2.18988         2.18988
            2597         354.007         354.007    -247.539E-03    -247.539E-03         2.00273         2.00273
            2598         354.849         354.849    -298.481E-03    -298.481E-03         1.77588         1.77588
            2599         355.594         355.594    -354.061E-03    -354.061E-03         1.50496         1.50496
            2600         356.223         356.223    -411.853E-03    -411.853E-03         1.18714         1.18714
            2601         356.718         356.718    -467.954E-03    -467.954E-03     822.058E-03     822.058E-03
            2602         357.061         357.061    -516.937E-03    -516.937E-03     413.219E-03     413.219E-03
            2603         357.235         357.235    -551.832E-03    -551.832E-03    -30.8784E-03    -30.8784E-03
            2604         357.230         357.230    -564.594E-03    -564.594E-03    -495.539E-03    -495.539E-03
            2605         357.039         357.039    -546.877E-03    -546.877E-03    -959.287E-03    -959.287E-03
            2606         356.667         356.667    -491.264E-03    -491.264E-03        -1.39399        -1.39399
            2607         356.129         356.129    -392.842E-03    -392.842E-03        -1.76569        -1.76569
            2608         452.289         452.289         55.7625         55.7625        -72.1497        -72.1497
            2609         414.510         414.510         15.7244         15.7244        -39.2436        -39.2436
            2610         384.729         384.729         8.32931         8.32931        -22.5223        -22.5223
            2611         366.736         366.736         4.64155         4.64155        -14.7552        -14.7552
            2612         354.357         354.357         2.88317         2.88317        -9.62733        -9.62733
            2613         346.038         346.038         1.95954         1.95954        -6.56989        -6.56989
            2614         340.289         340.289         1.33672         1.33672        -4.36156        -4.36156
            2615         336.405         336.405     986.603E-03     986.603E-03        -2.86704        -2.86704
            2616         333.847         333.847     713.777E-03     713.777E-03        -1.74288        -1.74288
            2617         332.278         332.278     546.183E-03     546.183E-03    -928.709E-03    -928.709E-03
            2618         331.450         331.450     408.865E-03     408.865E-03    -304.384E-03    -304.384E-03
            2619         331.186         331.186     316.828E-03     316.828E-03     163.186E-03     163.186E-03
            2620         331.354         331.354     240.693E-03     240.693E-03     523.584E-03     523.584E-03
            2621         331.854         331.854     185.955E-03     185.955E-03     796.285E-03     796.285E-03
            2622         332.608         332.608     140.908E-03     140.908E-03         1.00481         1.00481
            2623         333.557         333.557     106.917E-03     106.917E-03         1.16111         1.16111
            2624         334.654         334.654     79.2080E-03     79.2080E-03         1.27771         1.27771
            2625         335.860         335.860     57.6756E-03     57.6756E-03         1.36214         1.36214
            2626         337.148         337.148     40.2696E-03     40.2696E-03         1.42163         1.42163
            2627         338.492         338.492     26.4691E-03     26.4691E-03         1.46099         1.46099
            2628         339.875         339.875     15.2851E-03     15.2851E-03         1.48451         1.48451
            2629         341.281         341.281     6.13274E-03     6.13274E-03         1.49509         1.49509
            2630         342.697         342.697    -1.58195E-03    -1.58195E-03         1.49513         1.49513
            2631         344.114         344.114    -8.42147E-03    -8.42147E-03         1.48605         1.48605
            2632         345.522         345.522    -14.8538E-03    -14.8538E-03         1.46877         1.46877
            2633         346.913         346.913    -21.4143E-03    -21.4143E-03         1.44343         1.44343
            2634         348.277         348.277    -28.5420E-03    -28.5420E-03         1.40962         1.40962
            2635         349.607         349.607    -36.7382E-03    -36.7382E-03         1.36625         1.36625
            2636         350.891         350.891    -46.4065E-03    -46.4065E-03         1.31170         1.31170
            2637         352.117         352.117    -57.9502E-03    -57.9502E-03         1.24378         1.24378
            2638         353.272         353.272    -71.6244E-03    -71.6244E-03         1.15990         1.15990
            2639         354.339         354.339    -87.5633E-03    -87.5633E-03         1.05718         1.05718
            2640         355.298         355.298    -105.626E-03    -105.626E-03     932.769E-03     932.769E-03
            2641         356.129         356.129    -125.373E-03    -125.373E-03     784.170E-03     784.170E-03
            2642         356.807         356.807    -145.898E-03    -145.898E-03     609.723E-03     609.723E-03
            2643         357.309         357.309    -165.821E-03    -165.821E-03     409.255E-03     409.255E-03
            2644         357.612         357.612    -183.151E-03    -183.151E-03     184.716E-03     184.716E-03
            2645         357.694         357.694    -195.420E-03    -195.420E-03    -59.0569E-03    -59.0569E-03
            2646         357.543         357.543    -199.719E-03    -199.719E-03    -313.796E-03    -313.796E-03
            2647         357.154         357.154    -193.118E-03    -193.118E-03    -567.477E-03    -567.477E-03
            2648         356.535         356.535    -173.049E-03    -173.049E-03    -804.452E-03    -804.452E-03
            2649         355.711         355.711    -137.772E-03    -137.772E-03        -1.00573        -1.00573
            2650         372.506         372.506        -11.6784        -11.6784     939.058E-03     939.058E-03
            2651         370.090         370.090        -8.09663        -8.09663         3.17183         3.17183
            2652         367.505         367.505        -5.37816        -5.37816         4.24248         4.24248
            2653         365.113         365.113        -3.44188        -3.44188         4.63076         4.63076
            2654         363.009         363.009        -2.11980        -2.11980         4.64458         4.64458
            2655         361.182         361.182        -1.24782        -1.24782         4.46345         4.46345
            2656         359.584         359.584    -693.665E-03    -693.665E-03         4.17874         4.17874
            2657         358.162         358.162    -357.634E-03    -357.634E-03         3.82574         3.82574
            2658         356.866         356.866    -166.689E-03    -166.689E-03         3.40126         3.40126
            2659         355.650         355.650    -67.6208E-03    -67.6208E-03         2.87198         2.87198
            2660         354.481         354.481    -22.1854E-03    -22.1854E-03         2.17521         2.17521
            2661         353.334         353.334    -4.91223E-03    -4.91223E-03         1.22081         1.22081
            2662         375.051         375.051        -6.90363        -6.90363         5.78443         5.78443
            2663         371.047         371.047        -3.34136        -3.34136         6.61202         6.61202
            2664         367.634         367.634        -1.13728        -1.13728         6.52575         6.52575
            2665         364.843         364.843     119.251E-03     119.251E-03         6.06495         6.06495
            2666         362.570         362.570     756.447E-03     756.447E-03         5.49020         5.49020
            2667         360.682         360.682         1.00289         1.00289         4.91323         4.91323
            2668         359.062         359.062         1.00982         1.00982         4.36936         4.36936
            2669         357.612         357.612     876.781E-03     876.781E-03         3.85363         3.85363
            2670         356.250         356.250     671.788E-03     671.788E-03         3.33640         3.33640
            2671         354.900         354.900     444.940E-03     444.940E-03         2.76757         2.76757
            2672         353.491         353.491     237.421E-03     237.421E-03         2.07398         2.07398
            2673         351.948         351.948     87.5103E-03     87.5103E-03         1.15801         1.15801
            2674         375.340         375.340         1.77426         1.77426         9.85132         9.85132
            2675         370.346         370.346         3.79027         3.79027         8.78626         8.78626
            2676         366.639         366.639         4.46709         4.46709         7.51105         7.51105
            2677         363.848         363.848         4.42727         4.42727         6.33678         6.33678
            2678         361.675         361.675         4.02103         4.02103         5.34907         5.34907
            2679         359.905         359.905         3.44103         3.44103         4.54170         4.54170
            2680         358.383         358.383         2.79245         2.79245         3.87998         3.87998
            2681         356.989         356.989         2.13617         2.13617         3.31949         3.31949
            2682         355.625         355.625         1.51185         1.51185         2.81043         2.81043
            2683         354.196         354.196     952.037E-03     952.037E-03         2.29547         2.29547
            2684         352.601         352.601     492.185E-03     492.185E-03         1.70376         1.70376
            2685         350.723         350.723     177.959E-03     177.959E-03     946.538E-03     946.538E-03
            2686         373.225         373.225         13.0945         13.0945         10.7488         10.7488
            2687         368.326         368.326         11.9083         11.9083         8.32360         8.32360
            2688         364.961         364.961         10.2756         10.2756         6.45821         6.45821
            2689         362.524         362.524         8.60101         8.60101         5.07185         5.07185
            2690         360.645         360.645         7.03159         7.03159         4.04581         4.04581
            2691         359.100         359.100         5.60675         5.60675         3.28062         3.28062
            2692         357.739         357.739         4.33107         4.33107         2.69913         2.69913
            2693         356.445         356.445         3.19944         3.19944         2.24058         2.24058
            2694         355.118         355.118         2.20939         2.20939         1.85314         1.85314
            2695         353.657         353.657         1.36823         1.36823         1.48770         1.48770
            2696         351.942         351.942     699.582E-03     699.582E-03         1.09136         1.09136
            2697         349.825         349.825     250.900E-03     250.900E-03     602.259E-03     602.259E-03
            2698         370.246         370.246         23.1782         23.1782         6.79743         6.79743
            2699         366.205         366.205         18.3912         18.3912         4.66783         4.66783
            2700         363.469         363.469         14.5774         14.5774         3.28526         3.28526
            2701         361.465         361.465         11.5316         11.5316         2.36125         2.36125
            2702         359.888         359.888         9.05842         9.05842         1.72753         1.72753
            2703         358.552         358.552         7.01588         7.01588         1.28586         1.28586
            2704         357.332         357.332         5.30371         5.30371     973.671E-03     973.671E-03
            2705         356.129         356.129         3.85510         3.85510     748.178E-03     748.178E-03
            2706         354.847         354.847         2.63046         2.63046     578.253E-03     578.253E-03
            2707         353.385         353.385         1.61543         1.61543     438.752E-03     438.752E-03
            2708         351.620         351.620     822.163E-03     822.163E-03     307.537E-03     307.537E-03
            2709         349.389         349.389     294.671E-03     294.671E-03     163.897E-03     163.897E-03
            2710         369.064         369.064         26.6331         26.6331        -1.17639        -1.17639
            2711         365.521         365.521         20.3017         20.3017        -1.26732        -1.26732
            2712         363.062         363.062         15.7082         15.7082        -1.26624        -1.26624
            2713         361.225         361.225         12.2223         12.2223        -1.23198        -1.23198
            2714         359.754         359.754         9.48540         9.48540        -1.17945        -1.17945
            2715         358.490         358.490         7.27802         7.27802        -1.11512        -1.11512
            2716         357.320         357.320         5.46008         5.46008        -1.04016        -1.04016
            2717         356.151         356.151         3.94279         3.94279    -952.715E-03    -952.715E-03
            2718         354.894         354.894         2.67427         2.67427    -848.093E-03    -848.093E-03
            2719         353.451         353.451         1.63287         1.63287    -717.565E-03    -717.565E-03
            2720         351.701         351.701     826.365E-03     826.365E-03    -546.266E-03    -546.266E-03
            2721         349.492         349.492     294.684E-03     294.684E-03    -309.934E-03    -309.934E-03
            2722         371.020         371.020         20.5394         20.5394        -8.93239        -8.93239
            2723         366.891         366.891         16.3052         16.3052        -7.00281        -7.00281
            2724         364.063         364.063         12.9677         12.9677        -5.67530        -5.67530
            2725         361.982         361.982         10.2872         10.2872        -4.71880        -4.71880
            2726         360.348         360.348         8.09536         8.09536        -4.00439        -4.00439
            2727         358.977         358.977         6.27257         6.27257        -3.44928        -3.44928
            2728         357.740         357.740         4.73649         4.73649        -2.99604        -2.99604
            2729         356.538         356.538         3.43318         3.43318        -2.60040        -2.60040
            2730         355.279         355.279         2.33174         2.33174        -2.22345        -2.22345
            2731         353.869         353.869         1.42254         1.42254        -1.82494        -1.82494
            2732         352.199         352.199     718.056E-03     718.056E-03        -1.35578        -1.35578
            2733         350.138         350.138     255.189E-03     255.189E-03    -753.917E-03    -753.917E-03
            2734         374.110         374.110         8.21266         8.21266        -11.5224        -11.5224
            2735         369.258         369.258         8.09678         8.09678        -9.69292        -9.69292
            2736         365.859         365.859         7.31124         7.31124        -8.15527        -8.15527
            2737         363.361         363.361         6.30544         6.30544        -6.92526        -6.92526
            2738         361.429         361.429         5.25747         5.25747        -5.94469        -5.94469
            2739         359.852         359.852         4.24426         4.24426        -5.15013        -5.15013
            2740         358.482         358.482         3.29991         3.29991        -4.48301        -4.48301
            2741         357.209         357.209         2.44130         2.44130        -3.89053        -3.89053
            2742         355.941         355.941         1.68111         1.68111        -3.32075        -3.32075
            2743         354.589         354.589         1.03484         1.03484        -2.71679        -2.71679
            2744         353.062         353.062     525.715E-03     525.715E-03        -2.00892        -2.00892
            2745         351.257         351.257     188.001E-03     188.001E-03        -1.11142        -1.11142
            2746         375.015         375.015        -3.45347        -3.45347        -8.39861        -8.39861
            2747         370.687         370.687    -599.136E-03    -599.136E-03        -8.49514        -8.49514
            2748         367.279         367.279     907.777E-03     907.777E-03        -7.96917        -7.96917
            2749         364.623         364.623         1.59253         1.59253        -7.26172        -7.26172
            2750         362.518         362.518         1.79479         1.79479        -6.54272        -6.54272
            2751         360.796         360.796         1.71790         1.71790        -5.86340        -5.86340
            2752         359.328         359.328         1.48652         1.48652        -5.22674        -5.22674
            2753         358.012         358.012         1.17952         1.17952        -4.61058        -4.61058
            2754         356.764         356.764     850.266E-03     850.266E-03        -3.97705        -3.97705
            2755         355.511         355.511     538.590E-03     538.590E-03        -3.27277        -3.27277
            2756         354.186         354.186     278.010E-03     278.010E-03        -2.42519        -2.42519
            2757         352.721         352.721     100.111E-03     100.111E-03        -1.34156        -1.34156
            2758         372.642         372.642        -10.2555        -10.2555        -2.93873        -2.93873
            2759         370.027         370.027        -6.74704        -6.74704        -4.93628        -4.93628
            2760         367.422         367.422        -4.21605        -4.21605        -5.79314        -5.79314
            2761         365.116         365.116        -2.50218        -2.50218        -6.01308        -6.01308
            2762         363.150         363.150        -1.39279        -1.39279        -5.89466        -5.89466
            2763         361.479         361.479    -705.269E-03    -705.269E-03        -5.59749        -5.59749
            2764         360.039         360.039    -304.312E-03    -304.312E-03        -5.19590        -5.19590
            2765         358.767         358.767    -92.0428E-03    -92.0428E-03        -4.71469        -4.71469
            2766         357.605         357.605     1.72727E-03     1.72727E-03        -4.14496        -4.14496
            2767         356.508         356.508     27.6172E-03     27.6172E-03        -3.45166        -3.45166
            2768         355.438         355.438     22.0232E-03     22.0232E-03        -2.57346        -2.57346
            2769         354.369         354.369     9.41418E-03     9.41418E-03        -1.42626        -1.42626
            2770         331.775         331.775         96.6589         96.6589         17.9889         17.9889
            2771         335.091         335.091         88.7680         88.7680         17.8941         17.8941
            2772         338.337         338.337         80.8679         80.8679         17.3542         17.3542
            2773         341.431         341.431         73.1072         73.1072         16.5467         16.5467
            2774         344.317         344.317         65.5899         65.5899         15.5005         15.5005
            2775         346.949         346.949         58.4096         58.4096         14.2501         14.2501
            2776         349.290         349.290         51.6441         51.6441         12.8469         12.8469
            2777         351.323         351.323         45.3484         45.3484         11.3425         11.3425
            2778         353.041         353.041         39.5590         39.5590         9.79082         9.79082
            2779         354.454         354.454         34.2903         34.2903         8.24044         8.24044
            2780         355.575         355.575         29.5414         29.5414         6.73190         6.73190
            2781         356.430         356.430         25.2976         25.2976         5.29832         5.29832
            2782         357.044         357.044         21.5342         21.5342         3.96152         3.96152
            2783         357.446         357.446         18.2212         18.2212         2.73719         2.73719
            2784         357.663         357.663         15.3237         15.3237         1.63135         1.63135
            2785         357.722         357.722         12.8063         12.8063     646.167E-03     646.167E-03
            2786         357.646         357.646         10.6324         10.6324    -222.573E-03    -222.573E-03
            2787         357.458         357.458         8.76721         8.76721    -980.920E-03    -980.920E-03
            2788         357.177         357.177         7.17647         7.17647        -1.63840        -1.63840
            2789         356.818         356.818         5.82846         5.82846        -2.20505        -2.20505
            2790         356.395         356.395         4.69272         4.69272        -2.69244        -2.69244
            2791         355.922         355.922         3.74125         3.74125        -3.11199        -3.11199
            2792         355.409         355.409         2.94748         2.94748        -3.47564        -3.47564
            2793         354.863         354.863         2.28690         2.28690        -3.79499        -3.79499
            2794         354.293         354.293         1.73625         1.73625        -4.08185        -4.08185
            2795         353.704         353.704         1.27379         1.27379        -4.34788        -4.34788
            2796         353.104         353.104     878.670E-03     878.670E-03        -4.60506        -4.60506
            2797         352.497         352.497     530.880E-03     530.880E-03        -4.86569        -4.86569
            2798         351.888         351.888     210.710E-03     210.710E-03        -5.14285        -5.14285
            2799         351.286         351.286    -101.592E-03    -101.592E-03        -5.45059        -5.45059
            2800         350.696         350.696    -426.521E-03    -426.521E-03        -5.80441        -5.80441
            2801         350.130         350.130    -786.081E-03    -786.081E-03        -6.22151        -6.22151
            2802         349.602         349.602        -1.20491        -1.20491        -6.72109        -6.72109
            2803         349.135         349.135        -1.71190        -1.71190        -7.32437        -7.32437
            2804         348.761         348.761        -2.34220        -2.34220        -8.05410        -8.05410
            2805         348.529         348.529        -3.14041        -3.14041        -8.93295        -8.93295
            2806         348.512         348.512        -4.16371        -4.16371        -9.97971        -9.97971
            2807         348.824         348.824        -5.48685        -5.48685        -11.2009        -11.2009
            2808         349.634         349.634        -7.20247        -7.20247        -12.5735        -12.5735
            2809         351.192         351.192        -9.41804        -9.41804        -14.0095        -14.0095
            2810         353.834         353.834        -12.2043        -12.2043        -15.2900        -15.2900
            2811         357.940         357.940        -15.4986        -15.4986        -15.9899        -15.9899
            2812         331.238         331.238         96.8020         96.8020         13.8207         13.8207
            2813         334.445         334.445         89.2057         89.2057         13.7433         13.7433
            2814         337.591         337.591         81.6080         81.6080         13.3345         13.3345
            2815         340.610         340.610         74.1337         74.1337         12.7344         12.7344
            2816         343.451         343.451         66.8708         66.8708         11.9574         11.9574
            2817         346.073         346.073         59.8989         59.8989         11.0316         11.0316
            2818         348.444         348.444         53.2850         53.2850         9.98740         9.98740
            2819         350.540         350.540         47.0829         47.0829         8.86321         8.86321
            2820         352.352         352.352         41.3290         41.3290         7.69548         7.69548
            2821         353.878         353.878         36.0453         36.0453         6.51977         6.51977
            2822         355.128         355.128         31.2385         31.2385         5.36712         5.36712
            2823         356.114         356.114         26.9039         26.9039         4.26208         4.26208
            2824         356.858         356.858         23.0271         23.0271         3.22432         3.22432
            2825         357.380         357.380         19.5862         19.5862         2.26579         2.26579
            2826         357.703         357.703         16.5548         16.5548         1.39459         1.39459
            2827         357.851         357.851         13.9030         13.9030     612.557E-03     612.557E-03
            2828         357.846         357.846         11.5998         11.5998    -80.8337E-03    -80.8337E-03
            2829         357.709         357.709         9.61296         9.61296    -690.201E-03    -690.201E-03
            2830         357.458         357.458         7.91151         7.91151        -1.22127        -1.22127
            2831         357.110         357.110         6.46462         6.46462        -1.68200        -1.68200
            2832         356.681         356.681         5.24331         5.24331        -2.08066        -2.08066
            2833         356.182         356.182         4.21969         4.21969        -2.42658        -2.42658
            2834         355.625         355.625         3.36781         3.36781        -2.72904        -2.72904
            2835         355.018         355.018         2.66308         2.66308        -2.99785        -2.99785
            2836         354.369         354.369         2.08270         2.08270        -3.24280        -3.24280
            2837         353.684         353.684         1.60519         1.60519        -3.47417        -3.47417
            2838         352.965         352.965         1.21054         1.21054        -3.70260        -3.70260
            2839         352.216         352.216     879.751E-03     879.751E-03        -3.93962        -3.93962
            2840         351.439         351.439     594.808E-03     594.808E-03        -4.19784        -4.19784
            2841         350.635         350.635     338.169E-03     338.169E-03        -4.49159        -4.49159
            2842         349.803         349.803     92.3641E-03     92.3641E-03        -4.83745        -4.83745
            2843         348.943         348.943    -160.743E-03    -160.743E-03        -5.25516        -5.25516
            2844         348.056         348.056    -441.017E-03    -441.017E-03        -5.76860        -5.76860
            2845         347.146         347.146    -771.556E-03    -771.556E-03        -6.40711        -6.40711
            2846         346.220         346.220        -1.18130        -1.18130        -7.20704        -7.20704
            2847         345.297         345.297        -1.70854        -1.70854        -8.21366        -8.21366
            2848         344.410         344.410        -2.40739        -2.40739        -9.48278        -9.48278
            2849         343.628         343.628        -3.35625        -3.35625        -11.0817        -11.0817
            2850         343.073         343.073        -4.67409        -4.67409        -13.0861        -13.0861
            2851         342.974         342.974        -6.53885        -6.53885        -15.5660        -15.5660
            2852         343.750         343.750        -9.22066        -9.22066        -18.5317        -18.5317
            2853         346.116         346.116        -13.0440        -13.0440        -21.8074        -21.8074
            2854         330.869         330.869         96.9081         96.9081         9.77574         9.77574
            2855         333.996         333.996         89.5200         89.5200         9.70870         9.70870
            2856         337.072         337.072         82.1338         82.1338         9.41511         9.41511
            2857         340.034         340.034         74.8621         74.8621         8.99117         8.99117
            2858         342.838         342.838         67.7806         67.7806         8.44995         8.44995
            2859         345.448         345.448         60.9594         60.9594         7.80592         7.80592
            2860         347.830         347.830         54.4598         54.4598         7.08203         7.08203
            2861         349.963         349.963         48.3315         48.3315         6.30090         6.30090
            2862         351.833         351.833         42.6122         42.6122         5.48815         5.48815
            2863         353.434         353.434         37.3263         37.3263         4.66705         4.66705
            2864         354.768         354.768         32.4864         32.4864         3.85874         3.85874
            2865         355.846         355.846         28.0936         28.0936         3.08112         3.08112
            2866         356.679         356.679         24.1402         24.1402         2.34731         2.34731
            2867         357.286         357.286         20.6108         20.6108         1.66749         1.66749
            2868         357.687         357.687         17.4844         17.4844         1.04682         1.04682
            2869         357.901         357.901         14.7363         14.7363     488.379E-03     488.379E-03
            2870         357.949         357.949         12.3385         12.3385    -8.63235E-03    -8.63235E-03
            2871         357.851         357.851         10.2626         10.2626    -446.178E-03    -446.178E-03
            2872         357.626         357.626         8.47904         8.47904    -828.682E-03    -828.682E-03
            2873         357.289         357.289         6.95889         6.95889        -1.16104        -1.16104
            2874         356.856         356.856         5.67379         5.67379        -1.44950        -1.44950
            2875         356.339         356.339         4.59682         4.59682        -1.70038        -1.70038
            2876         355.750         355.750         3.70223         3.70223        -1.92069        -1.92069
            2877         355.098         355.098         2.96601         2.96601        -2.11747        -2.11747
            2878         354.388         354.388         2.36568         2.36568        -2.29821        -2.29821
            2879         353.626         353.626         1.88049         1.88049        -2.47060        -2.47060
            2880         352.813         352.813         1.49127         1.49127        -2.64298        -2.64298
            2881         351.950         351.950         1.18049         1.18049        -2.82440        -2.82440
            2882         351.034         351.034     932.050E-03     932.050E-03        -3.02511        -3.02511
            2883         350.059         350.059     731.197E-03     731.197E-03        -3.25698        -3.25698
            2884         349.018         349.018     564.273E-03     564.273E-03        -3.53428        -3.53428
            2885         347.898         347.898     418.356E-03     418.356E-03        -3.87454        -3.87454
            2886         346.686         346.686     280.733E-03     280.733E-03        -4.29996        -4.29996
            2887         345.361         345.361     137.894E-03     137.894E-03        -4.83921        -4.83921
            2888         343.899         343.899    -25.8148E-03    -25.8148E-03        -5.53028        -5.53028
            2889         342.273         342.273    -231.087E-03    -231.087E-03        -6.42437        -6.42437
            2890         340.452         340.452    -507.566E-03    -507.566E-03        -7.59211        -7.59211
            2891         338.405         338.405    -902.748E-03    -902.748E-03        -9.13235        -9.13235
            2892         336.116         336.116        -1.49500        -1.49500        -11.1867        -11.1867
            2893         333.604         333.604        -2.42442        -2.42442        -13.9585        -13.9585
            2894         330.999         330.999        -3.95022        -3.95022        -17.7453        -17.7453
            2895         328.739         328.739        -6.57333        -6.57333        -22.9336        -22.9336
            2896         330.636         330.636         96.9795         96.9795         5.81406         5.81406
            2897         333.714         333.714         89.7232         89.7232         5.75530         5.75530
            2898         336.744         336.744         82.4707         82.4707         5.56385         5.56385
            2899         339.669         339.669         75.3269         75.3269         5.30035         5.30035
            2900         342.449         342.449         68.3606         68.3606         4.96977         4.96977
            2901         345.048         345.048         61.6359         61.6359         4.58339         4.58339
            2902         347.435         347.435         55.2100         55.2100         4.15192         4.15192
            2903         349.589         349.589         49.1310         49.1310         3.69022         3.69022
            2904         351.492         351.492         43.4360         43.4360         3.21154         3.21154
            2905         353.137         353.137         38.1516         38.1516         2.72981         2.72981
            2906         354.523         354.523         33.2929         33.2929         2.25695         2.25695
            2907         355.656         355.656         28.8651         28.8651         1.80286         1.80286
            2908         356.546         356.546         24.8644         24.8644         1.37571         1.37571
            2909         357.207         357.207         21.2793         21.2793     980.515E-03     980.515E-03
            2910         357.657         357.657         18.0928         18.0928     621.091E-03     621.091E-03
            2911         357.913         357.913         15.2827         15.2827     298.317E-03     298.317E-03
            2912         357.996         357.996         12.8243         12.8243     12.4318E-03     12.4318E-03
            2913         357.924         357.924         10.6906         10.6906    -238.467E-03    -238.467E-03
            2914         357.715         357.715         8.85392         8.85392    -456.488E-03    -456.488E-03
            2915         357.386         357.386         7.28609         7.28609    -645.050E-03    -645.050E-03
            2916         356.951         356.951         5.95973         5.95973    -807.523E-03    -807.523E-03
            2917         356.423         356.423         4.84822         4.84822    -947.985E-03    -947.985E-03
            2918         355.814         355.814         3.92634         3.92634        -1.07039        -1.07039
            2919         355.132         355.132         3.17029         3.17029        -1.17907        -1.17907
            2920         354.382         354.382         2.55807         2.55807        -1.27833        -1.27833
            2921         353.569         353.569         2.06939         2.06939        -1.37282        -1.37282
            2922         352.694         352.694         1.68589         1.68589        -1.46734        -1.46734
            2923         351.753         351.753         1.39110         1.39110        -1.56726        -1.56726
            2924         350.742         350.742         1.17055         1.17055        -1.67858        -1.67858
            2925         349.650         349.650         1.01173         1.01173        -1.80834        -1.80834
            2926         348.463         348.463     904.168E-03     904.168E-03        -1.96501        -1.96501
            2927         347.161         347.161     839.461E-03     839.461E-03        -2.15919        -2.15919
            2928         345.715         345.715     811.205E-03     811.205E-03        -2.40448        -2.40448
            2929         344.086         344.086     815.046E-03     815.046E-03        -2.71891        -2.71891
            2930         342.225         342.225     848.320E-03     848.320E-03        -3.12692        -3.12692
            2931         340.061         340.061     909.923E-03     909.923E-03        -3.66283        -3.66283
            2932         337.500         337.500     998.828E-03     998.828E-03        -4.37579        -4.37579
            2933         334.411         334.411         1.11288         1.11288        -5.33915        -5.33915
            2934         330.612         330.612         1.24284         1.24284        -6.66507        -6.66507
            2935         325.842         325.842         1.36395         1.36395        -8.53492        -8.53492
            2936         319.719         319.719         1.41013         1.41013        -11.2554        -11.2554
            2937         311.683         311.683         1.19808         1.19808        -15.4033        -15.4033
            2938         330.523         330.523         97.0142         97.0142         1.90552         1.90552
            2939         333.578         333.578         89.8203         89.8203         1.85605         1.85605
            2940         336.587         336.587         82.6310         82.6310         1.76625         1.76625
            2941         339.495         339.495         75.5472         75.5472         1.65501         1.65501
            2942         342.263         342.263         68.6344         68.6344         1.52698         1.52698
            2943         344.857         344.857         61.9541         61.9541         1.38446         1.38446
            2944         347.247         347.247         55.5619         55.5619         1.23325         1.23325
            2945         349.410         349.410         49.5047         49.5047         1.07690         1.07690
            2946         351.329         351.329         43.8200         43.8200     920.714E-03     920.714E-03
            2947         352.994         352.994         38.5351         38.5351     768.324E-03     768.324E-03
            2948         354.404         354.404         33.6666         33.6666     623.308E-03     623.308E-03
            2949         355.562         355.562         29.2216         29.2216     488.448E-03     488.448E-03
            2950         356.478         356.478         25.1979         25.1979     365.301E-03     365.301E-03
            2951         357.164         357.164         21.5863         21.5863     255.364E-03     255.364E-03
            2952         357.636         357.636         18.3710         18.3710     158.583E-03     158.583E-03
            2953         357.912         357.912         15.5318         15.5318     75.2483E-03     75.2483E-03
            2954         358.010         358.010         13.0449         13.0449     4.33130E-03     4.33130E-03
            2955         357.950         357.950         10.8843         10.8843    -54.7120E-03    -54.7120E-03
            2956         357.748         357.748         9.02290         9.02290    -103.327E-03    -103.327E-03
            2957         357.422         357.422         7.43311         7.43311    -142.489E-03    -142.489E-03
            2958         356.986         356.986         6.08780         6.08780    -173.691E-03    -173.691E-03
            2959         356.453         356.453         4.96057         4.96057    -198.035E-03    -198.035E-03
            2960         355.835         355.835         4.02630         4.02630    -216.878E-03    -216.878E-03
            2961         355.140         355.140         3.26134         3.26134    -231.275E-03    -231.275E-03
            2962         354.373         354.373         2.64380         2.64380    -242.388E-03    -242.388E-03
            2963         353.538         353.538         2.15357         2.15357    -251.167E-03    -251.167E-03
            2964         352.635         352.635         1.77261         1.77261    -258.600E-03    -258.600E-03
            2965         351.661         351.661         1.48486         1.48486    -265.538E-03    -265.538E-03
            2966         350.609         350.609         1.27655         1.27655    -272.861E-03    -272.861E-03
            2967         349.468         349.468         1.13608         1.13608    -281.377E-03    -281.377E-03
            2968         348.219         348.219         1.05441         1.05441    -291.953E-03    -291.953E-03
            2969         346.840         346.840         1.02503         1.02503    -305.448E-03    -305.448E-03
            2970         345.295         345.295         1.04446         1.04446    -322.851E-03    -322.851E-03
            2971         343.538         343.538         1.11234         1.11234    -345.214E-03    -345.214E-03
            2972         341.507         341.507         1.23231         1.23231    -373.879E-03    -373.879E-03
            2973         339.112         339.112         1.41213         1.41213    -410.309E-03    -410.309E-03
            2974         336.231         336.231         1.66571         1.66571    -456.625E-03    -456.625E-03
            2975         332.686         332.686         2.01280         2.01280    -514.990E-03    -514.990E-03
            2976         328.213         328.213         2.48382         2.48382    -588.868E-03    -588.868E-03
            2977         322.409         322.409         3.11868         3.11868    -680.679E-03    -680.679E-03
            2978         314.616         314.616         3.97931         3.97931    -792.589E-03    -792.589E-03
            2979         303.659         303.659         5.15377         5.15377    -900.846E-03    -900.846E-03
            2980         330.523         330.523         97.0143         97.0143        -1.98000        -1.98000
            2981         333.580         333.580         89.8175         89.8175        -2.01081        -2.01081
            2982         336.590         336.590         82.6250         82.6250        -1.99489        -1.99489
            2983         339.500         339.500         75.5372         75.5372        -1.94850        -1.94850
            2984         342.271         342.271         68.6196         68.6196        -1.87387        -1.87387
            2985         344.867         344.867         61.9342         61.9342        -1.77120        -1.77120
            2986         347.259         347.259         55.5365         55.5365        -1.64497        -1.64497
            2987         349.422         349.422         49.4742         49.4742        -1.49809        -1.49809
            2988         351.341         351.341         43.7850         43.7850        -1.33611        -1.33611
            2989         353.006         353.006         38.4963         38.4963        -1.16354        -1.16354
            2990         354.415         354.415          33.625          33.625    -985.467E-03    -985.467E-03
            2991         355.572         355.572         29.1781         29.1781    -806.560E-03    -806.560E-03
            2992         356.485         356.485         25.1538         25.1538    -630.473E-03    -630.473E-03
            2993         357.168         357.168         21.5424         21.5424    -460.866E-03    -460.866E-03
            2994         357.637         357.637         18.3282         18.3282    -299.717E-03    -299.717E-03
            2995         357.910         357.910         15.4908         15.4908    -149.186E-03    -149.186E-03
            2996         358.005         358.005         13.0062         13.0062    -9.79113E-03    -9.79113E-03
            2997         357.942         357.942         10.8482         10.8482     117.740E-03     117.740E-03
            2998         357.739         357.739         8.98956         8.98956     233.956E-03     233.956E-03
            2999         357.411         357.411         7.40252         7.40252     339.243E-03     339.243E-03
            3000         356.975         356.975         6.05977         6.05977     434.862E-03     434.862E-03
            3001         356.443         356.443         4.93479         4.93479     521.989E-03     521.989E-03
            3002         355.827         355.827         4.00230         4.00230     602.387E-03     602.387E-03
            3003         355.134         355.134         3.23853         3.23853     677.843E-03     677.843E-03
            3004         354.372         354.372         2.62137         2.62137     750.604E-03     750.604E-03
            3005         353.543         353.543         2.13059         2.13059     823.105E-03     823.105E-03
            3006         352.649         352.649         1.74784         1.74784     898.297E-03     898.297E-03
            3007         351.686         351.686         1.45683         1.45683     979.587E-03     979.587E-03
            3008         350.649         350.649         1.24328         1.24328         1.07118         1.07118
            3009         349.526         349.526         1.09513         1.09513         1.17823         1.17823
            3010         348.302         348.302         1.00246         1.00246         1.30736         1.30736
            3011         346.954         346.954     957.749E-03     957.749E-03         1.46708         1.46708
            3012         345.452         345.452     955.821E-03     955.821E-03         1.66882         1.66882
            3013         343.754         343.754     994.080E-03     994.080E-03         1.92799         1.92799
            3014         341.802         341.802         1.07247         1.07247         2.26627         2.26627
            3015         339.521         339.521         1.19356         1.19356         2.71430         2.71430
            3016         336.802         336.802         1.36207         1.36207         3.31769         3.31769
            3017         333.498         333.498         1.58398         1.58398         4.14465         4.14465
            3018         329.396         329.396         1.86337         1.86337         5.30433         5.30433
            3019         324.189         324.189         2.19513         2.19513         6.97448         6.97448
            3020         317.415         317.415         2.54342         2.54342         9.47218         9.47218
            3021         308.417         308.417         2.76086         2.76086         13.4024         13.4024
            3022         330.636         330.636         96.9807         96.9807        -5.87761        -5.87761
            3023         333.719         333.719         89.7177         89.7177        -5.88619        -5.88619
            3024         336.754         336.754         82.4567         82.4567        -5.75718        -5.75718
            3025         339.685         339.685         75.3022         75.3022        -5.54828        -5.54828
            3026         342.470         342.470         68.3233         68.3233        -5.26230        -5.26230
            3027         345.074         345.074         61.5849         61.5849        -4.90881        -4.90881
            3028         347.466         347.466         55.1449         55.1449        -4.49736        -4.49736
            3029         349.622         349.622         49.0524         49.0524        -4.04246        -4.04246
            3030         351.526         351.526         43.3454         43.3454        -3.55759        -3.55759
            3031         353.170         353.170         38.0511         38.0511        -3.05762        -3.05762
            3032         354.553         354.553         33.1851         33.1851        -2.55584        -2.55584
            3033         355.680         355.680         28.7527         28.7527        -2.06384        -2.06384
            3034         356.564         356.564         24.7502         24.7502        -1.59164        -1.59164
            3035         357.217         357.217         21.1659         21.1659        -1.14609        -1.14609
            3036         357.659         357.659         17.9822         17.9822    -732.742E-03    -732.742E-03
            3037         357.908         357.908         15.1768         15.1768    -353.992E-03    -353.992E-03
            3038         357.983         357.983         12.7244         12.7244    -11.3818E-03    -11.3818E-03
            3039         357.905         357.905         10.5974         10.5974     295.999E-03     295.999E-03
            3040         357.691         357.691         8.76788         8.76788     569.519E-03     569.519E-03
            3041         357.358         357.358         7.20715         7.20715     812.154E-03     812.154E-03
            3042         356.923         356.923         5.88745         5.88745         1.02708         1.02708
            3043         356.397         356.397         4.78178         4.78178         1.21845         1.21845
            3044         355.792         355.792         3.86456         3.86456         1.39052         1.39052
            3045         355.117         355.117         3.11162         3.11162         1.54820         1.54820
            3046         354.380         354.380         2.50055         2.50055         1.69662         1.69662
            3047         353.583         353.583         2.01058         2.01058         1.84153         1.84153
            3048         352.728         352.728         1.62277         1.62277         1.98919         1.98919
            3049         351.816         351.816         1.31987         1.31987         2.14686         2.14686
            3050         350.841         350.841         1.08640         1.08640         2.32290         2.32290
            3051         349.797         349.797     908.480E-03     908.480E-03         2.52744         2.52744
            3052         348.671         348.671     773.760E-03     773.760E-03         2.77292         2.77292
            3053         347.450         347.450     671.163E-03     671.163E-03         3.07513         3.07513
            3054         346.111         346.111     590.528E-03     590.528E-03         3.45447         3.45447
            3055         344.627         344.627     521.993E-03     521.993E-03         3.93809         3.93809
            3056         342.964         342.964     454.811E-03     454.811E-03         4.56262         4.56262
            3057         341.075         341.075     375.503E-03     375.503E-03         5.37911         5.37911
            3058         338.906         338.906     263.930E-03     263.930E-03         6.45934         6.45934
            3059         336.392         336.392     87.0334E-03     87.0334E-03         7.90835         7.90835
            3060         333.460         333.460    -215.604E-03    -215.604E-03         9.88052         9.88052
            3061         330.048         330.048    -757.673E-03    -757.673E-03         12.6125         12.6125
            3062         326.160         326.160        -1.77201        -1.77201         16.4668         16.4668
            3063         322.041         322.041        -3.73550        -3.73550         21.9681         21.9681
            3064         330.869         330.869         96.9108         96.9108        -9.82475        -9.82475
            3065         334.003         334.003         89.5149         89.5149        -9.80837        -9.80837
            3066         337.086         337.086         82.1174         82.1174        -9.56166        -9.56166
            3067         340.055         340.055         74.8315         74.8315        -9.17848        -9.17848
            3068         342.867         342.867         67.7336         67.7336        -8.67010        -8.67010
            3069         345.483         345.483         60.8943         60.8943        -8.04960        -8.04960
            3070         347.870         347.870         54.3764         54.3764        -7.33916        -7.33916
            3071         350.007         350.007         48.2307         48.2307        -6.56119        -6.56119
            3072         351.877         351.877         42.4961         42.4961        -5.74178        -5.74178
            3073         353.476         353.476         37.1977         37.1977        -4.90506        -4.90506
            3074         354.806         354.806         32.3486         32.3486        -4.07341        -4.07341
            3075         355.876         355.876         27.9504         27.9504        -3.26619        -3.26619
            3076         356.701         356.701         23.9951         23.9951        -2.49796        -2.49796
            3077         357.298         357.298         20.4670         20.4670        -1.78035        -1.78035
            3078         357.688         357.688         17.3446         17.3446        -1.11978        -1.11978
            3079         357.892         357.892         14.6026         14.6026    -520.460E-03    -520.460E-03
            3080         357.931         357.931         12.2127         12.2127     17.5454E-03     17.5454E-03
            3081         357.824         357.824         10.1456         10.1456     495.489E-03     495.489E-03
            3082         357.592         357.592         8.37124         8.37124     917.335E-03     917.335E-03
            3083         357.251         357.251         6.86022         6.86022         1.28768         1.28768
            3084         356.817         356.817         5.58368         5.58368         1.61266         1.61266
            3085         356.303         356.303         4.51424         4.51424         1.89865         1.89865
            3086         355.720         355.720         3.62573         3.62573         2.15287         2.15287
            3087         355.077         355.077         2.89371         2.89371         2.38268         2.38268
            3088         354.381         354.381         2.29519         2.29519         2.59607         2.59607
            3089         353.639         353.639         1.80891         1.80891         2.80137         2.80137
            3090         352.852         352.852         1.41500         1.41500         3.00772         3.00772
            3091         352.023         352.023         1.09508         1.09508         3.22515         3.22515
            3092         351.151         351.151     831.904E-03     831.904E-03         3.46513         3.46513
            3093         350.233         350.233     609.229E-03     609.229E-03         3.74099         3.74099
            3094         349.265         349.265     411.346E-03     411.346E-03         4.06877         4.06877
            3095         348.240         348.240     222.532E-03     222.532E-03         4.46809         4.46809
            3096         347.153         347.153     26.1796E-03     26.1796E-03         4.96364         4.96364
            3097         345.993         345.993    -196.694E-03    -196.694E-03         5.58680         5.58680
            3098         344.755         344.755    -469.525E-03    -469.525E-03         6.37844         6.37844
            3099         343.435         343.435    -824.264E-03    -824.264E-03         7.39191         7.39191
            3100         342.039         342.039        -1.30686        -1.30686         8.69825         8.69825
            3101         340.596         340.596        -1.98895        -1.98895         10.3908         10.3908
            3102         339.179         339.179        -2.98337        -2.98337         12.5923         12.5923
            3103         337.957         337.957        -4.47918        -4.47918         15.4530         15.4530
            3104         337.289         337.289        -6.78582        -6.78582         19.1279         19.1279
            3105         337.880         337.880        -10.3740        -10.3740         23.6783         23.6783
            3106         331.238         331.238         96.8050         96.8050        -13.8548        -13.8548
            3107         334.451         334.451         89.2011         89.2011        -13.8115        -13.8115
            3108         337.604         337.604         81.5925         81.5925        -13.4337        -13.4337
            3109         340.630         340.630         74.1046         74.1046        -12.8604        -12.8604
            3110         343.478         343.478         66.8258         66.8258        -12.1046        -12.1046
            3111         346.106         346.106         59.8366         59.8366        -11.1933        -11.1933
            3112         348.482         348.482         53.2054         53.2054        -10.1564        -10.1564
            3113         350.580         350.580         46.9871         46.9871        -9.03239        -9.03239
            3114         352.393         352.393         41.2191         41.2191        -7.85822        -7.85822
            3115         353.916         353.916         35.9242         35.9242        -6.67028        -6.67028
            3116         355.161         355.161         31.1096         31.1096        -5.50061        -5.50061
            3117         356.140         356.140         26.7707         26.7707        -4.37484        -4.37484
            3118         356.874         356.874         22.8928         22.8928        -3.31372        -3.31372
            3119         357.386         357.386         19.4537         19.4537        -2.33013        -2.33013
            3120         357.699         357.699         16.4267         16.4267        -1.43305        -1.43305
            3121         357.837         357.837         13.7812         13.7812    -624.957E-03    -624.957E-03
            3122         357.824         357.824         11.4856         11.4856     94.1290E-03     94.1290E-03
            3123         357.678         357.678         9.50723         9.50723     728.468E-03     728.468E-03
            3124         357.422         357.422         7.81455         7.81455         1.28351         1.28351
            3125         357.071         357.071         6.37628         6.37628         1.76710         1.76710
            3126         356.640         356.640         5.16304         5.16304         2.18744         2.18744
            3127         356.143         356.143         4.14656         4.14656         2.55390         2.55390
            3128         355.591         355.591         3.30052         3.30052         2.87587         2.87587
            3129         354.993         354.993         2.59999         2.59999         3.16332         3.16332
            3130         354.357         354.357         2.02177         2.02177         3.42625         3.42625
            3131         353.688         353.688         1.54397         1.54397         3.67520         3.67520
            3132         352.993         352.993         1.14602         1.14602         3.92110         3.92110
            3133         352.273         352.273     808.286E-03     808.286E-03         4.17580         4.17580
            3134         351.534         351.534     511.906E-03     511.906E-03         4.45222         4.45222
            3135         350.777         350.777     238.233E-03     238.233E-03         4.76501         4.76501
            3136         350.006         350.006    -31.6541E-03    -31.6541E-03         5.13097         5.13097
            3137         349.224         349.224    -317.802E-03    -317.802E-03         5.56988         5.56988
            3138         348.438         348.438    -642.617E-03    -642.617E-03         6.10523         6.10523
            3139         347.658         347.658        -1.03252        -1.03252         6.76531         6.76531
            3140         346.905         346.905        -1.52085        -1.52085         7.58388         7.58388
            3141         346.209         346.209        -2.15139        -2.15139         8.60110         8.60110
            3142         345.629         345.629        -2.98515        -2.98515         9.86260         9.86260
            3143         345.258         345.258        -4.10726        -4.10726         11.4166         11.4166
            3144         345.259         345.259        -5.64139        -5.64139         13.3025         13.3025
            3145         345.899         345.899        -7.75504        -7.75504         15.5231         15.5231
            3146         347.608         347.608        -10.6624        -10.6624         17.9749         17.9749
            3147         351.021         351.021        -14.5472        -14.5472         20.3409         20.3409
            3148         331.774         331.774         96.6609         96.6609        -18.0073        -18.0073
            3149         335.093         335.093         88.7643         88.7643        -17.9289        -17.9289
            3150         338.344         338.344         80.8572         80.8572        -17.4039        -17.4039
            3151         341.442         341.442         73.0877         73.0877        -16.6095        -16.6095
            3152         344.333         344.333         65.5603         65.5603        -15.5733        -15.5733
            3153         346.968         346.968         58.3692         58.3692        -14.3294        -14.3294
            3154         349.312         349.312         51.5929         51.5929        -12.9290        -12.9290
            3155         351.347         351.347         45.2873         45.2873        -11.4236        -11.4236
            3156         353.064         353.064         39.4895         39.4895        -9.86776        -9.86776
            3157         354.475         354.475         34.2143         34.2143        -8.31038        -8.31038
            3158         355.592         355.592         29.4612         29.4612        -6.79267        -6.79267
            3159         356.442         356.442         25.2152         25.2152        -5.34835        -5.34835
            3160         357.050         357.050         21.4517         21.4517        -3.99977        -3.99977
            3161         357.446         357.446         18.1404         18.1404        -2.76316        -2.76316
            3162         357.656         357.656         15.2459         15.2459        -1.64487        -1.64487
            3163         357.709         357.709         12.7327         12.7327    -647.404E-03    -647.404E-03
            3164         357.628         357.628         10.5638         10.5638     233.265E-03     233.265E-03
            3165         357.436         357.436         8.70404         8.70404         1.00301         1.00301
            3166         357.150         357.150         7.11884         7.11884         1.67129         1.67129
            3167         356.789         356.789         5.77624         5.77624         2.24809         2.24809
            3168         356.366         356.366         4.64554         4.64554         2.74497         2.74497
            3169         355.895         355.895         3.69854         3.69854         3.17337         3.17337
            3170         355.384         355.384         2.90846         2.90846         3.54527         3.54527
            3171         354.843         354.843         2.25061         2.25061         3.87233         3.87233
            3172         354.280         354.280         1.70151         1.70151         4.16640         4.16640
            3173         353.702         353.702         1.23919         1.23919         4.43920         4.43920
            3174         353.115         353.115     842.521E-03     842.521E-03         4.70273         4.70273
            3175         352.525         352.525     491.175E-03     491.175E-03         4.96930         4.96930
            3176         351.938         351.938     165.011E-03     165.011E-03         5.25194         5.25194
            3177         351.362         351.362    -156.254E-03    -156.254E-03         5.56454         5.56454
            3178         350.806         350.806    -493.780E-03    -493.780E-03         5.92229         5.92229
            3179         350.282         350.282    -870.412E-03    -870.412E-03         6.34180         6.34180
            3180         349.809         349.809        -1.31177        -1.31177         6.84126         6.84126
            3181         349.410         349.410        -1.84796        -1.84796         7.44013         7.44013
            3182         349.124         349.124        -2.51526        -2.51526         8.15822         8.15822
            3183         349.003         349.003        -3.35937        -3.35937         9.01330         9.01330
            3184         349.128         349.128        -4.43721        -4.43721         10.0161         10.0161
            3185         349.617         349.617        -5.82111        -5.82111         11.1602         11.1602
            3186         350.641         350.641        -7.59387        -7.59387         12.4027         12.4027
            3187         352.437         352.437        -9.83993        -9.83993         13.6297         13.6297
            3188         355.298         355.298        -12.5852        -12.5852         14.6017         14.6017
            3189         359.531         359.531        -15.7072        -15.7072         14.8893         14.8893
            3190         365.458         365.458        -12.9895        -12.9895        -5.66813        -5.66813
            3191         362.303         362.303        -11.8943        -11.8943        -7.30483        -7.30483
            3192         359.529         359.529        -10.3970        -10.3970        -8.23907        -8.23907
            3193         357.255         357.255        -8.79630        -8.79630        -8.62977        -8.62977
            3194         355.492         355.492        -7.27528        -7.27528        -8.66251        -8.66251
            3195         354.187         354.187        -5.91766        -5.91766        -8.48391        -8.48391
            3196         353.267         353.267        -4.74933        -4.74933        -8.19889        -8.19889
            3197         352.655         352.655        -3.76392        -3.76392        -7.87268        -7.87268
            3198         352.287         352.287        -2.94216        -2.94216        -7.54335        -7.54335
            3199         352.108         352.108        -2.25918        -2.25918        -7.23027        -7.23027
            3200         352.077         352.077        -1.68944        -1.68944        -6.94123        -6.94123
            3201         352.159         352.159        -1.20798        -1.20798        -6.67665        -6.67665
            3202         352.328         352.328    -791.183E-03    -791.183E-03        -6.43262        -6.43262
            3203         352.566         352.566    -416.756E-03    -416.756E-03        -6.20256        -6.20256
            3204         352.855         352.855    -63.4093E-03    -63.4093E-03        -5.97827        -5.97827
            3205         353.185         353.185     289.313E-03     289.313E-03        -5.75048        -5.75048
            3206         353.544         353.544     661.633E-03     661.633E-03        -5.50912        -5.50912
            3207         353.925         353.925         1.07357         1.07357        -5.24339        -5.24339
            3208         354.322         354.322         1.54575         1.54575        -4.94172        -4.94172
            3209         354.727         354.727         2.09917         2.09917        -4.59179        -4.59179
            3210         355.134         355.134         2.75641         2.75641        -4.18030        -4.18030
            3211         355.536         355.536         3.54088         3.54088        -3.69317        -3.69317
            3212         355.926         355.926         4.47870         4.47870        -3.11525        -3.11525
            3213         356.295         356.295         5.59723         5.59723        -2.43084        -2.43084
            3214         356.631         356.631         6.92796         6.92796        -1.62333        -1.62333
            3215         356.920         356.920         8.50376         8.50376    -676.637E-03    -676.637E-03
            3216         357.147         357.147         10.3633         10.3633     425.781E-03     425.781E-03
            3217         357.290         357.290         12.5465         12.5465         1.69736         1.69736
            3218         357.324         357.324         15.1003         15.1003         3.15087         3.15087
            3219         357.217         357.217         18.0718         18.0718         4.79103         4.79103
            3220         356.936         356.936         21.5149         21.5149         6.61986         6.61986
            3221         356.436         356.436         25.4808         25.4808         8.62349         8.62349
            3222         355.678         355.678         30.0217         30.0217         10.7820         10.7820
            3223         354.607         354.607         35.1814         35.1814         13.0513         13.0513
            3224         353.191         353.191         40.9894         40.9894         15.3771         15.3771
            3225         351.385         351.385         47.4575         47.4575         17.6811         17.6811
            3226         349.183         349.183         54.5603         54.5603         19.8723         19.8723
            3227         346.581         346.581         62.2452         62.2452         21.8562         21.8562
            3228         343.617         343.617         70.4096         70.4096         23.5309         23.5309
            3229         340.351         340.351         78.9224         78.9224         24.8282         24.8282
            3230         336.857         336.857         87.6225         87.6225         25.6840         25.6840
            3231         333.263         333.263         96.2952         96.2952         25.8435         25.8435
            3232         365.509         365.509        -10.9277        -10.9277        -2.77132        -2.77132
            3233         363.056         363.056        -10.4982        -10.4982        -4.59791        -4.59791
            3234         360.752         360.752        -9.57736        -9.57736        -5.87728        -5.87728
            3235         358.715         358.715        -8.40736        -8.40736        -6.69147        -6.69147
            3236         357.010         357.010        -7.17452        -7.17452        -7.14382        -7.14382
            3237         355.646         355.646        -5.99250        -5.99250        -7.34318        -7.34318
            3238         354.597         354.597        -4.91982        -4.91982        -7.37769        -7.37769
            3239         353.821         353.821        -3.97907        -3.97907        -7.31331        -7.31331
            3240         353.275         353.275        -3.17112        -3.17112        -7.19408        -7.19408
            3241         352.918         352.918        -2.48563        -2.48563        -7.04785        -7.04785
            3242         352.712         352.712        -1.90623        -1.90623        -6.89042        -6.89042
            3243         352.629         352.629        -1.41415        -1.41415        -6.72943        -6.72943
            3244         352.644         352.644    -989.653E-03    -989.653E-03        -6.56685        -6.56685
            3245         352.738         352.738    -612.945E-03    -612.945E-03        -6.40088        -6.40088
            3246         352.894         352.894    -264.533E-03    -264.533E-03        -6.22705        -6.22705
            3247         353.100         353.100     74.8726E-03     74.8726E-03        -6.03896        -6.03896
            3248         353.348         353.348     424.263E-03     424.263E-03        -5.82866        -5.82866
            3249         353.628         353.628     802.869E-03     802.869E-03        -5.58687        -5.58687
            3250         353.935         353.935         1.23000         1.23000        -5.30299        -5.30299
            3251         354.264         354.264         1.72597         1.72597        -4.96514        -4.96514
            3252         354.608         354.608         2.31167         2.31167        -4.56008        -4.56008
            3253         354.964         354.964         3.01008         3.01008        -4.07317        -4.07317
            3254         355.325         355.325         3.84524         3.84524        -3.48844        -3.48844
            3255         355.685         355.685         4.84478         4.84478        -2.78840        -2.78840
            3256         356.035         356.035         6.03782         6.03782        -1.95477        -1.95477
            3257         356.365         356.365         7.45920         7.45920    -967.798E-03    -967.798E-03
            3258         356.660         356.660         9.14536         9.14536     191.467E-03     191.467E-03
            3259         356.901         356.901         11.1413         11.1413         1.54293         1.54293
            3260         357.065         357.065         13.4931         13.4931         3.10195         3.10195
            3261         357.122         357.122         16.2584         16.2584         4.88365         4.88365
            3262         357.032         357.032         19.4938         19.4938         6.89097         6.89097
            3263         356.752         356.752         23.2681         23.2681         9.12416         9.12416
            3264         356.223         356.223         27.6447         27.6447         11.5588         11.5588
            3265         355.395         355.395         32.6895         32.6895         14.1632         14.1632
            3266         354.194         354.194         38.4552         38.4552         16.8688         16.8688
            3267         352.583         352.583         44.9697         44.9697         19.5930         19.5930
            3268         350.507         350.507         52.2346         52.2346         22.2224         22.2224
            3269         347.974         347.974         60.1901         60.1901         24.6264         24.6264
            3270         344.995         344.995         68.7385         68.7385         26.6862         26.6862
            3271         341.641         341.641         77.7138         77.7138         28.2761         28.2761
            3272         338.017         338.017         86.9162         86.9162         29.3381         29.3381
            3273         334.239         334.239         96.0910         96.0910         29.5448         29.5448
            3274         364.791         364.791        -8.86456        -8.86456    -653.159E-03    -653.159E-03
            3275         362.986         362.986        -8.92622        -8.92622        -2.46768        -2.46768
            3276         361.157         361.157        -8.45306        -8.45306        -3.88599        -3.88599
            3277         359.438         359.438        -7.66607        -7.66607        -4.93666        -4.93666
            3278         357.905         357.905        -6.72695        -6.72695        -5.67129        -5.67129
            3279         356.599         356.599        -5.75455        -5.75455        -6.15480        -6.15480
            3280         355.527         355.527        -4.82265        -4.82265        -6.45233        -6.45233
            3281         354.676         354.676        -3.97169        -3.97169        -6.61809        -6.61809
            3282         354.023         354.023        -3.21872        -3.21872        -6.69409        -6.69409
            3283         353.539         353.539        -2.56573        -2.56573        -6.70989        -6.70989
            3284         353.199         353.199        -2.00577        -2.00577        -6.68537        -6.68537
            3285         352.978         352.978        -1.52658        -1.52658        -6.63256        -6.63256
            3286         352.857         352.857        -1.11316        -1.11316        -6.55787        -6.55787
            3287         352.816         352.816    -749.086E-03    -749.086E-03        -6.46338        -6.46338
            3288         352.844         352.844    -417.292E-03    -417.292E-03        -6.34798        -6.34798
            3289         352.927         352.927    -100.548E-03    -100.548E-03        -6.20805        -6.20805
            3290         353.059         353.059     218.625E-03     218.625E-03        -6.03789        -6.03789
            3291         353.231         353.231     557.706E-03     557.706E-03        -5.82991        -5.82991
            3292         353.439         353.439     934.792E-03     934.792E-03        -5.57479        -5.57479
            3293         353.680         353.680         1.36826         1.36826        -5.26144        -5.26144
            3294         353.949         353.949         1.87796         1.87796        -4.87698        -4.87698
            3295         354.245         354.245         2.48447         2.48447        -4.40671        -4.40671
            3296         354.563         354.563         3.21121         3.21121        -3.83396        -3.83396
            3297         354.901         354.901         4.08283         4.08283        -3.14026        -3.14026
            3298         355.253         355.253         5.12891         5.12891        -2.30504        -2.30504
            3299         355.613         355.613         6.38071         6.38071        -1.30656        -1.30656
            3300         355.969         355.969         7.87762         7.87762    -120.950E-03    -120.950E-03
            3301         356.307         356.307         9.66078         9.66078         1.27470         1.27470
            3302         356.607         356.607         11.7841         11.7841         2.90509         2.90509
            3303         356.839         356.839         14.3024         14.3024         4.78850         4.78850
            3304         356.969         356.969         17.2887         17.2887         6.94394         6.94394
            3305         356.943         356.943         20.8140         20.8140         9.37201         9.37201
            3306         356.706         356.706         24.9687         24.9687         12.0714         12.0714
            3307         356.176         356.176         29.8352         29.8352         15.0015         15.0015
            3308         355.286         355.286         35.4983         35.4983         18.1130         18.1130
            3309         353.934         353.934         42.0228         42.0228         21.2994         21.2994
            3310         352.080         352.080         49.4254         49.4254         24.4336         24.4336
            3311         349.659         349.659         57.6841         57.6841         27.3537         27.3537
            3312         346.707         346.707         66.6738         66.6738         29.8733         29.8733
            3313         343.277         343.277         76.2163         76.2163         31.8561         31.8561
            3314         339.482         339.482         86.0516         86.0516         33.1594         33.1594
            3315         335.519         335.519         95.8407         95.8407         33.4504         33.4504
            3316         363.653         363.653        -6.97823        -6.97823     797.346E-03     797.346E-03
            3317         362.397         362.397        -7.34402        -7.34402    -863.089E-03    -863.089E-03
            3318         361.010         361.010        -7.19940        -7.19940        -2.28350        -2.28350
            3319         359.619         359.619        -6.71765        -6.71765        -3.43637        -3.43637
            3320         358.308         358.308        -6.04172        -6.04172        -4.33549        -4.33549
            3321         357.128         357.128        -5.27864        -5.27864        -5.01236        -5.01236
            3322         356.105         356.105        -4.50540        -4.50540        -5.50663        -5.50663
            3323         355.244         355.244        -3.77032        -3.77032        -5.85781        -5.85781
            3324         354.539         354.539        -3.10032        -3.10032        -6.09983        -6.09983
            3325         353.974         353.974        -2.50661        -2.50661        -6.25990        -6.25990
            3326         353.534         353.534        -1.98982        -1.98982        -6.35809        -6.35809
            3327         353.202         353.202        -1.54382        -1.54382        -6.40851        -6.40851
            3328         352.960         352.960        -1.15826        -1.15826        -6.42019        -6.42019
            3329         352.797         352.797    -820.336E-03    -820.336E-03        -6.39808        -6.39808
            3330         352.699         352.699    -515.923E-03    -515.923E-03        -6.34380        -6.34380
            3331         352.659         352.659    -230.088E-03    -230.088E-03        -6.25621        -6.25621
            3332         352.670         352.670     52.4010E-03     52.4010E-03        -6.13171        -6.13171
            3333         352.726         352.726     347.277E-03     347.277E-03        -5.96456        -5.96456
            3334         352.825         352.825     670.435E-03     670.435E-03        -5.74683        -5.74683
            3335         352.964         352.964         1.03872         1.03872        -5.46853        -5.46853
            3336         353.143         353.143         1.46940         1.46940        -5.11747        -5.11747
            3337         353.361         353.361         1.98176         1.98176        -4.67923        -4.67923
            3338         353.619         353.619         2.59596         2.59596        -4.13701        -4.13701
            3339         353.916         353.916         3.33593         3.33593        -3.47150        -3.47150
            3340         354.251         354.251         4.22703         4.22703        -2.66096        -2.66096
            3341         354.622         354.622         5.30133         5.30133        -1.68084        -1.68084
            3342         355.025         355.025         6.59275         6.59275    -504.789E-03    -504.789E-03
            3343         355.449         355.449         8.14680         8.14680     896.648E-03     896.648E-03
            3344         355.879         355.879         10.0107         10.0107         2.55205         2.55205
            3345         356.294         356.294         12.2511         12.2511         4.49321         4.49321
            3346         356.659         356.659         14.9347         14.9347         6.74315         6.74315
            3347         356.927         356.927         18.1575         18.1575         9.32779         9.32779
            3348         357.030         357.030         22.0112         22.0112         12.2448         12.2448
            3349         356.891         356.891         26.6201         26.6201         15.4924         15.4924
            3350         356.391         356.391         32.0957         32.0957         19.0039         19.0039
            3351         355.440         355.440         38.5482         38.5482         22.7023         22.7023
            3352         353.891         353.891         46.0571         46.0571         26.4195         26.4195
            3353         351.711         351.711         54.6055         54.6055         29.9555         29.9555
            3354         348.833         348.833         64.1160         64.1160         33.0839         33.0839
            3355         345.347         345.347         74.3424         74.3424         35.5433         35.5433
            3356         341.393         341.393         84.9667         84.9667         37.2053         37.2053
            3357         337.151         337.151         95.5564         95.5564         37.5881         37.5881
            3358         362.353         362.353        -5.35619        -5.35619         1.73307         1.73307
            3359         361.521         361.521        -5.86495        -5.86495     286.173E-03     286.173E-03
            3360         360.515         360.515        -5.92999        -5.92999        -1.04578        -1.04578
            3361         359.434         359.434        -5.67508        -5.67508        -2.20747        -2.20747
            3362         358.354         358.354        -5.21376        -5.21376        -3.18041        -3.18041
            3363         357.332         357.332        -4.63976        -4.63976        -3.97096        -3.97096
            3364         356.399         356.399        -4.02332        -4.02332        -4.59759        -4.59759
            3365         355.572         355.572        -3.41400        -3.41400        -5.08430        -5.08430
            3366         354.855         354.855        -2.84263        -2.84263        -5.45556        -5.45556
            3367         354.245         354.245        -2.32583        -2.32583        -5.73321        -5.73321
            3368         353.732         353.732        -1.86956        -1.86956        -5.93542        -5.93542
            3369         353.308         353.308        -1.47245        -1.47245        -6.07622        -6.07622
            3370         352.961         352.961        -1.12823        -1.12823        -6.16585        -6.16585
            3371         352.682         352.682    -827.584E-03    -827.584E-03        -6.21102        -6.21102
            3372         352.462         352.462    -559.262E-03    -559.262E-03        -6.21542        -6.21542
            3373         352.297         352.297    -311.005E-03    -311.005E-03        -6.17992        -6.17992
            3374         352.181         352.181    -69.8004E-03    -69.8004E-03        -6.10289        -6.10289
            3375         352.111         352.111     177.656E-03     177.656E-03        -5.98029        -5.98029
            3376         352.087         352.087     445.322E-03     445.322E-03        -5.80576        -5.80576
            3377         352.109         352.109     747.412E-03     747.412E-03        -5.57055        -5.57055
            3378         352.179         352.179         1.09940         1.09940        -5.26352        -5.26352
            3379         352.299         352.299         1.51733         1.51733        -4.87090        -4.87090
            3380         352.472         352.472         2.01979         2.01979        -4.37626        -4.37626
            3381         352.704         352.704         2.62647         2.62647        -3.76012        -3.76012
            3382         352.997         352.997         3.36190         3.36190        -2.99995        -2.99995
            3383         353.354         353.354         4.25223         4.25223        -2.06980        -2.06980
            3384         353.777         353.777         5.33262         5.33262    -940.098E-03    -940.098E-03
            3385         354.264         354.264         6.64020         6.64020     421.766E-03     421.766E-03
            3386         354.808         354.808         8.22856         8.22856         2.05283         2.05283
            3387         355.396         355.396         10.1527         10.1527         3.99008         3.99008
            3388         356.001         356.001         12.4970         12.4970         6.27610         6.27610
            3389         356.584         356.584         15.3444         15.3444         8.94202         8.94202
            3390         357.085         357.085         18.8258         18.8258         12.0263         12.0263
            3391         357.406         357.406         23.0634         23.0634         15.5232         15.5232
            3392         357.442         357.442         28.2363         28.2363         19.4342         19.4342
            3393         357.007         357.007         34.5024         34.5024         23.6473         23.6473
            3394         355.984         355.984         42.0044         42.0044         28.0378         28.0378
            3395         354.149         354.149         50.8359         50.8359         32.3352         32.3352
            3396         351.503         351.503         60.8903         60.8903         36.2132         36.2132
            3397         348.011         348.011         71.9643         71.9643         39.3732         39.3732
            3398         343.854         343.854         83.5969         83.5969         41.4648         41.4648
            3399         339.366         339.366         95.1899         95.1899         42.0432         42.0432
            3400         361.038         361.038        -4.00970        -4.00970         2.29281         2.29281
            3401         360.526         360.526        -4.54644        -4.54644         1.06889         1.06889
            3402         359.831         359.831        -4.72122        -4.72122    -130.661E-03    -130.661E-03
            3403         359.024         359.024        -4.61759        -4.61759        -1.23846        -1.23846
            3404         358.168         358.168        -4.32034        -4.32034        -2.21868        -2.21868
            3405         357.311         357.311        -3.90470        -3.90470        -3.05806        -3.05806
            3406         356.487         356.487        -3.43164        -3.43164        -3.75894        -3.75894
            3407         355.719         355.719        -2.94611        -2.94611        -4.33212        -4.33212
            3408         355.017         355.017        -2.47887        -2.47887        -4.79255        -4.79255
            3409         354.383         354.383        -2.04829        -2.04829        -5.15614        -5.15614
            3410         353.818         353.818        -1.66329        -1.66329        -5.43772        -5.43772
            3411         353.316         353.316        -1.32566        -1.32566        -5.65012        -5.65012
            3412         352.872         352.872        -1.03232        -1.03232        -5.80359        -5.80359
            3413         352.482         352.482    -776.856E-03    -776.856E-03        -5.90580        -5.90580
            3414         352.141         352.141    -550.806E-03    -550.806E-03        -5.96175        -5.96175
            3415         351.846         351.846    -344.382E-03    -344.382E-03        -5.97395        -5.97395
            3416         351.595         351.595    -147.122E-03    -147.122E-03        -5.94236        -5.94236
            3417         351.387         351.387     52.0798E-03     52.0798E-03        -5.86464        -5.86464
            3418         351.225         351.225     264.559E-03     264.559E-03        -5.73589        -5.73589
            3419         351.112         351.112     502.430E-03     502.430E-03        -5.54887        -5.54887
            3420         351.050         351.050     778.118E-03     778.118E-03        -5.29361        -5.29361
            3421         351.047         351.047         1.10562         1.10562        -4.95758        -4.95758
            3422         351.109         351.109         1.49959         1.49959        -4.52504        -4.52504
            3423         351.244         351.244         1.97787         1.97787        -3.97727        -3.97727
            3424         351.461         351.461         2.55947         2.55947        -3.29160        -3.29160
            3425         351.768         351.768         3.26959         3.26959        -2.44173        -2.44173
            3426         352.175         352.175         4.13510         4.13510        -1.39647        -1.39647
            3427         352.687         352.687         5.19486         5.19486    -120.016E-03    -120.016E-03
            3428         353.311         353.311         6.48949         6.48949         1.42875         1.42875
            3429         354.042         354.042         8.08300         8.08300         3.29721         3.29721
            3430         354.871         354.871         10.0397         10.0397         5.53509         5.53509
            3431         355.771         355.771         12.4691         12.4691         8.20156         8.20156
            3432         356.695         356.695         15.4755         15.4755         11.3423         11.3423
            3433         357.563         357.563         19.2444         19.2444         15.0186         15.0186
            3434         358.239         358.239         23.9432         23.9432         19.2225         19.2225
            3435         358.564         358.564         29.8452         29.8452         23.9680         23.9680
            3436         358.232         358.232         37.1880         37.1880         29.0587         29.0587
            3437         357.095         357.095         46.1473         46.1473         34.2774         34.2774
            3438         354.810         354.810         56.8132         56.8132         39.1803         39.1803
            3439         351.470         351.470         68.8575         68.8575         43.2181         43.2181
            3440         347.178         347.178         81.7933         81.7933         46.0504         46.0504
            3441         342.256         342.256         94.7627         94.7627         46.8379         46.8379
            3442         359.790         359.790        -2.91553        -2.91553         2.57876         2.57876
            3443         359.522         359.522        -3.40531        -3.40531         1.56220         1.56220
            3444         359.080         359.080        -3.61608        -3.61608     511.254E-03     511.254E-03
            3445         358.510         358.510        -3.60095        -3.60095    -506.104E-03    -506.104E-03
            3446         357.857         357.857        -3.42004        -3.42004        -1.44539        -1.44539
            3447         357.161         357.161        -3.13058        -3.13058        -2.28223        -2.28223
            3448         356.453         356.453        -2.78131        -2.78131        -3.00702        -3.00702
            3449         355.754         355.754        -2.41045        -2.41045        -3.62059        -3.62059
            3450         355.078         355.078        -2.04523        -2.04523        -4.12991        -4.12991
            3451         354.435         354.435        -1.70333        -1.70333        -4.54525        -4.54525
            3452         353.826         353.826        -1.39434        -1.39434        -4.87794        -4.87794
            3453         353.255         353.255        -1.12177        -1.12177        -5.13890        -5.13890
            3454         352.719         352.719    -884.593E-03    -884.593E-03        -5.33781        -5.33781
            3455         352.218         352.218    -678.747E-03    -678.747E-03        -5.48255        -5.48255
            3456         351.751         351.751    -498.081E-03    -498.081E-03        -5.57896        -5.57896
            3457         351.318         351.318    -335.245E-03    -335.245E-03        -5.63064        -5.63064
            3458         350.922         350.922    -182.028E-03    -182.028E-03        -5.63895        -5.63895
            3459         350.562         350.562    -29.8439E-03    -29.8439E-03        -5.60291        -5.60291
            3460         350.245         350.245     130.439E-03     130.439E-03        -5.51921        -5.51921
            3461         349.974         349.974     308.132E-03     308.132E-03        -5.38197        -5.38197
            3462         349.758         349.758     513.428E-03     513.428E-03        -5.18291        -5.18291
            3463         349.603         349.603     756.873E-03     756.873E-03        -4.91073        -4.91073
            3464         349.520         349.520         1.05085         1.05085        -4.55141        -4.55141
            3465         349.522         349.522         1.40847         1.40847        -4.08714        -4.08714
            3466         349.621         349.621         1.84660         1.84660        -3.49685        -3.49685
            3467         349.832         349.832         2.38336         2.38336        -2.75429        -2.75429
            3468         350.172         350.172         3.04436         3.04436        -1.82909        -1.82909
            3469         350.658         350.658         3.85693         3.85693    -683.636E-03    -683.636E-03
            3470         351.304         351.304         4.86378         4.86378     725.286E-03     725.286E-03
            3471         352.126         352.126         6.10903         6.10903         2.45036         2.45036
            3472         353.129         353.129         7.66927         7.66927         4.55273         4.55273
            3473         354.314         354.314         9.61933         9.61933         7.10186         7.10186
            3474         355.654         355.654         12.1036         12.1036         10.1823         10.1823
            3475         357.100         357.100         15.2536         15.2536         13.8667         13.8667
            3476         358.543         358.543         19.3428         19.3428         18.2592         18.2592
            3477         359.792         359.792         24.6063         24.6063         23.3549         23.3549
            3478         360.589         360.589         31.4943         31.4943         29.2077         29.2077
            3479         360.390         360.390         40.3938         40.3938         35.4456         35.4456
            3480         359.029         359.029         51.4745         51.4745         41.6481         41.6481
            3481         356.005         356.005         64.7419         64.7419         47.0872         47.0872
            3482         351.621         351.621         79.3449         79.3449         50.8281         50.8281
            3483         346.418         346.418         94.1291         94.1291         52.1712         52.1712
            3484         358.649         358.649        -2.03738        -2.03738         2.65495         2.65495
            3485         358.581         358.581        -2.43816        -2.43816         1.82177         1.82177
            3486         358.353         358.353        -2.63554        -2.63554     921.132E-03     921.132E-03
            3487         357.989         357.989        -2.66209        -2.66209     15.9146E-03     15.9146E-03
            3488         357.520         357.520        -2.55818        -2.55818    -847.984E-03    -847.984E-03
            3489         356.974         356.974        -2.36478        -2.36478        -1.64061        -1.64061
            3490         356.376         356.376        -2.11854        -2.11854        -2.34563        -2.34563
            3491         355.747         355.747        -1.84919        -1.84919        -2.95695        -2.95695
            3492         355.101         355.101        -1.57895        -1.57895        -3.47575        -3.47575
            3493         354.450         354.450        -1.32274        -1.32274        -3.90777        -3.90777
            3494         353.801         353.801        -1.08937        -1.08937        -4.26115        -4.26115
            3495         353.159         353.159    -882.688E-03    -882.688E-03        -4.54491        -4.54491
            3496         352.528         352.528    -702.867E-03    -702.867E-03        -4.76775        -4.76775
            3497         351.912         351.912    -547.439E-03    -547.439E-03        -4.93736        -4.93736
            3498         351.312         351.312    -412.232E-03    -412.232E-03        -5.05988        -5.05988
            3499         350.732         350.732    -291.908E-03    -291.908E-03        -5.13968        -5.13968
            3500         350.176         350.176    -180.523E-03    -180.523E-03        -5.17906        -5.17906
            3501         349.649         349.649    -71.6128E-03    -71.6128E-03        -5.17830        -5.17830
            3502         349.156         349.156     41.4545E-03     41.4545E-03        -5.13535        -5.13535
            3503         348.706         348.706     165.798E-03     165.798E-03        -5.04599        -5.04599
            3504         348.306         348.306     308.688E-03     308.688E-03        -4.90337        -4.90337
            3505         347.968         347.968     478.338E-03     478.338E-03        -4.69828        -4.69828
            3506         347.704         347.704     683.347E-03     683.347E-03        -4.41821        -4.41821
            3507         347.530         347.530     934.292E-03     934.292E-03        -4.04795        -4.04795
            3508         347.463         347.463         1.24256         1.24256        -3.56777        -3.56777
            3509         347.523         347.523         1.62361         1.62361        -2.95458        -2.95458
            3510         347.734         347.734         2.09425         2.09425        -2.17847        -2.17847
            3511         348.122         348.122         2.67983         2.67983        -1.20515        -1.20515
            3512         348.715         348.715         3.40748         3.40748     10.4743E-03     10.4743E-03
            3513         349.542         349.542         4.32305         4.32305         1.51977         1.51977
            3514         350.636         350.636         5.47338         5.47338         3.39090         3.39090
            3515         352.018         352.018         6.94879         6.94879         5.70242         5.70242
            3516         353.712         353.712         8.83471         8.83471         8.55455         8.55455
            3517         355.698         355.698         11.3221         11.3221         12.0696         12.0696
            3518         357.945         357.945         14.5751         14.5751         16.3722         16.3722
            3519         360.302         360.302         19.0120         19.0120         21.6458         21.6458
            3520         362.506         362.506         24.9676         24.9676         27.9132         27.9132
            3521         364.105         364.105         33.2629         33.2629         35.3462         35.3462
            3522         364.015         364.015         44.5958         44.5958         43.1659         43.1659
            3523         362.156         362.156         58.9233         58.9233         50.4394         50.4394
            3524         357.935         357.935         75.8413         75.8413         56.0476         56.0476
            3525         352.066         352.066         93.3028         93.3028         57.9709         57.9709
            3526         357.641         357.641        -1.34027        -1.34027         2.55044         2.55044
            3527         357.757         357.757        -1.63410        -1.63410         1.87884         1.87884
            3528         357.723         357.723        -1.79011        -1.79011         1.12667         1.12667
            3529         357.547         357.547        -1.82710        -1.82710     348.848E-03     348.848E-03
            3530         357.245         357.245        -1.77075        -1.77075    -411.637E-03    -411.637E-03
            3531         356.836         356.836        -1.64836        -1.64836        -1.12425        -1.12425
            3532         356.339         356.339        -1.48529        -1.48529        -1.76981        -1.76981
            3533         355.772         355.772        -1.30279        -1.30279        -2.33873        -2.33873
            3534         355.149         355.149        -1.11708        -1.11708        -2.82857        -2.82857
            3535         354.484         354.484    -939.507E-03    -939.507E-03        -3.24197        -3.24197
            3536         353.788         353.788    -776.950E-03    -776.950E-03        -3.58464        -3.58464
            3537         353.069         353.069    -632.765E-03    -632.765E-03        -3.86384        -3.86384
            3538         352.336         352.336    -507.526E-03    -507.526E-03        -4.08720        -4.08720
            3539         351.593         351.593    -399.880E-03    -399.880E-03        -4.26186        -4.26186
            3540         350.849         350.849    -307.102E-03    -307.102E-03        -4.39390        -4.39390
            3541         350.108         350.108    -225.664E-03    -225.664E-03        -4.48793        -4.48793
            3542         349.378         349.378    -151.463E-03    -151.463E-03        -4.54694        -4.54694
            3543         348.664         348.664    -80.1611E-03    -80.1611E-03        -4.57200        -4.57200
            3544         347.975         347.975    -7.11242E-03    -7.11242E-03        -4.56232        -4.56232
            3545         347.320         347.320     72.3950E-03     72.3950E-03        -4.51497        -4.51497
            3546         346.708         346.708     163.503E-03     163.503E-03        -4.42499        -4.42499
            3547         346.153         346.153     271.508E-03     271.508E-03        -4.28487        -4.28487
            3548         345.668         345.668     402.602E-03     402.602E-03        -4.08490        -4.08490
            3549         345.272         345.272     563.423E-03     563.423E-03        -3.81187        -3.81187
            3550         344.985         344.985     762.461E-03     762.461E-03        -3.45008        -3.45008
            3551         344.831         344.831         1.00916         1.00916        -2.97849        -2.97849
            3552         344.840         344.840         1.31682         1.31682        -2.37295        -2.37295
            3553         345.044         345.044         1.70047         1.70047        -1.60042        -1.60042
            3554         345.483         345.483         2.18358         2.18358    -623.760E-03    -623.760E-03
            3555         346.204         346.204         2.79218         2.79218     610.091E-03     610.091E-03
            3556         347.256         347.256         3.57254         3.57254         2.15998         2.15998
            3557         348.702         348.702         4.57279         4.57279         4.11381         4.11381
            3558         350.590         350.590         5.89445         5.89445         6.56959         6.56959
            3559         352.995         352.995         7.63183         7.63183         9.67482         9.67482
            3560         355.925         355.925         10.0322         10.0322         13.6036         13.6036
            3561         359.412         359.412         13.2937         13.2937         18.5829         18.5829
            3562         363.264         363.264         18.0731         18.0731         24.9396         24.9396
            3563         367.169         367.169         24.8402         24.8402         32.8153         32.8153
            3564         370.243         370.243         35.2968         35.2968         42.7320         42.7320
            3565         370.041         370.041         50.8365         50.8365         52.8656         52.8656
            3566         366.986         366.986         70.3303         70.3303         60.8635         60.8635
            3567         361.123         361.123         91.7354         91.7354         64.8677         64.8677
            3568         356.790         356.790    -797.342E-03    -797.342E-03         2.26392         2.26392
            3569         357.100         357.100    -984.897E-03    -984.897E-03         1.74072         1.74072
            3570         357.260         357.260        -1.08872        -1.08872         1.13982         1.13982
            3571         357.265         357.265        -1.11891        -1.11891     506.308E-03     506.308E-03
            3572         357.119         357.119        -1.09026        -1.09026    -123.013E-03    -123.013E-03
            3573         356.835         356.835        -1.01925        -1.01925    -720.593E-03    -720.593E-03
            3574         356.424         356.424    -921.529E-03    -921.529E-03        -1.26808        -1.26808
            3575         355.904         355.904    -810.466E-03    -810.466E-03        -1.75517        -1.75517
            3576         355.290         355.290    -696.496E-03    -696.496E-03        -2.17805        -2.17805
            3577         354.597         354.597    -586.976E-03    -586.976E-03        -2.53762        -2.53762
            3578         353.839         353.839    -486.543E-03    -486.543E-03        -2.83791        -2.83791
            3579         353.029         353.029    -397.506E-03    -397.506E-03        -3.08470        -3.08470
            3580         352.177         352.177    -320.446E-03    -320.446E-03        -3.28440        -3.28440
            3581         351.295         351.295    -254.630E-03    -254.630E-03        -3.44331        -3.44331
            3582         350.391         350.391    -198.492E-03    -198.492E-03        -3.56695        -3.56695
            3583         349.473         349.473    -149.870E-03    -149.870E-03        -3.65979        -3.65979
            3584         348.550         348.550    -106.323E-03    -106.323E-03        -3.72492        -3.72492
            3585         347.630         347.630    -65.1546E-03    -65.1546E-03        -3.76398        -3.76398
            3586         346.723         346.723    -23.6253E-03    -23.6253E-03        -3.77694        -3.77694
            3587         345.837         345.837     21.1996E-03     21.1996E-03        -3.76223        -3.76223
            3588         344.984         344.984     72.2871E-03     72.2871E-03        -3.71633        -3.71633
            3589         344.178         344.178     132.942E-03     132.942E-03        -3.63411        -3.63411
            3590         343.432         343.432     206.663E-03     206.663E-03        -3.50798        -3.50798
            3591         342.766         342.766     297.614E-03     297.614E-03        -3.32857        -3.32857
            3592         342.202         342.202     410.538E-03     410.538E-03        -3.08294        -3.08294
            3593         341.765         341.765     551.462E-03     551.462E-03        -2.75611        -2.75611
            3594         341.490         341.490     727.779E-03     727.779E-03        -2.32711        -2.32711
            3595         341.412         341.412     949.449E-03     949.449E-03        -1.77255        -1.77255
            3596         341.582         341.582         1.22934         1.22934        -1.05790        -1.05790
            3597         342.055         342.055         1.58620         1.58620    -145.906E-03    -145.906E-03
            3598         342.902         342.902         2.04423         2.04423         1.02320         1.02320
            3599         344.203         344.203         2.64384         2.64384         2.51185         2.51185
            3600         346.067         346.067         3.43327         3.43327         4.43031         4.43031
            3601         348.598         348.598         4.51357         4.51357         6.89190         6.89190
            3602         351.961         351.961         5.98574         5.98574         10.1124         10.1124
            3603         356.248         356.248         8.14609         8.14609         14.3233         14.3233
            3604         361.670         361.670         11.2213         11.2213         19.9502         19.9502
            3605         368.056         368.056         16.2342         16.2342         27.5520         27.5520
            3606         375.275         375.275         23.7938         23.7938         37.7120         37.7120
            3607         381.435         381.435         37.9476         37.9476         51.9796         51.9796
            3608         380.398         380.398         61.5663         61.5663         65.6738         65.6738
            3609         374.356         374.356         89.0206         89.0206         71.8284         71.8284
            3610         356.129         356.129    -395.190E-03    -395.190E-03         1.76591         1.76591
            3611         356.667         356.667    -492.022E-03    -492.022E-03         1.39253         1.39253
            3612         357.039         357.039    -546.850E-03    -546.850E-03     957.390E-03     957.390E-03
            3613         357.230         357.230    -564.162E-03    -564.162E-03     493.780E-03     493.780E-03
            3614         357.235         357.235    -551.257E-03    -551.257E-03     29.4912E-03     29.4912E-03
            3615         357.060         357.060    -516.380E-03    -516.380E-03    -414.172E-03    -414.172E-03
            3616         356.717         356.717    -467.503E-03    -467.503E-03    -822.630E-03    -822.630E-03
            3617         356.222         356.222    -411.524E-03    -411.524E-03        -1.18741        -1.18741
            3618         355.592         355.592    -353.846E-03    -353.846E-03        -1.50503        -1.50503
            3619         354.848         354.848    -298.351E-03    -298.351E-03        -1.77581        -1.77581
            3620         354.005         354.005    -247.469E-03    -247.469E-03        -2.00258        -2.00258
            3621         353.082         353.082    -202.473E-03    -202.473E-03        -2.18969        -2.18969
            3622         352.092         352.092    -163.684E-03    -163.684E-03        -2.34208        -2.34208
            3623         351.049         351.049    -130.790E-03    -130.790E-03        -2.46469        -2.46469
            3624         349.966         349.966    -102.991E-03    -102.991E-03        -2.56199        -2.56199
            3625         348.853         348.853    -79.2383E-03    -79.2383E-03        -2.63763        -2.63763
            3626         347.718         347.718    -58.2733E-03    -58.2733E-03        -2.69434        -2.69434
            3627         346.573         346.573    -38.7956E-03    -38.7956E-03        -2.73372        -2.73372
            3628         345.425         345.425    -19.3940E-03    -19.3940E-03        -2.75628        -2.75628
            3629         344.285         344.285     1.32242E-03     1.32242E-03        -2.76125        -2.76125
            3630         343.163         343.163     24.8652E-03     24.8652E-03        -2.74676        -2.74676
            3631         342.072         342.072     52.7882E-03     52.7882E-03        -2.70937        -2.70937
            3632         341.026         341.026     86.8194E-03     86.8194E-03        -2.64455        -2.64455
            3633         340.043         340.043     128.970E-03     128.970E-03        -2.54569        -2.54569
            3634         339.143         339.143     181.442E-03     181.442E-03        -2.40494        -2.40494
            3635         338.355         338.355     247.347E-03     247.347E-03        -2.21118        -2.21118
            3636         337.710         337.710     329.832E-03     329.832E-03        -1.95199        -1.95199
            3637         337.248         337.248     434.488E-03     434.488E-03        -1.60880        -1.60880
            3638         337.020         337.020     566.376E-03     566.376E-03        -1.16198        -1.16198
            3639         337.088         337.088     736.605E-03     736.605E-03    -579.150E-03    -579.150E-03
            3640         337.530         337.530     954.704E-03     954.704E-03     171.878E-03     171.878E-03
            3641         338.448         338.448         1.24417         1.24417         1.15231         1.15231
            3642         339.965         339.965         1.62749         1.62749         2.41843         2.41843
            3643         342.256         342.256         2.15628         2.15628         4.09800         4.09800
            3644         345.520         345.520         2.90007         2.90007         6.30025         6.30025
            3645         350.074         350.074         3.97497         3.97497         9.32320         9.32320
            3646         356.221         356.221         5.65845         5.65845         13.4204         13.4204
            3647         364.597         364.597         8.21888         8.21888         19.3690         19.3690
            3648         375.376         375.376         13.0792         13.0792         27.9759         27.9759
            3649         389.662         389.662         20.9411         20.9411         41.3215         41.3215
            3650         403.559         403.559         42.5304         42.5304         63.6393         63.6393
            3651         400.971         400.971         82.1139         82.1139         82.0553         82.0553
            3652         355.713         355.713    -138.519E-03    -138.519E-03         1.00563         1.00563
            3653         356.537         356.537    -173.238E-03    -173.238E-03     803.422E-03     803.422E-03
            3654         357.155         357.155    -193.086E-03    -193.086E-03     566.298E-03     566.298E-03
            3655         357.543         357.543    -199.549E-03    -199.549E-03     312.732E-03     312.732E-03
            3656         357.693         357.693    -195.199E-03    -195.199E-03     58.2340E-03     58.2340E-03
            3657         357.610         357.610    -182.943E-03    -182.943E-03    -185.275E-03    -185.275E-03
            3658         357.307         357.307    -165.649E-03    -165.649E-03    -409.573E-03    -409.573E-03
            3659         356.805         356.805    -145.776E-03    -145.776E-03    -609.860E-03    -609.860E-03
            3660         356.126         356.126    -125.292E-03    -125.292E-03    -784.178E-03    -784.178E-03
            3661         355.296         355.296    -105.579E-03    -105.579E-03    -932.700E-03    -932.700E-03
            3662         354.336         354.336    -87.5386E-03    -87.5386E-03        -1.05707        -1.05707
            3663         353.270         353.270    -71.6135E-03    -71.6135E-03        -1.15976        -1.15976
            3664         352.115         352.115    -57.9467E-03    -57.9467E-03        -1.24364        -1.24364
            3665         350.888         350.888    -46.4063E-03    -46.4063E-03        -1.31156        -1.31156
            3666         349.605         349.605    -36.7394E-03    -36.7394E-03        -1.36611        -1.36611
            3667         348.275         348.275    -28.5431E-03    -28.5431E-03        -1.40948        -1.40948
            3668         346.911         346.911    -21.4153E-03    -21.4153E-03        -1.44329        -1.44329
            3669         345.521         345.521    -14.8541E-03    -14.8541E-03        -1.46863        -1.46863
            3670         344.113         344.113    -8.42138E-03    -8.42138E-03        -1.48591        -1.48591
            3671         342.696         342.696    -1.58134E-03    -1.58134E-03        -1.49499        -1.49499
            3672         341.280         341.280     6.13362E-03     6.13362E-03        -1.49495        -1.49495
            3673         339.874         339.874     15.2862E-03     15.2862E-03        -1.48437        -1.48437
            3674         338.491         338.491     26.4703E-03     26.4703E-03        -1.46085        -1.46085
            3675         337.147         337.147     40.2708E-03     40.2708E-03        -1.42149        -1.42149
            3676         335.860         335.860     57.6766E-03     57.6766E-03        -1.36199        -1.36199
            3677         334.653         334.653     79.2084E-03     79.2084E-03        -1.27756        -1.27756
            3678         333.557         333.557     106.917E-03     106.917E-03        -1.16097        -1.16097
            3679         332.608         332.608     140.906E-03     140.906E-03        -1.00467        -1.00467
            3680         331.854         331.854     185.951E-03     185.951E-03    -796.144E-03    -796.144E-03
            3681         331.354         331.354     240.686E-03     240.686E-03    -523.449E-03    -523.449E-03
            3682         331.187         331.187     316.819E-03     316.819E-03    -163.061E-03    -163.061E-03
            3683         331.450         331.450     408.852E-03     408.852E-03     304.494E-03     304.494E-03
            3684         332.279         332.279     546.165E-03     546.165E-03     928.800E-03     928.800E-03
            3685         333.848         333.848     713.754E-03     713.754E-03         1.74294         1.74294
            3686         336.406         336.406     986.576E-03     986.576E-03         2.86707         2.86707
            3687         340.290         340.290         1.33669         1.33669         4.36156         4.36156
            3688         346.039         346.039         1.95951         1.95951         6.56984         6.56984
            3689         354.358         354.358         2.88313         2.88313         9.62724         9.62724
            3690         366.737         366.737         4.64151         4.64151         14.7550         14.7550
            3691         384.729         384.729         8.32927         8.32927         22.5221         22.5221
            3692         414.510         414.510         15.7243         15.7243         39.2434         39.2434
            3693         452.288         452.288         55.7624         55.7624         72.1494         72.1494
            3694         20.5425         20.5425        -158.911        -158.911        -19.2310        -19.2310
            3695         74.6262         74.6262        -65.1145        -65.1145        -51.0067        -51.0067
            3696         145.244         145.244        -20.4469        -20.4469        -55.6620        -55.6620
            3697         211.644         211.644        -3.48873        -3.48873        -46.0793        -46.0793
            3698         263.535         263.535         1.14121         1.14121        -32.6588        -32.6588
            3699         65.5463         65.5463        -117.880        -117.880        -44.3308        -44.3308
            3700         144.858         144.858        -65.2422        -65.2422        -89.2710        -89.2710
            3701         215.560         215.560        -38.4330        -38.4330        -88.9147        -88.9147
            3702         268.213         268.213        -23.8916        -23.8916        -69.2099        -69.2099
            3703         303.297         303.297        -15.1174        -15.1174        -47.0521        -47.0521
            3704         140.677         140.677        -68.2188        -68.2188        -73.7594        -73.7594
            3705         239.323         239.323        -65.8586        -65.8586        -104.815        -104.815
            3706         297.360         297.360        -55.0580        -55.0580        -91.1376        -91.1376
            3707         327.397         327.397        -40.4201        -40.4201        -65.2912        -65.2912
            3708         341.901         341.901        -27.1804        -27.1804        -41.9204        -41.9204
            3709         239.779         239.779        -24.1778        -24.1778        -98.6895        -98.6895
            3710         332.422         332.422        -63.5632        -63.5632        -95.0468        -95.0468
            3711         363.764         363.764        -60.7457        -60.7457        -70.2800        -70.2800
            3712         369.357         369.357        -45.2954        -45.2954        -45.9094        -45.9094
            3713         366.603         366.603        -30.0342        -30.0342        -27.6180        -27.6180
            3714         395.401         395.401         44.6906         44.6906         16.1282         16.1282
            3715         427.800         427.800         68.8960         68.8960         19.0405         19.0405
            3716         485.991         485.991         93.9608         93.9608         13.9841         13.9841
            3717         587.509         587.509         107.285         107.285        -9.37420        -9.37420
            3718         753.670         753.670         88.3580         88.3580        -62.9174        -62.9174
            3719         400.011         400.011         16.6082         16.6082         19.3954         19.3954
            3720         430.248         430.248         30.3326         30.3326         23.2311         23.2311
            3721         477.958         477.958         49.9615         49.9615         16.2604         16.2604
            3722         553.021         553.021         72.2805         72.2805        -19.1848        -19.1848
            3723         670.517         670.517         86.1670         86.1670        -107.763        -107.763
            3724         398.804         398.804        -8.70914        -8.70914         10.5269         10.5269
            3725         425.602         425.602        -7.65950        -7.65950         11.6091         11.6091
            3726         462.225         462.225     715.282E-03     715.282E-03         3.57046         3.57046
            3727         507.361         507.361         24.9892         24.9892        -31.6902        -31.6902
            3728         560.234         560.234         72.9339         72.9339        -127.369        -127.369
            3729         390.602         390.602        -22.3426        -22.3426        -2.08156        -2.08156
            3730         411.976         411.976        -31.1413        -31.1413        -6.60806        -6.60806
            3731         437.925         437.925        -35.6970        -35.6970        -18.4122        -18.4122
            3732         457.960         457.960        -20.5430        -20.5430        -49.1449        -49.1449
            3733         447.373         447.373         45.2273         45.2273        -126.494        -126.494
            3734         256.356         256.356        -17.4673        -17.4673         102.414         102.414
            3735         346.639         346.639        -62.9886        -62.9886         92.4923         92.4923
            3736         373.262         373.262        -61.0964        -61.0964         66.2297         66.2297
            3737         375.023         375.023        -45.5187        -45.5187         42.3890         42.3890
            3738         369.775         369.775        -30.0630        -30.0630         25.1029         25.1029
            3739         170.190         170.190        -52.3577        -52.3577         83.1610         83.1610
            3740         271.361         271.361        -65.9519        -65.9519         105.341         105.341
            3741         322.508         322.508        -59.0011        -59.0011         87.1577         87.1577
            3742         344.377         344.377        -43.9876        -43.9876         60.5111         60.5111
            3743         352.415         352.415        -29.5779        -29.5779         37.9624         37.9624
            3744         98.2137         98.2137        -93.8092        -93.8092         58.6454         58.6454
            3745         189.627         189.627        -65.9160        -65.9160         101.165         101.165
            3746         256.618         256.618        -47.9225        -47.9225         95.0579         95.0579
            3747         299.216         299.216        -33.7680        -33.7680         71.2762         71.2762
            3748         324.145         324.145        -22.5853        -22.5853         47.1820         47.1820
            3749         46.0597         46.0597        -135.086        -135.086         34.8192         34.8192
            3750         116.224         116.224        -65.5811        -65.5811         79.2958         79.2958
            3751         187.937         187.937        -31.9575        -31.9575         82.4126         82.4126
            3752         246.692         246.692        -16.7318        -16.7318         66.0728         66.0728
            3753         288.530         288.530        -9.57439        -9.57439         45.8175         45.8175
            3754         15.4198         15.4198        -166.280        -166.280         15.4303         15.4303
            3755         65.4944         65.4944        -65.9077        -65.9077         43.4611         43.4611
            3756         135.081         135.081        -18.0179        -18.0179         48.2128         48.2128
            3757         202.749         202.749    -162.208E-03    -162.208E-03         40.4240         40.4240
            3758         256.911         256.911         4.02404         4.02404         28.9524         28.9524
            3759         391.035         391.035        -22.9536        -22.9536         2.90792         2.90792
            3760         412.372         412.372        -31.6654        -31.6654         7.23288         7.23288
            3761         438.286         438.286        -36.1253        -36.1253         18.8775         18.8775
            3762         458.370         458.370        -20.8777        -20.8777         49.5029         49.5029
            3763         447.896         447.896         45.0061         45.0061         126.800         126.800
            3764         399.127         399.127        -9.17302        -9.17302        -9.74377        -9.74377
            3765         425.901         425.901        -8.03275        -8.03275        -11.0105        -11.0105
            3766         462.507         462.507     455.065E-03     455.065E-03        -3.12257        -3.12257
            3767         507.686         507.686         24.8547         24.8547         32.0125         32.0125
            3768         560.734         560.734         72.9742         72.9742         127.658         127.658
            3769         400.217         400.217         16.3112         16.3112        -18.6398        -18.6398
            3770         430.434         430.434         30.1221         30.1221        -22.6290        -22.6290
            3771         478.128         478.128         49.8614         49.8614        -15.7896        -15.7896
            3772         553.231         553.231         72.3163         72.3163         19.5555         19.5555
            3773         670.927         670.927         86.2914         86.2914         108.076         108.076
            3774         395.499         395.499         44.5522         44.5522        -15.3763        -15.3763
            3775         427.882         427.882         68.8132         68.8132        -18.4120        -18.4120
            3776         486.060         486.060         93.9547         93.9547        -13.4529        -13.4529
            3777         587.610         587.610         107.353         107.353         9.82197         9.82197
            3778         753.906         753.906         88.4457         88.4457         63.2376         63.2376
            3779         429.462         429.462         40.4652         40.4652        -125.725        -125.725
            3780         450.100         450.100        -27.5179        -27.5179        -52.3968        -52.3968
            3781         433.933         433.933        -41.0193        -41.0193        -22.5868        -22.5868
            3782         409.781         409.781        -34.5720        -34.5720        -10.2431        -10.2431
            3783         389.439         389.439        -24.5290        -24.5290        -4.95476        -4.95476
            3784         522.466         522.466         66.3021         66.3021        -130.122        -130.122
            3785         491.599         491.599         9.05370         9.05370        -37.0332        -37.0332
            3786         455.733         455.733        -14.0889        -14.0889        -3.15394        -3.15394
            3787         422.724         422.724        -18.3522        -18.3522         5.41005         5.41005
            3788         397.424         397.424        -15.6357        -15.6357         5.63992         5.63992
            3789         618.543         618.543         82.1342         82.1342        -122.162        -122.162
            3790         531.725         531.725         49.8944         49.8944        -25.2800        -25.2800
            3791         471.747         471.747         24.6656         24.6656         11.7009         11.7009
            3792         429.770         429.770         9.57089         9.57089         18.9553         18.9553
            3793         401.038         401.038         2.04118         2.04118         15.6782         15.6782
            3794         705.004         705.004         88.0239         88.0239        -97.0755        -97.0755
            3795         567.384         567.384         86.6323         86.6323        -16.3820        -16.3820
            3796         481.944         481.944         66.9378         66.9378         17.1375         17.1375
            3797         430.306         430.306         44.5230         44.5230         23.9610         23.9610
            3798         399.209         399.209         26.4856         26.4856         19.8934         19.8934
            3799         766.218         766.218         87.8952         87.8952        -54.3233        -54.3233
            3800         592.993         592.993         111.606         111.606        -8.39667        -8.39667
            3801         487.363         487.363         100.195         100.195         11.9881         11.9881
            3802         427.326         427.326         74.8180         74.8180         16.5407         16.5407
            3803         394.498         394.498         49.2300         49.2300         13.9592         13.9592
            3804         390.536         390.536        -22.4137        -22.4137         2.15254         2.15254
            3805         411.880         411.880        -31.2440        -31.2440         6.71508         6.71508
            3806         437.787         437.787        -35.8201        -35.8201         18.5528         18.5528
            3807         457.808         457.808        -20.7050        -20.7050         49.2908         49.2908
            3808         447.224         447.224         44.9614         44.9614         126.533         126.533
            3809         398.769         398.769        -8.81619        -8.81619        -10.4574        -10.4574
            3810         425.541         425.541        -7.79120        -7.79120        -11.5022        -11.5022
            3811         462.120         462.120     576.236E-03     576.236E-03        -3.42874        -3.42874
            3812         507.179         507.179         24.8424         24.8424         31.8077         31.8077
            3813         559.976         559.976         72.8374         72.8374         127.379         127.379
            3814         400.012         400.012         16.4708         16.4708        -19.3317        -19.3317
            3815         430.219         430.219         30.1901         30.1901        -23.1184        -23.1184
            3816         477.872         477.872         49.8273         49.8273        -16.1231        -16.1231
            3817         552.818         552.818         72.1804         72.1804         19.3210         19.3210
            3818         670.123         670.123         86.0984         86.0984         107.829         107.829
            3819         395.446         395.446         44.5372         44.5372        -16.0927        -16.0927
            3820         427.822         427.822         68.7302         68.7302        -18.9510        -18.9510
            3821         485.923         485.923         93.8461         93.8461        -13.8393        -13.8393
            3822         587.302         587.302         107.278         107.278         9.52018         9.52018
            3823         753.157         753.157         88.4172         88.4172         62.9736         62.9736
            3824         256.824         256.824        -17.6930        -17.6930         102.623         102.623
            3825         347.220         347.220        -63.4344        -63.4344         92.7568         92.7568
            3826         373.870         373.870        -61.6359        -61.6359         66.5826         66.5826
            3827         375.673         375.673        -46.1514        -46.1514         42.8855         42.8855
            3828         370.490         370.490        -30.8217        -30.8217         25.8109         25.8109
            3829         170.524         170.524        -52.7389        -52.7389         83.3313         83.3313
            3830         271.876         271.876        -66.4740        -66.4740         105.621         105.621
            3831         323.104         323.104        -59.5978        -59.5978         87.5033         87.5033
            3832         345.054         345.054        -44.6688        -44.6688         60.9520         60.9520
            3833         353.202         353.202        -30.3881        -30.3881         38.5653         38.5653
            3834         98.4161         98.4161        -94.3626        -94.3626         58.7655         58.7655
            3835         190.019         190.019        -66.4980        -66.4980         101.439         101.439
            3836         257.149         257.149        -48.5496        -48.5496         95.3862         95.3862
            3837         299.879         299.879        -34.4771        -34.4771         71.6590         71.6590
            3838         324.971         324.971        -23.4311        -23.4311         47.6721         47.6721
            3839         46.1484         46.1484        -135.810        -135.810         34.8948         34.8948
            3840         116.473         116.473        -66.2064        -66.2064         79.5235         79.5235
            3841         188.361         188.361        -32.5878        -32.5878         82.6887         82.6887
            3842         247.301         247.301        -17.4426        -17.4426         66.3751         66.3751
            3843         289.358         289.358        -10.4341        -10.4341         46.1780         46.1780
            3844         15.4316         15.4316        -167.136        -167.136         15.4737         15.4737
            3845         65.6249         65.6249        -66.5609        -66.5609         43.6050         43.6050
            3846         135.400         135.400        -18.6367        -18.6367         48.3870         48.3870
            3847         203.290         203.290    -857.884E-03    -857.884E-03         40.6060         40.6060
            3848         257.717         257.717         3.16778         3.16778         29.1549         29.1549
            3849         367.303         367.303        -30.7894        -30.7894        -28.3044        -28.3044
            3850         369.961         369.961        -45.9115        -45.9115        -46.3960        -46.3960
            3851         364.273         364.273        -61.2542        -61.2542        -70.6220        -70.6220
            3852         332.860         332.860        -63.9991        -63.9991        -95.2520        -95.2520
            3853         240.118         240.118        -24.4995        -24.4995        -98.7733        -98.7733
            3854         342.674         342.674        -27.9912        -27.9912        -42.4709        -42.4709
            3855         328.014         328.014        -41.0890        -41.0890        -65.6970        -65.6970
            3856         297.848         297.848        -55.6437        -55.6437        -91.4437        -91.4437
            3857         239.697         239.697        -66.4124        -66.4124        -105.034        -105.034
            3858         140.873         140.873        -68.7479        -68.7479        -73.8285        -73.8285
            3859         304.092         304.092        -15.9552        -15.9552        -47.4461        -47.4461
            3860         268.792         268.792        -24.5803        -24.5803        -69.5135        -69.5135
            3861         215.960         215.960        -39.0466        -39.0466        -89.1644        -89.1644
            3862         145.090         145.090        -65.8600        -65.8600        -89.4553        -89.4553
            3863         65.6183         65.6183        -118.599        -118.599        -44.3574        -44.3574
            3864         264.323         264.323     296.806E-03     296.806E-03        -32.8611        -32.8611
            3865         212.166         212.166        -4.17320        -4.17320        -46.2387        -46.2387
            3866         145.543         145.543        -21.0580        -21.0580        -55.7949        -55.7949
            3867         74.7387         74.7387        -65.7673        -65.7673        -51.0990        -51.0990
            3868         20.5398         20.5398        -159.773        -159.773        -19.2260        -19.2260


  Minimum               -5.79283        -5.79283        -250.447        -250.447        -196.904        -196.904
         At Node              28              28              28              28             590             590

  Maximum                899.750         899.750         120.239         120.239         195.767         195.767
         At Node              27              27             585             585             574             574

           Total     1.36576E+06     1.36576E+06     21.9187E+03     21.9187E+03         659.398         659.398


