********************************************************************************
Field Output Report, written Sat Feb 24 11:10:47 2024

Source 1
---------

   ODB: C:/Users/Isabel Haycock/OneDrive - Imperial College London/Fourth Year/FYP/Isabel Haycock/06 - FE models/Specimen_2/Plate_hole_1.odb
   Step: load
   Frame: Increment      2: Step Time =   0.1429

Loc 1 : Nodal values at shell < composite > < elset = ASSEMBLY_PLATE_1-1_COMPOSITELAYUP-1-1 > from source 1 : SNEG, (fraction = -1.0), Layer = 1
Loc 2 : Nodal values at shell < composite > < elset = ASSEMBLY_PLATE_1-1_COMPOSITELAYUP-1-1 > from source 1 : SPOS, (fraction = 1.0), Layer = 8

Output sorted by column "Node Label".

Field Output reported at nodes for part: PLATE_1-1
   Computation algorithm: EXTRAPOLATE_COMPUTE_AVERAGE
   Averaged at nodes
   Averaging regions: ODB_REGIONS

      Node Label           S.S11           S.S11           S.S22           S.S22           S.S12           S.S12
                          @Loc 1          @Loc 2          @Loc 1          @Loc 2          @Loc 1          @Loc 2
-----------------------------------------------------------------------------------------------------------------
               1         246.657         246.657        -11.5430        -11.5430        -4.94258        -4.94258
               2         234.560         234.560     326.681E-03     326.681E-03    -14.9447E-03    -14.9447E-03
               3         234.606         234.606     1.51229E-03     1.51229E-03    -1.68714E-03    -1.68714E-03
               4         237.126         237.126    -15.2146E-03    -15.2146E-03     501.953E-03     501.953E-03
               5         246.756         246.756        -11.5012        -11.5012         4.75817         4.75817
               6         234.560         234.560     326.729E-03     326.729E-03     14.9433E-03     14.9433E-03
               7         188.761         188.761         5.29228         5.29228    -731.931E-03    -731.931E-03
               8         236.249         236.249    -18.6045E-03    -18.6045E-03    -421.895E-03    -421.895E-03
               9         247.164         247.164        -12.0292        -12.0292         5.44500         5.44500
              10         250.805         250.805         24.7506         24.7506     287.282E-03     287.282E-03
              11         237.173         237.173    -15.8071E-03    -15.8071E-03    -501.951E-03    -501.951E-03
              12         234.606         234.606     1.51261E-03     1.51261E-03     1.68747E-03     1.68747E-03
              13         220.565         220.565         67.0874         67.0874        -14.6291        -14.6291
              14         358.921         358.921         49.8629         49.8629        -58.1023        -58.1023
              15         246.900         246.900        -12.1075        -12.1075        -5.77579        -5.77579
              16         236.279         236.279    -19.3428E-03    -19.3428E-03     422.336E-03     422.336E-03
              17         250.710         250.710         25.0621         25.0621    -725.296E-03    -725.296E-03
              18         220.566         220.566         67.0855         67.0855         14.6257         14.6257
              19         189.474         189.474         4.59846         4.59846    -731.078E-03    -731.078E-03
              20         358.921         358.921         49.8628         49.8628         58.1022         58.1022
              21        -3.83135        -3.83135        -166.487        -166.487     155.124E-03     155.124E-03
              22         194.160         194.160         43.2354         43.2354        -94.4141        -94.4141
              23         599.015         599.015         39.0767         39.0767     69.6011E-03     69.6011E-03
              24         197.161         197.161         44.5392         44.5392         95.7361         95.7361
              25         197.524         197.524         44.5901         44.5901         95.9276         95.9276
              26         190.631         190.631         42.6028         42.6028        -93.4058        -93.4058
              27         600.197         600.197         38.6687         38.6687         2.76746         2.76746
              28        -3.85800        -3.85800        -167.217        -167.217     167.310E-03     167.310E-03
              29         242.062         242.062        -9.28219        -9.28219        -5.85272        -5.85272
              30         239.391         239.391        -7.82235        -7.82235        -6.45138        -6.45138
              31         237.268         237.268        -6.28355        -6.28355        -6.49611        -6.49611
              32         235.684         235.684        -4.86847        -4.86847        -6.20843        -6.20843
              33         234.554         234.554        -3.64753        -3.64753        -5.75465        -5.75465
              34         233.778         233.778        -2.62991        -2.62991        -5.24195        -5.24195
              35         233.265         233.265        -1.79587        -1.79587        -4.73065        -4.73065
              36         232.945         232.945        -1.11964        -1.11964        -4.25097        -4.25097
              37         232.764         232.764    -575.445E-03    -575.445E-03        -3.81581        -3.81581
              38         232.682         232.682    -140.904E-03    -140.904E-03        -3.42826        -3.42826
              39         232.670         232.670     202.917E-03     202.917E-03        -3.08644        -3.08644
              40         232.706         232.706     471.605E-03     471.605E-03        -2.78606        -2.78606
              41         232.776         232.776     678.027E-03     678.027E-03        -2.52204        -2.52204
              42         232.868         232.868     832.808E-03     832.808E-03        -2.28924        -2.28924
              43         232.973         232.973     944.791E-03     944.791E-03        -2.08298        -2.08298
              44         233.085         233.085         1.02139         1.02139        -1.89911        -1.89911
              45         233.201         233.201         1.06885         1.06885        -1.73411        -1.73411
              46         233.317         233.317         1.09249         1.09249        -1.58507        -1.58507
              47         233.430         233.430         1.09681         1.09681        -1.44959        -1.44959
              48         233.539         233.539         1.08565         1.08565        -1.32576        -1.32576
              49         233.643         233.643         1.06231         1.06231        -1.21202        -1.21202
              50         233.741         233.741         1.02958         1.02958        -1.10715        -1.10715
              51         233.833         233.833     989.824E-03     989.824E-03        -1.01015        -1.01015
              52         233.918         233.918     945.064E-03     945.064E-03    -920.235E-03    -920.235E-03
              53         233.997         233.997     896.994E-03     896.994E-03    -836.757E-03    -836.757E-03
              54         234.069         234.069     847.034E-03     847.034E-03    -759.179E-03    -759.179E-03
              55         234.135         234.135     796.369E-03     796.369E-03    -687.045E-03    -687.045E-03
              56         234.195         234.195     745.981E-03     745.981E-03    -619.955E-03    -619.955E-03
              57         234.249         234.249     696.676E-03     696.676E-03    -557.550E-03    -557.550E-03
              58         234.297         234.297     649.109E-03     649.109E-03    -499.494E-03    -499.494E-03
              59         234.341         234.341     603.809E-03     603.809E-03    -445.469E-03    -445.469E-03
              60         234.379         234.379     561.199E-03     561.199E-03    -395.167E-03    -395.167E-03
              61         234.413         234.413     521.612E-03     521.612E-03    -348.283E-03    -348.283E-03
              62         234.443         234.443     485.305E-03     485.305E-03    -304.513E-03    -304.513E-03
              63         234.469         234.469     452.479E-03     452.479E-03    -263.554E-03    -263.554E-03
              64         234.491         234.491     423.281E-03     423.281E-03    -225.100E-03    -225.100E-03
              65         234.510         234.510     397.822E-03     397.822E-03    -188.845E-03    -188.845E-03
              66         234.526         234.526     376.181E-03     376.181E-03    -154.478E-03    -154.478E-03
              67         234.538         234.538     358.416E-03     358.416E-03    -121.688E-03    -121.688E-03
              68         234.548         234.548     344.563E-03     344.563E-03    -90.1603E-03    -90.1603E-03
              69         234.554         234.554     334.648E-03     334.648E-03    -59.5819E-03    -59.5819E-03
              70         234.558         234.558     328.680E-03     328.680E-03    -29.7177E-03    -29.7177E-03
              71         234.588         234.588     294.024E-03     294.024E-03    -16.2009E-03    -16.2009E-03
              72         234.615         234.615     261.283E-03     261.283E-03    -16.9685E-03    -16.9685E-03
              73         234.641         234.641     227.426E-03     227.426E-03    -17.3436E-03    -17.3436E-03
              74         234.665         234.665     193.251E-03     193.251E-03    -17.3060E-03    -17.3060E-03
              75         234.685         234.685     159.585E-03     159.585E-03    -16.8478E-03    -16.8478E-03
              76         234.701         234.701     127.261E-03     127.261E-03    -15.9678E-03    -15.9678E-03
              77         234.710         234.710     97.1073E-03     97.1073E-03    -14.6769E-03    -14.6769E-03
              78         234.712         234.712     69.9191E-03     69.9191E-03    -12.9929E-03    -12.9929E-03
              79         234.706         234.706     46.4417E-03     46.4417E-03    -10.9509E-03    -10.9509E-03
              80         234.690         234.690     27.3493E-03     27.3493E-03    -8.58659E-03    -8.58659E-03
              81         234.664         234.664     13.2109E-03     13.2109E-03    -5.97099E-03    -5.97099E-03
              82         234.627         234.627     4.47744E-03     4.47744E-03    -3.15153E-03    -3.15153E-03
              83         234.609         234.609     1.54635E-03     1.54635E-03    -3.09667E-03    -3.09667E-03
              84         234.618         234.618     1.59484E-03     1.59484E-03    -6.06713E-03    -6.06713E-03
              85         234.633         234.633     1.64333E-03     1.64333E-03    -9.23791E-03    -9.23791E-03
              86         234.654         234.654     1.72570E-03     1.72570E-03    -12.5411E-03    -12.5411E-03
              87         234.683         234.683     1.83193E-03     1.83193E-03    -16.0342E-03    -16.0342E-03
              88         234.718         234.718     1.96164E-03     1.96164E-03    -19.7645E-03    -19.7645E-03
              89         234.761         234.761     2.11553E-03     2.11553E-03    -23.7803E-03    -23.7803E-03
              90         234.812         234.812     2.29237E-03     2.29237E-03    -28.1294E-03    -28.1294E-03
              91         234.872         234.872     2.49242E-03     2.49242E-03    -32.8586E-03    -32.8586E-03
              92         234.942         234.942     2.71432E-03     2.71432E-03    -38.0139E-03    -38.0139E-03
              93         235.022         235.022     2.95719E-03     2.95719E-03    -43.6392E-03    -43.6392E-03
              94         235.114         235.114     3.21889E-03     3.21889E-03    -49.7758E-03    -49.7758E-03
              95         235.218         235.218     3.49690E-03     3.49690E-03    -56.4602E-03    -56.4602E-03
              96         235.337         235.337     3.78738E-03     3.78738E-03    -63.7232E-03    -63.7232E-03
              97         235.470         235.470     4.08518E-03     4.08518E-03    -71.5867E-03    -71.5867E-03
              98         235.619         235.619     4.38350E-03     4.38350E-03    -80.0612E-03    -80.0612E-03
              99         235.786         235.786     4.67302E-03     4.67302E-03    -89.1414E-03    -89.1414E-03
             100         235.971         235.971     4.94222E-03     4.94222E-03    -98.8015E-03    -98.8015E-03
             101         236.176         236.176     5.17523E-03     5.17523E-03    -108.989E-03    -108.989E-03
             102         236.401         236.401     5.35350E-03     5.35350E-03    -119.618E-03    -119.618E-03
             103         236.647         236.647     5.45132E-03     5.45132E-03    -130.557E-03    -130.557E-03
             104         236.915         236.915     5.44032E-03     5.44032E-03    -141.623E-03    -141.623E-03
             105         237.205         237.205     5.28094E-03     5.28094E-03    -152.566E-03    -152.566E-03
             106         237.516         237.516     4.93257E-03     4.93257E-03    -163.054E-03    -163.054E-03
             107         237.847         237.847     4.33819E-03     4.33819E-03    -172.659E-03    -172.659E-03
             108         238.195         238.195     3.44470E-03     3.44470E-03    -180.844E-03    -180.844E-03
             109         238.557         238.557     2.17757E-03     2.17757E-03    -186.944E-03    -186.944E-03
             110         238.929         238.929     477.358E-06     477.358E-06    -190.159E-03    -190.159E-03
             111         239.303         239.303    -1.73759E-03    -1.73759E-03    -189.550E-03    -189.550E-03
             112         239.671         239.671    -4.51388E-03    -4.51388E-03    -184.043E-03    -184.043E-03
             113         240.022         240.022    -7.90786E-03    -7.90786E-03    -172.466E-03    -172.466E-03
             114         240.344         240.344    -11.9127E-03    -11.9127E-03    -153.588E-03    -153.588E-03
             115         240.619         240.619    -16.4924E-03    -16.4924E-03    -126.221E-03    -126.221E-03
             116         240.832         240.832    -21.5207E-03    -21.5207E-03    -89.3299E-03    -89.3299E-03
             117         240.961         240.961    -26.7693E-03    -26.7693E-03    -42.2302E-03    -42.2302E-03
             118         240.988         240.988    -31.9155E-03    -31.9155E-03     15.2258E-03     15.2258E-03
             119         240.891         240.891    -36.4528E-03    -36.4528E-03     82.3632E-03     82.3632E-03
             120         240.655         240.655    -39.8315E-03    -39.8315E-03     157.465E-03     157.465E-03
             121         240.265         240.265    -41.3150E-03    -41.3150E-03     237.541E-03     237.541E-03
             122         239.717         239.717    -40.2535E-03    -40.2535E-03     318.220E-03     318.220E-03
             123         239.014         239.014    -36.0431E-03    -36.0431E-03     393.891E-03     393.891E-03
             124         238.174         238.174    -28.2692E-03    -28.2692E-03     457.521E-03     457.521E-03
             125         237.335         237.335    -43.6450E-03    -43.6450E-03     925.888E-03     925.888E-03
             126         237.795         237.795    -125.966E-03    -125.966E-03         1.66572         1.66572
             127         238.333         238.333    -260.635E-03    -260.635E-03         2.21497         2.21497
             128         238.939         238.939    -456.585E-03    -456.585E-03         2.61873         2.61873
             129         239.618         239.618    -734.176E-03    -734.176E-03         2.90625         2.90625
             130         240.380         240.380        -1.12430        -1.12430         3.08725         3.08725
             131         241.236         241.236        -1.66847        -1.66847         3.14972         3.14972
             132         242.195         242.195        -2.41811        -2.41811         3.05522         3.05522
             133         243.246         243.246        -3.43125        -3.43125         2.72863         2.72863
             134         244.333         244.333        -4.75773        -4.75773         2.04902         2.04902
             135         245.315         245.315        -6.40967        -6.40967     843.195E-03     843.195E-03
             136         245.898         245.898        -8.29178        -8.29178        -1.07382        -1.07382
             137         242.186         242.186        -9.25624        -9.25624         5.66746         5.66746
             138         239.535         239.535        -7.82952        -7.82952         6.29912         6.29912
             139         237.417         237.417        -6.31518        -6.31518         6.38200         6.38200
             140         235.825         235.825        -4.91259        -4.91259         6.13074         6.13074
             141         234.678         234.678        -3.69433        -3.69433         5.70627         5.70627
             142         233.883         233.883        -2.67349        -2.67349         5.21482         5.21482
             143         233.352         233.352        -1.83377        -1.83377         4.71772         4.71772
             144         233.016         233.016        -1.15141        -1.15141         4.24722         4.24722
             145         232.822         232.822    -601.488E-03    -601.488E-03         3.81773         3.81773
             146         232.729         232.729    -162.008E-03    -162.008E-03         3.43353         3.43353
             147         232.708         232.708     185.922E-03     185.922E-03         3.09355         3.09355
             148         232.737         232.737     457.933E-03     457.933E-03         2.79404         2.79404
             149         232.801         232.801     667.010E-03     667.010E-03         2.53027         2.53027
             150         232.888         232.888     823.889E-03     823.889E-03         2.29735         2.29735
             151         232.990         232.990     937.526E-03     937.526E-03         2.09073         2.09073
             152         233.100         233.100         1.01542         1.01542         1.90637         1.90637
             153         233.213         233.213         1.06392         1.06392         1.74081         1.74081
             154         233.327         233.327         1.08836         1.08836         1.59118         1.59118
             155         233.438         233.438         1.09333         1.09333         1.45513         1.45513
             156         233.546         233.546         1.08270         1.08270         1.33072         1.33072
             157         233.649         233.649         1.05979         1.05979         1.21644         1.21644
             158         233.746         233.746         1.02740         1.02740         1.11106         1.11106
             159         233.837         233.837     987.949E-03     987.949E-03         1.01359         1.01359
             160         233.922         233.922     943.442E-03     943.442E-03     923.243E-03     923.243E-03
             161         234.000         234.000     895.588E-03     895.588E-03     839.370E-03     839.370E-03
             162         234.072         234.072     845.817E-03     845.817E-03     761.434E-03     761.434E-03
             163         234.137         234.137     795.317E-03     795.317E-03     688.979E-03     688.979E-03
             164         234.197         234.197     745.075E-03     745.075E-03     621.603E-03     621.603E-03
             165         234.250         234.250     695.899E-03     695.899E-03     558.942E-03     558.942E-03
             166         234.299         234.299     648.446E-03     648.446E-03     500.661E-03     500.661E-03
             167         234.342         234.342     603.247E-03     603.247E-03     446.439E-03     446.439E-03
             168         234.380         234.380     560.727E-03     560.727E-03     395.964E-03     395.964E-03
             169         234.414         234.414     521.219E-03     521.219E-03     348.931E-03     348.931E-03
             170         234.444         234.444     484.984E-03     484.984E-03     305.032E-03     305.032E-03
             171         234.470         234.470     452.220E-03     452.220E-03     263.964E-03     263.964E-03
             172         234.492         234.492     423.078E-03     423.078E-03     225.417E-03     225.417E-03
             173         234.510         234.510     397.669E-03     397.669E-03     189.084E-03     189.084E-03
             174         234.526         234.526     376.074E-03     376.074E-03     154.653E-03     154.653E-03
             175         234.538         234.538     358.350E-03     358.350E-03     121.809E-03     121.809E-03
             176         234.548         234.548     344.536E-03     344.536E-03     90.2391E-03     90.2391E-03
             177         234.554         234.554     334.657E-03     334.657E-03     59.6254E-03     59.6254E-03
             178         234.558         234.558     328.716E-03     328.716E-03     29.7307E-03     29.7307E-03
             179         234.530         234.530     359.831E-03     359.831E-03     13.0792E-03     13.0792E-03
             180         234.502         234.502     389.700E-03     389.700E-03     10.6852E-03     10.6852E-03
             181         234.479         234.479     413.073E-03     413.073E-03     7.91696E-03     7.91696E-03
             182         234.463         234.463     429.127E-03     429.127E-03     4.87117E-03     4.87117E-03
             183         234.455         234.455     437.296E-03     437.296E-03     1.65380E-03     1.65380E-03
             184         234.455         234.455     437.289E-03     437.289E-03    -1.62312E-03    -1.62312E-03
             185         234.463         234.463     429.110E-03     429.110E-03    -4.84493E-03    -4.84493E-03
             186         234.479         234.479     413.049E-03     413.049E-03    -7.90036E-03    -7.90036E-03
             187         234.502         234.502     389.665E-03     389.665E-03    -10.6792E-03    -10.6792E-03
             188         234.530         234.530     359.787E-03     359.787E-03    -13.0766E-03    -13.0766E-03
             189         194.014         194.014         2.73355         2.73355         12.9370         12.9370
             190         208.108         208.108        -3.71896        -3.71896         20.3045         20.3045
             191         223.649         223.649        -9.78446        -9.78446         20.6179         20.6179
             192         235.638         235.638        -12.9776        -12.9776         16.3357         16.3357
             193         242.723         242.723        -13.2162        -13.2162         10.6608         10.6608
             194         241.430         241.430        -13.2008        -13.2008        -11.7871        -11.7871
             195         231.198         231.198        -11.8816        -11.8816        -18.1648        -18.1648
             196         214.607         214.607        -6.31601        -6.31601        -20.7256        -20.7256
             197         197.117         197.117         1.29562         1.29562        -14.5756        -14.5756
             198         236.478         236.478    -53.4975E-03    -53.4975E-03    -770.327E-03    -770.327E-03
             199         236.988         236.988    -154.418E-03    -154.418E-03        -1.36422        -1.36422
             200         237.597         237.597    -318.148E-03    -318.148E-03        -1.77982        -1.77982
             201         238.291         238.291    -551.771E-03    -551.771E-03        -2.06557        -2.06557
             202         239.072         239.072    -873.840E-03    -873.840E-03        -2.25279        -2.25279
             203         239.945         239.945        -1.31350        -1.31350        -2.35268        -2.35268
             204         240.919         240.919        -1.91062        -1.91062        -2.35418        -2.35418
             205         242.000         242.000        -2.71508        -2.71508        -2.21927        -2.21927
             206         243.171         243.171        -3.78348        -3.78348        -1.87271        -1.87271
             207         244.377         244.377        -5.16435        -5.16435        -1.19278        -1.19278
             208         245.470         245.470        -6.86850        -6.86850    -4.97817E-03    -4.97817E-03
             209         246.155         246.155        -8.80081        -8.80081         1.87992         1.87992
             210         252.218         252.218        -10.4899        -10.4899     364.282E-03     364.282E-03
             211         255.392         255.392        -4.80626        -4.80626        -5.15309        -5.15309
             212         255.304         255.304         6.28233         6.28233        -9.05960        -9.05960
             213         252.549         252.549         18.9151         18.9151        -7.34131        -7.34131
             214         252.486         252.486         19.0265         19.0265         7.92101         7.92101
             215         255.173         255.173         6.50781         6.50781         9.65695         9.65695
             216         255.192         255.192        -4.46859        -4.46859         5.78354         5.78354
             217         251.944         251.944        -10.0475        -10.0475     312.491E-03     312.491E-03
             218         235.820         235.820     4.45940E-03     4.45940E-03     513.158E-03     513.158E-03
             219         234.462         234.462     27.6490E-03     27.6490E-03     470.402E-03     470.402E-03
             220         233.307         233.307     49.1515E-03     49.1515E-03     366.101E-03     366.101E-03
             221         232.510         232.510     64.3437E-03     64.3437E-03     211.301E-03     211.301E-03
             222         232.180         232.180     69.6348E-03     69.6348E-03     28.3058E-03     28.3058E-03
             223         232.353         232.353     63.6494E-03     63.6494E-03    -153.717E-03    -153.717E-03
             224         232.987         232.987     47.7633E-03     47.7633E-03    -305.601E-03    -305.601E-03
             225         233.969         233.969     25.5772E-03     25.5772E-03    -405.053E-03    -405.053E-03
             226         235.137         235.137     1.70020E-03     1.70020E-03    -441.018E-03    -441.018E-03
             227         245.859         245.859        -8.30943        -8.30943         1.10074         1.10074
             228         245.287         245.287        -6.42792        -6.42792    -823.833E-03    -823.833E-03
             229         244.312         244.312        -4.77721        -4.77721        -2.03252        -2.03252
             230         243.231         243.231        -3.45202        -3.45202        -2.71411        -2.71411
             231         242.186         242.186        -2.43935        -2.43935        -3.04299        -3.04299
             232         241.233         241.233        -1.68878        -1.68878        -3.14016        -3.14016
             233         240.381         240.381        -1.14224        -1.14224        -3.08031        -3.08031
             234         239.624         239.624    -748.654E-03    -748.654E-03        -2.90141        -2.90141
             235         238.951         238.951    -467.123E-03    -467.123E-03        -2.61532        -2.61532
             236         238.352         238.352    -267.283E-03    -267.283E-03        -2.21241        -2.21241
             237         237.824         237.824    -129.426E-03    -129.426E-03        -1.66379        -1.66379
             238         237.375         237.375    -45.0027E-03    -45.0027E-03    -925.095E-03    -925.095E-03
             239         238.188         238.188    -28.2295E-03    -28.2295E-03    -457.035E-03    -457.035E-03
             240         239.027         239.027    -36.0719E-03    -36.0719E-03    -393.270E-03    -393.270E-03
             241         239.728         239.728    -40.2545E-03    -40.2545E-03    -317.577E-03    -317.577E-03
             242         240.275         240.275    -41.3231E-03    -41.3231E-03    -236.891E-03    -236.891E-03
             243         240.664         240.664    -39.8152E-03    -39.8152E-03    -156.827E-03    -156.827E-03
             244         240.899         240.899    -36.4347E-03    -36.4347E-03    -81.7626E-03    -81.7626E-03
             245         240.994         240.994    -31.8863E-03    -31.8863E-03    -14.6746E-03    -14.6746E-03
             246         240.967         240.967    -26.7383E-03    -26.7383E-03     42.7192E-03     42.7192E-03
             247         240.836         240.836    -21.4885E-03    -21.4885E-03     89.7547E-03     89.7547E-03
             248         240.623         240.623    -16.4611E-03    -16.4611E-03     126.581E-03     126.581E-03
             249         240.347         240.347    -11.8852E-03    -11.8852E-03     153.888E-03     153.888E-03
             250         240.025         240.025    -7.88304E-03    -7.88304E-03     172.714E-03     172.714E-03
             251         239.673         239.673    -4.49407E-03    -4.49407E-03     184.246E-03     184.246E-03
             252         239.305         239.305    -1.72049E-03    -1.72049E-03     189.715E-03     189.715E-03
             253         238.930         238.930     490.259E-06     490.259E-06     190.295E-03     190.295E-03
             254         238.559         238.559     2.18855E-03     2.18855E-03     187.055E-03     187.055E-03
             255         238.196         238.196     3.45276E-03     3.45276E-03     180.936E-03     180.936E-03
             256         237.848         237.848     4.34515E-03     4.34515E-03     172.736E-03     172.736E-03
             257         237.517         237.517     4.93767E-03     4.93767E-03     163.118E-03     163.118E-03
             258         237.206         237.206     5.28548E-03     5.28548E-03     152.621E-03     152.621E-03
             259         236.916         236.916     5.44369E-03     5.44369E-03     141.670E-03     141.670E-03
             260         236.648         236.648     5.45442E-03     5.45442E-03     130.597E-03     130.597E-03
             261         236.401         236.401     5.35587E-03     5.35587E-03     119.653E-03     119.653E-03
             262         236.176         236.176     5.17746E-03     5.17746E-03     109.019E-03     109.019E-03
             263         235.971         235.971     4.94396E-03     4.94396E-03     98.8278E-03     98.8278E-03
             264         235.786         235.786     4.67466E-03     4.67466E-03     89.1642E-03     89.1642E-03
             265         235.620         235.620     4.38482E-03     4.38482E-03     80.0811E-03     80.0811E-03
             266         235.470         235.470     4.08642E-03     4.08642E-03     71.6040E-03     71.6040E-03
             267         235.337         235.337     3.78840E-03     3.78840E-03     63.7382E-03     63.7382E-03
             268         235.219         235.219     3.49786E-03     3.49786E-03     56.4733E-03     56.4733E-03
             269         235.114         235.114     3.21969E-03     3.21969E-03     49.7871E-03     49.7871E-03
             270         235.022         235.022     2.95793E-03     2.95793E-03     43.6490E-03     43.6490E-03
             271         234.942         234.942     2.71494E-03     2.71494E-03     38.0223E-03     38.0223E-03
             272         234.872         234.872     2.49300E-03     2.49300E-03     32.8658E-03     32.8658E-03
             273         234.812         234.812     2.29287E-03     2.29287E-03     28.1355E-03     28.1355E-03
             274         234.761         234.761     2.11600E-03     2.11600E-03     23.7855E-03     23.7855E-03
             275         234.718         234.718     1.96206E-03     1.96206E-03     19.7687E-03     19.7687E-03
             276         234.683         234.683     1.83233E-03     1.83233E-03     16.0376E-03     16.0376E-03
             277         234.654         234.654     1.72606E-03     1.72606E-03     12.5438E-03     12.5438E-03
             278         234.633         234.633     1.64368E-03     1.64368E-03     9.23989E-03     9.23989E-03
             279         234.618         234.618     1.59517E-03     1.59517E-03     6.06843E-03     6.06843E-03
             280         234.609         234.609     1.54668E-03     1.54668E-03     3.09732E-03     3.09732E-03
             281         234.627         234.627     4.47839E-03     4.47839E-03     3.15217E-03     3.15217E-03
             282         234.664         234.664     13.2137E-03     13.2137E-03     5.97223E-03     5.97223E-03
             283         234.691         234.691     27.3551E-03     27.3551E-03     8.58838E-03     8.58838E-03
             284         234.706         234.706     46.4515E-03     46.4515E-03     10.9531E-03     10.9531E-03
             285         234.712         234.712     69.9338E-03     69.9338E-03     12.9956E-03     12.9956E-03
             286         234.710         234.710     97.1276E-03     97.1276E-03     14.6798E-03     14.6798E-03
             287         234.701         234.701     127.288E-03     127.288E-03     15.9710E-03     15.9710E-03
             288         234.685         234.685     159.617E-03     159.617E-03     16.8510E-03     16.8510E-03
             289         234.665         234.665     193.290E-03     193.290E-03     17.3093E-03     17.3093E-03
             290         234.641         234.641     227.471E-03     227.471E-03     17.3463E-03     17.3463E-03
             291         234.615         234.615     261.333E-03     261.333E-03     16.9709E-03     16.9709E-03
             292         234.588         234.588     294.074E-03     294.074E-03     16.1984E-03     16.1984E-03
             293         221.715         221.715         64.3525         64.3525        -14.7263        -14.7263
             294         224.020         224.020         58.8448         58.8448        -14.6509        -14.6509
             295         226.261         226.261         53.3277         53.3277        -14.1912        -14.1912
             296         228.384         228.384         47.9147         47.9147        -13.5032        -13.5032
             297         230.340         230.340         42.6934         42.6934        -12.6036        -12.6036
             298         232.092         232.092         37.7399         37.7399        -11.5358        -11.5358
             299         233.620         233.620         33.1105         33.1105        -10.3405        -10.3405
             300         234.910         234.910         28.8472         28.8472        -9.07061        -9.07061
             301         235.971         235.971         24.9680         24.9680        -7.77215        -7.77215
             302         236.807         236.807         21.4785         21.4785        -6.48701        -6.48701
             303         237.446         237.446         18.3685         18.3685        -5.25042        -5.25042
             304         237.902         237.902         15.6196         15.6196        -4.08563        -4.08563
             305         238.206         238.206         13.2077         13.2077        -3.01162        -3.01162
             306         238.377         238.377         11.1043         11.1043        -2.03562        -2.03562
             307         238.438         238.438         9.28161         9.28161        -1.16297        -1.16297
             308         238.409         238.409         7.70989         7.70989    -390.816E-03    -390.816E-03
             309         238.306         238.306         6.36293         6.36293     284.063E-03     284.063E-03
             310         238.144         238.144         5.21374         5.21374     869.506E-03     869.506E-03
             311         237.935         237.935         4.23923         4.23923         1.37294         1.37294
             312         237.689         237.689         3.41629         3.41629         1.80394         1.80394
             313         237.416         237.416         2.72505         2.72505         2.17137         2.17137
             314         237.123         237.123         2.14599         2.14599         2.48486         2.48486
             315         236.815         236.815         1.66199         1.66199         2.75327         2.75327
             316         236.498         236.498         1.25633         1.25633         2.98563         2.98563
             317         236.177         236.177     913.937E-03     913.937E-03         3.19032         3.19032
             318         235.857         235.857     619.995E-03     619.995E-03         3.37570         3.37570
             319         235.543         235.543     360.642E-03     360.642E-03         3.54976         3.54976
             320         235.238         235.238     122.006E-03     122.006E-03         3.72047         3.72047
             321         234.950         234.950    -109.513E-03    -109.513E-03         3.89571         3.89571
             322         234.686         234.686    -347.975E-03    -347.975E-03         4.08343         4.08343
             323         234.453         234.453    -607.946E-03    -607.946E-03         4.29154         4.29154
             324         234.266         234.266    -905.155E-03    -905.155E-03         4.52786         4.52786
             325         234.138         234.138        -1.25686        -1.25686         4.79957         4.79957
             326         234.092         234.092        -1.68242        -1.68242         5.11255         5.11255
             327         234.158         234.158        -2.20393        -2.20393         5.46964         5.46964
             328         234.374         234.374        -2.84611        -2.84611         5.86804         5.86804
             329         234.795         234.795        -3.63622        -3.63622         6.29454         6.29454
             330         235.488         235.488        -4.59992        -4.59992         6.71784         6.71784
             331         236.541         236.541        -5.75513        -5.75513         7.07738         7.07738
             332         238.046         238.046        -7.08981        -7.08981         7.26746         7.26746
             333         240.085         240.085        -8.53223        -8.53223         7.12747         7.12747
             334         242.662         242.662        -9.88246        -9.88246         6.44283         6.44283
             335         237.118         237.118    -32.1952E-03    -32.1952E-03    -369.490E-03    -369.490E-03
             336         237.776         237.776    -40.4411E-03    -40.4411E-03    -297.485E-03    -297.485E-03
             337         238.279         238.279    -45.1539E-03    -45.1539E-03    -212.439E-03    -212.439E-03
             338         238.609         238.609    -46.6781E-03    -46.6781E-03    -121.391E-03    -121.391E-03
             339         238.759         238.759    -45.7087E-03    -45.7087E-03    -29.9458E-03    -29.9458E-03
             340         238.732         238.732    -42.7811E-03    -42.7811E-03     57.5304E-03     57.5304E-03
             341         238.540         238.540    -38.7603E-03    -38.7603E-03     138.040E-03     138.040E-03
             342         238.197         238.197    -34.0279E-03    -34.0279E-03     209.856E-03     209.856E-03
             343         237.722         237.722    -29.2831E-03    -29.2831E-03     272.269E-03     272.269E-03
             344         237.133         237.133    -24.5818E-03    -24.5818E-03     325.383E-03     325.383E-03
             345         236.449         236.449    -20.4691E-03    -20.4691E-03     369.808E-03     369.808E-03
             346         235.684         235.684    -16.6289E-03    -16.6289E-03     406.486E-03     406.486E-03
             347         234.853         234.853    -13.6359E-03    -13.6359E-03     436.471E-03     436.471E-03
             348         233.969         233.969    -10.7518E-03    -10.7518E-03     460.831E-03     460.831E-03
             349         233.042         233.042    -8.84176E-03    -8.84176E-03     480.529E-03     480.529E-03
             350         232.079         232.079    -6.59970E-03    -6.59970E-03     496.380E-03     496.380E-03
             351         231.089         231.089    -5.51774E-03    -5.51774E-03     509.008E-03     509.008E-03
             352         230.076         230.076    -3.40603E-03    -3.40603E-03     518.825E-03     518.825E-03
             353         229.046         229.046    -2.87251E-03    -2.87251E-03     526.036E-03     526.036E-03
             354         228.005         228.005    -257.304E-06    -257.304E-06     530.608E-03     530.608E-03
             355         226.957         226.957    -72.2210E-06    -72.2210E-06     532.307E-03     532.307E-03
             356         225.910         225.910     3.84084E-03     3.84084E-03     530.627E-03     530.627E-03
             357         224.869         224.869     3.73548E-03     3.73548E-03     524.869E-03     524.869E-03
             358         223.845         223.845     10.0477E-03     10.0477E-03     513.965E-03     513.965E-03
             359         222.848         222.848     9.50413E-03     9.50413E-03     496.677E-03     496.677E-03
             360         221.893         221.893     19.9229E-03     19.9229E-03     471.137E-03     471.137E-03
             361         220.999         220.999     18.4797E-03     18.4797E-03     435.407E-03     435.407E-03
             362         220.187         220.187     35.9207E-03     35.9207E-03     386.230E-03     386.230E-03
             363         219.488         219.488     32.5778E-03     32.5778E-03     320.702E-03     320.702E-03
             364         218.940         218.940     62.4976E-03     62.4976E-03     232.699E-03     232.699E-03
             365         218.591         218.591     55.1671E-03     55.1671E-03     118.042E-03     118.042E-03
             366         218.506         218.506     108.908E-03     108.908E-03    -36.2773E-03    -36.2773E-03
             367         218.769         218.769     92.8314E-03     92.8314E-03    -235.566E-03    -235.566E-03
             368         219.497         219.497     197.332E-03     197.332E-03    -511.802E-03    -511.802E-03
             369         220.852         220.852     159.817E-03     159.817E-03    -868.531E-03    -868.531E-03
             370         223.070         223.070     390.862E-03     390.862E-03        -1.39804        -1.39804
             371         226.502         226.502     291.615E-03     291.615E-03        -2.08658        -2.08658
             372         231.737         231.737     915.877E-03     915.877E-03        -3.25765        -3.25765
             373         239.697         239.697     602.585E-03     602.585E-03        -4.80696        -4.80696
             374         252.542         252.542         2.96365         2.96365        -8.29264        -8.29264
             375         273.813         273.813         1.72967         1.72967        -13.1897        -13.1897
             376         322.979         322.979         23.2158         23.2158        -36.7149        -36.7149
             377         313.994         313.994         60.5814         60.5814        -61.8107        -61.8107
             378         262.007         262.007         69.8050         69.8050        -57.7287        -57.7287
             379         247.835         247.835         68.5166         68.5166        -48.5128        -48.5128
             380         238.080         238.080         68.4066         68.4066        -43.6262        -43.6262
             381         232.886         232.886         67.9060         67.9060        -38.5614        -38.5614
             382         229.075         229.075         67.6486         67.6486        -34.7510        -34.7510
             383         226.624         226.624         67.4411         67.4411        -31.0710        -31.0710
             384         224.752         224.752         67.2977         67.2977        -27.9239        -27.9239
             385         223.437         223.437         67.2134         67.2134        -24.9187        -24.9187
             386         222.406         222.406         67.1469         67.1469        -22.1934        -22.1934
             387         221.646         221.646         67.1170         67.1170        -19.5833        -19.5833
             388         221.041         221.041         67.0905         67.0905        -17.1389        -17.1389
             389         246.059         246.059        -8.84154        -8.84154        -2.00640        -2.00640
             390         245.413         245.413        -6.93753        -6.93753    -113.877E-03    -113.877E-03
             391         244.354         244.354        -5.24855        -5.24855         1.09584         1.09584
             392         243.172         243.172        -3.86862        -3.86862         1.80227         1.80227
             393         242.013         242.013        -2.79133        -2.79133         2.17276         2.17276
             394         240.937         240.937        -1.97336        -1.97336         2.32616         2.32616
             395         239.964         239.964        -1.36195        -1.36195         2.33760         2.33760
             396         239.090         239.090    -909.078E-03    -909.078E-03         2.24623         2.24623
             397         238.308         238.308    -575.634E-03    -575.634E-03         2.06422         2.06422
             398         237.614         237.614    -332.642E-03    -332.642E-03         1.78123         1.78123
             399         237.007         237.007    -161.616E-03    -161.616E-03         1.36640         1.36640
             400         236.503         236.503    -55.9007E-03    -55.9007E-03     771.608E-03     771.608E-03
             401         235.244         235.244    -807.328E-06    -807.328E-06     444.987E-03     444.987E-03
             402         234.157         234.157     20.8177E-03     20.8177E-03     421.080E-03     421.080E-03
             403         233.198         233.198     42.0884E-03     42.0884E-03     343.247E-03     343.247E-03
             404         232.497         232.497     58.9639E-03     58.9639E-03     217.554E-03     217.554E-03
             405         232.156         232.156     69.4963E-03     69.4963E-03     57.6216E-03     57.6216E-03
             406         232.234         232.234     69.2247E-03     69.2247E-03    -114.733E-03    -114.733E-03
             407         232.728         232.728     59.7147E-03     59.7147E-03    -274.563E-03    -274.563E-03
             408         233.582         233.582     44.2834E-03     44.2834E-03    -403.035E-03    -403.035E-03
             409         234.700         234.700     23.5182E-03     23.5182E-03    -486.149E-03    -486.149E-03
             410         235.959         235.959     2.26830E-03     2.26830E-03    -516.849E-03    -516.849E-03
             411         251.948         251.948         21.1492         21.1492         6.64285         6.64285
             412         254.631         254.631         10.8371         10.8371         9.61088         9.61088
             413         256.001         256.001     6.61826E-03     6.61826E-03         7.79196         7.79196
             414         254.805         254.805        -7.55600        -7.55600         3.34088         3.34088
             415         251.574         251.574        -11.1188        -11.1188        -1.25972        -1.25972
             416         251.911         251.911        -10.0889        -10.0889    -274.234E-03    -274.234E-03
             417         255.177         255.177        -4.54698        -4.54698        -5.74410        -5.74410
             418         255.188         255.188         6.38719         6.38719        -9.63838        -9.63838
             419         252.532         252.532         18.8821         18.8821        -7.95551        -7.95551
             420         221.716         221.716         64.3511         64.3511         14.7221         14.7221
             421         224.020         224.020         58.8446         58.8446         14.6449         14.6449
             422         226.260         226.260         53.3290         53.3290         14.1831         14.1831
             423         228.383         228.383         47.9179         47.9179         13.4932         13.4932
             424         230.337         230.337         42.6988         42.6988         12.5921         12.5921
             425         232.089         232.089         37.7475         37.7475         11.5234         11.5234
             426         233.616         233.616         33.1202         33.1202         10.3278         10.3278
             427         234.906         234.906         28.8589         28.8589         9.05824         9.05824
             428         235.967         235.967         24.9812         24.9812         7.76058         7.76058
             429         236.804         236.804         21.4930         21.4930         6.47672         6.47672
             430         237.443         237.443         18.3837         18.3837         5.24172         5.24172
             431         237.901         237.901         15.6352         15.6352         4.07873         4.07873
             432         238.206         238.206         13.2233         13.2233         3.00667         3.00667
             433         238.378         238.378         11.1195         11.1195         2.03264         2.03264
             434         238.440         238.440         9.29615         9.29615         1.16198         1.16198
             435         238.412         238.412         7.72358         7.72358     391.730E-03     391.730E-03
             436         238.310         238.310         6.37567         6.37567    -281.284E-03    -281.284E-03
             437         238.149         238.149         5.22542         5.22542    -865.003E-03    -865.003E-03
             438         237.941         237.941         4.24986         4.24986        -1.36678        -1.36678
             439         237.696         237.696         3.42587         3.42587        -1.79628        -1.79628
             440         237.423         237.423         2.73369         2.73369        -2.16228        -2.16228
             441         237.129         237.129         2.15378         2.15378        -2.47448        -2.47448
             442         236.820         236.820         1.66911         1.66911        -2.74168        -2.74168
             443         236.503         236.503         1.26296         1.26296        -2.97295        -2.97295
             444         236.181         236.181     920.325E-03     920.325E-03        -3.17663        -3.17663
             445         235.859         235.859     626.407E-03     626.407E-03        -3.36112        -3.36112
             446         235.542         235.542     367.430E-03     367.430E-03        -3.53439        -3.53439
             447         235.234         235.234     129.556E-03     129.556E-03        -3.70448        -3.70448
             448         234.942         234.942    -100.709E-03    -100.709E-03        -3.87928        -3.87928
             449         234.673         234.673    -337.357E-03    -337.357E-03        -4.06685        -4.06685
             450         234.434         234.434    -594.822E-03    -594.822E-03        -4.27523        -4.27523
             451         234.239         234.239    -888.745E-03    -888.745E-03        -4.51247        -4.51247
             452         234.101         234.101        -1.23624        -1.23624        -4.78608        -4.78608
             453         234.044         234.044        -1.65666        -1.65666        -5.10248        -5.10248
             454         234.095         234.095        -2.17209        -2.17209        -5.46531        -5.46531
             455         234.294         234.294        -2.80770        -2.80770        -5.87296        -5.87296
             456         234.695         234.695        -3.59151        -3.59151        -6.31370        -6.31370
             457         235.368         235.368        -4.55127        -4.55127        -6.75828        -6.75828
             458         236.403         236.403        -5.70817        -5.70817        -7.14707        -7.14707
             459         237.899         237.899        -7.05425        -7.05425        -7.37325        -7.37325
             460         239.943         239.943        -8.51978        -8.51978        -7.27032        -7.27032
             461         242.541         242.541        -9.90184        -9.90184        -6.61613        -6.61613
             462         241.965         241.965        -13.8013        -13.8013        -12.3761        -12.3761
             463         231.821         231.821        -12.5269        -12.5269        -18.6328        -18.6328
             464         215.285         215.285        -6.99064        -6.99064        -21.0537        -21.0537
             465         197.820         197.820     607.298E-03     607.298E-03        -14.7434        -14.7434
             466         194.729         194.729         2.03817         2.03817         13.0918         13.0918
             467         208.812         208.812        -4.40811        -4.40811         20.5933         20.5933
             468         224.319         224.319        -10.4552        -10.4552         21.0260         21.0260
             469         236.249         236.249        -13.6166        -13.6166         16.8507         16.8507
             470         243.250         243.250        -13.8131        -13.8131         11.2715         11.2715
             471         220.150         220.150         67.0815         67.0815        -11.9354        -11.9354
             472         219.832         219.832         67.0831         67.0831        -9.17723        -9.17723
             473         219.611         219.611         67.0853         67.0853        -6.50570        -6.50570
             474         219.474         219.474         67.0891         67.0891        -3.88477        -3.88477
             475         219.407         219.407         67.0900         67.0900        -1.30042        -1.30042
             476         219.408         219.408         67.0890         67.0890         1.27835         1.27835
             477         219.475         219.475         67.0863         67.0863         3.86538         3.86538
             478         219.613         219.613         67.0817         67.0817         6.49030         6.49030
             479         219.834         219.834         67.0792         67.0792         9.16642         9.16642
             480         220.152         220.152         67.0784         67.0784         11.9289         11.9289
             481         221.042         221.042         67.0893         67.0893         17.1369         17.1369
             482         221.646         221.646         67.1166         67.1166         19.5819         19.5819
             483         222.406         222.406         67.1466         67.1466         22.1923         22.1923
             484         223.437         223.437         67.2132         67.2132         24.9179         24.9179
             485         224.752         224.752         67.2976         67.2976         27.9232         27.9232
             486         226.624         226.624         67.4410         67.4410         31.0704         31.0704
             487         229.075         229.075         67.6486         67.6486         34.7505         34.7505
             488         232.886         232.886         67.9060         67.9060         38.5609         38.5609
             489         238.080         238.080         68.4066         68.4066         43.6259         43.6259
             490         247.835         247.835         68.5166         68.5166         48.5124         48.5124
             491         262.007         262.007         69.8049         69.8049         57.7284         57.7284
             492         313.994         313.994         60.5813         60.5813         61.8105         61.8105
             493         322.978         322.978         23.2158         23.2158         36.7147         36.7147
             494         273.813         273.813         1.72966         1.72966         13.1896         13.1896
             495         252.542         252.542         2.96364         2.96364         8.29257         8.29257
             496         239.698         239.698     602.575E-03     602.575E-03         4.80691         4.80691
             497         231.738         231.738     915.868E-03     915.868E-03         3.25761         3.25761
             498         226.502         226.502     291.607E-03     291.607E-03         2.08656         2.08656
             499         223.071         223.071     390.855E-03     390.855E-03         1.39804         1.39804
             500         220.853         220.853     159.811E-03     159.811E-03     868.543E-03     868.543E-03
             501         219.497         219.497     197.326E-03     197.326E-03     511.825E-03     511.825E-03
             502         218.769         218.769     92.8274E-03     92.8274E-03     235.598E-03     235.598E-03
             503         218.506         218.506     108.905E-03     108.905E-03     36.3166E-03     36.3166E-03
             504         218.591         218.591     55.1650E-03     55.1650E-03    -117.997E-03    -117.997E-03
             505         218.940         218.940     62.4960E-03     62.4960E-03    -232.651E-03    -232.651E-03
             506         219.488         219.488     32.5770E-03     32.5770E-03    -320.652E-03    -320.652E-03
             507         220.187         220.187     35.9202E-03     35.9202E-03    -386.179E-03    -386.179E-03
             508         220.998         220.998     18.4796E-03     18.4796E-03    -435.355E-03    -435.355E-03
             509         221.893         221.893     19.9230E-03     19.9230E-03    -471.085E-03    -471.085E-03
             510         222.848         222.848     9.50427E-03     9.50427E-03    -496.625E-03    -496.625E-03
             511         223.844         223.844     10.0481E-03     10.0481E-03    -513.913E-03    -513.913E-03
             512         224.868         224.868     3.73553E-03     3.73553E-03    -524.818E-03    -524.818E-03
             513         225.909         225.909     3.84133E-03     3.84133E-03    -530.576E-03    -530.576E-03
             514         226.956         226.956    -72.4895E-06    -72.4895E-06    -532.257E-03    -532.257E-03
             515         228.004         228.004    -256.783E-06    -256.783E-06    -530.558E-03    -530.558E-03
             516         229.045         229.045    -2.87326E-03    -2.87326E-03    -525.985E-03    -525.985E-03
             517         230.075         230.075    -3.40551E-03    -3.40551E-03    -518.774E-03    -518.774E-03
             518         231.087         231.087    -5.51913E-03    -5.51913E-03    -508.955E-03    -508.955E-03
             519         232.078         232.078    -6.59916E-03    -6.59916E-03    -496.326E-03    -496.326E-03
             520         233.040         233.040    -8.84367E-03    -8.84367E-03    -480.474E-03    -480.474E-03
             521         233.968         233.968    -10.7508E-03    -10.7508E-03    -460.774E-03    -460.774E-03
             522         234.852         234.852    -13.6370E-03    -13.6370E-03    -436.414E-03    -436.414E-03
             523         235.682         235.682    -16.6253E-03    -16.6253E-03    -406.429E-03    -406.429E-03
             524         236.447         236.447    -20.4648E-03    -20.4648E-03    -369.760E-03    -369.760E-03
             525         237.131         237.131    -24.5701E-03    -24.5701E-03    -325.349E-03    -325.349E-03
             526         237.720         237.720    -29.2638E-03    -29.2638E-03    -272.265E-03    -272.265E-03
             527         238.195         238.195    -33.9994E-03    -33.9994E-03    -209.898E-03    -209.898E-03
             528         238.538         238.538    -38.7161E-03    -38.7161E-03    -138.154E-03    -138.154E-03
             529         238.730         238.730    -42.7341E-03    -42.7341E-03    -57.7337E-03    -57.7337E-03
             530         238.757         238.757    -45.6484E-03    -45.6484E-03     29.6367E-03     29.6367E-03
             531         238.608         238.608    -46.6413E-03    -46.6413E-03     120.986E-03     120.986E-03
             532         238.280         238.280    -45.1333E-03    -45.1333E-03     211.978E-03     211.978E-03
             533         237.777         237.777    -40.4704E-03    -40.4704E-03     297.035E-03     297.035E-03
             534         237.120         237.120    -32.3100E-03    -32.3100E-03     369.327E-03     369.327E-03
             535         3.73564         3.73564        -117.896        -117.896    -532.122E-03    -532.122E-03
             536         32.0002         32.0002        -43.9876        -43.9876        -1.45906        -1.45906
             537         77.4200         77.4200        -8.46156        -8.46156        -1.67215        -1.67215
             538         124.350         124.350         4.23641         4.23641        -1.46278        -1.46278
             539         163.351         163.351         6.33270         6.33270        -1.05637        -1.05637
             540         253.459         253.459        -18.4269        -18.4269        -9.26777        -9.26777
             541         262.789         262.789        -27.7574        -27.7574        -16.6984        -16.6984
             542         271.611         271.611        -36.4655        -36.4655        -28.7761        -28.7761
             543         269.578         269.578        -34.1612        -34.1612        -47.7311        -47.7311
             544         229.018         229.018         7.47709         7.47709        -76.8260        -76.8260
             545         114.830         114.830         7.11891         7.11891        -60.5704        -60.5704
             546         53.2297         53.2297        -44.9507        -44.9507        -27.6599        -27.6599
             547         17.1207         17.1207        -102.163        -102.163        -4.51439        -4.51439
             548     540.420E-03     540.420E-03        -147.593        -147.593         3.44041         3.44041
             549         261.583         261.583         38.3177         38.3177     252.358E-03     252.358E-03
             550         283.735         283.735         57.1479         57.1479     216.122E-03     216.122E-03
             551         325.569         325.569         74.7032         74.7032     189.087E-03     189.087E-03
             552         400.480         400.480         80.3071         80.3071     161.010E-03     161.010E-03
             553         523.569         523.569         58.7369         58.7369     107.015E-03     107.015E-03
             554         570.773         570.773         45.3783         45.3783        -65.7431        -65.7431
             555         494.983         494.983         59.4161         59.4161        -112.363        -112.363
             556         392.645         392.645         68.9499         68.9499        -130.191        -130.191
             557         286.948         286.948         63.6386         63.6386        -121.003        -121.003
             558         231.667         231.667         8.24424         8.24424         77.2862         77.2862
             559         271.395         271.395        -33.9911        -33.9911         47.1506         47.1506
             560         272.629         272.629        -36.3643        -36.3643         28.0806         28.0806
             561         263.304         263.304        -27.6615        -27.6615         16.1621         16.1621
             562         253.702         253.702        -18.3412        -18.3412         8.90803         8.90803
             563        -1.00558        -1.00558        -155.366        -155.366        -3.88358        -3.88358
             564         9.24979         9.24979        -121.203        -121.203    -577.083E-03    -577.083E-03
             565         31.3528         31.3528        -74.5758        -74.5758         13.6132         13.6132
             566         69.5457         69.5457        -26.1707        -26.1707         37.5169         37.5169
             567         125.828         125.828         15.0678         15.0678         66.2170         66.2170
             568         254.116         254.116        -18.7952        -18.7952         9.42320         9.42320
             569         263.699         263.699        -28.0328        -28.0328         16.5166         16.5166
             570         273.012         273.012        -36.6660        -36.6660         28.3154         28.3154
             571         271.791         271.791        -34.2153        -34.2153         47.3085         47.3085
             572         232.052         232.052         8.18153         8.18153         77.4475         77.4475
             573         287.334         287.334         63.5413         63.5413         121.198         121.198
             574         393.073         393.073         69.0493         69.0493         130.403         130.403
             575         495.363         495.363         59.5083         59.5083         112.559         112.559
             576         570.999         570.999         45.4303         45.4303         65.9005         65.9005
             577         226.516         226.516         6.56433         6.56433        -76.5430        -76.5430
             578         268.494         268.494        -35.1972        -35.1972        -48.3774        -48.3774
             579         271.114         271.114        -37.2225        -37.2225        -29.6153        -29.6153
             580         262.635         262.635        -28.3451        -28.3451        -17.5047        -17.5047
             581         253.535         253.535        -18.9701        -18.9701        -10.0706        -10.0706
             582         261.502         261.502         38.7045         38.7045    -786.473E-03    -786.473E-03
             583         283.739         283.739         57.5588         57.5588    -841.245E-03    -841.245E-03
             584         325.767         325.767         75.0205         75.0205    -608.917E-03    -608.917E-03
             585         400.976         400.976         80.4294         80.4294     149.530E-03     149.530E-03
             586         524.493         524.493         58.5397         58.5397         1.72833         1.72833
             587         582.055         582.055         42.9951         42.9951        -56.5187        -56.5187
             588         526.566         526.566         54.5177         54.5177        -101.195        -101.195
             589         446.957         446.957         66.0724         66.0724        -126.520        -126.520
             590         357.224         357.224         70.1480         70.1480        -131.156        -131.156
             591         270.103         270.103         62.2841         62.2841        -118.506        -118.506
             592         286.842         286.842         63.4167         63.4167         120.964         120.964
             593         392.457         392.457         68.9237         68.9237         130.151         130.151
             594         494.647         494.647         59.3683         59.3683         112.362         112.362
             595         570.271         570.271         45.4291         45.4291         65.7352         65.7352
             596         163.876         163.876         5.76565         5.76565        -1.05022        -1.05022
             597         124.686         124.686         3.78001         3.78001        -1.45039        -1.45039
             598         77.5970         77.5970        -8.86888        -8.86888        -1.65426        -1.65426
             599         32.0503         32.0503        -44.4316        -44.4316        -1.43934        -1.43934
             600         3.72069         3.72069        -118.505        -118.505    -516.343E-03    -516.343E-03
             601        -1.02102        -1.02102        -156.040        -156.040        -3.90454        -3.90454
             602         9.25873         9.25873        -121.741        -121.741    -602.971E-03    -602.971E-03
             603         31.4134         31.4134        -74.9382        -74.9382         13.6150         13.6150
             604         69.6817         69.6817        -26.3605        -26.3605         37.5776         37.5776
             605         126.074         126.074         15.0259         15.0259         66.3391         66.3391
             606         115.007         115.007         6.96225         6.96225        -60.5935        -60.5935
             607         53.2812         53.2812        -45.2935        -45.2935        -27.6346        -27.6346
             608         17.1183         17.1183        -102.697        -102.697        -4.45601        -4.45601
             609     516.262E-03     516.262E-03        -148.273        -148.273         3.49008         3.49008
             610         243.395         243.395        -8.12047        -8.12047        -2.93230        -2.93230
             611         241.233         241.233        -7.31264        -7.31264        -3.96663        -3.96663
             612         239.321         239.321        -6.24479        -6.24479        -4.52820        -4.52820
             613         237.737         237.737        -5.11211        -5.11211        -4.72278        -4.72278
             614         236.487         236.487        -4.03686        -4.03686        -4.67394        -4.67394
             615         235.535         235.535        -3.07584        -3.07584        -4.47991        -4.47991
             616         234.833         234.833        -2.24774        -2.24774        -4.21152        -4.21152
             617         234.328         234.328        -1.55001        -1.55001        -3.91334        -3.91334
             618         233.978         233.978    -971.882E-03    -971.882E-03        -3.61213        -3.61213
             619         233.746         233.746    -499.212E-03    -499.212E-03        -3.32242        -3.32242
             620         233.602         233.602    -117.831E-03    -117.831E-03        -3.05129        -3.05129
             621         233.525         233.525     185.608E-03     185.608E-03        -2.80131        -2.80131
             622         233.497         233.497     422.973E-03     422.973E-03        -2.57253        -2.57253
             623         233.505         233.505     604.725E-03     604.725E-03        -2.36366        -2.36366
             624         233.537         233.537     739.916E-03     739.916E-03        -2.17286        -2.17286
             625         233.586         233.586     836.378E-03     836.378E-03        -1.99816        -1.99816
             626         233.647         233.647     900.836E-03     900.836E-03        -1.83766        -1.83766
             627         233.715         233.715     939.070E-03     939.070E-03        -1.68967        -1.68967
             628         233.785         233.785     956.021E-03     956.021E-03        -1.55273        -1.55273
             629         233.857         233.857     955.914E-03     955.914E-03        -1.42565        -1.42565
             630         233.928         233.928     942.339E-03     942.339E-03        -1.30742        -1.30742
             631         233.996         233.996     918.344E-03     918.344E-03        -1.19722        -1.19722
             632         234.061         234.061     886.502E-03     886.502E-03        -1.09441        -1.09441
             633         234.122         234.122     848.976E-03     848.976E-03    -998.416E-03    -998.416E-03
             634         234.178         234.178     807.575E-03     807.575E-03    -908.789E-03    -908.789E-03
             635         234.231         234.231     763.802E-03     763.802E-03    -825.123E-03    -825.123E-03
             636         234.279         234.279     718.902E-03     718.902E-03    -747.061E-03    -747.061E-03
             637         234.323         234.323     673.892E-03     673.892E-03    -674.272E-03    -674.272E-03
             638         234.362         234.362     629.606E-03     629.606E-03    -606.439E-03    -606.439E-03
             639         234.398         234.398     586.712E-03     586.712E-03    -543.256E-03    -543.256E-03
             640         234.430         234.430     545.749E-03     545.749E-03    -484.414E-03    -484.414E-03
             641         234.458         234.458     507.141E-03     507.141E-03    -429.607E-03    -429.607E-03
             642         234.483         234.483     471.221E-03     471.221E-03    -378.521E-03    -378.521E-03
             643         234.504         234.504     438.246E-03     438.246E-03    -330.838E-03    -330.838E-03
             644         234.523         234.523     408.411E-03     408.411E-03    -286.237E-03    -286.237E-03
             645         234.539         234.539     381.862E-03     381.862E-03    -244.387E-03    -244.387E-03
             646         234.553         234.553     358.708E-03     358.708E-03    -204.955E-03    -204.955E-03
             647         234.564         234.564     339.023E-03     339.023E-03    -167.603E-03    -167.603E-03
             648         234.573         234.573     322.864E-03     322.864E-03    -131.989E-03    -131.989E-03
             649         234.580         234.580     310.266E-03     310.266E-03    -97.7701E-03    -97.7701E-03
             650         234.584         234.584     301.254E-03     301.254E-03    -64.5997E-03    -64.5997E-03
             651         234.587         234.587     295.835E-03     295.835E-03    -32.2173E-03    -32.2173E-03
             652         243.567         243.567        -6.80024        -6.80024    -947.508E-03    -947.508E-03
             653         241.888         241.888        -6.44255        -6.44255        -2.10963        -2.10963
             654         240.308         240.308        -5.76422        -5.76422        -2.89730        -2.89730
             655         238.903         238.903        -4.92414        -4.92414        -3.36916        -3.36916
             656         237.715         237.715        -4.04598        -4.04598        -3.59435        -3.59435
             657         236.749         236.749        -3.20619        -3.20619        -3.64610        -3.64610
             658         235.986         235.986        -2.44497        -2.44497        -3.58400        -3.58400
             659         235.399         235.399        -1.77888        -1.77888        -3.45315        -3.45315
             660         234.959         234.959        -1.21033        -1.21033        -3.28423        -3.28423
             661         234.636         234.636    -734.590E-03    -734.590E-03        -3.09747        -3.09747
             662         234.406         234.406    -343.267E-03    -343.267E-03        -2.90532        -2.90532
             663         234.249         234.249    -26.7890E-03    -26.7890E-03        -2.71520        -2.71520
             664         234.149         234.149     224.606E-03     224.606E-03        -2.53116        -2.53116
             665         234.091         234.091     420.145E-03     420.145E-03        -2.35520        -2.35520
             666         234.064         234.064     568.314E-03     568.314E-03        -2.18811        -2.18811
             667         234.061         234.061     676.697E-03     676.697E-03        -2.02999        -2.02999
             668         234.075         234.075     752.007E-03     752.007E-03        -1.88059        -1.88059
             669         234.100         234.100     800.095E-03     800.095E-03        -1.73951        -1.73951
             670         234.132         234.132     826.033E-03     826.033E-03        -1.60634        -1.60634
             671         234.169         234.169     834.172E-03     834.172E-03        -1.48066        -1.48066
             672         234.208         234.208     828.230E-03     828.230E-03        -1.36211        -1.36211
             673         234.248         234.248     811.356E-03     811.356E-03        -1.25036        -1.25036
             674         234.287         234.287     786.206E-03     786.206E-03        -1.14514        -1.14514
             675         234.324         234.324     755.003E-03     755.003E-03        -1.04617        -1.04617
             676         234.359         234.359     719.598E-03     719.598E-03    -953.234E-03    -953.234E-03
             677         234.392         234.392     681.521E-03     681.521E-03    -866.087E-03    -866.087E-03
             678         234.423         234.423     642.029E-03     642.029E-03    -784.498E-03    -784.498E-03
             679         234.450         234.450     602.148E-03     602.148E-03    -708.226E-03    -708.226E-03
             680         234.475         234.475     562.708E-03     562.708E-03    -637.019E-03    -637.019E-03
             681         234.498         234.498     524.373E-03     524.373E-03    -570.612E-03    -570.612E-03
             682         234.518         234.518     487.674E-03     487.674E-03    -508.722E-03    -508.722E-03
             683         234.535         234.535     453.025E-03     453.025E-03    -451.056E-03    -451.056E-03
             684         234.551         234.551     420.750E-03     420.750E-03    -397.304E-03    -397.304E-03
             685         234.564         234.564     391.098E-03     391.098E-03    -347.144E-03    -347.144E-03
             686         234.576         234.576     364.256E-03     364.256E-03    -300.244E-03    -300.244E-03
             687         234.586         234.586     340.363E-03     340.363E-03    -256.262E-03    -256.262E-03
             688         234.594         234.594     319.520E-03     319.520E-03    -214.846E-03    -214.846E-03
             689         234.601         234.601     301.799E-03     301.799E-03    -175.642E-03    -175.642E-03
             690         234.606         234.606     287.251E-03     287.251E-03    -138.286E-03    -138.286E-03
             691         234.610         234.610     275.909E-03     275.909E-03    -102.413E-03    -102.413E-03
             692         234.613         234.613     267.796E-03     267.796E-03    -67.6562E-03    -67.6562E-03
             693         234.615         234.615     262.916E-03     262.916E-03    -33.7395E-03    -33.7395E-03
             694         243.226         243.226        -5.47341        -5.47341     498.592E-03     498.592E-03
             695         242.002         242.002        -5.45638        -5.45638    -656.661E-03    -656.661E-03
             696         240.761         240.761        -5.08397        -5.08397        -1.53546        -1.53546
             697         239.591         239.591        -4.50556        -4.50556        -2.16147        -2.16147
             698         238.543         238.543        -3.82878        -3.82878        -2.57060        -2.57060
             699         237.642         237.642        -3.13348        -3.13348        -2.80692        -2.80692
             700         236.892         236.892        -2.46980        -2.46980        -2.91479        -2.91479
             701         236.285         236.285        -1.86603        -1.86603        -2.93142        -2.93142
             702         235.804         235.804        -1.33511        -1.33511        -2.88614        -2.88614
             703         235.429         235.429    -880.226E-03    -880.226E-03        -2.80026        -2.80026
             704         235.144         235.144    -498.940E-03    -498.940E-03        -2.68894        -2.68894
             705         234.930         234.930    -185.626E-03    -185.626E-03        -2.56250        -2.56250
             706         234.774         234.774     66.7557E-03     66.7557E-03        -2.42794        -2.42794
             707         234.663         234.663     265.744E-03     265.744E-03        -2.28986        -2.28986
             708         234.587         234.587     418.729E-03     418.729E-03        -2.15132        -2.15132
             709         234.537         234.537     532.669E-03     532.669E-03        -2.01432        -2.01432
             710         234.508         234.508     613.892E-03     613.892E-03        -1.88020        -1.88020
             711         234.493         234.493     668.048E-03     668.048E-03        -1.74984        -1.74984
             712         234.488         234.488     700.094E-03     700.094E-03        -1.62387        -1.62387
             713         234.491         234.491     714.330E-03     714.330E-03        -1.50272        -1.50272
             714         234.499         234.499     714.438E-03     714.438E-03        -1.38668        -1.38668
             715         234.509         234.509     703.549E-03     703.549E-03        -1.27596        -1.27596
             716         234.522         234.522     684.301E-03     684.301E-03        -1.17069        -1.17069
             717         234.535         234.535     658.897E-03     658.897E-03        -1.07093        -1.07093
             718         234.548         234.548     629.168E-03     629.168E-03    -976.699E-03    -976.699E-03
             719         234.560         234.560     596.619E-03     596.619E-03    -887.941E-03    -887.941E-03
             720         234.572         234.572     562.482E-03     562.482E-03    -804.567E-03    -804.567E-03
             721         234.583         234.583     527.755E-03     527.755E-03    -726.437E-03    -726.437E-03
             722         234.592         234.592     493.243E-03     493.243E-03    -653.374E-03    -653.374E-03
             723         234.601         234.601     459.586E-03     459.586E-03    -585.163E-03    -585.163E-03
             724         234.608         234.608     427.291E-03     427.291E-03    -521.556E-03    -521.556E-03
             725         234.615         234.615     396.754E-03     396.754E-03    -462.280E-03    -462.280E-03
             726         234.620         234.620     368.281E-03     368.281E-03    -407.035E-03    -407.035E-03
             727         234.625         234.625     342.104E-03     342.104E-03    -355.502E-03    -355.502E-03
             728         234.629         234.629     318.397E-03     318.397E-03    -307.346E-03    -307.346E-03
             729         234.632         234.632     297.290E-03     297.290E-03    -262.218E-03    -262.218E-03
             730         234.635         234.635     278.876E-03     278.876E-03    -219.756E-03    -219.756E-03
             731         234.637         234.637     263.220E-03     263.220E-03    -179.594E-03    -179.594E-03
             732         234.639         234.639     250.367E-03     250.367E-03    -141.356E-03    -141.356E-03
             733         234.640         234.640     240.347E-03     240.347E-03    -104.661E-03    -104.661E-03
             734         234.641         234.641     233.179E-03     233.179E-03    -69.1286E-03    -69.1286E-03
             735         234.641         234.641     228.868E-03     228.868E-03    -34.4742E-03    -34.4742E-03
             736         242.605         242.605        -4.26469        -4.26469         1.47243         1.47243
             737         241.773         241.773        -4.46330        -4.46330     422.454E-03     422.454E-03
             738         240.852         240.852        -4.31949        -4.31949    -456.760E-03    -456.760E-03
             739         239.927         239.927        -3.95177        -3.95177        -1.14896        -1.14896
             740         239.054         239.054        -3.45666        -3.45666        -1.66503        -1.66503
             741         238.265         238.265        -2.90616        -2.90616        -2.02702        -2.02702
             742         237.579         237.579        -2.35252        -2.35252        -2.26228        -2.26228
             743         236.998         236.998        -1.82906        -1.82906        -2.39822        -2.39822
             744         236.516         236.516        -1.35507        -1.35507        -2.45870        -2.45870
             745         236.124         236.124    -939.602E-03    -939.602E-03        -2.46337        -2.46337
             746         235.810         235.810    -584.929E-03    -584.929E-03        -2.42747        -2.42747
             747         235.561         235.561    -289.112E-03    -289.112E-03        -2.36261        -2.36261
             748         235.366         235.366    -47.7461E-03    -47.7461E-03        -2.27744        -2.27744
             749         235.214         235.214     144.788E-03     144.788E-03        -2.17839        -2.17839
             750         235.097         235.097     294.576E-03     294.576E-03        -2.07026        -2.07026
             751         235.008         235.008     407.647E-03     407.647E-03        -1.95663        -1.95663
             752         234.939         234.939     489.707E-03     489.707E-03        -1.84019        -1.84019
             753         234.887         234.887     545.959E-03     545.959E-03        -1.72302        -1.72302
             754         234.848         234.848     581.048E-03     581.048E-03        -1.60671        -1.60671
             755         234.818         234.818     599.039E-03     599.039E-03        -1.49247        -1.49247
             756         234.794         234.794     603.440E-03     603.440E-03        -1.38126        -1.38126
             757         234.776         234.776     597.238E-03     597.238E-03        -1.27380        -1.27380
             758         234.762         234.762     582.955E-03     582.955E-03        -1.17062        -1.17062
             759         234.750         234.750     562.692E-03     562.692E-03        -1.07210        -1.07210
             760         234.740         234.740     538.194E-03     538.194E-03    -978.511E-03    -978.511E-03
             761         234.731         234.731     510.889E-03     510.889E-03    -889.982E-03    -889.982E-03
             762         234.724         234.724     481.942E-03     481.942E-03    -806.566E-03    -806.566E-03
             763         234.717         234.717     452.293E-03     452.293E-03    -728.228E-03    -728.228E-03
             764         234.710         234.710     422.696E-03     422.696E-03    -654.868E-03    -654.868E-03
             765         234.704         234.704     393.746E-03     393.746E-03    -586.323E-03    -586.323E-03
             766         234.699         234.699     365.914E-03     365.914E-03    -522.386E-03    -522.386E-03
             767         234.694         234.694     339.564E-03     339.564E-03    -462.805E-03    -462.805E-03
             768         234.689         234.689     314.974E-03     314.974E-03    -407.296E-03    -407.296E-03
             769         234.685         234.685     292.356E-03     292.356E-03    -355.549E-03    -355.549E-03
             770         234.681         234.681     271.869E-03     271.869E-03    -307.230E-03    -307.230E-03
             771         234.677         234.677     253.626E-03     253.626E-03    -261.990E-03    -261.990E-03
             772         234.674         234.674     237.711E-03     237.711E-03    -219.466E-03    -219.466E-03
             773         234.671         234.671     224.180E-03     224.180E-03    -179.283E-03    -179.283E-03
             774         234.669         234.669     213.073E-03     213.073E-03    -141.062E-03    -141.062E-03
             775         234.667         234.667     204.415E-03     204.415E-03    -104.414E-03    -104.414E-03
             776         234.666         234.666     198.221E-03     198.221E-03    -68.9508E-03    -68.9508E-03
             777         234.665         234.665     194.497E-03     194.497E-03    -34.3864E-03    -34.3864E-03
             778         241.877         241.877        -3.23610        -3.23610         2.07609         2.07609
             779         241.355         241.355        -3.54012        -3.54012         1.17173         1.17173
             780         240.714         240.714        -3.54533        -3.54533     352.727E-03     352.727E-03
             781         240.023         240.023        -3.33669        -3.33669    -344.628E-03    -344.628E-03
             782         239.333         239.333        -2.99127        -2.99127    -908.882E-03    -908.882E-03
             783         238.681         238.681        -2.57257        -2.57257        -1.34526        -1.34526
             784         238.087         238.087        -2.12821        -2.12821        -1.66694        -1.66694
             785         237.563         237.563        -1.69223        -1.69223        -1.89092        -1.89092
             786         237.111         237.111        -1.28628        -1.28628        -2.03464        -2.03464
             787         236.728         236.728    -922.748E-03    -922.748E-03        -2.11407        -2.11407
             788         236.407         236.407    -607.128E-03    -607.128E-03        -2.14303        -2.14303
             789         236.141         236.141    -340.265E-03    -340.265E-03        -2.13292        -2.13292
             790         235.921         235.921    -120.040E-03    -120.040E-03        -2.09306        -2.09306
             791         235.740         235.740     57.4009E-03     57.4009E-03        -2.03088        -2.03088
             792         235.591         235.591     196.769E-03     196.769E-03        -1.95234        -1.95234
             793         235.468         235.468     303.064E-03     303.064E-03        -1.86219        -1.86219
             794         235.365         235.365     381.193E-03     381.193E-03        -1.76422        -1.76422
             795         235.279         235.279     435.754E-03     435.754E-03        -1.66145        -1.66145
             796         235.207         235.207     470.915E-03     470.915E-03        -1.55630        -1.55630
             797         235.144         235.144     490.364E-03     490.364E-03        -1.45069        -1.45069
             798         235.091         235.091     497.299E-03     497.299E-03        -1.34613        -1.34613
             799         235.044         235.044     494.460E-03     494.460E-03        -1.24380        -1.24380
             800         235.002         235.002     484.156E-03     484.156E-03        -1.14462        -1.14462
             801         234.965         234.965     468.316E-03     468.316E-03        -1.04924        -1.04924
             802         234.932         234.932     448.533E-03     448.533E-03    -958.155E-03    -958.155E-03
             803         234.902         234.902     426.111E-03     426.111E-03    -871.667E-03    -871.667E-03
             804         234.874         234.874     402.110E-03     402.110E-03    -789.956E-03    -789.956E-03
             805         234.850         234.850     377.379E-03     377.379E-03    -713.086E-03    -713.086E-03
             806         234.827         234.827     352.598E-03     352.598E-03    -641.026E-03    -641.026E-03
             807         234.806         234.806     328.302E-03     328.302E-03    -573.665E-03    -573.665E-03
             808         234.788         234.788     304.908E-03     304.908E-03    -510.831E-03    -510.831E-03
             809         234.771         234.771     282.739E-03     282.739E-03    -452.299E-03    -452.299E-03
             810         234.755         234.755     262.041E-03     262.041E-03    -397.803E-03    -397.803E-03
             811         234.742         234.742     243.000E-03     243.000E-03    -347.043E-03    -347.043E-03
             812         234.730         234.730     225.750E-03     225.750E-03    -299.696E-03    -299.696E-03
             813         234.719         234.719     210.392E-03     210.392E-03    -255.415E-03    -255.415E-03
             814         234.710         234.710     196.995E-03     196.995E-03    -213.842E-03    -213.842E-03
             815         234.702         234.702     185.607E-03     185.607E-03    -174.605E-03    -174.605E-03
             816         234.696         234.696     176.260E-03     176.260E-03    -137.324E-03    -137.324E-03
             817         234.691         234.691     168.975E-03     168.975E-03    -101.614E-03    -101.614E-03
             818         234.688         234.688     163.764E-03     163.764E-03    -67.0854E-03    -67.0854E-03
             819         234.686         234.686     160.632E-03     160.632E-03    -33.4579E-03    -33.4579E-03
             820         241.142         241.142        -2.39480        -2.39480         2.40419         2.40419
             821         240.857         240.857        -2.72518        -2.72518         1.65036         1.65036
             822         240.451         240.451        -2.81172        -2.81172     919.825E-03     919.825E-03
             823         239.971         239.971        -2.71155        -2.71155     257.846E-03     257.846E-03
             824         239.459         239.459        -2.48235        -2.48235    -312.088E-03    -312.088E-03
             825         238.949         238.949        -2.17521        -2.17521    -781.727E-03    -781.727E-03
             826         238.464         238.464        -1.83159        -1.83159        -1.15338        -1.15338
             827         238.016         238.016        -1.48226        -1.48226        -1.43507        -1.43507
             828         237.613         237.613        -1.14865        -1.14865        -1.63779        -1.63779
             829         237.257         237.257    -844.057E-03    -844.057E-03        -1.77338        -1.77338
             830         236.946         236.946    -575.609E-03    -575.609E-03        -1.85324        -1.85324
             831         236.677         236.677    -345.906E-03    -345.906E-03        -1.88777        -1.88777
             832         236.443         236.443    -154.498E-03    -154.498E-03        -1.88608        -1.88608
             833         236.242         236.242     999.184E-06     999.184E-06        -1.85597        -1.85597
             834         236.067         236.067     124.055E-03     124.055E-03        -1.80400        -1.80400
             835         235.915         235.915     218.626E-03     218.626E-03        -1.73567        -1.73567
             836         235.782         235.782     288.763E-03     288.763E-03        -1.65551        -1.65551
             837         235.664         235.664     338.352E-03     338.352E-03        -1.56727        -1.56727
             838         235.560         235.560     370.974E-03     370.974E-03        -1.47398        -1.47398
             839         235.467         235.467     389.826E-03     389.826E-03        -1.37810        -1.37810
             840         235.384         235.384     397.703E-03     397.703E-03        -1.28159        -1.28159
             841         235.308         235.308     396.998E-03     396.998E-03        -1.18601        -1.18601
             842         235.240         235.240     389.737E-03     389.737E-03        -1.09254        -1.09254
             843         235.177         235.177     377.608E-03     377.608E-03        -1.00209        -1.00209
             844         235.120         235.120     362.004E-03     362.004E-03    -915.312E-03    -915.312E-03
             845         235.069         235.069     344.063E-03     344.063E-03    -832.660E-03    -832.660E-03
             846         235.021         235.021     324.703E-03     324.703E-03    -754.414E-03    -754.414E-03
             847         234.978         234.978     304.661E-03     304.661E-03    -680.713E-03    -680.713E-03
             848         234.939         234.939     284.521E-03     284.521E-03    -611.584E-03    -611.584E-03
             849         234.903         234.903     264.742E-03     264.742E-03    -546.962E-03    -546.962E-03
             850         234.871         234.871     245.680E-03     245.680E-03    -486.705E-03    -486.705E-03
             851         234.842         234.842     227.608E-03     227.608E-03    -430.613E-03    -430.613E-03
             852         234.817         234.817     210.733E-03     210.733E-03    -378.440E-03    -378.440E-03
             853         234.794         234.794     195.209E-03     195.209E-03    -329.899E-03    -329.899E-03
             854         234.773         234.773     181.149E-03     181.149E-03    -284.681E-03    -284.681E-03
             855         234.756         234.756     168.634E-03     168.634E-03    -242.451E-03    -242.451E-03
             856         234.741         234.741     157.719E-03     157.719E-03    -202.858E-03    -202.858E-03
             857         234.729         234.729     148.444E-03     148.444E-03    -165.543E-03    -165.543E-03
             858         234.719         234.719     140.834E-03     140.834E-03    -130.135E-03    -130.135E-03
             859         234.711         234.711     134.903E-03     134.903E-03    -96.2567E-03    -96.2567E-03
             860         234.705         234.705     130.662E-03     130.662E-03    -63.5311E-03    -63.5311E-03
             861         234.702         234.702     128.113E-03     128.113E-03    -31.6883E-03    -31.6883E-03
             862         240.449         240.449        -1.72294        -1.72294         2.52684         2.52684
             863         240.351         240.351        -2.02834        -2.02834         1.91054         1.91054
             864         240.139         240.139        -2.14593        -2.14593         1.27741         1.27741
             865         239.845         239.845        -2.11181        -2.11181     673.223E-03     673.223E-03
             866         239.500         239.500        -1.96682        -1.96682     127.628E-03     127.628E-03
             867         239.130         239.130        -1.74986        -1.74986    -343.480E-03    -343.480E-03
             868         238.757         238.757        -1.49413        -1.49413    -734.178E-03    -734.178E-03
             869         238.394         238.394        -1.22577        -1.22577        -1.04569        -1.04569
             870         238.052         238.052    -963.647E-03    -963.647E-03        -1.28350        -1.28350
             871         237.734         237.734    -720.348E-03    -720.348E-03        -1.45548        -1.45548
             872         237.443         237.443    -503.179E-03    -503.179E-03        -1.57050        -1.57050
             873         237.179         237.179    -315.525E-03    -315.525E-03        -1.63745        -1.63745
             874         236.940         236.940    -157.928E-03    -157.928E-03        -1.66474        -1.66474
             875         236.723         236.723    -29.0809E-03    -29.0809E-03        -1.66000        -1.66000
             876         236.527         236.527     73.4479E-03     73.4479E-03        -1.62996        -1.62996
             877         236.349         236.349     152.661E-03     152.661E-03        -1.58045        -1.58045
             878         236.188         236.188     211.751E-03     211.751E-03        -1.51642        -1.51642
             879         236.040         236.040     253.856E-03     253.856E-03        -1.44201        -1.44201
             880         235.906         235.906     281.902E-03     281.902E-03        -1.36068        -1.36068
             881         235.782         235.782     298.528E-03     298.528E-03        -1.27521        -1.27521
             882         235.669         235.669     306.048E-03     306.048E-03        -1.18786        -1.18786
             883         235.565         235.565     306.451E-03     306.451E-03        -1.10043        -1.10043
             884         235.469         235.469     301.420E-03     301.420E-03        -1.01429        -1.01429
             885         235.382         235.382     292.356E-03     292.356E-03    -930.499E-03    -930.499E-03
             886         235.301         235.301     280.412E-03     280.412E-03    -849.830E-03    -849.830E-03
             887         235.228         235.228     266.530E-03     266.530E-03    -772.822E-03    -772.822E-03
             888         235.160         235.160     251.465E-03     251.465E-03    -699.824E-03    -699.824E-03
             889         235.099         235.099     235.820E-03     235.820E-03    -631.027E-03    -631.027E-03
             890         235.043         235.043     220.073E-03     220.073E-03    -566.500E-03    -566.500E-03
             891         234.993         234.993     204.596E-03     204.596E-03    -506.206E-03    -506.206E-03
             892         234.947         234.947     189.675E-03     189.675E-03    -450.031E-03    -450.031E-03
             893         234.907         234.907     175.529E-03     175.529E-03    -397.796E-03    -397.796E-03
             894         234.871         234.871     162.324E-03     162.324E-03    -349.274E-03    -349.274E-03
             895         234.839         234.839     150.181E-03     150.181E-03    -304.198E-03    -304.198E-03
             896         234.811         234.811     139.187E-03     139.187E-03    -262.274E-03    -262.274E-03
             897         234.786         234.786     129.406E-03     129.406E-03    -223.186E-03    -223.186E-03
             898         234.766         234.766     120.880E-03     120.880E-03    -186.601E-03    -186.601E-03
             899         234.748         234.748     113.638E-03     113.638E-03    -152.176E-03    -152.176E-03
             900         234.735         234.735     107.697E-03     107.697E-03    -119.561E-03    -119.561E-03
             901         234.724         234.724     103.068E-03     103.068E-03    -88.3967E-03    -88.3967E-03
             902         234.716         234.716     99.7587E-03     99.7587E-03    -58.3244E-03    -58.3244E-03
             903         234.712         234.712     97.7708E-03     97.7708E-03    -29.0966E-03    -29.0966E-03
             904         239.822         239.822        -1.19341        -1.19341         2.48804         2.48804
             905         239.879         239.879        -1.44507        -1.44507         1.99053         1.99053
             906         239.835         239.835        -1.55990        -1.55990         1.45342         1.45342
             907         239.706         239.706        -1.55990        -1.55990     919.069E-03     919.069E-03
             908         239.514         239.514        -1.47246        -1.47246     418.176E-03     418.176E-03
             909         239.278         239.278        -1.32543        -1.32543    -29.3914E-03    -29.3914E-03
             910         239.015         239.015        -1.14376        -1.14376    -413.058E-03    -413.058E-03
             911         238.739         238.739    -947.784E-03    -947.784E-03    -729.198E-03    -729.198E-03
             912         238.459         238.459    -752.843E-03    -752.843E-03    -979.261E-03    -979.261E-03
             913         238.184         238.184    -569.460E-03    -569.460E-03        -1.16788        -1.16788
             914         237.917         237.917    -404.164E-03    -404.164E-03        -1.30157        -1.30157
             915         237.662         237.662    -260.256E-03    -260.256E-03        -1.38764        -1.38764
             916         237.420         237.420    -138.715E-03    -138.715E-03        -1.43353        -1.43353
             917         237.190         237.190    -38.9085E-03    -38.9085E-03        -1.44636        -1.44636
             918         236.975         236.975     40.7903E-03     40.7903E-03        -1.43265        -1.43265
             919         236.772         236.772     102.554E-03     102.554E-03        -1.39817        -1.39817
             920         236.583         236.583     148.773E-03     148.773E-03        -1.34796        -1.34796
             921         236.405         236.405     181.839E-03     181.839E-03        -1.28627        -1.28627
             922         236.240         236.240     204.006E-03     204.006E-03        -1.21668        -1.21668
             923         236.086         236.086     217.320E-03     217.320E-03        -1.14211        -1.14211
             924         235.943         235.943     223.581E-03     223.581E-03        -1.06492        -1.06492
             925         235.810         235.810     224.337E-03     224.337E-03    -986.999E-03    -986.999E-03
             926         235.687         235.687     220.896E-03     220.896E-03    -909.800E-03    -909.800E-03
             927         235.574         235.574     214.348E-03     214.348E-03    -834.432E-03    -834.432E-03
             928         235.470         235.470     205.586E-03     205.586E-03    -761.708E-03    -761.708E-03
             929         235.375         235.375     195.336E-03     195.336E-03    -692.201E-03    -692.201E-03
             930         235.288         235.288     184.180E-03     184.180E-03    -626.287E-03    -626.287E-03
             931         235.209         235.209     172.580E-03     172.580E-03    -564.177E-03    -564.177E-03
             932         235.137         235.137     160.899E-03     160.899E-03    -505.960E-03    -505.960E-03
             933         235.072         235.072     149.419E-03     149.419E-03    -451.617E-03    -451.617E-03
             934         235.014         235.014     138.356E-03     138.356E-03    -401.052E-03    -401.052E-03
             935         234.961         234.961     127.875E-03     127.875E-03    -354.105E-03    -354.105E-03
             936         234.915         234.915     118.097E-03     118.097E-03    -310.569E-03    -310.569E-03
             937         234.874         234.874     109.111E-03     109.111E-03    -270.200E-03    -270.200E-03
             938         234.839         234.839     100.982E-03     100.982E-03    -232.725E-03    -232.725E-03
             939         234.808         234.808     93.7538E-03     93.7538E-03    -197.854E-03    -197.854E-03
             940         234.782         234.782     87.4574E-03     87.4574E-03    -165.280E-03    -165.280E-03
             941         234.760         234.760     82.1117E-03     82.1117E-03    -134.687E-03    -134.687E-03
             942         234.743         234.743     77.7283E-03     77.7283E-03    -105.753E-03    -105.753E-03
             943         234.729         234.729     74.3142E-03     74.3142E-03    -78.1483E-03    -78.1483E-03
             944         234.720         234.720     71.8727E-03     71.8727E-03    -51.5443E-03    -51.5443E-03
             945         234.714         234.714     70.4073E-03     70.4073E-03    -25.7220E-03    -25.7220E-03
             946         239.273         239.273    -780.094E-03    -780.094E-03         2.30836         2.30836
             947         239.474         239.474    -965.472E-03    -965.472E-03         1.91235         1.91235
             948         239.583         239.583        -1.05808        -1.05808         1.46728         1.46728
             949         239.606         239.606        -1.07060        -1.07060         1.01009         1.01009
             950         239.555         239.555        -1.02047        -1.02047     569.637E-03     569.637E-03
             951         239.444         239.444    -926.245E-03    -926.245E-03     166.295E-03     166.295E-03
             952         239.285         239.285    -805.168E-03    -805.168E-03    -187.271E-03    -187.271E-03
             953         239.090         239.090    -671.763E-03    -671.763E-03    -484.957E-03    -484.957E-03
             954         238.871         238.871    -537.202E-03    -537.202E-03    -725.579E-03    -725.579E-03
             955         238.635         238.635    -409.424E-03    -409.424E-03    -911.513E-03    -911.513E-03
             956         238.390         238.390    -293.447E-03    -293.447E-03        -1.04737        -1.04737
             957         238.142         238.142    -191.992E-03    -191.992E-03        -1.13901        -1.13901
             958         237.895         237.895    -106.006E-03    -106.006E-03        -1.19280        -1.19280
             959         237.651         237.651    -35.2336E-03    -35.2336E-03        -1.21507        -1.21507
             960         237.414         237.414     21.3678E-03     21.3678E-03        -1.21180        -1.21180
             961         237.185         237.185     65.2743E-03     65.2743E-03        -1.18838        -1.18838
             962         236.966         236.966     98.1539E-03     98.1539E-03        -1.14958        -1.14958
             963         236.757         236.757     121.695E-03     121.695E-03        -1.09946        -1.09946
             964         236.560         236.560     137.502E-03     137.502E-03        -1.04144        -1.04144
             965         236.375         236.375     147.034E-03     147.034E-03    -978.334E-03    -978.334E-03
             966         236.201         236.201     151.574E-03     151.574E-03    -912.424E-03    -912.424E-03
             967         236.040         236.040     152.230E-03     152.230E-03    -845.510E-03    -845.510E-03
             968         235.890         235.890     149.932E-03     149.932E-03    -778.992E-03    -778.992E-03
             969         235.751         235.751     145.455E-03     145.455E-03    -713.931E-03    -713.931E-03
             970         235.624         235.624     139.432E-03     139.432E-03    -651.103E-03    -651.103E-03
             971         235.507         235.507     132.375E-03     132.375E-03    -591.053E-03    -591.053E-03
             972         235.400         235.400     124.694E-03     124.694E-03    -534.137E-03    -534.137E-03
             973         235.304         235.304     116.711E-03     116.711E-03    -480.562E-03    -480.562E-03
             974         235.216         235.216     108.680E-03     108.680E-03    -430.409E-03    -430.409E-03
             975         235.137         235.137     100.795E-03     100.795E-03    -383.669E-03    -383.669E-03
             976         235.067         235.067     93.2042E-03     93.2042E-03    -340.257E-03    -340.257E-03
             977         235.004         235.004     86.0203E-03     86.0203E-03    -300.030E-03    -300.030E-03
             978         234.948         234.948     79.3255E-03     79.3255E-03    -262.803E-03    -262.803E-03
             979         234.899         234.899     73.1794E-03     73.1794E-03    -228.360E-03    -228.360E-03
             980         234.856         234.856     67.6244E-03     67.6244E-03    -196.459E-03    -196.459E-03
             981         234.820         234.820     62.6896E-03     62.6896E-03    -166.841E-03    -166.841E-03
             982         234.789         234.789     58.3940E-03     58.3940E-03    -139.237E-03    -139.237E-03
             983         234.763         234.763     54.7499E-03     54.7499E-03    -113.367E-03    -113.367E-03
             984         234.742         234.742     51.7633E-03     51.7633E-03    -88.9487E-03    -88.9487E-03
             985         234.726         234.726     49.4365E-03     49.4365E-03    -65.6937E-03    -65.6937E-03
             986         234.715         234.715     47.7726E-03     47.7726E-03    -43.3117E-03    -43.3117E-03
             987         234.708         234.708     46.7742E-03     46.7742E-03    -21.6271E-03    -21.6271E-03
             988         238.813         238.813    -462.513E-03    -462.513E-03         1.98833         1.98833
             989         239.163         239.163    -581.291E-03    -581.291E-03         1.68235         1.68235
             990         239.423         239.423    -643.553E-03    -643.553E-03         1.32825         1.32825
             991         239.593         239.593    -656.225E-03    -656.225E-03     956.430E-03     956.430E-03
             992         239.675         239.675    -629.389E-03    -629.389E-03     591.662E-03     591.662E-03
             993         239.679         239.679    -574.217E-03    -574.217E-03     252.433E-03     252.433E-03
             994         239.613         239.613    -501.347E-03    -501.347E-03    -49.0496E-03    -49.0496E-03
             995         239.490         239.490    -419.895E-03    -419.895E-03    -306.052E-03    -306.052E-03
             996         239.321         239.321    -337.031E-03    -337.031E-03    -516.312E-03    -516.312E-03
             997         239.116         239.116    -257.881E-03    -257.881E-03    -680.834E-03    -680.834E-03
             998         238.885         238.885    -185.782E-03    -185.782E-03    -802.868E-03    -802.868E-03
             999         238.636         238.636    -122.557E-03    -122.557E-03    -886.985E-03    -886.985E-03
            1000         238.376         238.376    -68.9107E-03    -68.9107E-03    -938.394E-03    -938.394E-03
            1001         238.112         238.112    -24.7363E-03    -24.7363E-03    -962.419E-03    -962.419E-03
            1002         237.848         237.848     10.5807E-03     10.5807E-03    -964.166E-03    -964.166E-03
            1003         237.589         237.589     37.9531E-03     37.9531E-03    -948.308E-03    -948.308E-03
            1004         237.337         237.337     58.4227E-03     58.4227E-03    -918.976E-03    -918.976E-03
            1005         237.094         237.094     73.0517E-03     73.0517E-03    -879.726E-03    -879.726E-03
            1006         236.863         236.863     82.8515E-03     82.8515E-03    -833.542E-03    -833.542E-03
            1007         236.645         236.645     88.7415E-03     88.7415E-03    -782.881E-03    -782.881E-03
            1008         236.440         236.440     91.5315E-03     91.5315E-03    -729.721E-03    -729.721E-03
            1009         236.248         236.248     91.9161E-03     91.9161E-03    -675.627E-03    -675.627E-03
            1010         236.071         236.071     90.4800E-03     90.4800E-03    -621.804E-03    -621.804E-03
            1011         235.907         235.907     87.7066E-03     87.7066E-03    -569.164E-03    -569.164E-03
            1012         235.756         235.756     83.9903E-03     83.9903E-03    -518.368E-03    -518.368E-03
            1013         235.619         235.619     79.6484E-03     79.6484E-03    -469.875E-03    -469.875E-03
            1014         235.494         235.494     74.9334E-03     74.9334E-03    -423.985E-03    -423.985E-03
            1015         235.380         235.380     70.0438E-03     70.0438E-03    -380.865E-03    -380.865E-03
            1016         235.278         235.278     65.1337E-03     65.1337E-03    -340.581E-03    -340.581E-03
            1017         235.186         235.186     60.3215E-03     60.3215E-03    -303.118E-03    -303.118E-03
            1018         235.104         235.104     55.6966E-03     55.6966E-03    -268.403E-03    -268.403E-03
            1019         235.031         235.031     51.3260E-03     51.3260E-03    -236.311E-03    -236.311E-03
            1020         234.967         234.967     47.2584E-03     47.2584E-03    -206.687E-03    -206.687E-03
            1021         234.911         234.911     43.5288E-03     43.5288E-03    -179.347E-03    -179.347E-03
            1022         234.862         234.862     40.1616E-03     40.1616E-03    -154.089E-03    -154.089E-03
            1023         234.820         234.820     37.1733E-03     37.1733E-03    -130.700E-03    -130.700E-03
            1024         234.784         234.784     34.5745E-03     34.5745E-03    -108.955E-03    -108.955E-03
            1025         234.755         234.755     32.3713E-03     32.3713E-03    -88.6257E-03    -88.6257E-03
            1026         234.731         234.731     30.5684E-03     30.5684E-03    -69.4788E-03    -69.4788E-03
            1027         234.713         234.713     29.1639E-03     29.1639E-03    -51.2824E-03    -51.2824E-03
            1028         234.701         234.701     28.1548E-03     28.1548E-03    -33.7980E-03    -33.7980E-03
            1029         234.693         234.693     27.5493E-03     27.5493E-03    -16.8948E-03    -16.8948E-03
            1030         238.460         238.460    -229.166E-03    -229.166E-03         1.51020         1.51020
            1031         238.979         238.979    -290.647E-03    -290.647E-03         1.29240         1.29240
            1032         239.402         239.402    -323.632E-03    -323.632E-03         1.03589         1.03589
            1033         239.718         239.718    -331.388E-03    -331.388E-03     763.308E-03     763.308E-03
            1034         239.928         239.928    -318.866E-03    -318.866E-03     493.423E-03     493.423E-03
            1035         240.035         240.035    -291.643E-03    -291.643E-03     240.546E-03     240.546E-03
            1036         240.049         240.049    -255.127E-03    -255.127E-03     14.4420E-03     14.4420E-03
            1037         239.982         239.982    -214.014E-03    -214.014E-03    -179.295E-03    -179.295E-03
            1038         239.846         239.846    -172.006E-03    -172.006E-03    -338.485E-03    -338.485E-03
            1039         239.655         239.655    -131.796E-03    -131.796E-03    -463.571E-03    -463.571E-03
            1040         239.423         239.423    -95.1206E-03    -95.1206E-03    -556.779E-03    -556.779E-03
            1041         239.159         239.159    -62.9564E-03    -62.9564E-03    -621.450E-03    -621.450E-03
            1042         238.876         238.876    -35.6754E-03    -35.6754E-03    -661.461E-03    -661.461E-03
            1043         238.581         238.581    -13.2375E-03    -13.2375E-03    -680.831E-03    -680.831E-03
            1044         238.281         238.281     4.67324E-03     4.67324E-03    -683.426E-03    -683.426E-03
            1045         237.984         237.984     18.5249E-03     18.5249E-03    -672.800E-03    -672.800E-03
            1046         237.693         237.693     28.8555E-03     28.8555E-03    -652.090E-03    -652.090E-03
            1047         237.412         237.412     36.2132E-03     36.2132E-03    -623.991E-03    -623.991E-03
            1048         237.144         237.144     41.1186E-03     41.1186E-03    -590.762E-03    -590.762E-03
            1049         236.890         236.890     44.0449E-03     44.0449E-03    -554.249E-03    -554.249E-03
            1050         236.652         236.652     45.4072E-03     45.4072E-03    -515.936E-03    -515.936E-03
            1051         236.431         236.431     45.5609E-03     45.5609E-03    -476.984E-03    -476.984E-03
            1052         236.226         236.226     44.8036E-03     44.8036E-03    -438.287E-03    -438.287E-03
            1053         236.037         236.037     43.3810E-03     43.3810E-03    -400.510E-03    -400.510E-03
            1054         235.864         235.864     41.4923E-03     41.4923E-03    -364.133E-03    -364.133E-03
            1055         235.706         235.706     39.2973E-03     39.2973E-03    -329.485E-03    -329.485E-03
            1056         235.563         235.563     36.9225E-03     36.9225E-03    -296.774E-03    -296.774E-03
            1057         235.435         235.435     34.4670E-03     34.4670E-03    -266.114E-03    -266.114E-03
            1058         235.319         235.319     32.0072E-03     32.0072E-03    -237.544E-03    -237.544E-03
            1059         235.215         235.215     29.6014E-03     29.6014E-03    -211.044E-03    -211.044E-03
            1060         235.123         235.123     27.2935E-03     27.2935E-03    -186.552E-03    -186.552E-03
            1061         235.041         235.041     25.1159E-03     25.1159E-03    -163.973E-03    -163.973E-03
            1062         234.970         234.970     23.0922E-03     23.0922E-03    -143.187E-03    -143.187E-03
            1063         234.907         234.907     21.2390E-03     21.2390E-03    -124.057E-03    -124.057E-03
            1064         234.853         234.853     19.5678E-03     19.5678E-03    -106.434E-03    -106.434E-03
            1065         234.806         234.806     18.0860E-03     18.0860E-03    -90.1593E-03    -90.1593E-03
            1066         234.767         234.767     16.7985E-03     16.7985E-03    -75.0699E-03    -75.0699E-03
            1067         234.735         234.735     15.7081E-03     15.7081E-03    -60.9990E-03    -60.9990E-03
            1068         234.709         234.709     14.8163E-03     14.8163E-03    -47.7772E-03    -47.7772E-03
            1069         234.689         234.689     14.1261E-03     14.1261E-03    -35.2361E-03    -35.2361E-03
            1070         234.675         234.675     13.6271E-03     13.6271E-03    -23.2142E-03    -23.2142E-03
            1071         234.667         234.667     13.3167E-03     13.3167E-03    -11.6421E-03    -11.6421E-03
            1072         238.243         238.243    -80.5110E-03    -80.5110E-03     842.918E-03     842.918E-03
            1073         238.969         238.969    -102.536E-03    -102.536E-03     724.710E-03     724.710E-03
            1074         239.574         239.574    -114.445E-03    -114.445E-03     584.479E-03     584.479E-03
            1075         240.044         240.044    -117.402E-03    -117.402E-03     434.898E-03     434.898E-03
            1076         240.374         240.374    -113.110E-03    -113.110E-03     286.412E-03     286.412E-03
            1077         240.571         240.571    -103.535E-03    -103.535E-03     147.050E-03     147.050E-03
            1078         240.644         240.644    -90.6189E-03    -90.6189E-03     22.3272E-03     22.3272E-03
            1079         240.608         240.608    -76.0323E-03    -76.0323E-03    -84.5567E-03    -84.5567E-03
            1080         240.482         240.482    -61.1182E-03    -61.1182E-03    -172.353E-03    -172.353E-03
            1081         240.281         240.281    -46.8351E-03    -46.8351E-03    -241.270E-03    -241.270E-03
            1082         240.024         240.024    -33.8167E-03    -33.8167E-03    -292.557E-03    -292.557E-03
            1083         239.726         239.726    -22.4080E-03    -22.4080E-03    -328.074E-03    -328.074E-03
            1084         239.401         239.401    -12.7451E-03    -12.7451E-03    -350.000E-03    -350.000E-03
            1085         239.060         239.060    -4.81037E-03    -4.81037E-03    -360.580E-03    -360.580E-03
            1086         238.713         238.713     1.51086E-03     1.51086E-03    -361.978E-03    -361.978E-03
            1087         238.368         238.368     6.38785E-03     6.38785E-03    -356.171E-03    -356.171E-03
            1088         238.031         238.031     10.0153E-03     10.0153E-03    -344.903E-03    -344.903E-03
            1089         237.706         237.706     12.5896E-03     12.5896E-03    -329.661E-03    -329.661E-03
            1090         237.397         237.397     14.2981E-03     14.2981E-03    -311.689E-03    -311.689E-03
            1091         237.106         237.106     15.3096E-03     15.3096E-03    -291.996E-03    -291.996E-03
            1092         236.834         236.834     15.7722E-03     15.7722E-03    -271.388E-03    -271.388E-03
            1093         236.581         236.581     15.8118E-03     15.8118E-03    -250.494E-03    -250.494E-03
            1094         236.348         236.348     15.5342E-03     15.5342E-03    -229.791E-03    -229.791E-03
            1095         236.135         236.135     15.0258E-03     15.0258E-03    -209.633E-03    -209.633E-03
            1096         235.941         235.941     14.3568E-03     14.3568E-03    -190.271E-03    -190.271E-03
            1097         235.765         235.765     13.5830E-03     13.5830E-03    -171.876E-03    -171.876E-03
            1098         235.606         235.606     12.7487E-03     12.7487E-03    -154.554E-03    -154.554E-03
            1099         235.463         235.463     11.8882E-03     11.8882E-03    -138.357E-03    -138.357E-03
            1100         235.335         235.335     11.0281E-03     11.0281E-03    -123.301E-03    -123.301E-03
            1101         235.221         235.221     10.1882E-03     10.1882E-03    -109.371E-03    -109.371E-03
            1102         235.121         235.121     9.38380E-03     9.38380E-03    -96.5280E-03    -96.5280E-03
            1103         235.032         235.032     8.62582E-03     8.62582E-03    -84.7172E-03    -84.7172E-03
            1104         234.954         234.954     7.92217E-03     7.92217E-03    -73.8714E-03    -73.8714E-03
            1105         234.886         234.886     7.27852E-03     7.27852E-03    -63.9146E-03    -63.9146E-03
            1106         234.828         234.828     6.69848E-03     6.69848E-03    -54.7648E-03    -54.7648E-03
            1107         234.778         234.778     6.18478E-03     6.18478E-03    -46.3361E-03    -46.3361E-03
            1108         234.737         234.737     5.73846E-03     5.73846E-03    -38.5401E-03    -38.5401E-03
            1109         234.702         234.702     5.36123E-03     5.36123E-03    -31.2866E-03    -31.2866E-03
            1110         234.675         234.675     5.05218E-03     5.05218E-03    -24.4855E-03    -24.4855E-03
            1111         234.654         234.654     4.81504E-03     4.81504E-03    -18.0437E-03    -18.0437E-03
            1112         234.639         234.639     4.65036E-03     4.65036E-03    -11.8747E-03    -11.8747E-03
            1113         234.630         234.630     4.53099E-03     4.53099E-03    -6.00022E-03    -6.00022E-03
            1114         239.191         239.191        -9.81567        -9.81567         9.23663         9.23663
            1115         236.276         236.276        -7.65186        -7.65186         9.00355         9.00355
            1116         234.267         234.267        -5.74261        -5.74261         8.30979         8.30979
            1117         232.961         232.961        -4.17054        -4.17054         7.44137         7.44137
            1118         232.162         232.162        -2.91946        -2.91946         6.55869         6.55869
            1119         231.711         231.711        -1.93464        -1.93464         5.73840         5.73840
            1120         231.493         231.493        -1.16259        -1.16259         5.01007         5.01007
            1121         231.430         231.430    -557.287E-03    -557.287E-03         4.37897         4.37897
            1122         231.467         231.467    -83.2831E-03    -83.2831E-03         3.83913         3.83913
            1123         231.569         231.569     286.871E-03     286.871E-03         3.38011         3.38011
            1124         231.711         231.711     573.869E-03     573.869E-03         2.99033         2.99033
            1125         231.877         231.877     793.703E-03     793.703E-03         2.65871         2.65871
            1126         232.055         232.055     958.743E-03     958.743E-03         2.37535         2.37535
            1127         232.237         232.237         1.07882         1.07882         2.13177         2.13177
            1128         232.419         232.419         1.16184         1.16184         1.92082         1.92082
            1129         232.597         232.597         1.21430         1.21430         1.73665         1.73665
            1130         232.769         232.769         1.24160         1.24160         1.57447         1.57447
            1131         232.933         232.933         1.24831         1.24831         1.43046         1.43046
            1132         233.088         233.088         1.23831         1.23831         1.30154         1.30154
            1133         233.234         233.234         1.21492         1.21492         1.18528         1.18528
            1134         233.370         233.370         1.18101         1.18101         1.07974         1.07974
            1135         233.497         233.497         1.13902         1.13902     983.411E-03     983.411E-03
            1136         233.615         233.615         1.09106         1.09106     895.080E-03     895.080E-03
            1137         233.723         233.723         1.03895         1.03895     813.791E-03     813.791E-03
            1138         233.822         233.822     984.201E-03     984.201E-03     738.776E-03     738.776E-03
            1139         233.913         233.913     928.137E-03     928.137E-03     669.409E-03     669.409E-03
            1140         233.996         233.996     871.854E-03     871.854E-03     605.170E-03     605.170E-03
            1141         234.071         234.071     816.271E-03     816.271E-03     545.618E-03     545.618E-03
            1142         234.138         234.138     762.152E-03     762.152E-03     490.368E-03     490.368E-03
            1143         234.199         234.199     710.126E-03     710.126E-03     439.075E-03     439.075E-03
            1144         234.253         234.253     660.705E-03     660.705E-03     391.420E-03     391.420E-03
            1145         234.302         234.302     614.302E-03     614.302E-03     347.103E-03     347.103E-03
            1146         234.345         234.345     571.245E-03     571.245E-03     305.836E-03     305.836E-03
            1147         234.382         234.382     531.793E-03     531.793E-03     267.337E-03     267.337E-03
            1148         234.415         234.415     496.144E-03     496.144E-03     231.330E-03     231.330E-03
            1149         234.443         234.443     464.452E-03     464.452E-03     197.540E-03     197.540E-03
            1150         234.467         234.467     436.830E-03     436.830E-03     165.692E-03     165.692E-03
            1151         234.486         234.486     413.362E-03     413.362E-03     135.511E-03     135.511E-03
            1152         234.502         234.502     394.108E-03     394.108E-03     106.724E-03     106.724E-03
            1153         234.514         234.514     379.110E-03     379.110E-03     79.0552E-03     79.0552E-03
            1154         234.523         234.523     368.396E-03     368.396E-03     52.2290E-03     52.2290E-03
            1155         234.528         234.528     361.972E-03     361.972E-03     26.0358E-03     26.0358E-03
            1156         233.410         233.410        -8.99731        -8.99731         12.9888         12.9888
            1157         231.025         231.025        -6.31957        -6.31957         11.3777         11.3777
            1158         229.768         229.768        -4.29745        -4.29745         9.70556         9.70556
            1159         229.215         229.215        -2.80947        -2.80947         8.18381         8.18381
            1160         229.080         229.080        -1.71416        -1.71416         6.88216         6.88216
            1161         229.184         229.184    -901.332E-03    -901.332E-03         5.79938         5.79938
            1162         229.418         229.418    -290.478E-03    -290.478E-03         4.91003         4.91003
            1163         229.718         229.718     172.868E-03     172.868E-03         4.18283         4.18283
            1164         230.047         230.047     526.626E-03     526.626E-03         3.58834         3.58834
            1165         230.382         230.382     796.726E-03     796.726E-03         3.10098         3.10098
            1166         230.712         230.712         1.00159         1.00159         2.69958         2.69958
            1167         231.029         231.029         1.15442         1.15442         2.36690         2.36690
            1168         231.330         231.330         1.26506         1.26506         2.08913         2.08913
            1169         231.613         231.613         1.34102         1.34102         1.85522         1.85522
            1170         231.878         231.878         1.38827         1.38827         1.65643         1.65643
            1171         232.126         232.126         1.41165         1.41165         1.48584         1.48584
            1172         232.356         232.356         1.41522         1.41522         1.33799         1.33799
            1173         232.569         232.569         1.40244         1.40244         1.20859         1.20859
            1174         232.766         232.766         1.37630         1.37630         1.09425         1.09425
            1175         232.949         232.949         1.33942         1.33942     992.350E-03     992.350E-03
            1176         233.117         233.117         1.29409         1.29409     900.810E-03     900.810E-03
            1177         233.272         233.272         1.24232         1.24232     818.015E-03     818.015E-03
            1178         233.414         233.414         1.18586         1.18586     742.694E-03     742.694E-03
            1179         233.543         233.543         1.12627         1.12627     673.845E-03     673.845E-03
            1180         233.662         233.662         1.06487         1.06487     610.671E-03     610.671E-03
            1181         233.770         233.770         1.00281         1.00281     552.532E-03     552.532E-03
            1182         233.868         233.868     941.092E-03     941.092E-03     498.906E-03     498.906E-03
            1183         233.957         233.957     880.544E-03     880.544E-03     449.355E-03     449.355E-03
            1184         234.037         234.037     821.873E-03     821.873E-03     403.507E-03     403.507E-03
            1185         234.109         234.109     765.666E-03     765.666E-03     361.037E-03     361.037E-03
            1186         234.174         234.174     712.409E-03     712.409E-03     321.649E-03     321.649E-03
            1187         234.231         234.231     662.495E-03     662.495E-03     285.073E-03     285.073E-03
            1188         234.282         234.282     616.241E-03     616.241E-03     251.056E-03     251.056E-03
            1189         234.326         234.326     573.899E-03     573.899E-03     219.352E-03     219.352E-03
            1190         234.365         234.365     535.666E-03     535.666E-03     189.725E-03     189.725E-03
            1191         234.398         234.398     501.693E-03     501.693E-03     161.943E-03     161.943E-03
            1192         234.427         234.427     472.094E-03     472.094E-03     135.775E-03     135.775E-03
            1193         234.450         234.450     446.955E-03     446.955E-03     110.995E-03     110.995E-03
            1194         234.469         234.469     426.336E-03     426.336E-03     87.3757E-03     87.3757E-03
            1195         234.483         234.483     410.284E-03     410.284E-03     64.6915E-03     64.6915E-03
            1196         234.493         234.493     398.827E-03     398.827E-03     42.7173E-03     42.7173E-03
            1197         234.500         234.500     391.975E-03     391.975E-03     21.2825E-03     21.2825E-03
            1198         224.560         224.560        -6.17535        -6.17535         15.3476         15.3476
            1199         224.044         224.044        -3.69199        -3.69199         12.2877         12.2877
            1200         224.359         224.359        -2.06734        -2.06734         9.80866         9.80866
            1201         225.035         225.035    -988.760E-03    -988.760E-03         7.86986         7.86986
            1202         225.832         225.832    -251.170E-03    -251.170E-03         6.36855         6.36855
            1203         226.637         226.637     269.775E-03     269.775E-03         5.20506         5.20506
            1204         227.400         227.400     647.315E-03     647.315E-03         4.29811         4.29811
            1205         228.102         228.102     926.718E-03     926.718E-03         3.58612         3.58612
            1206         228.738         228.738         1.13569         1.13569         3.02251         3.02251
            1207         229.312         229.312         1.29204         1.29204         2.57259         2.57259
            1208         229.827         229.827         1.40735         1.40735         2.21017         2.21017
            1209         230.290         230.290         1.48958         1.48958         1.91554         1.91554
            1210         230.707         230.707         1.54438         1.54438         1.67367         1.67367
            1211         231.084         231.084         1.57608         1.57608         1.47309         1.47309
            1212         231.425         231.425         1.58809         1.58809         1.30499         1.30499
            1213         231.734         231.734         1.58329         1.58329         1.16259         1.16259
            1214         232.016         232.016         1.56421         1.56421         1.04063         1.04063
            1215         232.272         232.272         1.53308         1.53308     935.067E-03     935.067E-03
            1216         232.505         232.505         1.49197         1.49197     842.744E-03     842.744E-03
            1217         232.719         232.719         1.44274         1.44274     761.223E-03     761.223E-03
            1218         232.913         232.913         1.38710         1.38710     688.607E-03     688.607E-03
            1219         233.091         233.091         1.32662         1.32662     623.423E-03     623.423E-03
            1220         233.253         233.253         1.26271         1.26271     564.520E-03     564.520E-03
            1221         233.400         233.400         1.19665         1.19665     510.994E-03     510.994E-03
            1222         233.535         233.535         1.12957         1.12957     462.134E-03     462.134E-03
            1223         233.657         233.657         1.06246         1.06246     417.369E-03     417.369E-03
            1224         233.767         233.767     996.213E-03     996.213E-03     376.240E-03     376.240E-03
            1225         233.867         233.867     931.569E-03     931.569E-03     338.366E-03     338.366E-03
            1226         233.957         233.957     869.174E-03     869.174E-03     303.426E-03     303.426E-03
            1227         234.038         234.038     809.574E-03     809.574E-03     271.143E-03     271.143E-03
            1228         234.110         234.110     753.220E-03     753.220E-03     241.273E-03     241.273E-03
            1229         234.175         234.175     700.486E-03     700.486E-03     213.594E-03     213.594E-03
            1230         234.232         234.232     651.675E-03     651.675E-03     187.900E-03     187.900E-03
            1231         234.282         234.282     607.029E-03     607.029E-03     163.996E-03     163.996E-03
            1232         234.325         234.325     566.740E-03     566.740E-03     141.697E-03     141.697E-03
            1233         234.363         234.363     530.956E-03     530.956E-03     120.820E-03     120.820E-03
            1234         234.395         234.395     499.788E-03     499.788E-03     101.191E-03     101.191E-03
            1235         234.421         234.421     473.323E-03     473.323E-03     82.6350E-03     82.6350E-03
            1236         234.442         234.442     451.620E-03     451.620E-03     64.9806E-03     64.9806E-03
            1237         234.458         234.458     434.726E-03     434.726E-03     48.0584E-03     48.0584E-03
            1238         234.470         234.470     422.672E-03     422.672E-03     31.7003E-03     31.7003E-03
            1239         234.477         234.477     415.466E-03     415.466E-03     15.7792E-03     15.7792E-03
            1240         213.931         213.931        -1.71586        -1.71586         14.3502         14.3502
            1241         216.548         216.548    -314.931E-03    -314.931E-03         10.6645         10.6645
            1242         219.001         219.001     449.090E-03     449.090E-03         8.07541         8.07541
            1243         221.129         221.129     892.881E-03     892.881E-03         6.23317         6.23317
            1244         222.928         222.928         1.17016         1.17016         4.89645         4.89645
            1245         224.437         224.437         1.35498         1.35498         3.90777         3.90777
            1246         225.705         225.705         1.48540         1.48540         3.16453         3.16453
            1247         226.776         226.776         1.58086         1.58086         2.59716         2.59716
            1248         227.686         227.686         1.65166         1.65166         2.15827         2.15827
            1249         228.465         228.465         1.70315         1.70315         1.81442         1.81442
            1250         229.137         229.137         1.73826         1.73826         1.54190         1.54190
            1251         229.722         229.722         1.75866         1.75866         1.32339         1.32339
            1252         230.234         230.234         1.76551         1.76551         1.14623         1.14623
            1253         230.686         230.686         1.75976         1.75976         1.00094         1.00094
            1254         231.087         231.087         1.74236         1.74236     880.429E-03     880.429E-03
            1255         231.445         231.445         1.71433         1.71433     779.307E-03     779.307E-03
            1256         231.766         231.766         1.67676         1.67676     693.481E-03     693.481E-03
            1257         232.055         232.055         1.63082         1.63082     619.815E-03     619.815E-03
            1258         232.316         232.316         1.57772         1.57772     555.901E-03     555.901E-03
            1259         232.552         232.552         1.51870         1.51870     499.886E-03     499.886E-03
            1260         232.767         232.767         1.45497         1.45497     450.340E-03     450.340E-03
            1261         232.961         232.961         1.38773         1.38773     406.154E-03     406.154E-03
            1262         233.138         233.138         1.31808         1.31808     366.469E-03     366.469E-03
            1263         233.299         233.299         1.24709         1.24709     330.611E-03     330.611E-03
            1264         233.444         233.444         1.17572         1.17572     298.049E-03     298.049E-03
            1265         233.576         233.576         1.10485         1.10485     268.364E-03     268.364E-03
            1266         233.696         233.696         1.03523         1.03523     241.214E-03     241.214E-03
            1267         233.804         233.804     967.576E-03     967.576E-03     216.321E-03     216.321E-03
            1268         233.901         233.901     902.460E-03     902.460E-03     193.451E-03     193.451E-03
            1269         233.988         233.988     840.393E-03     840.393E-03     172.403E-03     172.403E-03
            1270         234.066         234.066     781.802E-03     781.802E-03     153.004E-03     153.004E-03
            1271         234.135         234.135     727.039E-03     727.039E-03     135.095E-03     135.095E-03
            1272         234.197         234.197     676.395E-03     676.395E-03     118.532E-03     118.532E-03
            1273         234.251         234.251     630.102E-03     630.102E-03     103.183E-03     103.183E-03
            1274         234.297         234.297     588.346E-03     588.346E-03     88.9182E-03     88.9182E-03
            1275         234.338         234.338     551.270E-03     551.270E-03     75.6179E-03     75.6179E-03
            1276         234.372         234.372     518.984E-03     518.984E-03     63.1641E-03     63.1641E-03
            1277         234.401         234.401     491.571E-03     491.571E-03     51.4428E-03     51.4428E-03
            1278         234.423         234.423     469.091E-03     469.091E-03     40.3431E-03     40.3431E-03
            1279         234.441         234.441     451.589E-03     451.589E-03     29.7562E-03     29.7562E-03
            1280         234.453         234.453     439.094E-03     439.094E-03     19.5765E-03     19.5765E-03
            1281         234.461         234.461     431.615E-03     431.615E-03     9.72324E-03     9.72324E-03
            1282         204.804         204.804         2.63835         2.63835         8.78497         8.78497
            1283         210.670         210.670         2.58446         2.58446         6.15683         6.15683
            1284         215.044         215.044         2.43982         2.43982         4.48307         4.48307
            1285         218.364         218.364         2.30111         2.30111         3.36061         3.36061
            1286         220.937         220.937         2.19060         2.19060         2.57815         2.57815
            1287         222.968         222.968         2.10968         2.10968         2.01731         2.01731
            1288         224.598         224.598         2.05335         2.05335         1.60550         1.60550
            1289         225.925         225.925         2.01485         2.01485         1.29744         1.29744
            1290         227.021         227.021         1.98783         1.98783         1.06296         1.06296
            1291         227.937         227.937         1.96684         1.96684     881.910E-03     881.910E-03
            1292         228.713         228.713         1.94755         1.94755     740.160E-03     740.160E-03
            1293         229.376         229.376         1.92670         1.92670     627.789E-03     627.789E-03
            1294         229.949         229.949         1.90198         1.90198     537.587E-03     537.587E-03
            1295         230.448         230.448         1.87187         1.87187     464.317E-03     464.317E-03
            1296         230.887         230.887         1.83554         1.83554     404.076E-03     404.076E-03
            1297         231.275         231.275         1.79269         1.79269     353.963E-03     353.963E-03
            1298         231.620         231.620         1.74342         1.74342     311.784E-03     311.784E-03
            1299         231.929         231.929         1.68817         1.68817     275.882E-03     275.882E-03
            1300         232.207         232.207         1.62761         1.62761     244.993E-03     244.993E-03
            1301         232.458         232.458         1.56252         1.56252     218.152E-03     218.152E-03
            1302         232.684         232.684         1.49382         1.49382     194.616E-03     194.616E-03
            1303         232.889         232.889         1.42245         1.42245     173.815E-03     173.815E-03
            1304         233.074         233.074         1.34932         1.34932     155.303E-03     155.303E-03
            1305         233.242         233.242         1.27537         1.27537     138.735E-03     138.735E-03
            1306         233.394         233.394         1.20143         1.20143     123.837E-03     123.837E-03
            1307         233.532         233.532         1.12831         1.12831     110.392E-03     110.392E-03
            1308         233.657         233.657         1.05672         1.05672     98.2238E-03     98.2238E-03
            1309         233.769         233.769     987.294E-03     987.294E-03     87.1867E-03     87.1867E-03
            1310         233.870         233.870     920.593E-03     920.593E-03     77.1598E-03     77.1598E-03
            1311         233.961         233.961     857.098E-03     857.098E-03     68.0393E-03     68.0393E-03
            1312         234.042         234.042     797.217E-03     797.217E-03     59.7345E-03     59.7345E-03
            1313         234.114         234.114     741.290E-03     741.290E-03     52.1652E-03     52.1652E-03
            1314         234.178         234.178     689.598E-03     689.598E-03     45.2586E-03     45.2586E-03
            1315         234.234         234.234     642.367E-03     642.367E-03     38.9483E-03     38.9483E-03
            1316         234.283         234.283     599.776E-03     599.776E-03     33.1726E-03     33.1726E-03
            1317         234.325         234.325     561.966E-03     561.966E-03     27.8743E-03     27.8743E-03
            1318         234.360         234.360     529.043E-03     529.043E-03     22.9994E-03     22.9994E-03
            1319         234.390         234.390     501.086E-03     501.086E-03     18.4975E-03     18.4975E-03
            1320         234.414         234.414     478.156E-03     478.156E-03     14.3210E-03     14.3210E-03
            1321         234.432         234.432     460.292E-03     460.292E-03     10.4257E-03     10.4257E-03
            1322         234.445         234.445     447.524E-03     447.524E-03     6.77051E-03     6.77051E-03
            1323         234.453         234.453     439.856E-03     439.856E-03     3.32591E-03     3.32591E-03
            1324         201.620         201.620         4.23980         4.23980    -598.099E-03    -598.099E-03
            1325         208.791         208.791         3.54766         3.54766    -522.091E-03    -522.091E-03
            1326         213.843         213.843         3.06128         3.06128    -443.659E-03    -443.659E-03
            1327         217.560         217.560         2.72049         2.72049    -378.533E-03    -378.533E-03
            1328         220.379         220.379         2.48223         2.48223    -325.205E-03    -325.205E-03
            1329         222.570         222.570         2.31786         2.31786    -282.007E-03    -282.007E-03
            1330         224.307         224.307         2.20474         2.20474    -246.624E-03    -246.624E-03
            1331         225.708         225.708         2.12692         2.12692    -217.602E-03    -217.602E-03
            1332         226.856         226.856         2.07191         2.07191    -193.558E-03    -193.558E-03
            1333         227.811         227.811         2.03078         2.03078    -173.556E-03    -173.556E-03
            1334         228.614         228.614         1.99671         1.99671    -156.780E-03    -156.780E-03
            1335         229.298         229.298         1.96494         1.96494    -142.631E-03    -142.631E-03
            1336         229.886         229.886         1.93203         1.93203    -130.599E-03    -130.599E-03
            1337         230.398         230.398         1.89576         1.89576    -120.286E-03    -120.286E-03
            1338         230.846         230.846         1.85472         1.85472    -111.359E-03    -111.359E-03
            1339         231.241         231.241         1.80826         1.80826    -103.550E-03    -103.550E-03
            1340         231.592         231.592         1.75620         1.75620    -96.6365E-03    -96.6365E-03
            1341         231.906         231.906         1.69876         1.69876    -90.4400E-03    -90.4400E-03
            1342         232.188         232.188         1.63647         1.63647    -84.8136E-03    -84.8136E-03
            1343         232.441         232.441         1.57000         1.57000    -79.6405E-03    -79.6405E-03
            1344         232.670         232.670         1.50018         1.50018    -74.8275E-03    -74.8275E-03
            1345         232.877         232.877         1.42789         1.42789    -70.3019E-03    -70.3019E-03
            1346         233.064         233.064         1.35400         1.35400    -66.0077E-03    -66.0077E-03
            1347         233.234         233.234         1.27941         1.27941    -61.9024E-03    -61.9024E-03
            1348         233.387         233.387         1.20493         1.20493    -57.9544E-03    -57.9544E-03
            1349         233.526         233.526         1.13134         1.13134    -54.1410E-03    -54.1410E-03
            1350         233.652         233.652         1.05934         1.05934    -50.4457E-03    -50.4457E-03
            1351         233.765         233.765     989.554E-03     989.554E-03    -46.8568E-03    -46.8568E-03
            1352         233.867         233.867     922.540E-03     922.540E-03    -43.3659E-03    -43.3659E-03
            1353         233.958         233.958     858.770E-03     858.770E-03    -39.9665E-03    -39.9665E-03
            1354         234.040         234.040     798.647E-03     798.647E-03    -36.6528E-03    -36.6528E-03
            1355         234.112         234.112     742.507E-03     742.507E-03    -33.4193E-03    -33.4193E-03
            1356         234.176         234.176     690.626E-03     690.626E-03    -30.2595E-03    -30.2595E-03
            1357         234.233         234.233     643.229E-03     643.229E-03    -27.1659E-03    -27.1659E-03
            1358         234.282         234.282     600.492E-03     600.492E-03    -24.1292E-03    -24.1292E-03
            1359         234.324         234.324     562.553E-03     562.553E-03    -21.1379E-03    -21.1379E-03
            1360         234.360         234.360     529.515E-03     529.515E-03    -18.1783E-03    -18.1783E-03
            1361         234.390         234.390     501.458E-03     501.458E-03    -15.2343E-03    -15.2343E-03
            1362         234.413         234.413     478.435E-03     478.435E-03    -12.2866E-03    -12.2866E-03
            1363         234.432         234.432     460.487E-03     460.487E-03    -9.31331E-03    -9.31331E-03
            1364         234.445         234.445     447.639E-03     447.639E-03    -6.28899E-03    -6.28899E-03
            1365         234.453         234.453     439.891E-03     439.891E-03    -3.19190E-03    -3.19190E-03
            1366         206.997         206.997         1.58730         1.58730        -10.0985        -10.0985
            1367         212.222         212.222         1.82053         1.82053        -7.31761        -7.31761
            1368         216.162         216.162         1.87765         1.87765        -5.48762        -5.48762
            1369         219.192         219.192         1.87950         1.87950        -4.22391        -4.22391
            1370         221.565         221.565         1.86859         1.86859        -3.32209        -3.32209
            1371         223.454         223.454         1.85952         1.85952        -2.66134        -2.66134
            1372         224.981         224.981         1.85618         1.85618        -2.16703        -2.16703
            1373         226.233         226.233         1.85733         1.85733        -1.79052        -1.79052
            1374         227.272         227.272         1.86049         1.86049        -1.49932        -1.49932
            1375         228.145         228.145         1.86273         1.86273        -1.27097        -1.27097
            1376         228.886         228.886         1.86155         1.86155        -1.08964        -1.08964
            1377         229.523         229.523         1.85491         1.85491    -943.916E-03    -943.916E-03
            1378         230.074         230.074         1.84144         1.84144    -825.428E-03    -825.428E-03
            1379         230.556         230.556         1.82029         1.82029    -727.955E-03    -727.955E-03
            1380         230.981         230.981         1.79112         1.79112    -646.821E-03    -646.821E-03
            1381         231.358         231.358         1.75403         1.75403    -578.475E-03    -578.475E-03
            1382         231.694         231.694         1.70942         1.70942    -520.206E-03    -520.206E-03
            1383         231.995         231.995         1.65795         1.65795    -469.931E-03    -469.931E-03
            1384         232.266         232.266         1.60048         1.60048    -426.047E-03    -426.047E-03
            1385         232.510         232.510         1.53794         1.53794    -387.318E-03    -387.318E-03
            1386         232.731         232.731         1.47137         1.47137    -352.787E-03    -352.787E-03
            1387         232.932         232.932         1.40178         1.40178    -321.715E-03    -321.715E-03
            1388         233.113         233.113         1.33019         1.33019    -293.529E-03    -293.529E-03
            1389         233.278         233.278         1.25755         1.25755    -267.782E-03    -267.782E-03
            1390         233.427         233.427         1.18478         1.18478    -244.129E-03    -244.129E-03
            1391         233.561         233.561         1.11269         1.11269    -222.296E-03    -222.296E-03
            1392         233.683         233.683         1.04202         1.04202    -202.066E-03    -202.066E-03
            1393         233.793         233.793     973.443E-03     973.443E-03    -183.263E-03    -183.263E-03
            1394         233.892         233.892     907.518E-03     907.518E-03    -165.742E-03    -165.742E-03
            1395         233.981         233.981     844.739E-03     844.739E-03    -149.380E-03    -149.380E-03
            1396         234.060         234.060     785.518E-03     785.518E-03    -134.070E-03    -134.070E-03
            1397         234.130         234.130     730.200E-03     730.200E-03    -119.715E-03    -119.715E-03
            1398         234.193         234.193     679.066E-03     679.066E-03    -106.224E-03    -106.224E-03
            1399         234.247         234.247     632.342E-03     632.342E-03    -93.5111E-03    -93.5111E-03
            1400         234.295         234.295     590.206E-03     590.206E-03    -81.4917E-03    -81.4917E-03
            1401         234.336         234.336     552.795E-03     552.795E-03    -70.0821E-03    -70.0821E-03
            1402         234.371         234.371     520.212E-03     520.212E-03    -59.1977E-03    -59.1977E-03
            1403         234.400         234.400     492.535E-03     492.535E-03    -48.7530E-03    -48.7530E-03
            1404         234.423         234.423     469.817E-03     469.817E-03    -38.6602E-03    -38.6602E-03
            1405         234.441         234.441     452.094E-03     452.094E-03    -28.8295E-03    -28.8295E-03
            1406         234.453         234.453     439.391E-03     439.391E-03    -19.1687E-03    -19.1687E-03
            1407         234.461         234.461     431.703E-03     431.703E-03    -9.60704E-03    -9.60704E-03
            1408         218.434         218.434        -3.62757        -3.62757        -14.9427        -14.9427
            1409         219.812         219.812        -1.78647        -1.78647        -11.4590        -11.4590
            1410         221.414         221.414    -681.469E-03    -681.469E-03        -8.90729        -8.90729
            1411         222.945         222.945     20.3207E-03     20.3207E-03        -7.03016        -7.03016
            1412         224.319         224.319     490.392E-03     490.392E-03        -5.62962        -5.62962
            1413         225.522         225.522     820.439E-03     820.439E-03        -4.57048        -4.57048
            1414         226.565         226.565         1.06060         1.06060        -3.75878        -3.75878
            1415         227.467         227.467         1.24004         1.24004        -3.12911        -3.12911
            1416         228.249         228.249         1.37553         1.37553        -2.63500        -2.63500
            1417         228.929         228.929         1.47736         1.47736        -2.24307        -2.24307
            1418         229.525         229.525         1.55186         1.55186        -1.92889        -1.92889
            1419         230.049         230.049         1.60332         1.60332        -1.67440        -1.67440
            1420         230.513         230.513         1.63477         1.63477        -1.46607        -1.46607
            1421         230.926         230.926         1.64861         1.64861        -1.29368        -1.29368
            1422         231.295         231.295         1.64687         1.64687        -1.14943        -1.14943
            1423         231.627         231.627         1.63142         1.63142        -1.02735        -1.02735
            1424         231.926         231.926         1.60401         1.60401    -922.848E-03    -922.848E-03
            1425         232.197         232.197         1.56632         1.56632    -832.373E-03    -832.373E-03
            1426         232.443         232.443         1.51997         1.51997    -753.186E-03    -753.186E-03
            1427         232.666         232.666         1.46652         1.46652    -683.161E-03    -683.161E-03
            1428         232.869         232.869         1.40743         1.40743    -620.655E-03    -620.655E-03
            1429         233.053         233.053         1.34410         1.34410    -564.390E-03    -564.390E-03
            1430         233.221         233.221         1.27781         1.27781    -513.376E-03    -513.376E-03
            1431         233.374         233.374         1.20973         1.20973    -466.838E-03    -466.838E-03
            1432         233.512         233.512         1.14091         1.14091    -424.168E-03    -424.168E-03
            1433         233.638         233.638         1.07230         1.07230    -384.887E-03    -384.887E-03
            1434         233.751         233.751         1.00474         1.00474    -348.606E-03    -348.606E-03
            1435         233.854         233.854     938.947E-03     938.947E-03    -315.011E-03    -315.011E-03
            1436         233.946         233.946     875.539E-03     875.539E-03    -283.838E-03    -283.838E-03
            1437         234.029         234.029     815.044E-03     815.044E-03    -254.860E-03    -254.860E-03
            1438         234.103         234.103     757.899E-03     757.899E-03    -227.877E-03    -227.877E-03
            1439         234.169         234.169     704.466E-03     704.466E-03    -202.708E-03    -202.708E-03
            1440         234.227         234.227     655.039E-03     655.039E-03    -179.184E-03    -179.184E-03
            1441         234.278         234.278     609.849E-03     609.849E-03    -157.143E-03    -157.143E-03
            1442         234.322         234.322     569.080E-03     569.080E-03    -136.429E-03    -136.429E-03
            1443         234.360         234.360     532.873E-03     532.873E-03    -116.889E-03    -116.889E-03
            1444         234.393         234.393     501.331E-03     501.331E-03    -98.3680E-03    -98.3680E-03
            1445         234.420         234.420     474.531E-03     474.531E-03    -80.7135E-03    -80.7135E-03
            1446         234.441         234.441     452.528E-03     452.528E-03    -63.7710E-03    -63.7710E-03
            1447         234.458         234.458     435.356E-03     435.356E-03    -47.3851E-03    -47.3851E-03
            1448         234.470         234.470     423.038E-03     423.038E-03    -31.3988E-03    -31.3988E-03
            1449         234.477         234.477     415.572E-03     415.572E-03    -15.6931E-03    -15.6931E-03
            1450         230.114         230.114        -7.98553        -7.98553        -14.0233        -14.0233
            1451         228.421         228.421        -5.34746        -5.34746        -11.8074        -11.8074
            1452         227.781         227.781        -3.47438        -3.47438        -9.79397        -9.79397
            1453         227.716         227.716        -2.15111        -2.15111        -8.10067        -8.10067
            1454         227.947         227.947        -1.19898        -1.19898        -6.72158        -6.72158
            1455         228.321         228.321    -500.999E-03    -500.999E-03        -5.61053        -5.61053
            1456         228.755         228.755     20.2258E-03     20.2258E-03        -4.71783        -4.71783
            1457         229.203         229.203     414.621E-03     414.621E-03        -3.99939        -3.99939
            1458         229.643         229.643     715.511E-03     715.511E-03        -3.41891        -3.41891
            1459         230.063         230.063     945.128E-03     945.128E-03        -2.94729        -2.94729
            1460         230.456         230.456         1.11894         1.11894        -2.56158        -2.56158
            1461         230.823         230.823         1.24790         1.24790        -2.24370        -2.24370
            1462         231.162         231.162         1.34013         1.34013        -1.97950        -1.97950
            1463         231.476         231.476         1.40184         1.40184        -1.75787        -1.75787
            1464         231.765         231.765         1.43799         1.43799        -1.57011        -1.57011
            1465         232.031         232.031         1.45268         1.45268        -1.40939        -1.40939
            1466         232.277         232.277         1.44941         1.44941        -1.27038        -1.27038
            1467         232.503         232.503         1.43118         1.43118        -1.14888        -1.14888
            1468         232.711         232.711         1.40067         1.40067        -1.04164        -1.04164
            1469         232.902         232.902         1.36024         1.36024    -946.102E-03    -946.102E-03
            1470         233.077         233.077         1.31198         1.31198    -860.272E-03    -860.272E-03
            1471         233.238         233.238         1.25777         1.25777    -782.602E-03    -782.602E-03
            1472         233.385         233.385         1.19925         1.19925    -711.876E-03    -711.876E-03
            1473         233.519         233.519         1.13790         1.13790    -647.142E-03    -647.142E-03
            1474         233.642         233.642         1.07498         1.07498    -587.648E-03    -587.648E-03
            1475         233.753         233.753         1.01160         1.01160    -532.791E-03    -532.791E-03
            1476         233.854         233.854     948.725E-03     948.725E-03    -482.082E-03    -482.082E-03
            1477         233.945         233.945     887.155E-03     887.155E-03    -435.117E-03    -435.117E-03
            1478         234.027         234.027     827.580E-03     827.580E-03    -391.553E-03    -391.553E-03
            1479         234.101         234.101     770.574E-03     770.574E-03    -351.090E-03    -351.090E-03
            1480         234.167         234.167     716.607E-03     716.607E-03    -313.458E-03    -313.458E-03
            1481         234.226         234.226     666.066E-03     666.066E-03    -278.411E-03    -278.411E-03
            1482         234.277         234.277     619.257E-03     619.257E-03    -245.716E-03    -245.716E-03
            1483         234.323         234.323     576.425E-03     576.425E-03    -215.148E-03    -215.148E-03
            1484         234.362         234.362     537.760E-03     537.760E-03    -186.487E-03    -186.487E-03
            1485         234.396         234.396     503.405E-03     503.405E-03    -159.519E-03    -159.519E-03
            1486         234.425         234.425     473.469E-03     473.469E-03    -134.026E-03    -134.026E-03
            1487         234.449         234.449     448.028E-03     448.028E-03    -109.796E-03    -109.796E-03
            1488         234.468         234.468     427.138E-03     427.138E-03    -86.6118E-03    -86.6118E-03
            1489         234.483         234.483     410.836E-03     410.836E-03    -64.2576E-03    -64.2576E-03
            1490         234.493         234.493     399.143E-03     399.143E-03    -42.5171E-03    -42.5171E-03
            1491         234.499         234.499     392.058E-03     392.058E-03    -21.2263E-03    -21.2263E-03
            1492         238.115         238.115        -9.67310        -9.67310        -9.99789        -9.99789
            1493         235.282         235.282        -7.39474        -7.39474        -9.49084        -9.49084
            1494         233.417         233.417        -5.45716        -5.45716        -8.59163        -8.59163
            1495         232.266         232.266        -3.90411        -3.90411        -7.58431        -7.58431
            1496         231.607         231.607        -2.69008        -2.69008        -6.61550        -6.61550
            1497         231.271         231.271        -1.74495        -1.74495        -5.74451        -5.74451
            1498         231.145         231.145        -1.00877        -1.00877        -4.98759        -4.98759
            1499         231.153         231.153    -433.821E-03    -433.821E-03        -4.34135        -4.34135
            1500         231.247         231.247     15.4631E-03     15.4631E-03        -3.79445        -3.79445
            1501         231.393         231.393     365.824E-03     365.824E-03        -3.33311        -3.33311
            1502         231.568         231.568     637.168E-03     637.168E-03        -2.94376        -2.94376
            1503         231.760         231.760     844.681E-03     844.681E-03        -2.61412        -2.61412
            1504         231.959         231.959         1.00005         1.00005        -2.33355        -2.33355
            1505         232.158         232.158         1.11254         1.11254        -2.09314        -2.09314
            1506         232.353         232.353         1.18959         1.18959        -1.88548        -1.88548
            1507         232.542         232.542         1.23734         1.23734        -1.70457        -1.70457
            1508         232.723         232.723         1.26090         1.26090        -1.54554        -1.54554
            1509         232.894         232.894         1.26461         1.26461        -1.40451        -1.40451
            1510         233.055         233.055         1.25219         1.25219        -1.27838        -1.27838
            1511         233.206         233.206         1.22683         1.22683        -1.16471        -1.16471
            1512         233.347         233.347         1.19127         1.19127        -1.06157        -1.06157
            1513         233.478         233.478         1.14791         1.14791    -967.432E-03    -967.432E-03
            1514         233.598         233.598         1.09879         1.09879    -881.101E-03    -881.101E-03
            1515         233.709         233.709         1.04567         1.04567    -801.628E-03    -801.628E-03
            1516         233.810         233.810     990.054E-03     990.054E-03    -728.253E-03    -728.253E-03
            1517         233.903         233.903     933.231E-03     933.231E-03    -660.360E-03    -660.360E-03
            1518         233.987         233.987     876.278E-03     876.278E-03    -597.440E-03    -597.440E-03
            1519         234.064         234.064     820.104E-03     820.104E-03    -539.062E-03    -539.062E-03
            1520         234.133         234.133     765.460E-03     765.460E-03    -484.853E-03    -484.853E-03
            1521         234.194         234.194     712.969E-03     712.969E-03    -434.477E-03    -434.477E-03
            1522         234.250         234.250     663.135E-03     663.135E-03    -387.625E-03    -387.625E-03
            1523         234.299         234.299     616.365E-03     616.365E-03    -344.008E-03    -344.008E-03
            1524         234.342         234.342     572.984E-03     572.984E-03    -303.347E-03    -303.347E-03
            1525         234.380         234.380     533.245E-03     533.245E-03    -265.369E-03    -265.369E-03
            1526         234.413         234.413     497.344E-03     497.344E-03    -229.805E-03    -229.805E-03
            1527         234.442         234.442     465.428E-03     465.428E-03    -196.388E-03    -196.388E-03
            1528         234.466         234.466     437.608E-03     437.608E-03    -164.850E-03    -164.850E-03
            1529         234.486         234.486     413.963E-03     413.963E-03    -134.923E-03    -134.923E-03
            1530         234.502         234.502     394.549E-03     394.549E-03    -106.338E-03    -106.338E-03
            1531         234.514         234.514     379.403E-03     379.403E-03    -78.8238E-03    -78.8238E-03
            1532         234.523         234.523     368.551E-03     368.551E-03    -52.1116E-03    -52.1116E-03
            1533         234.528         234.528     361.994E-03     361.994E-03    -25.9994E-03    -25.9994E-03
            1534         235.531         235.531     3.84975E-03     3.84975E-03    -806.925E-03    -806.925E-03
            1535         236.319         236.319     6.69495E-03     6.69495E-03        -1.43778        -1.43778
            1536         237.111         237.111     40.0506E-06     40.0506E-06        -1.90077        -1.90077
            1537         237.926         237.926    -32.9007E-03    -32.9007E-03        -2.25641        -2.25641
            1538         238.790         238.790    -116.489E-03    -116.489E-03        -2.54811        -2.54811
            1539         239.734         239.734    -284.493E-03    -284.493E-03        -2.80092        -2.80092
            1540         240.795         240.795    -583.824E-03    -583.824E-03        -3.02159        -3.02159
            1541         242.013         242.013        -1.08026        -1.08026        -3.19369        -3.19369
            1542         243.432         243.432        -1.86527        -1.86527        -3.26615        -3.26615
            1543         245.078         245.078        -3.06112        -3.06112        -3.12965        -3.12965
            1544         246.920         246.920        -4.80913        -4.80913        -2.58105        -2.58105
            1545         248.758         248.758        -7.21244        -7.21244        -1.28107        -1.28107
            1546         234.534         234.534     71.4470E-03     71.4470E-03    -741.826E-03    -741.826E-03
            1547         235.600         235.600     197.304E-03     197.304E-03        -1.32677        -1.32677
            1548         236.560         236.560     379.112E-03     379.112E-03        -1.77029        -1.77029
            1549         237.465         237.465     593.063E-03     593.063E-03        -2.13691        -2.13691
            1550         238.366         238.366     815.527E-03     815.527E-03        -2.47635        -2.47635
            1551         239.314         239.314         1.01946         1.01946        -2.82523        -2.82523
            1552         240.365         240.365         1.16869         1.16869        -3.20980        -3.20980
            1553         241.588         241.588         1.20913         1.20913        -3.64545        -3.64545
            1554         243.071         243.071         1.05439         1.05439        -4.13016        -4.13016
            1555         244.927         244.927     562.071E-03     562.071E-03        -4.62656        -4.62656
            1556         247.287         247.287    -501.769E-03    -501.769E-03        -5.01327        -5.01327
            1557         250.253         250.253        -2.49207        -2.49207        -4.98365        -4.98365
            1558         233.696         233.696     134.366E-03     134.366E-03    -559.415E-03    -559.415E-03
            1559         234.989         234.989     375.269E-03     375.269E-03        -1.00140        -1.00140
            1560         236.072         236.072     735.105E-03     735.105E-03        -1.34236        -1.34236
            1561         237.026         237.026         1.18691         1.18691        -1.63739        -1.63739
            1562         237.918         237.918         1.71385         1.71385        -1.93119        -1.93119
            1563         238.810         238.810         2.30544         2.30544        -2.26124        -2.26124
            1564         239.765         239.765         2.95327         2.95327        -2.66276        -2.66276
            1565         240.860         240.860         3.64522         3.64522        -3.17242        -3.17242
            1566         242.192         242.192         4.35557         4.35557        -3.83104        -3.83104
            1567         243.907         243.907         5.02509         5.02509        -4.68331        -4.68331
            1568         246.234         246.234         5.51408         5.51408        -5.76565        -5.76565
            1569         249.538         249.538         5.48904         5.48904        -7.05144        -7.05144
            1570         233.157         233.157     179.441E-03     179.441E-03    -279.896E-03    -279.896E-03
            1571         234.597         234.597     502.986E-03     502.986E-03    -497.736E-03    -497.736E-03
            1572         235.753         235.753     991.564E-03     991.564E-03    -664.290E-03    -664.290E-03
            1573         236.724         236.724         1.61758         1.61758    -812.031E-03    -812.031E-03
            1574         237.588         237.588         2.37201         2.37201    -968.019E-03    -968.019E-03
            1575         238.411         238.411         3.26153         3.26153        -1.15654        -1.15654
            1576         239.254         239.254         4.30729         4.30729        -1.40290        -1.40290
            1577         240.185         240.185         5.54571         5.54571        -1.73762        -1.73762
            1578         241.289         241.289         7.03097         7.03097        -2.20201        -2.20201
            1579         242.692         242.692         8.83919         8.83919        -2.85681        -2.85681
            1580         244.599         244.599         11.0715         11.0715        -3.80043        -3.80043
            1581         247.390         247.390         13.8377         13.8377        -5.20361        -5.20361
            1582         233.017         233.017     196.431E-03     196.431E-03     55.4597E-03     55.4597E-03
            1583         234.505         234.505     551.190E-03     551.190E-03     108.736E-03     108.736E-03
            1584         235.682         235.682         1.08856         1.08856     158.943E-03     158.943E-03
            1585         236.652         236.652         1.78091         1.78091     204.436E-03     204.436E-03
            1586         237.497         237.497         2.62251         2.62251     244.058E-03     244.058E-03
            1587         238.284         238.284         3.62720         3.62720     276.912E-03     276.912E-03
            1588         239.071         239.071         4.82872         4.82872     302.334E-03     302.334E-03
            1589         239.922         239.922         6.28484         6.28484     319.908E-03     319.908E-03
            1590         240.913         240.913         8.08675         8.08675     329.403E-03     329.403E-03
            1591         242.151         242.151         10.3771         10.3771     330.826E-03     330.826E-03
            1592         243.806         243.806         13.3890         13.3890     324.471E-03     324.471E-03
            1593         246.188         246.188         17.5419         17.5419     310.451E-03     310.451E-03
            1594         233.312         233.312     181.459E-03     181.459E-03     392.670E-03     392.670E-03
            1595         234.744         234.744     508.819E-03     508.819E-03     718.703E-03     718.703E-03
            1596         235.889         235.889         1.00337         1.00337     987.065E-03     987.065E-03
            1597         236.845         236.845         1.63716         1.63716         1.22693         1.22693
            1598         237.691         237.691         2.40082         2.40082         1.46307         1.46307
            1599         238.494         238.494         3.30070         3.30070         1.71796         1.71796
            1600         239.315         239.315         4.35762         4.35762         2.01564         2.01564
            1601         240.223         240.223         5.60772         5.60772         2.38577         2.38577
            1602         241.304         241.304         7.10496         7.10496         2.86928         2.86928
            1603         242.685         242.685         8.92521         8.92521         3.52689         3.52689
            1604         244.570         244.570         11.1692         11.1692         4.45733         4.45733
            1605         247.340         247.340         13.9468         13.9468         5.83255         5.83255
            1606         234.011         234.011     138.395E-03     138.395E-03     677.747E-03     677.747E-03
            1607         235.288         235.288     386.914E-03     386.914E-03         1.23284         1.23284
            1608         236.347         236.347     758.675E-03     758.675E-03         1.67978         1.67978
            1609         237.270         237.270         1.22600         1.22600         2.07035         2.07035
            1610         238.125         238.125         1.77134         1.77134         2.44697         2.44697
            1611         238.976         238.976         2.38355         2.38355         2.84540         2.84540
            1612         239.888         239.888         3.05358         3.05358         3.29960         3.29960
            1613         240.936         240.936         3.76876         3.76876         3.84547         3.84547
            1614         242.223         242.223         4.50283         4.50283         4.52351         4.52351
            1615         243.892         243.892         5.19614         5.19614         5.37847         5.37847
            1616         246.175         246.175         5.70880         5.70880         6.44709         6.44709
            1617         249.438         249.438         5.70620         5.70620         7.70328         7.70328
            1618         235.019         235.019     77.4730E-03     77.4730E-03     869.406E-03     869.406E-03
            1619         236.060         236.060     214.725E-03     214.725E-03         1.57563         1.57563
            1620         236.982         236.982     414.364E-03     414.364E-03         2.13204         2.13204
            1621         237.839         237.839     651.494E-03     651.494E-03         2.59984         2.59984
            1622         238.683         238.683     901.421E-03     901.421E-03         3.02654         3.02654
            1623         239.568         239.568         1.13608         1.13608         3.44706         3.44706
            1624         240.551         240.551         1.31834         1.31834         3.88651         3.88651
            1625         241.705         241.705         1.39324         1.39324         4.35960         4.35960
            1626         243.117         243.117         1.27358         1.27358         4.86410         4.86410
            1627         244.903         244.903     816.351E-03     816.351E-03         5.36292         5.36292
            1628         247.196         247.196    -212.895E-03    -212.895E-03         5.73531         5.73531
            1629         250.099         250.099        -2.16891        -2.16891         5.67457         5.67457
            1630         236.201         236.201     11.8629E-03     11.8629E-03     947.434E-03     947.434E-03
            1631         236.952         236.952     29.8512E-03     29.8512E-03         1.71098         1.71098
            1632         237.690         237.690     46.8742E-03     46.8742E-03         2.29647         2.29647
            1633         238.438         238.438     44.6791E-03     44.6791E-03         2.76111         2.76111
            1634         239.223         239.223    -2.54635E-03    -2.54635E-03         3.14615         3.14615
            1635         240.080         240.080    -129.950E-03    -129.950E-03         3.47506         3.47506
            1636         241.048         241.048    -385.752E-03    -385.752E-03         3.75351         3.75351
            1637         242.170         242.170    -836.943E-03    -836.943E-03         3.96454         3.96454
            1638         243.493         243.493        -1.57608        -1.57608         4.05706         4.05706
            1639         245.045         245.045        -2.72643        -2.72643         3.92222         3.92222
            1640         246.797         246.797        -4.42986        -4.42986         3.35809         3.35809
            1641         248.549         248.549        -6.78940        -6.78940         2.02665         2.02665
            1642         234.587         234.587     295.890E-03     295.890E-03     32.2168E-03     32.2168E-03
            1643         234.584         234.584     301.316E-03     301.316E-03     64.6064E-03     64.6064E-03
            1644         234.580         234.580     310.331E-03     310.331E-03     97.7861E-03     97.7861E-03
            1645         234.573         234.573     322.930E-03     322.930E-03     132.013E-03     132.013E-03
            1646         234.564         234.564     339.092E-03     339.092E-03     167.634E-03     167.634E-03
            1647         234.553         234.553     358.779E-03     358.779E-03     204.992E-03     204.992E-03
            1648         234.539         234.539     381.938E-03     381.938E-03     244.431E-03     244.431E-03
            1649         234.523         234.523     408.493E-03     408.493E-03     286.287E-03     286.287E-03
            1650         234.504         234.504     438.335E-03     438.335E-03     330.896E-03     330.896E-03
            1651         234.483         234.483     471.319E-03     471.319E-03     378.586E-03     378.586E-03
            1652         234.458         234.458     507.249E-03     507.249E-03     429.680E-03     429.680E-03
            1653         234.430         234.430     545.869E-03     545.869E-03     484.497E-03     484.497E-03
            1654         234.398         234.398     586.845E-03     586.845E-03     543.349E-03     543.349E-03
            1655         234.362         234.362     629.754E-03     629.754E-03     606.545E-03     606.545E-03
            1656         234.323         234.323     674.057E-03     674.057E-03     674.390E-03     674.390E-03
            1657         234.279         234.279     719.084E-03     719.084E-03     747.194E-03     747.194E-03
            1658         234.231         234.231     764.003E-03     764.003E-03     825.272E-03     825.272E-03
            1659         234.178         234.178     807.795E-03     807.795E-03     908.955E-03     908.955E-03
            1660         234.121         234.121     849.216E-03     849.216E-03     998.601E-03     998.601E-03
            1661         234.060         234.060     886.759E-03     886.759E-03         1.09461         1.09461
            1662         233.995         233.995     918.616E-03     918.616E-03         1.19745         1.19745
            1663         233.927         233.927     942.621E-03     942.621E-03         1.30766         1.30766
            1664         233.857         233.857     956.199E-03     956.199E-03         1.42590         1.42590
            1665         233.785         233.785     956.298E-03     956.298E-03         1.55299         1.55299
            1666         233.714         233.714     939.322E-03     939.322E-03         1.68992         1.68992
            1667         233.647         233.647     901.042E-03     901.042E-03         1.83789         1.83789
            1668         233.586         233.586     836.509E-03     836.509E-03         1.99833         1.99833
            1669         233.536         233.536     739.936E-03     739.936E-03         2.17292         2.17292
            1670         233.504         233.504     604.590E-03     604.590E-03         2.36352         2.36352
            1671         233.497         233.497     422.634E-03     422.634E-03         2.57207         2.57207
            1672         233.525         233.525     185.022E-03     185.022E-03         2.80037         2.80037
            1673         233.602         233.602    -118.693E-03    -118.693E-03         3.04960         3.04960
            1674         233.746         233.746    -500.322E-03    -500.322E-03         3.31962         3.31962
            1675         233.978         233.978    -973.118E-03    -973.118E-03         3.60776         3.60776
            1676         234.327         234.327        -1.55103        -1.55103         3.90678         3.90678
            1677         234.829         234.829        -2.24791        -2.24791         4.20213         4.20213
            1678         235.528         235.528        -3.07400        -3.07400         4.46723         4.46723
            1679         236.473         236.473        -4.03129        -4.03129         4.65835         4.65835
            1680         237.713         237.713        -5.10138        -5.10138         4.70677         4.70677
            1681         239.283         239.283        -6.22960        -6.22960         4.51687         4.51687
            1682         241.183         241.183        -7.29884        -7.29884         3.96744         3.96744
            1683         243.348         243.348        -8.12049        -8.12049         2.94738         2.94738
            1684         234.615         234.615     262.967E-03     262.967E-03     33.7441E-03     33.7441E-03
            1685         234.613         234.613     267.850E-03     267.850E-03     67.6662E-03     67.6662E-03
            1686         234.610         234.610     275.966E-03     275.966E-03     102.430E-03     102.430E-03
            1687         234.606         234.606     287.310E-03     287.310E-03     138.311E-03     138.311E-03
            1688         234.601         234.601     301.861E-03     301.861E-03     175.674E-03     175.674E-03
            1689         234.594         234.594     319.585E-03     319.585E-03     214.886E-03     214.886E-03
            1690         234.586         234.586     340.432E-03     340.432E-03     256.308E-03     256.308E-03
            1691         234.576         234.576     364.331E-03     364.331E-03     300.298E-03     300.298E-03
            1692         234.564         234.564     391.180E-03     391.180E-03     347.205E-03     347.205E-03
            1693         234.551         234.551     420.840E-03     420.840E-03     397.373E-03     397.373E-03
            1694         234.535         234.535     453.124E-03     453.124E-03     451.134E-03     451.134E-03
            1695         234.518         234.518     487.783E-03     487.783E-03     508.809E-03     508.809E-03
            1696         234.498         234.498     524.495E-03     524.495E-03     570.709E-03     570.709E-03
            1697         234.475         234.475     562.844E-03     562.844E-03     637.128E-03     637.128E-03
            1698         234.450         234.450     602.299E-03     602.299E-03     708.347E-03     708.347E-03
            1699         234.422         234.422     642.197E-03     642.197E-03     784.633E-03     784.633E-03
            1700         234.392         234.392     681.706E-03     681.706E-03     866.236E-03     866.236E-03
            1701         234.359         234.359     719.801E-03     719.801E-03     953.399E-03     953.399E-03
            1702         234.324         234.324     755.225E-03     755.225E-03         1.04635         1.04635
            1703         234.286         234.286     786.446E-03     786.446E-03         1.14533         1.14533
            1704         234.247         234.247     811.612E-03     811.612E-03         1.25057         1.25057
            1705         234.208         234.208     828.500E-03     828.500E-03         1.36233         1.36233
            1706         234.169         234.169     834.451E-03     834.451E-03         1.48089         1.48089
            1707         234.132         234.132     826.314E-03     826.314E-03         1.60656         1.60656
            1708         234.099         234.099     800.370E-03     800.370E-03         1.73971         1.73971
            1709         234.074         234.074     752.264E-03     752.264E-03         1.88074         1.88074
            1710         234.061         234.061     676.921E-03     676.921E-03         2.03006         2.03006
            1711         234.064         234.064     568.490E-03     568.490E-03         2.18805         2.18805
            1712         234.090         234.090     420.259E-03     420.259E-03         2.35493         2.35493
            1713         234.148         234.148     224.652E-03     224.652E-03         2.53056         2.53056
            1714         234.249         234.249    -26.8054E-03    -26.8054E-03         2.71414         2.71414
            1715         234.405         234.405    -343.298E-03    -343.298E-03         2.90360         2.90360
            1716         234.634         234.634    -734.538E-03    -734.538E-03         3.09485         3.09485
            1717         234.956         234.956        -1.20999        -1.20999         3.28045         3.28045
            1718         235.395         235.395        -1.77790        -1.77790         3.44797         3.44797
            1719         235.980         235.980        -2.44282        -2.44282         3.57732         3.57732
            1720         236.738         236.738        -3.20220        -3.20220         3.63825         3.63825
            1721         237.699         237.699        -4.03966        -4.03966         3.58650         3.58650
            1722         238.881         238.881        -4.91590        -4.91590         3.36346         3.36346
            1723         240.279         240.279        -5.75637        -5.75637         2.89673         2.89673
            1724         241.857         241.857        -6.43992        -6.43992         2.11538         2.11538
            1725         243.540         243.540        -6.80583        -6.80583     956.084E-03     956.084E-03
            1726         234.641         234.641     228.914E-03     228.914E-03     34.4800E-03     34.4800E-03
            1727         234.641         234.641     233.226E-03     233.226E-03     69.1408E-03     69.1408E-03
            1728         234.640         234.640     240.396E-03     240.396E-03     104.680E-03     104.680E-03
            1729         234.639         234.639     250.419E-03     250.419E-03     141.382E-03     141.382E-03
            1730         234.637         234.637     263.274E-03     263.274E-03     179.628E-03     179.628E-03
            1731         234.635         234.635     278.934E-03     278.934E-03     219.798E-03     219.798E-03
            1732         234.632         234.632     297.352E-03     297.352E-03     262.267E-03     262.267E-03
            1733         234.629         234.629     318.464E-03     318.464E-03     307.404E-03     307.404E-03
            1734         234.625         234.625     342.177E-03     342.177E-03     355.568E-03     355.568E-03
            1735         234.620         234.620     368.361E-03     368.361E-03     407.110E-03     407.110E-03
            1736         234.615         234.615     396.843E-03     396.843E-03     462.365E-03     462.365E-03
            1737         234.608         234.608     427.390E-03     427.390E-03     521.652E-03     521.652E-03
            1738         234.601         234.601     459.696E-03     459.696E-03     585.271E-03     585.271E-03
            1739         234.592         234.592     493.366E-03     493.366E-03     653.495E-03     653.495E-03
            1740         234.582         234.582     527.892E-03     527.892E-03     726.573E-03     726.573E-03
            1741         234.572         234.572     562.634E-03     562.634E-03     804.718E-03     804.718E-03
            1742         234.560         234.560     596.788E-03     596.788E-03     888.110E-03     888.110E-03
            1743         234.547         234.547     629.355E-03     629.355E-03     976.885E-03     976.885E-03
            1744         234.534         234.534     659.102E-03     659.102E-03         1.07114         1.07114
            1745         234.521         234.521     684.524E-03     684.524E-03         1.17091         1.17091
            1746         234.509         234.509     703.791E-03     703.791E-03         1.27620         1.27620
            1747         234.498         234.498     714.698E-03     714.698E-03         1.38693         1.38693
            1748         234.491         234.491     714.606E-03     714.606E-03         1.50298         1.50298
            1749         234.488         234.488     700.386E-03     700.386E-03         1.62413         1.62413
            1750         234.492         234.492     668.351E-03     668.351E-03         1.75008         1.75008
            1751         234.507         234.507     614.204E-03     614.204E-03         1.88040         1.88040
            1752         234.537         234.537     532.991E-03     532.991E-03         2.01446         2.01446
            1753         234.586         234.586     419.060E-03     419.060E-03         2.15134         2.15134
            1754         234.663         234.663     266.093E-03     266.093E-03         2.28970         2.28970
            1755         234.773         234.773     67.1425E-03     67.1425E-03         2.42752         2.42752
            1756         234.929         234.929    -185.159E-03    -185.159E-03         2.56172         2.56172
            1757         235.142         235.142    -498.322E-03    -498.322E-03         2.68768         2.68768
            1758         235.427         235.427    -879.331E-03    -879.331E-03         2.79840         2.79840
            1759         235.800         235.800        -1.33375        -1.33375         2.88359         2.88359
            1760         236.280         236.280        -1.86397        -1.86397         2.92818         2.92818
            1761         236.885         236.885        -2.46675        -2.46675         2.91105         2.91105
            1762         237.631         237.631        -3.12928        -3.12928         2.80324         2.80324
            1763         238.528         238.528        -3.82367        -3.82367         2.56791         2.56791
            1764         239.573         239.573        -4.50052        -4.50052         2.16104         2.16104
            1765         240.741         240.741        -5.08100        -5.08100         1.53797         1.53797
            1766         241.982         241.982        -5.45717        -5.45717     661.181E-03     661.181E-03
            1767         243.207         243.207        -5.47800        -5.47800    -494.142E-03    -494.142E-03
            1768         234.665         234.665     194.536E-03     194.536E-03     34.3928E-03     34.3928E-03
            1769         234.666         234.666     198.262E-03     198.262E-03     68.9638E-03     68.9638E-03
            1770         234.667         234.667     204.457E-03     204.457E-03     104.434E-03     104.434E-03
            1771         234.669         234.669     213.117E-03     213.117E-03     141.089E-03     141.089E-03
            1772         234.671         234.671     224.227E-03     224.227E-03     179.318E-03     179.318E-03
            1773         234.674         234.674     237.761E-03     237.761E-03     219.508E-03     219.508E-03
            1774         234.677         234.677     253.680E-03     253.680E-03     262.041E-03     262.041E-03
            1775         234.681         234.681     271.927E-03     271.927E-03     307.290E-03     307.290E-03
            1776         234.685         234.685     292.420E-03     292.420E-03     355.617E-03     355.617E-03
            1777         234.689         234.689     315.044E-03     315.044E-03     407.375E-03     407.375E-03
            1778         234.694         234.694     339.642E-03     339.642E-03     462.894E-03     462.894E-03
            1779         234.699         234.699     366.001E-03     366.001E-03     522.488E-03     522.488E-03
            1780         234.704         234.704     393.844E-03     393.844E-03     586.438E-03     586.438E-03
            1781         234.710         234.710     422.804E-03     422.804E-03     654.997E-03     654.997E-03
            1782         234.717         234.717     452.415E-03     452.415E-03     728.374E-03     728.374E-03
            1783         234.723         234.723     482.077E-03     482.077E-03     806.729E-03     806.729E-03
            1784         234.731         234.731     511.039E-03     511.039E-03     890.164E-03     890.164E-03
            1785         234.740         234.740     538.361E-03     538.361E-03     978.713E-03     978.713E-03
            1786         234.750         234.750     562.877E-03     562.877E-03         1.07233         1.07233
            1787         234.761         234.761     583.159E-03     583.159E-03         1.17086         1.17086
            1788         234.776         234.776     597.463E-03     597.463E-03         1.27406         1.27406
            1789         234.794         234.794     603.686E-03     603.686E-03         1.38155         1.38155
            1790         234.818         234.818     599.308E-03     599.308E-03         1.49277         1.49277
            1791         234.848         234.848     581.342E-03     581.342E-03         1.60701         1.60701
            1792         234.887         234.887     546.280E-03     546.280E-03         1.72332         1.72332
            1793         234.939         234.939     490.062E-03     490.062E-03         1.84047         1.84047
            1794         235.007         235.007     408.043E-03     408.043E-03         1.95686         1.95686
            1795         235.097         235.097     295.026E-03     295.026E-03         2.07042         2.07042
            1796         235.213         235.213     145.314E-03     145.314E-03         2.17843         2.17843
            1797         235.365         235.365    -47.1081E-03    -47.1081E-03         2.27730         2.27730
            1798         235.559         235.559    -288.312E-03    -288.312E-03         2.36225         2.36225
            1799         235.808         235.808    -583.889E-03    -583.889E-03         2.42683         2.42683
            1800         236.121         236.121    -938.222E-03    -938.222E-03         2.46243         2.46243
            1801         236.512         236.512        -1.35323        -1.35323         2.45747         2.45747
            1802         236.992         236.992        -1.82663        -1.82663         2.39682         2.39682
            1803         237.572         237.572        -2.34945        -2.34945         2.26100         2.26100
            1804         238.256         238.256        -2.90259        -2.90259         2.02629         2.02629
            1805         239.042         239.042        -3.45304        -3.45304         1.66541         1.66541
            1806         239.914         239.914        -3.94900        -3.94900         1.15084         1.15084
            1807         240.838         240.838        -4.31850        -4.31850     459.980E-03     459.980E-03
            1808         241.759         241.759        -4.46464        -4.46464    -418.713E-03    -418.713E-03
            1809         242.591         242.591        -4.26782        -4.26782        -1.46923        -1.46923
            1810         234.686         234.686     160.665E-03     160.665E-03     33.4644E-03     33.4644E-03
            1811         234.688         234.688     163.798E-03     163.798E-03     67.0985E-03     67.0985E-03
            1812         234.691         234.691     169.010E-03     169.010E-03     101.634E-03     101.634E-03
            1813         234.696         234.696     176.297E-03     176.297E-03     137.351E-03     137.351E-03
            1814         234.702         234.702     185.646E-03     185.646E-03     174.640E-03     174.640E-03
            1815         234.710         234.710     197.037E-03     197.037E-03     213.885E-03     213.885E-03
            1816         234.719         234.719     210.437E-03     210.437E-03     255.466E-03     255.466E-03
            1817         234.730         234.730     225.799E-03     225.799E-03     299.756E-03     299.756E-03
            1818         234.742         234.742     243.054E-03     243.054E-03     347.113E-03     347.113E-03
            1819         234.755         234.755     262.101E-03     262.101E-03     397.883E-03     397.883E-03
            1820         234.771         234.771     282.805E-03     282.805E-03     452.390E-03     452.390E-03
            1821         234.788         234.788     304.982E-03     304.982E-03     510.935E-03     510.935E-03
            1822         234.806         234.806     328.385E-03     328.385E-03     573.783E-03     573.783E-03
            1823         234.827         234.827     352.691E-03     352.691E-03     641.159E-03     641.159E-03
            1824         234.850         234.850     377.483E-03     377.483E-03     713.237E-03     713.237E-03
            1825         234.874         234.874     402.226E-03     402.226E-03     790.125E-03     790.125E-03
            1826         234.902         234.902     426.241E-03     426.241E-03     871.856E-03     871.856E-03
            1827         234.932         234.932     448.678E-03     448.678E-03     958.366E-03     958.366E-03
            1828         234.965         234.965     468.479E-03     468.479E-03         1.04948         1.04948
            1829         235.002         235.002     484.338E-03     484.338E-03         1.14488         1.14488
            1830         235.044         235.044     494.663E-03     494.663E-03         1.24409         1.24409
            1831         235.091         235.091     497.525E-03     497.525E-03         1.34644         1.34644
            1832         235.144         235.144     490.617E-03     490.617E-03         1.45102         1.45102
            1833         235.206         235.206     471.201E-03     471.201E-03         1.55665         1.55665
            1834         235.279         235.279     436.079E-03     436.079E-03         1.66181         1.66181
            1835         235.365         235.365     381.566E-03     381.566E-03         1.76458         1.76458
            1836         235.467         235.467     303.500E-03     303.500E-03         1.86254         1.86254
            1837         235.590         235.590     197.287E-03     197.287E-03         1.95266         1.95266
            1838         235.739         235.739     58.0302E-03     58.0302E-03         2.03115         2.03115
            1839         235.920         235.920    -119.263E-03    -119.263E-03         2.09325         2.09325
            1840         236.139         236.139    -339.289E-03    -339.289E-03         2.13303         2.13303
            1841         236.405         236.405    -605.895E-03    -605.895E-03         2.14304         2.14304
            1842         236.725         236.725    -921.189E-03    -921.189E-03         2.11402         2.11402
            1843         237.108         237.108        -1.28434        -1.28434         2.03460         2.03460
            1844         237.558         237.558        -1.68988        -1.68988         1.89103         1.89103
            1845         238.081         238.081        -2.12554        -2.12554         1.66744         1.66744
            1846         238.673         238.673        -2.56980        -2.56980         1.34642         1.34642
            1847         239.324         239.324        -2.98884        -2.98884     910.920E-03     910.920E-03
            1848         240.013         240.013        -3.33510        -3.33510     347.554E-03     347.554E-03
            1849         240.704         240.704        -3.54506        -3.54506    -349.214E-03    -349.214E-03
            1850         241.344         241.344        -3.54123        -3.54123        -1.16822        -1.16822
            1851         241.867         241.867        -3.23826        -3.23826        -2.07305        -2.07305
            1852         234.702         234.702     128.139E-03     128.139E-03     31.6946E-03     31.6946E-03
            1853         234.705         234.705     130.689E-03     130.689E-03     63.5438E-03     63.5438E-03
            1854         234.711         234.711     134.931E-03     134.931E-03     96.2761E-03     96.2761E-03
            1855         234.719         234.719     140.863E-03     140.863E-03     130.161E-03     130.161E-03
            1856         234.729         234.729     148.476E-03     148.476E-03     165.577E-03     165.577E-03
            1857         234.741         234.741     157.753E-03     157.753E-03     202.900E-03     202.900E-03
            1858         234.756         234.756     168.670E-03     168.670E-03     242.500E-03     242.500E-03
            1859         234.773         234.773     181.189E-03     181.189E-03     284.739E-03     284.739E-03
            1860         234.794         234.794     195.253E-03     195.253E-03     329.967E-03     329.967E-03
            1861         234.817         234.817     210.782E-03     210.782E-03     378.518E-03     378.518E-03
            1862         234.842         234.842     227.663E-03     227.663E-03     430.703E-03     430.703E-03
            1863         234.871         234.871     245.741E-03     245.741E-03     486.808E-03     486.808E-03
            1864         234.903         234.903     264.811E-03     264.811E-03     547.079E-03     547.079E-03
            1865         234.939         234.939     284.598E-03     284.598E-03     611.717E-03     611.717E-03
            1866         234.978         234.978     304.747E-03     304.747E-03     680.863E-03     680.863E-03
            1867         235.021         235.021     324.799E-03     324.799E-03     754.583E-03     754.583E-03
            1868         235.069         235.069     344.171E-03     344.171E-03     832.851E-03     832.851E-03
            1869         235.120         235.120     362.127E-03     362.127E-03     915.526E-03     915.526E-03
            1870         235.177         235.177     377.746E-03     377.746E-03         1.00233         1.00233
            1871         235.240         235.240     389.892E-03     389.892E-03         1.09280         1.09280
            1872         235.308         235.308     397.174E-03     397.174E-03         1.18630         1.18630
            1873         235.384         235.384     397.902E-03     397.902E-03         1.28192         1.28192
            1874         235.467         235.467     390.054E-03     390.054E-03         1.37845         1.37845
            1875         235.560         235.560     371.237E-03     371.237E-03         1.47436         1.47436
            1876         235.664         235.664     338.659E-03     338.659E-03         1.56768         1.56768
            1877         235.782         235.782     289.127E-03     289.127E-03         1.65595         1.65595
            1878         235.915         235.915     219.062E-03     219.062E-03         1.73613         1.73613
            1879         236.067         236.067     124.586E-03     124.586E-03         1.80448         1.80448
            1880         236.241         236.241     1.65231E-03     1.65231E-03         1.85646         1.85646
            1881         236.443         236.443    -153.688E-03    -153.688E-03         1.88659         1.88659
            1882         236.676         236.676    -344.901E-03    -344.901E-03         1.88831         1.88831
            1883         236.945         236.945    -574.367E-03    -574.367E-03         1.85382         1.85382
            1884         237.255         237.255    -842.547E-03    -842.547E-03         1.77407         1.77407
            1885         237.610         237.610        -1.14687        -1.14687         1.63868         1.63868
            1886         238.012         238.012        -1.48024        -1.48024         1.43628         1.43628
            1887         238.459         238.459        -1.82945        -1.82945         1.15506         1.15506
            1888         238.944         238.944        -2.17317        -2.17317     784.000E-03     784.000E-03
            1889         239.453         239.453        -2.48070        -2.48070     315.003E-03     315.003E-03
            1890         239.964         239.964        -2.71059        -2.71059    -254.394E-03    -254.394E-03
            1891         240.444         240.444        -2.81164        -2.81164    -916.129E-03    -916.129E-03
            1892         240.850         240.850        -2.72596        -2.72596        -1.64680        -1.64680
            1893         241.135         241.135        -2.39627        -2.39627        -2.40105        -2.40105
            1894         234.712         234.712     97.7912E-03     97.7912E-03     29.1025E-03     29.1025E-03
            1895         234.716         234.716     99.7796E-03     99.7796E-03     58.3364E-03     58.3364E-03
            1896         234.724         234.724     103.090E-03     103.090E-03     88.4148E-03     88.4148E-03
            1897         234.735         234.735     107.720E-03     107.720E-03     119.585E-03     119.585E-03
            1898         234.748         234.748     113.662E-03     113.662E-03     152.208E-03     152.208E-03
            1899         234.766         234.766     120.906E-03     120.906E-03     186.640E-03     186.640E-03
            1900         234.786         234.786     129.435E-03     129.435E-03     223.232E-03     223.232E-03
            1901         234.811         234.811     139.218E-03     139.218E-03     262.329E-03     262.329E-03
            1902         234.839         234.839     150.215E-03     150.215E-03     304.262E-03     304.262E-03
            1903         234.871         234.871     162.362E-03     162.362E-03     349.348E-03     349.348E-03
            1904         234.907         234.907     175.572E-03     175.572E-03     397.882E-03     397.882E-03
            1905         234.948         234.948     189.722E-03     189.722E-03     450.129E-03     450.129E-03
            1906         234.993         234.993     204.649E-03     204.649E-03     506.317E-03     506.317E-03
            1907         235.043         235.043     220.134E-03     220.134E-03     566.626E-03     566.626E-03
            1908         235.099         235.099     235.888E-03     235.888E-03     631.171E-03     631.171E-03
            1909         235.160         235.160     251.541E-03     251.541E-03     699.987E-03     699.987E-03
            1910         235.228         235.228     266.616E-03     266.616E-03     773.006E-03     773.006E-03
            1911         235.301         235.301     280.510E-03     280.510E-03     850.038E-03     850.038E-03
            1912         235.382         235.382     292.467E-03     292.467E-03     930.732E-03     930.732E-03
            1913         235.469         235.469     301.546E-03     301.546E-03         1.01455         1.01455
            1914         235.565         235.565     306.596E-03     306.596E-03         1.10072         1.10072
            1915         235.669         235.669     306.215E-03     306.215E-03         1.18819         1.18819
            1916         235.782         235.782     298.722E-03     298.722E-03         1.27557         1.27557
            1917         235.906         235.906     282.131E-03     282.131E-03         1.36108         1.36108
            1918         236.041         236.041     254.128E-03     254.128E-03         1.44246         1.44246
            1919         236.188         236.188     212.079E-03     212.079E-03         1.51691         1.51691
            1920         236.350         236.350     153.061E-03     153.061E-03         1.58099         1.58099
            1921         236.527         236.527     73.9403E-03     73.9403E-03         1.63056         1.63056
            1922         236.723         236.723    -28.4718E-03    -28.4718E-03         1.66067         1.66067
            1923         236.939         236.939    -157.176E-03    -157.176E-03         1.66550         1.66550
            1924         237.178         237.178    -314.601E-03    -314.601E-03         1.63832         1.63832
            1925         237.442         237.442    -502.063E-03    -502.063E-03         1.57153         1.57153
            1926         237.733         237.733    -719.030E-03    -719.030E-03         1.45672         1.45672
            1927         238.050         238.050    -962.148E-03    -962.148E-03         1.28502         1.28502
            1928         238.392         238.392        -1.22415        -1.22415         1.04759         1.04759
            1929         238.754         238.754        -1.49250        -1.49250     736.541E-03     736.541E-03
            1930         239.127         239.127        -1.74840        -1.74840     346.346E-03     346.346E-03
            1931         239.496         239.496        -1.96571        -1.96571    -124.286E-03    -124.286E-03
            1932         239.841         239.841        -2.11119        -2.11119    -669.536E-03    -669.536E-03
            1933         240.135         240.135        -2.14588        -2.14588        -1.27360        -1.27360
            1934         240.347         240.347        -2.02878        -2.02878        -1.90689        -1.90689
            1935         240.445         240.445        -1.72389        -1.72389        -2.52360        -2.52360
            1936         234.714         234.714     70.4220E-03     70.4220E-03     25.7273E-03     25.7273E-03
            1937         234.720         234.720     71.8879E-03     71.8879E-03     51.5550E-03     51.5550E-03
            1938         234.730         234.730     74.3299E-03     74.3299E-03     78.1646E-03     78.1646E-03
            1939         234.743         234.743     77.7448E-03     77.7448E-03     105.775E-03     105.775E-03
            1940         234.760         234.760     82.1294E-03     82.1294E-03     134.715E-03     134.715E-03
            1941         234.782         234.782     87.4764E-03     87.4764E-03     165.314E-03     165.314E-03
            1942         234.808         234.808     93.7745E-03     93.7745E-03     197.896E-03     197.896E-03
            1943         234.839         234.839     101.004E-03     101.004E-03     232.775E-03     232.775E-03
            1944         234.874         234.874     109.136E-03     109.136E-03     270.258E-03     270.258E-03
            1945         234.915         234.915     118.124E-03     118.124E-03     310.636E-03     310.636E-03
            1946         234.962         234.962     127.906E-03     127.906E-03     354.183E-03     354.183E-03
            1947         235.014         235.014     138.391E-03     138.391E-03     401.141E-03     401.141E-03
            1948         235.072         235.072     149.458E-03     149.458E-03     451.719E-03     451.719E-03
            1949         235.137         235.137     160.944E-03     160.944E-03     506.076E-03     506.076E-03
            1950         235.209         235.209     172.630E-03     172.630E-03     564.309E-03     564.309E-03
            1951         235.288         235.288     184.237E-03     184.237E-03     626.437E-03     626.437E-03
            1952         235.375         235.375     195.401E-03     195.401E-03     692.372E-03     692.372E-03
            1953         235.471         235.471     205.660E-03     205.660E-03     761.901E-03     761.901E-03
            1954         235.575         235.575     214.432E-03     214.432E-03     834.650E-03     834.650E-03
            1955         235.688         235.688     220.993E-03     220.993E-03     910.047E-03     910.047E-03
            1956         235.810         235.810     224.449E-03     224.449E-03     987.278E-03     987.278E-03
            1957         235.943         235.943     223.712E-03     223.712E-03         1.06523         1.06523
            1958         236.086         236.086     217.474E-03     217.474E-03         1.14246         1.14246
            1959         236.240         236.240     204.190E-03     204.190E-03         1.21708         1.21708
            1960         236.406         236.406     182.061E-03     182.061E-03         1.28672         1.28672
            1961         236.583         236.583     149.045E-03     149.045E-03         1.34847         1.34847
            1962         236.773         236.773     102.889E-03     102.889E-03         1.39876         1.39876
            1963         236.975         236.975     41.2047E-03     41.2047E-03         1.43332         1.43332
            1964         237.191         237.191    -38.3958E-03    -38.3958E-03         1.44714         1.44714
            1965         237.420         237.420    -138.084E-03    -138.084E-03         1.43444         1.43444
            1966         237.662         237.662    -259.490E-03    -259.490E-03         1.38871         1.38871
            1967         237.917         237.917    -403.254E-03    -403.254E-03         1.30286         1.30286
            1968         238.184         238.184    -568.412E-03    -568.412E-03         1.16944         1.16944
            1969         238.459         238.459    -751.684E-03    -751.684E-03     981.138E-03     981.138E-03
            1970         238.738         238.738    -946.577E-03    -946.577E-03     731.452E-03     731.452E-03
            1971         239.014         239.014        -1.14259        -1.14259     415.725E-03     415.725E-03
            1972         239.277         239.277        -1.32442        -1.32442     32.4733E-03     32.4733E-03
            1973         239.513         239.513        -1.47172        -1.47172    -414.734E-03    -414.734E-03
            1974         239.705         239.705        -1.55951        -1.55951    -915.370E-03    -915.370E-03
            1975         239.834         239.834        -1.55983        -1.55983        -1.44963        -1.44963
            1976         239.878         239.878        -1.44526        -1.44526        -1.98685        -1.98685
            1977         239.821         239.821        -1.19379        -1.19379        -2.48480        -2.48480
            1978         234.708         234.708     46.7841E-03     46.7841E-03     21.6316E-03     21.6316E-03
            1979         234.715         234.715     47.7827E-03     47.7827E-03     43.3208E-03     43.3208E-03
            1980         234.726         234.726     49.4470E-03     49.4470E-03     65.7075E-03     65.7075E-03
            1981         234.742         234.742     51.7744E-03     51.7744E-03     88.9675E-03     88.9675E-03
            1982         234.763         234.763     54.7617E-03     54.7617E-03     113.391E-03     113.391E-03
            1983         234.789         234.789     58.4067E-03     58.4067E-03     139.266E-03     139.266E-03
            1984         234.820         234.820     62.7035E-03     62.7035E-03     166.877E-03     166.877E-03
            1985         234.857         234.857     67.6397E-03     67.6397E-03     196.501E-03     196.501E-03
            1986         234.899         234.899     73.1963E-03     73.1963E-03     228.410E-03     228.410E-03
            1987         234.948         234.948     79.3443E-03     79.3443E-03     262.861E-03     262.861E-03
            1988         235.004         235.004     86.0415E-03     86.0415E-03     300.096E-03     300.096E-03
            1989         235.067         235.067     93.2280E-03     93.2280E-03     340.333E-03     340.333E-03
            1990         235.137         235.137     100.822E-03     100.822E-03     383.757E-03     383.757E-03
            1991         235.216         235.216     108.710E-03     108.710E-03     430.509E-03     430.509E-03
            1992         235.304         235.304     116.746E-03     116.746E-03     480.676E-03     480.676E-03
            1993         235.401         235.401     124.733E-03     124.733E-03     534.268E-03     534.268E-03
            1994         235.507         235.507     132.420E-03     132.420E-03     591.201E-03     591.201E-03
            1995         235.624         235.624     139.483E-03     139.483E-03     651.272E-03     651.272E-03
            1996         235.751         235.751     145.513E-03     145.513E-03     714.123E-03     714.123E-03
            1997         235.890         235.890     149.999E-03     149.999E-03     779.211E-03     779.211E-03
            1998         236.040         236.040     152.309E-03     152.309E-03     845.759E-03     845.759E-03
            1999         236.202         236.202     151.667E-03     151.667E-03     912.708E-03     912.708E-03
            2000         236.375         236.375     147.145E-03     147.145E-03     978.658E-03     978.658E-03
            2001         236.561         236.561     137.637E-03     137.637E-03         1.04181         1.04181
            2002         236.758         236.758     121.859E-03     121.859E-03         1.09988         1.09988
            2003         236.966         236.966     98.3559E-03     98.3559E-03         1.15007         1.15007
            2004         237.186         237.186     65.5252E-03     65.5252E-03         1.18896         1.18896
            2005         237.414         237.414     21.6795E-03     21.6795E-03         1.21248         1.21248
            2006         237.652         237.652    -34.8473E-03    -34.8473E-03         1.21587         1.21587
            2007         237.895         237.895    -105.533E-03    -105.533E-03         1.19375         1.19375
            2008         238.143         238.143    -191.422E-03    -191.422E-03         1.14015         1.14015
            2009         238.391         238.391    -292.779E-03    -292.779E-03         1.04874         1.04874
            2010         238.636         238.636    -408.667E-03    -408.667E-03     913.158E-03     913.158E-03
            2011         238.871         238.871    -536.385E-03    -536.385E-03     727.539E-03     727.539E-03
            2012         239.091         239.091    -670.931E-03    -670.931E-03     487.260E-03     487.260E-03
            2013         239.286         239.286    -804.390E-03    -804.390E-03     189.929E-03     189.929E-03
            2014         239.445         239.445    -925.591E-03    -925.591E-03    -163.304E-03    -163.304E-03
            2015         239.557         239.557        -1.02002        -1.02002    -566.366E-03    -566.366E-03
            2016         239.608         239.608        -1.07037        -1.07037        -1.00663        -1.00663
            2017         239.585         239.585        -1.05804        -1.05804        -1.46371        -1.46371
            2018         239.476         239.476    -965.484E-03    -965.484E-03        -1.90882        -1.90882
            2019         239.275         239.275    -780.000E-03    -780.000E-03        -2.30516        -2.30516
            2020         234.693         234.693     27.5551E-03     27.5551E-03     16.8983E-03     16.8983E-03
            2021         234.701         234.701     28.1608E-03     28.1608E-03     33.8051E-03     33.8051E-03
            2022         234.713         234.713     29.1701E-03     29.1701E-03     51.2933E-03     51.2933E-03
            2023         234.731         234.731     30.5750E-03     30.5750E-03     69.4935E-03     69.4935E-03
            2024         234.755         234.755     32.3783E-03     32.3783E-03     88.6445E-03     88.6445E-03
            2025         234.784         234.784     34.5820E-03     34.5820E-03     108.978E-03     108.978E-03
            2026         234.820         234.820     37.1815E-03     37.1815E-03     130.728E-03     130.728E-03
            2027         234.862         234.862     40.1707E-03     40.1707E-03     154.123E-03     154.123E-03
            2028         234.911         234.911     43.5388E-03     43.5388E-03     179.386E-03     179.386E-03
            2029         234.967         234.967     47.2696E-03     47.2696E-03     206.732E-03     206.732E-03
            2030         235.031         235.031     51.3386E-03     51.3386E-03     236.364E-03     236.364E-03
            2031         235.104         235.104     55.7109E-03     55.7109E-03     268.463E-03     268.463E-03
            2032         235.186         235.186     60.3376E-03     60.3376E-03     303.188E-03     303.188E-03
            2033         235.278         235.278     65.1520E-03     65.1520E-03     340.661E-03     340.661E-03
            2034         235.380         235.380     70.0646E-03     70.0646E-03     380.957E-03     380.957E-03
            2035         235.494         235.494     74.9571E-03     74.9571E-03     424.090E-03     424.090E-03
            2036         235.619         235.619     79.6755E-03     79.6755E-03     469.995E-03     469.995E-03
            2037         235.757         235.757     84.0214E-03     84.0214E-03     518.505E-03     518.505E-03
            2038         235.907         235.907     87.7424E-03     87.7424E-03     569.321E-03     569.321E-03
            2039         236.071         236.071     90.5217E-03     90.5217E-03     621.983E-03     621.983E-03
            2040         236.249         236.249     91.9651E-03     91.9651E-03     675.832E-03     675.832E-03
            2041         236.440         236.440     91.5897E-03     91.5897E-03     729.957E-03     729.957E-03
            2042         236.645         236.645     88.8115E-03     88.8115E-03     783.153E-03     783.153E-03
            2043         236.864         236.864     82.9367E-03     82.9367E-03     833.857E-03     833.857E-03
            2044         237.095         237.095     73.1566E-03     73.1566E-03     880.093E-03     880.093E-03
            2045         237.337         237.337     58.5530E-03     58.5530E-03     919.407E-03     919.407E-03
            2046         237.590         237.590     38.1157E-03     38.1157E-03     948.818E-03     948.818E-03
            2047         237.849         237.849     10.7837E-03     10.7837E-03     964.773E-03     964.773E-03
            2048         238.113         238.113    -24.4849E-03    -24.4849E-03     963.147E-03     963.147E-03
            2049         238.378         238.378    -68.6032E-03    -68.6032E-03     939.270E-03     939.270E-03
            2050         238.637         238.637    -122.190E-03    -122.190E-03     888.042E-03     888.042E-03
            2051         238.886         238.886    -185.354E-03    -185.354E-03     804.139E-03     804.139E-03
            2052         239.118         239.118    -257.403E-03    -257.403E-03     682.353E-03     682.353E-03
            2053         239.323         239.323    -336.520E-03    -336.520E-03     518.107E-03     518.107E-03
            2054         239.492         239.492    -419.387E-03    -419.387E-03     308.138E-03     308.138E-03
            2055         239.616         239.616    -500.879E-03    -500.879E-03     51.4203E-03     51.4203E-03
            2056         239.682         239.682    -573.838E-03    -573.838E-03    -249.804E-03    -249.804E-03
            2057         239.679         239.679    -629.133E-03    -629.133E-03    -588.828E-03    -588.828E-03
            2058         239.597         239.597    -656.114E-03    -656.114E-03    -953.455E-03    -953.455E-03
            2059         239.428         239.428    -643.557E-03    -643.557E-03        -1.32520        -1.32520
            2060         239.168         239.168    -581.278E-03    -581.278E-03        -1.67925        -1.67925
            2061         238.819         238.819    -462.156E-03    -462.156E-03        -1.98535        -1.98535
            2062         234.667         234.667     13.3196E-03     13.3196E-03     11.6446E-03     11.6446E-03
            2063         234.675         234.675     13.6300E-03     13.6300E-03     23.2191E-03     23.2191E-03
            2064         234.689         234.689     14.1291E-03     14.1291E-03     35.2436E-03     35.2436E-03
            2065         234.709         234.709     14.8195E-03     14.8195E-03     47.7874E-03     47.7874E-03
            2066         234.735         234.735     15.7115E-03     15.7115E-03     61.0120E-03     61.0120E-03
            2067         234.767         234.767     16.8022E-03     16.8022E-03     75.0860E-03     75.0860E-03
            2068         234.806         234.806     18.0900E-03     18.0900E-03     90.1787E-03     90.1787E-03
            2069         234.853         234.853     19.5722E-03     19.5722E-03     106.457E-03     106.457E-03
            2070         234.907         234.907     21.2439E-03     21.2439E-03     124.084E-03     124.084E-03
            2071         234.970         234.970     23.0977E-03     23.0977E-03     143.218E-03     143.218E-03
            2072         235.041         235.041     25.1221E-03     25.1221E-03     164.009E-03     164.009E-03
            2073         235.123         235.123     27.3005E-03     27.3005E-03     186.594E-03     186.594E-03
            2074         235.215         235.215     29.6093E-03     29.6093E-03     211.092E-03     211.092E-03
            2075         235.319         235.319     32.0162E-03     32.0162E-03     237.600E-03     237.600E-03
            2076         235.435         235.435     34.4772E-03     34.4772E-03     266.179E-03     266.179E-03
            2077         235.564         235.564     36.9342E-03     36.9342E-03     296.848E-03     296.848E-03
            2078         235.707         235.707     39.3106E-03     39.3106E-03     329.570E-03     329.570E-03
            2079         235.864         235.864     41.5076E-03     41.5076E-03     364.230E-03     364.230E-03
            2080         236.037         236.037     43.3988E-03     43.3988E-03     400.622E-03     400.622E-03
            2081         236.226         236.226     44.8244E-03     44.8244E-03     438.415E-03     438.415E-03
            2082         236.431         236.431     45.5855E-03     45.5855E-03     477.131E-03     477.131E-03
            2083         236.653         236.653     45.4366E-03     45.4366E-03     516.106E-03     516.106E-03
            2084         236.891         236.891     44.0805E-03     44.0805E-03     554.446E-03     554.446E-03
            2085         237.145         237.145     41.1621E-03     41.1621E-03     590.992E-03     590.992E-03
            2086         237.413         237.413     36.2672E-03     36.2672E-03     624.262E-03     624.262E-03
            2087         237.694         237.694     28.9230E-03     28.9230E-03     652.411E-03     652.411E-03
            2088         237.985         237.985     18.6095E-03     18.6095E-03     673.184E-03     673.184E-03
            2089         238.283         238.283     4.77904E-03     4.77904E-03     683.889E-03     683.889E-03
            2090         238.582         238.582    -13.1061E-03    -13.1061E-03     681.391E-03     681.391E-03
            2091         238.877         238.877    -35.5150E-03    -35.5150E-03     662.141E-03     662.141E-03
            2092         239.161         239.161    -62.7647E-03    -62.7647E-03     622.274E-03     622.274E-03
            2093         239.425         239.425    -94.8990E-03    -94.8990E-03     557.774E-03     557.774E-03
            2094         239.658         239.658    -131.549E-03    -131.549E-03     464.759E-03     464.759E-03
            2095         239.849         239.849    -171.747E-03    -171.747E-03     339.884E-03     339.884E-03
            2096         239.985         239.985    -213.757E-03    -213.757E-03     180.911E-03     180.911E-03
            2097         240.053         240.053    -254.897E-03    -254.897E-03    -12.6184E-03    -12.6184E-03
            2098         240.040         240.040    -291.459E-03    -291.459E-03    -238.543E-03    -238.543E-03
            2099         239.934         239.934    -318.753E-03    -318.753E-03    -491.282E-03    -491.282E-03
            2100         239.725         239.725    -331.349E-03    -331.349E-03    -761.084E-03    -761.084E-03
            2101         239.409         239.409    -323.662E-03    -323.662E-03        -1.03363        -1.03363
            2102         238.988         238.988    -290.678E-03    -290.678E-03        -1.29012        -1.29012
            2103         238.469         238.469    -228.868E-03    -228.868E-03        -1.50792        -1.50792
            2104         234.630         234.630     4.53194E-03     4.53194E-03     6.00149E-03     6.00149E-03
            2105         234.639         234.639     4.65134E-03     4.65134E-03     11.8772E-03     11.8772E-03
            2106         234.654         234.654     4.81606E-03     4.81606E-03     18.0475E-03     18.0475E-03
            2107         234.675         234.675     5.05326E-03     5.05326E-03     24.4907E-03     24.4907E-03
            2108         234.702         234.702     5.36239E-03     5.36239E-03     31.2933E-03     31.2933E-03
            2109         234.737         234.737     5.73970E-03     5.73970E-03     38.5483E-03     38.5483E-03
            2110         234.778         234.778     6.18615E-03     6.18615E-03     46.3461E-03     46.3461E-03
            2111         234.828         234.828     6.69998E-03     6.69998E-03     54.7768E-03     54.7768E-03
            2112         234.887         234.887     7.28019E-03     7.28019E-03     63.9286E-03     63.9286E-03
            2113         234.954         234.954     7.92404E-03     7.92404E-03     73.8878E-03     73.8878E-03
            2114         235.032         235.032     8.62793E-03     8.62793E-03     84.7362E-03     84.7362E-03
            2115         235.121         235.121     9.38619E-03     9.38619E-03     96.5500E-03     96.5500E-03
            2116         235.222         235.222     10.1909E-03     10.1909E-03     109.396E-03     109.396E-03
            2117         235.335         235.335     11.0311E-03     11.0311E-03     123.330E-03     123.330E-03
            2118         235.463         235.463     11.8918E-03     11.8918E-03     138.391E-03     138.391E-03
            2119         235.606         235.606     12.7527E-03     12.7527E-03     154.592E-03     154.592E-03
            2120         235.765         235.765     13.5876E-03     13.5876E-03     171.921E-03     171.921E-03
            2121         235.941         235.941     14.3621E-03     14.3621E-03     190.322E-03     190.322E-03
            2122         236.136         236.136     15.0320E-03     15.0320E-03     209.691E-03     209.691E-03
            2123         236.349         236.349     15.5415E-03     15.5415E-03     229.858E-03     229.858E-03
            2124         236.582         236.582     15.8204E-03     15.8204E-03     250.571E-03     250.571E-03
            2125         236.834         236.834     15.7824E-03     15.7824E-03     271.478E-03     271.478E-03
            2126         237.107         237.107     15.3220E-03     15.3220E-03     292.101E-03     292.101E-03
            2127         237.398         237.398     14.3135E-03     14.3135E-03     311.812E-03     311.812E-03
            2128         237.707         237.707     12.6087E-03     12.6087E-03     329.807E-03     329.807E-03
            2129         238.032         238.032     10.0393E-03     10.0393E-03     345.077E-03     345.077E-03
            2130         238.370         238.370     6.41806E-03     6.41806E-03     356.381E-03     356.381E-03
            2131         238.715         238.715     1.54881E-03     1.54881E-03     362.232E-03     362.232E-03
            2132         239.062         239.062    -4.76322E-03    -4.76322E-03     360.889E-03     360.889E-03
            2133         239.403         239.403    -12.6874E-03    -12.6874E-03     350.378E-03     350.378E-03
            2134         239.729         239.729    -22.3392E-03    -22.3392E-03     328.534E-03     328.534E-03
            2135         240.027         240.027    -33.7371E-03    -33.7371E-03     293.114E-03     293.114E-03
            2136         240.285         240.285    -46.7472E-03    -46.7472E-03     241.936E-03     241.936E-03
            2137         240.486         240.486    -61.0257E-03    -61.0257E-03     173.137E-03     173.137E-03
            2138         240.613         240.613    -75.9423E-03    -75.9423E-03     85.4615E-03     85.4615E-03
            2139         240.650         240.650    -90.5377E-03    -90.5377E-03    -21.3101E-03    -21.3101E-03
            2140         240.578         240.578    -103.474E-03    -103.474E-03    -145.936E-03    -145.936E-03
            2141         240.382         240.382    -113.072E-03    -113.072E-03    -285.231E-03    -285.231E-03
            2142         240.053         240.053    -117.399E-03    -117.399E-03    -433.680E-03    -433.680E-03
            2143         239.584         239.584    -114.462E-03    -114.462E-03    -583.262E-03    -583.262E-03
            2144         238.980         238.980    -102.574E-03    -102.574E-03    -723.515E-03    -723.515E-03
            2145         238.256         238.256    -80.3997E-03    -80.3997E-03    -841.792E-03    -841.792E-03
            2146         222.254         222.254         64.2258         64.2258        -17.2399        -17.2399
            2147         224.650         224.650         58.4448         58.4448        -17.1340        -17.1340
            2148         226.979         226.979         52.6445         52.6445        -16.5642        -16.5642
            2149         229.157         229.157         46.9685         46.9685        -15.7003        -15.7003
            2150         231.134         231.134         41.5242         41.5242        -14.5847        -14.5847
            2151         232.870         232.870         36.3991         36.3991        -13.2627        -13.2627
            2152         234.338         234.338         31.6618         31.6618        -11.8022        -11.8022
            2153         235.543         235.543         27.3475         27.3475        -10.2661        -10.2661
            2154         236.489         236.489         23.4731         23.4731        -8.71513        -8.71513
            2155         237.203         237.203         20.0310         20.0310        -7.20144        -7.20144
            2156         237.710         237.710         17.0014         17.0014        -5.76137        -5.76137
            2157         238.044         238.044         14.3554         14.3554        -4.42433        -4.42433
            2158         238.232         238.232         12.0579         12.0579        -3.20369        -3.20369
            2159         238.303         238.303         10.0752         10.0752        -2.10874        -2.10874
            2160         238.281         238.281         8.37100         8.37100        -1.13820        -1.13820
            2161         238.186         238.186         6.91416         6.91416    -288.963E-03    -288.963E-03
            2162         238.034         238.034         5.67318         5.67318     447.453E-03     447.453E-03
            2163         237.841         237.841         4.62154         4.62154         1.07997         1.07997
            2164         237.617         237.617         3.73341         3.73341         1.61961         1.61961
            2165         237.371         237.371         2.98686         2.98686         2.07707         2.07707
            2166         237.111         237.111         2.36087         2.36087         2.46344         2.46344
            2167         236.842         236.842         1.83717         1.83717         2.78915         2.78915
            2168         236.570         236.570         1.39835         1.39835         3.06432         3.06432
            2169         236.300         236.300         1.02874         1.02874         3.29833         3.29833
            2170         236.036         236.036     713.299E-03     713.299E-03         3.50004         3.50004
            2171         235.781         235.781     437.982E-03     437.982E-03         3.67768         3.67768
            2172         235.542         235.542     189.012E-03     189.012E-03         3.83894         3.83894
            2173         235.322         235.322    -46.9871E-03    -46.9871E-03         3.99101         3.99101
            2174         235.129         235.129    -283.520E-03    -283.520E-03         4.14059         4.14059
            2175         234.972         234.972    -534.258E-03    -534.258E-03         4.29382         4.29382
            2176         234.859         234.859    -813.400E-03    -813.400E-03         4.45610         4.45610
            2177         234.805         234.805        -1.13583        -1.13583         4.63173         4.63173
            2178         234.827         234.827        -1.51723        -1.51723         4.82322         4.82322
            2179         234.947         234.947        -1.97417        -1.97417         5.03011         5.03011
            2180         235.193         235.193        -2.52348        -2.52348         5.24706         5.24706
            2181         235.600         235.600        -3.18142        -3.18142         5.46105         5.46105
            2182         236.212         236.212        -3.96028        -3.96028         5.64676         5.64676
            2183         237.077         237.077        -4.86376        -4.86376         5.76151         5.76151
            2184         238.244         238.244        -5.87477        -5.87477         5.73736         5.73736
            2185         239.749         239.749        -6.93966        -6.93966         5.47938         5.47938
            2186         241.588         241.588        -7.94181        -7.94181         4.86686         4.86686
            2187         243.695         243.695        -8.69246        -8.69246         3.78947         3.78947
            2188         222.905         222.905         64.0895         64.0895        -19.7086        -19.7086
            2189         225.423         225.423         57.9739         57.9739        -19.5719        -19.5719
            2190         227.840         227.840         51.8389         51.8389        -18.8650        -18.8650
            2191         230.076         230.076         45.8544         45.8544        -17.8063        -17.8063
            2192         232.063         232.063         40.1539         40.1539        -16.4341        -16.4341
            2193         233.753         233.753         34.8481         34.8481        -14.8320        -14.8320
            2194         235.138         235.138         30.0025         30.0025        -13.0793        -13.0793
            2195         236.213         236.213         25.6569         25.6569        -11.2630        -11.2630
            2196         237.015         237.015         21.8104         21.8104        -9.45853        -9.45853
            2197         237.568         237.568         18.4446         18.4446        -7.72117        -7.72117
            2198         237.922         237.922         15.5245         15.5245        -6.09670        -6.09670
            2199         238.109         238.109         13.0061         13.0061        -4.60632        -4.60632
            2200         238.169         238.169         10.8472         10.8472        -3.26642        -3.26642
            2201         238.132         238.132         9.00197         9.00197        -2.07687        -2.07687
            2202         238.022         238.022         7.43259         7.43259        -1.03578        -1.03578
            2203         237.861         237.861         6.10066         6.10066    -133.112E-03    -133.112E-03
            2204         237.665         237.665         4.97543         4.97543     641.339E-03     641.339E-03
            2205         237.445         237.445         4.02687         4.02687         1.30082         1.30082
            2206         237.211         237.211         3.23068         3.23068         1.85796         1.85796
            2207         236.970         236.970         2.56358         2.56358         2.32591         2.32591
            2208         236.729         236.729         2.00616         2.00616         2.71684         2.71684
            2209         236.492         236.492         1.53996         1.53996         3.04243         3.04243
            2210         236.262         236.262         1.14893         1.14893         3.31329         3.31329
            2211         236.043         236.043     817.733E-03     817.733E-03         3.53923         3.53923
            2212         235.838         235.838     532.418E-03     532.418E-03         3.72902         3.72902
            2213         235.651         235.651     279.414E-03     279.414E-03         3.89062         3.89062
            2214         235.486         235.486     45.8257E-03     45.8257E-03         4.03106         4.03106
            2215         235.348         235.348    -181.187E-03    -181.187E-03         4.15653         4.15653
            2216         235.244         235.244    -414.306E-03    -414.306E-03         4.27231         4.27231
            2217         235.182         235.182    -666.398E-03    -666.398E-03         4.38263         4.38263
            2218         235.172         235.172    -950.466E-03    -950.466E-03         4.49042         4.49042
            2219         235.228         235.228        -1.27967        -1.27967         4.59683         4.59683
            2220         235.365         235.365        -1.66713        -1.66713         4.70049         4.70049
            2221         235.604         235.604        -2.12524        -2.12524         4.79624         4.79624
            2222         235.968         235.968        -2.66477        -2.66477         4.87355         4.87355
            2223         236.484         236.484        -3.29240        -3.29240         4.91391         4.91391
            2224         237.181         237.181        -4.00735        -4.00735         4.88838         4.88838
            2225         238.087         238.087        -4.79472        -4.79472         4.75374         4.75374
            2226         239.218         239.218        -5.61637        -5.61637         4.45226         4.45226
            2227         240.572         240.572        -6.39861        -6.39861         3.91225         3.91225
            2228         242.108         242.108        -7.02089        -7.02089         3.06362         3.06362
            2229         243.754         243.754        -7.32310        -7.32310         1.84416         1.84416
            2230         223.758         223.758         63.9231         63.9231        -22.3136        -22.3136
            2231         226.400         226.400         57.3978         57.3978        -22.1213        -22.1213
            2232         228.931         228.931         50.8408         50.8408        -21.2541        -21.2541
            2233         231.218         231.218         44.4780         44.4780        -19.9337        -19.9337
            2234         233.187         233.187         38.4829         38.4829        -18.2551        -18.2551
            2235         234.802         234.802         32.9746         32.9746        -16.3090        -16.3090
            2236         236.040         236.040         28.0367         28.0367        -14.2195        -14.2195
            2237         236.943         236.943         23.6841         23.6841        -12.0947        -12.0947
            2238         237.537         237.537         19.9057         19.9057        -10.0193        -10.0193
            2239         237.892         237.892         16.6586         16.6586        -8.06442        -8.06442
            2240         238.050         238.050         13.8863         13.8863        -6.26308        -6.26308
            2241         238.068         238.068         11.5340         11.5340        -4.64244        -4.64244
            2242         237.982         237.982         9.54125         9.54125        -3.20348        -3.20348
            2243         237.827         237.827         7.86076         7.86076        -1.94588        -1.94588
            2244         237.627         237.627         6.44384         6.44384    -857.012E-03    -857.012E-03
            2245         237.401         237.401         5.25392         5.25392     75.2718E-03     75.2718E-03
            2246         237.163         237.163         4.25503         4.25503     867.408E-03     867.408E-03
            2247         236.923         236.923         3.41969         3.41969         1.53465         1.53465
            2248         236.688         236.688         2.72162         2.72162         2.09291         2.09291
            2249         236.463         236.463         2.13996         2.13996         2.55665         2.55665
            2250         236.250         236.250         1.65497         1.65497         2.93962         2.93962
            2251         236.052         236.052         1.25016         1.25016         3.25409         3.25409
            2252         235.873         235.873     909.932E-03     909.932E-03         3.51120         3.51120
            2253         235.712         235.712     620.522E-03     620.522E-03         3.72075         3.72075
            2254         235.573         235.573     368.684E-03     368.684E-03         3.89131         3.89131
            2255         235.458         235.458     142.144E-03     142.144E-03         4.03028         4.03028
            2256         235.370         235.370    -71.1791E-03    -71.1791E-03         4.14387         4.14387
            2257         235.314         235.314    -282.957E-03    -282.957E-03         4.23712         4.23712
            2258         235.296         235.296    -504.848E-03    -504.848E-03         4.31381         4.31381
            2259         235.323         235.323    -748.345E-03    -748.345E-03         4.37635         4.37635
            2260         235.404         235.404        -1.02481        -1.02481         4.42543         4.42543
            2261         235.552         235.552        -1.34517        -1.34517         4.45966         4.45966
            2262         235.778         235.778        -1.71937        -1.71937         4.47473         4.47473
            2263         236.101         236.101        -2.15550        -2.15550         4.46264         4.46264
            2264         236.536         236.536        -2.65810        -2.65810         4.41019         4.41019
            2265         237.102         237.102        -3.22579        -3.22579         4.29786         4.29786
            2266         237.815         237.815        -3.84725        -3.84725         4.09793         4.09793
            2267         238.683         238.683        -4.49586        -4.49586         3.77466         3.77466
            2268         239.703         239.703        -5.12323        -5.12323         3.28488         3.28488
            2269         240.849         240.849        -5.65133        -5.65133         2.58476         2.58476
            2270         242.071         242.071        -5.97299        -5.97299         1.63760         1.63760
            2271         243.281         243.281        -5.93842        -5.93842     419.560E-03     419.560E-03
            2272         224.846         224.846         63.7343         63.7343        -25.0735        -25.0735
            2273         227.674         227.674         56.6752         56.6752        -24.8206        -24.8206
            2274         230.311         230.311         49.5919         49.5919        -23.7148        -23.7148
            2275         232.636         232.636         42.7729         42.7729        -22.0771        -22.0771
            2276         234.556         234.556         36.4301         36.4301        -19.9927        -19.9927
            2277         236.012         236.012         30.7280         30.7280        -17.6359        -17.6359
            2278         237.046         237.046         25.7187         25.7187        -15.1575        -15.1575
            2279         237.681         237.681         21.4136         21.4136        -12.6909        -12.6909
            2280         238.016         238.016         17.7600         17.7600        -10.3483        -10.3483
            2281         238.109         238.109         14.6845         14.6845        -8.18126        -8.18126
            2282         238.041         238.041         12.1130         12.1130        -6.23440        -6.23440
            2283         237.863         237.863         9.96237         9.96237        -4.50902        -4.50902
            2284         237.619         237.619         8.17156         8.17156        -3.00678        -3.00678
            2285         237.343         237.343         6.67654         6.67654        -1.71045        -1.71045
            2286         237.055         237.055         5.43274         5.43274    -604.749E-03    -604.749E-03
            2287         236.772         236.772         4.39577         4.39577     331.507E-03     331.507E-03
            2288         236.504         236.504         3.53406         3.53406         1.11735         1.11735
            2289         236.255         236.255         2.81725         2.81725         1.77239         1.77239
            2290         236.031         236.031         2.22268         2.22268         2.31421         2.31421
            2291         235.833         235.833         1.72895         1.72895         2.75916         2.75916
            2292         235.661         235.661         1.31913         1.31913         3.12175         3.12175
            2293         235.515         235.515     977.247E-03     977.247E-03         3.41484         3.41484
            2294         235.395         235.395     689.823E-03     689.823E-03         3.64964         3.64964
            2295         235.302         235.302     444.002E-03     444.002E-03         3.83575         3.83575
            2296         235.236         235.236     228.240E-03     228.240E-03         3.98132         3.98132
            2297         235.198         235.198     31.2966E-03     31.2966E-03         4.09299         4.09299
            2298         235.191         235.191    -157.442E-03    -157.442E-03         4.17604         4.17604
            2299         235.218         235.218    -348.473E-03    -348.473E-03         4.23430         4.23430
            2300         235.282         235.282    -551.958E-03    -551.958E-03         4.27015         4.27015
            2301         235.392         235.392    -777.847E-03    -777.847E-03         4.28434         4.28434
            2302         235.553         235.553        -1.03555        -1.03555         4.27578         4.27578
            2303         235.774         235.774        -1.33357        -1.33357         4.24117         4.24117
            2304         236.068         236.068        -1.67877        -1.67877         4.17450         4.17450
            2305         236.444         236.444        -2.07520        -2.07520         4.06640         4.06640
            2306         236.913         236.913        -2.52240        -2.52240         3.90357         3.90357
            2307         237.486         237.486        -3.01291        -3.01291         3.66801         3.66801
            2308         238.167         238.167        -3.52890        -3.52890         3.33725         3.33725
            2309         238.953         238.953        -4.03844        -4.03844         2.88504         2.88504
            2310         239.827         239.827        -4.49058        -4.49058         2.28470         2.28470
            2311         240.755         240.755        -4.81415        -4.81415         1.51438         1.51438
            2312         241.681         241.681        -4.91300        -4.91300     563.290E-03     563.290E-03
            2313         242.520         242.520        -4.66868        -4.66868    -552.383E-03    -552.383E-03
            2314         226.323         226.323         63.4910         63.4910        -28.0452        -28.0452
            2315         229.315         229.315         55.7630         55.7630        -27.6625        -27.6625
            2316         232.088         232.088         48.0072         48.0072        -26.2710        -26.2710
            2317         234.417         234.417         40.6223         40.6223        -24.1666        -24.1666
            2318         236.183         236.183         33.9162         33.9162        -21.5825        -21.5825
            2319         237.409         237.409         28.0246         28.0246        -18.7178        -18.7178
            2320         238.092         238.092         23.0192         23.0192        -15.7900        -15.7900
            2321         238.384         238.384         18.8381         18.8381        -12.9796        -12.9796
            2322         238.361         238.361         15.3862         15.3862        -10.3701        -10.3701
            2323         238.147         238.147         12.5583         12.5583        -8.03634        -8.03634
            2324         237.814         237.814         10.2350         10.2350        -5.97755        -5.97755
            2325         237.425         237.425         8.33478         8.33478        -4.19765        -4.19765
            2326         237.021         237.021         6.77039         6.77039        -2.67111        -2.67111
            2327         236.629         236.629         5.48645         5.48645        -1.37723        -1.37723
            2328         236.266         236.266         4.42662         4.42662    -287.637E-03    -287.637E-03
            2329         235.940         235.940         3.55419         3.55419     622.295E-03     622.295E-03
            2330         235.658         235.658         2.83338         2.83338         1.37725         1.37725
            2331         235.419         235.419         2.23942         2.23942         1.99898         1.99898
            2332         235.223         235.223         1.74882         1.74882         2.50719         2.50719
            2333         235.068         235.068         1.34413         1.34413         2.91920         2.91920
            2334         234.952         234.952         1.00895         1.00895         3.25001         3.25001
            2335         234.871         234.871     730.163E-03     730.163E-03         3.51263         3.51263
            2336         234.825         234.825     495.344E-03     495.344E-03         3.71800         3.71800
            2337         234.810         234.810     293.780E-03     293.780E-03         3.87532         3.87532
            2338         234.825         234.825     115.141E-03     115.141E-03         3.99201         3.99201
            2339         234.871         234.871    -50.0620E-03    -50.0620E-03         4.07390         4.07390
            2340         234.949         234.949    -211.145E-03    -211.145E-03         4.12522         4.12522
            2341         235.059         235.059    -376.985E-03    -376.985E-03         4.14867         4.14867
            2342         235.205         235.205    -556.260E-03    -556.260E-03         4.14533         4.14533
            2343         235.391         235.391    -757.140E-03    -757.140E-03         4.11460         4.11460
            2344         235.622         235.622    -987.111E-03    -987.111E-03         4.05405         4.05405
            2345         235.905         235.905        -1.25237        -1.25237         3.95919         3.95919
            2346         236.247         236.247        -1.55708        -1.55708         3.82323         3.82323
            2347         236.653         236.653        -1.90212        -1.90212         3.63687         3.63687
            2348         237.131         237.131        -2.28353        -2.28353         3.38804         3.38804
            2349         237.681         237.681        -2.69025        -2.69025         3.06226         3.06226
            2350         238.303         238.303        -3.10181        -3.10181         2.64327         2.64327
            2351         238.984         238.984        -3.48527        -3.48527         2.11498         2.11498
            2352         239.703         239.703        -3.79382        -3.79382         1.46475         1.46475
            2353         240.425         240.425        -3.96455        -3.96455     687.709E-03     687.709E-03
            2354         241.095         241.095        -3.92073        -3.92073    -204.542E-03    -204.542E-03
            2355         241.648         241.648        -3.57735        -3.57735        -1.17556        -1.17556
            2356         228.250         228.250         63.2076         63.2076        -31.2436        -31.2436
            2357         231.532         231.532         54.5618         54.5618        -30.7225        -30.7225
            2358         234.395         234.395         45.9365         45.9365        -28.8378        -28.8378
            2359         236.624         236.624         37.9040         37.9040        -26.1485        -26.1485
            2360         238.149         238.149         30.7889         30.7889        -22.8810        -22.8810
            2361         238.910         238.910         24.8114         24.8114        -19.4014        -19.4014
            2362         239.133         239.133         19.9116         19.9116        -16.0060        -16.0060
            2363         238.918         238.918         15.9727         15.9727        -12.8399        -12.8399
            2364         238.468         238.468         12.8369         12.8369        -10.0344        -10.0344
            2365         237.890         237.890         10.3216         10.3216        -7.58044        -7.58044
            2366         237.273         237.273         8.31528         8.31528        -5.48361        -5.48361
            2367         236.673         236.673         6.69409         6.69409        -3.70309        -3.70309
            2368         236.119         236.119         5.38843         5.38843        -2.20848        -2.20848
            2369         235.631         235.631         4.32521         4.32521    -960.376E-03    -960.376E-03
            2370         235.214         235.214         3.46148         3.46148     74.3740E-03     74.3740E-03
            2371         234.872         234.872         2.75452         2.75452     927.349E-03     927.349E-03
            2372         234.600         234.600         2.17720         2.17720         1.62597         1.62597
            2373         234.394         234.394         1.70358         1.70358         2.19411         2.19411
            2374         234.249         234.249         1.31571         1.31571         2.65258         2.65258
            2375         234.159         234.159     996.780E-03     996.780E-03         3.01892         3.01892
            2376         234.117         234.117     734.085E-03     734.085E-03         3.30826         3.30826
            2377         234.118         234.118     515.722E-03     515.722E-03         3.53307         3.53307
            2378         234.159         234.159     331.897E-03     331.897E-03         3.70384         3.70384
            2379         234.234         234.234     173.269E-03     173.269E-03         3.82895         3.82895
            2380         234.342         234.342     31.5424E-03     31.5424E-03         3.91504         3.91504
            2381         234.480         234.480    -101.369E-03    -101.369E-03         3.96694         3.96694
            2382         234.647         234.647    -233.030E-03    -233.030E-03         3.98790         3.98790
            2383         234.844         234.844    -370.850E-03    -370.850E-03         3.97949         3.97949
            2384         235.072         235.072    -521.805E-03    -521.805E-03         3.94173         3.94173
            2385         235.332         235.332    -692.422E-03    -692.422E-03         3.87295         3.87295
            2386         235.627         235.627    -888.328E-03    -888.328E-03         3.76982         3.76982
            2387         235.962         235.962        -1.11379        -1.11379         3.62725         3.62725
            2388         236.338         236.338        -1.37087        -1.37087         3.43842         3.43842
            2389         236.760         236.760        -1.65834        -1.65834         3.19482         3.19482
            2390         237.228         237.228        -1.97028        -1.97028         2.88661         2.88661
            2391         237.740         237.740        -2.29446        -2.29446         2.50322         2.50322
            2392         238.288         238.288        -2.61036        -2.61036         2.03465         2.03465
            2393         238.859         238.859        -2.88798        -2.88798         1.47360         1.47360
            2394         239.430         239.430        -3.08645        -3.08645     818.289E-03     818.289E-03
            2395         239.968         239.968        -3.15513        -3.15513     77.2766E-03     77.2766E-03
            2396         240.430         240.430        -3.03649        -3.03649    -725.729E-03    -725.729E-03
            2397         240.768         240.768        -2.67351        -2.67351        -1.54526        -1.54526
            2398         231.026         231.026         62.7869         62.7869        -34.8015        -34.8015
            2399         234.495         234.495         52.9311         52.9311        -33.9109        -33.9109
            2400         237.419         237.419         43.1935         43.1935        -31.4216        -31.4216
            2401         239.439         239.439         34.3438         34.3438        -27.7981        -27.7981
            2402         240.350         240.350         26.9509         26.9509        -23.6635        -23.6635
            2403         240.485         240.485         21.0121         21.0121        -19.5035        -19.5035
            2404         239.955         239.955         16.4149         16.4149        -15.5987        -15.5987
            2405         239.124         239.124         12.9020         12.9020        -12.1981        -12.1981
            2406         238.162         238.162         10.1728         10.1728        -9.26616        -9.26616
            2407         237.197         237.197         8.07054         8.07054        -6.80637        -6.80637
            2408         236.303         236.303         6.41271         6.41271        -4.74945        -4.74945
            2409         235.511         235.511         5.11149         5.11149        -3.04701        -3.04701
            2410         234.842         234.842         4.07051         4.07051        -1.64272        -1.64272
            2411         234.292         234.292         3.23980         3.23980    -490.236E-03    -490.236E-03
            2412         233.861         233.861         2.56821         2.56821     451.200E-03     451.200E-03
            2413         233.536         233.536         2.02630         2.02630         1.21674         1.21674
            2414         233.308         233.308         1.58554         1.58554         1.83520         1.83520
            2415         233.166         233.166         1.22769         1.22769         2.33169         2.33169
            2416         233.100         233.100     935.639E-03     935.639E-03         2.72645         2.72645
            2417         233.098         233.098     697.291E-03     697.291E-03         3.03701         3.03701
            2418         233.153         233.153     501.394E-03     501.394E-03         3.27741         3.27741
            2419         233.255         233.255     339.185E-03     339.185E-03         3.45955         3.45955
            2420         233.400         233.400     202.400E-03     202.400E-03         3.59277         3.59277
            2421         233.580         233.580     83.9975E-03     83.9975E-03         3.68461         3.68461
            2422         233.791         233.791    -22.8252E-03    -22.8252E-03         3.74059         3.74059
            2423         234.030         234.030    -124.284E-03    -124.284E-03         3.76463         3.76463
            2424         234.295         234.295    -226.471E-03    -226.471E-03         3.75894         3.75894
            2425         234.583         234.583    -335.115E-03    -335.115E-03         3.72417         3.72417
            2426         234.894         234.894    -455.692E-03    -455.692E-03         3.65941         3.65941
            2427         235.228         235.228    -593.101E-03    -593.101E-03         3.56227         3.56227
            2428         235.585         235.585    -751.440E-03    -751.440E-03         3.42885         3.42885
            2429         235.967         235.967    -933.417E-03    -933.417E-03         3.25394         3.25394
            2430         236.372         236.372        -1.13971        -1.13971         3.03108         3.03108
            2431         236.801         236.801        -1.36799        -1.36799         2.75302         2.75302
            2432         237.250         237.250        -1.61185        -1.61185         2.41224         2.41224
            2433         237.716         237.716        -1.85948        -1.85948         2.00191         2.00191
            2434         238.188         238.188        -2.09271        -2.09271         1.51736         1.51736
            2435         238.652         238.652        -2.28591        -2.28591     957.979E-03     957.979E-03
            2436         239.086         239.086        -2.40634        -2.40634     330.102E-03     330.102E-03
            2437         239.466         239.466        -2.41534        -2.41534    -350.085E-03    -350.085E-03
            2438         239.758         239.758        -2.27225        -2.27225        -1.05272        -1.05272
            2439         239.934         239.934        -1.94100        -1.94100        -1.73186        -1.73186
            2440         234.792         234.792         62.2387         62.2387        -38.6705        -38.6705
            2441         238.706         238.706         50.5973         50.5973        -37.3955        -37.3955
            2442         241.523         241.523         39.3142         39.3142        -33.6616        -33.6616
            2443         242.767         242.767         29.7559         29.7559        -28.8148        -28.8148
            2444         242.832         242.832         22.1929         22.1929        -23.6008        -23.6008
            2445         241.768         241.768         16.6560         16.6560        -18.6419        -18.6419
            2446         240.299         240.299         12.6808         12.6808        -14.4592        -14.4592
            2447         238.727         238.727         9.71938         9.71938        -10.9391        -10.9391
            2448         237.228         237.228         7.54826         7.54826        -8.06654        -8.06654
            2449         235.902         235.902         5.88833         5.88833        -5.71944        -5.71944
            2450         234.771         234.771         4.62994         4.62994        -3.81466        -3.81466
            2451         233.849         233.849         3.64564         3.64564        -2.27071        -2.27071
            2452         233.117         233.117         2.87833         2.87833        -1.02070        -1.02070
            2453         232.565         232.565         2.26774         2.26774    -12.2474E-03    -12.2474E-03
            2454         232.168         232.168         1.78256         1.78256     800.140E-03     800.140E-03
            2455         231.909         231.909         1.39221         1.39221         1.45073         1.45073
            2456         231.767         231.767         1.07855         1.07855         1.96961         1.96961
            2457         231.726         231.726     824.662E-03     824.662E-03         2.37967         2.37967
            2458         231.770         231.770     619.321E-03     619.321E-03         2.70086         2.70086
            2459         231.886         231.886     452.210E-03     452.210E-03         2.94859         2.94859
            2460         232.061         232.061     315.724E-03     315.724E-03         3.13603         3.13603
            2461         232.286         232.286     202.803E-03     202.803E-03         3.27332         3.27332
            2462         232.552         232.552     107.707E-03     107.707E-03         3.36882         3.36882
            2463         232.853         232.853     24.9540E-03     24.9540E-03         3.42865         3.42865
            2464         233.181         233.181    -50.3089E-03    -50.3089E-03         3.45740         3.45740
            2465         233.533         233.533    -122.832E-03    -122.832E-03         3.45787         3.45787
            2466         233.903         233.903    -197.041E-03    -197.041E-03         3.43142         3.43142
            2467         234.290         234.290    -277.247E-03    -277.247E-03         3.37789         3.37789
            2468         234.690         234.690    -367.415E-03    -367.415E-03         3.29572         3.29572
            2469         235.101         235.101    -471.106E-03    -471.106E-03         3.18202         3.18202
            2470         235.521         235.521    -591.101E-03    -591.101E-03         3.03268         3.03268
            2471         235.949         235.949    -729.050E-03    -729.050E-03         2.84261         2.84261
            2472         236.381         236.381    -884.827E-03    -884.827E-03         2.60600         2.60600
            2473         236.815         236.815        -1.05588        -1.05588         2.31688         2.31688
            2474         237.245         237.245        -1.23633        -1.23633         1.96981         1.96981
            2475         237.664         237.664        -1.41619        -1.41619         1.56101         1.56101
            2476         238.062         238.062        -1.58058        -1.58058         1.08967         1.08967
            2477         238.426         238.426        -1.70955        -1.70955     559.881E-03     559.881E-03
            2478         238.738         238.738        -1.77842        -1.77842    -17.4525E-03    -17.4525E-03
            2479         238.979         238.979        -1.75952        -1.75952    -622.223E-03    -622.223E-03
            2480         239.130         239.130        -1.62555        -1.62555        -1.22359        -1.22359
            2481         239.172         239.172        -1.35457        -1.35457        -1.77904        -1.77904
            2482         240.832         240.832         61.1965         61.1965        -43.2729        -43.2729
            2483         244.743         244.743         46.9249         46.9249        -40.6116        -40.6116
            2484         246.785         246.785         33.9221         33.9221        -35.2857        -35.2857
            2485         246.927         246.927         23.5516         23.5516        -28.5306        -28.5306
            2486         244.881         244.881         16.5711         16.5711        -21.9146        -21.9146
            2487         242.278         242.278         12.0539         12.0539        -16.6583        -16.6583
            2488         239.709         239.709         8.86364         8.86364        -12.4151        -12.4151
            2489         237.382         237.382         6.68682         6.68682        -9.09060        -9.09060
            2490         235.426         235.426         5.08500         5.08500        -6.46718        -6.46718
            2491         233.820         233.820         3.92580         3.92580        -4.39337        -4.39337
            2492         232.559         232.559         3.04419         3.04419        -2.75308        -2.75308
            2493         231.593         231.593         2.37711         2.37711        -1.44786        -1.44786
            2494         230.890         230.890         1.85683         1.85683    -412.335E-03    -412.335E-03
            2495         230.408         230.408         1.45117         1.45117     412.185E-03     412.185E-03
            2496         230.114         230.114         1.12926         1.12926         1.06496         1.06496
            2497         229.976         229.976     873.698E-03     873.698E-03         1.58142         1.58142
            2498         229.970         229.970     668.832E-03     668.832E-03         1.98633         1.98633
            2499         230.072         230.072     504.619E-03     504.619E-03         2.30176         2.30176
            2500         230.263         230.263     372.188E-03     372.188E-03         2.54383         2.54383
            2501         230.527         230.527     265.231E-03     265.231E-03         2.72656         2.72656
            2502         230.849         230.849     178.082E-03     178.082E-03         2.86045         2.86045
            2503         231.219         231.219     106.312E-03     106.312E-03         2.95431         2.95431
            2504         231.627         231.627     45.7894E-03     45.7894E-03         3.01460         3.01460
            2505         232.064         232.064    -7.02244E-03    -7.02244E-03         3.04635         3.04635
            2506         232.523         232.523    -55.5530E-03    -55.5530E-03         3.05286         3.05286
            2507         232.999         232.999    -102.946E-03    -102.946E-03         3.03608         3.03608
            2508         233.486         233.486    -152.302E-03    -152.302E-03         2.99654         2.99654
            2509         233.980         233.980    -206.514E-03    -206.514E-03         2.93353         2.93353
            2510         234.477         234.477    -268.319E-03    -268.319E-03         2.84504         2.84504
            2511         234.972         234.972    -340.071E-03    -340.071E-03         2.72802         2.72802
            2512         235.461         235.461    -423.591E-03    -423.591E-03         2.57840         2.57840
            2513         235.940         235.940    -519.780E-03    -519.780E-03         2.39144         2.39144
            2514         236.404         236.404    -628.263E-03    -628.263E-03         2.16206         2.16206
            2515         236.847         236.847    -746.798E-03    -746.798E-03         1.88542         1.88542
            2516         237.261         237.261    -870.791E-03    -870.791E-03         1.55775         1.55775
            2517         237.639         237.639    -992.650E-03    -992.650E-03         1.17728         1.17728
            2518         237.970         237.970        -1.10150        -1.10150     745.690E-03     745.690E-03
            2519         238.242         238.242        -1.18305        -1.18305     269.405E-03     269.405E-03
            2520         238.442         238.442        -1.22023        -1.22023    -238.671E-03    -238.671E-03
            2521         238.558         238.558        -1.19457        -1.19457    -758.003E-03    -758.003E-03
            2522         238.580         238.580        -1.08874        -1.08874        -1.25964        -1.25964
            2523         238.500         238.500    -890.048E-03    -890.048E-03        -1.70653        -1.70653
            2524         249.656         249.656         59.3915         59.3915        -47.9178        -47.9178
            2525         253.690         253.690         41.0837         41.0837        -43.8289        -43.8289
            2526         254.395         254.395         25.3228         25.3228        -34.7032        -34.7032
            2527         250.293         250.293         15.8730         15.8730        -25.1840        -25.1840
            2528         245.479         245.479         10.8263         10.8263        -18.4023        -18.4023
            2529         241.218         241.218         7.48021         7.48021        -13.3276        -13.3276
            2530         237.600         237.600         5.42769         5.42769        -9.57051        -9.57051
            2531         234.738         234.738         3.98626         3.98626        -6.75862        -6.75862
            2532         232.492         232.492         3.00416         3.00416        -4.60781        -4.60781
            2533         230.802         230.802         2.28375         2.28375        -2.96366        -2.96366
            2534         229.556         229.556         1.75744         1.75744        -1.68211        -1.68211
            2535         228.687         228.687         1.35785         1.35785    -687.543E-03    -687.543E-03
            2536         228.120         228.120         1.05270         1.05270     93.6607E-03     93.6607E-03
            2537         227.804         227.804     815.074E-03     815.074E-03     703.175E-03     703.175E-03
            2538         227.689         227.689     628.768E-03     628.768E-03         1.18090         1.18090
            2539         227.740         227.740     481.296E-03     481.296E-03         1.55169         1.55169
            2540         227.923         227.923     364.055E-03     364.055E-03         1.83862         1.83862
            2541         228.213         228.213     270.409E-03     270.409E-03         2.05729         2.05729
            2542         228.589         228.589     195.415E-03     195.415E-03         2.22168         2.22168
            2543         229.033         229.033     135.058E-03     135.058E-03         2.34182         2.34182
            2544         229.530         229.530     86.1727E-03     86.1727E-03         2.42632         2.42632
            2545         230.068         230.068     45.9804E-03     45.9804E-03         2.48145         2.48145
            2546         230.637         230.637     12.1475E-03     12.1475E-03         2.51226         2.51226
            2547         231.228         231.228    -17.5297E-03    -17.5297E-03         2.52218         2.52218
            2548         231.833         231.833    -45.0305E-03    -45.0305E-03         2.51356         2.51356
            2549         232.446         232.446    -72.3115E-03    -72.3115E-03         2.48743         2.48743
            2550         233.062         233.062    -101.201E-03    -101.201E-03         2.44382         2.44382
            2551         233.674         233.674    -133.497E-03    -133.497E-03         2.38164         2.38164
            2552         234.277         234.277    -170.829E-03    -170.829E-03         2.29881         2.29881
            2553         234.866         234.866    -214.639E-03    -214.639E-03         2.19238         2.19238
            2554         235.433         235.433    -265.974E-03    -265.974E-03         2.05864         2.05864
            2555         235.974         235.974    -325.328E-03    -325.328E-03         1.89341         1.89341
            2556         236.479         236.479    -392.314E-03    -392.314E-03         1.69241         1.69241
            2557         236.940         236.940    -465.398E-03    -465.398E-03         1.45181         1.45181
            2558         237.349         237.349    -541.475E-03    -541.475E-03         1.16891         1.16891
            2559         237.695         237.695    -615.628E-03    -615.628E-03     843.143E-03     843.143E-03
            2560         237.968         237.968    -680.847E-03    -680.847E-03     477.085E-03     477.085E-03
            2561         238.157         238.157    -728.151E-03    -728.151E-03     77.6850E-03     77.6850E-03
            2562         238.253         238.253    -746.992E-03    -746.992E-03    -342.712E-03    -342.712E-03
            2563         238.249         238.249    -726.260E-03    -726.260E-03    -765.530E-03    -765.530E-03
            2564         238.141         238.141    -655.904E-03    -655.904E-03        -1.16594        -1.16594
            2565         237.933         237.933    -529.005E-03    -529.005E-03        -1.51349        -1.51349
            2566         267.411         267.411         54.7901         54.7901        -54.7518        -54.7518
            2567         269.155         269.155         28.3835         28.3835        -42.4842        -42.4842
            2568         259.897         259.897         13.9697         13.9697        -27.5944        -27.5944
            2569         250.367         250.367         8.72034         8.72034        -18.6846        -18.6846
            2570         243.175         243.175         5.47665         5.47665        -12.9385        -12.9385
            2571         237.584         237.584         3.76784         3.76784        -8.96631        -8.96631
            2572         233.481         233.481         2.64498         2.64498        -6.23029        -6.23029
            2573         230.439         230.439         1.92811         1.92811        -4.21141        -4.21141
            2574         228.259         228.259         1.43239         1.43239        -2.74049        -2.74049
            2575         226.729         226.729         1.08005         1.08005        -1.61857        -1.61857
            2576         225.714         225.714     824.813E-03     824.813E-03    -772.714E-03    -772.714E-03
            2577         225.100         225.100     632.138E-03     632.138E-03    -117.630E-03    -117.630E-03
            2578         224.804         224.804     487.075E-03     487.075E-03     384.268E-03     384.268E-03
            2579         224.757         224.757     373.907E-03     373.907E-03     773.836E-03     773.836E-03
            2580         224.908         224.908     286.301E-03     286.301E-03         1.07257         1.07257
            2581         225.216         225.216     216.830E-03     216.830E-03         1.30208         1.30208
            2582         225.645         225.645     162.128E-03     162.128E-03         1.47548         1.47548
            2583         226.171         226.171     118.461E-03     118.461E-03         1.60516         1.60516
            2584         226.770         226.770     83.7350E-03     83.7350E-03         1.69940         1.69940
            2585         227.426         227.426     55.8728E-03     55.8728E-03         1.76565         1.76565
            2586         228.124         228.124     33.4080E-03     33.4080E-03         1.80913         1.80913
            2587         228.852         228.852     14.9992E-03     14.9992E-03         1.83424         1.83424
            2588         229.600         229.600    -504.188E-06    -504.188E-06         1.84403         1.84403
            2589         230.361         230.361    -14.1384E-03    -14.1384E-03         1.84078         1.84078
            2590         231.127         231.127    -26.9103E-03    -26.9103E-03         1.82572         1.82572
            2591         231.891         231.891    -39.7474E-03    -39.7474E-03         1.79939         1.79939
            2592         232.648         232.648    -53.5902E-03    -53.5902E-03         1.76144         1.76144
            2593         233.391         233.391    -69.3060E-03    -69.3060E-03         1.71079         1.71079
            2594         234.113         234.113    -87.7350E-03    -87.7350E-03         1.64563         1.64563
            2595         234.809         234.809    -109.577E-03    -109.577E-03         1.56352         1.56352
            2596         235.469         235.469    -135.368E-03    -135.368E-03         1.46148         1.46148
            2597         236.084         236.084    -165.318E-03    -165.318E-03         1.33621         1.33621
            2598         236.646         236.646    -199.219E-03    -199.219E-03         1.18442         1.18442
            2599         237.142         237.142    -236.220E-03    -236.220E-03         1.00322         1.00322
            2600         237.561         237.561    -274.703E-03    -274.703E-03     790.718E-03     790.718E-03
            2601         237.890         237.890    -312.065E-03    -312.065E-03     546.725E-03     546.725E-03
            2602         238.118         238.118    -344.688E-03    -344.688E-03     273.594E-03     273.594E-03
            2603         238.233         238.233    -367.929E-03    -367.929E-03    -22.9693E-03    -22.9693E-03
            2604         238.229         238.229    -376.430E-03    -376.430E-03    -333.135E-03    -333.135E-03
            2605         238.101         238.101    -364.633E-03    -364.633E-03    -642.556E-03    -642.556E-03
            2606         237.851         237.851    -327.606E-03    -327.606E-03    -932.457E-03    -932.457E-03
            2607         237.492         237.492    -262.082E-03    -262.082E-03        -1.18019        -1.18019
            2608         301.666         301.666         37.2127         37.2127        -48.1525        -48.1525
            2609         276.480         276.480         10.4917         10.4917        -26.2062        -26.2062
            2610         256.611         256.611         5.55171         5.55171        -15.0414        -15.0414
            2611         244.604         244.604         3.09154         3.09154        -9.85555        -9.85555
            2612         236.341         236.341         1.91801         1.91801        -6.43145        -6.43145
            2613         230.787         230.787         1.30241         1.30241        -4.38967        -4.38967
            2614         226.949         226.949     887.174E-03     887.174E-03        -2.91493        -2.91493
            2615         224.354         224.354     654.100E-03     654.100E-03        -1.91674        -1.91674
            2616         222.645         222.645     472.440E-03     472.440E-03        -1.16590        -1.16590
            2617         221.596         221.596     361.028E-03     361.028E-03    -622.024E-03    -622.024E-03
            2618         221.042         221.042     269.736E-03     269.736E-03    -204.936E-03    -204.936E-03
            2619         220.864         220.864     208.650E-03     208.650E-03     107.495E-03     107.495E-03
            2620         220.975         220.975     158.127E-03     158.127E-03     348.348E-03     348.348E-03
            2621         221.307         221.307     121.865E-03     121.865E-03     530.643E-03     530.643E-03
            2622         221.809         221.809     92.0377E-03     92.0377E-03     670.074E-03     670.074E-03
            2623         222.442         222.442     69.5717E-03     69.5717E-03     774.622E-03     774.622E-03
            2624         223.173         223.173     51.2751E-03     51.2751E-03     852.644E-03     852.644E-03
            2625         223.977         223.977     37.0851E-03     37.0851E-03     909.175E-03     909.175E-03
            2626         224.836         224.836     25.6324E-03     25.6324E-03     949.040E-03     949.040E-03
            2627         225.733         225.733     16.5730E-03     16.5730E-03     975.441E-03     975.441E-03
            2628         226.656         226.656     9.24708E-03     9.24708E-03     991.244E-03     991.244E-03
            2629         227.594         227.594     3.26651E-03     3.26651E-03     998.389E-03     998.389E-03
            2630         228.539         228.539    -1.76454E-03    -1.76454E-03     998.467E-03     998.467E-03
            2631         229.484         229.484    -6.22001E-03    -6.22001E-03     992.439E-03     992.439E-03
            2632         230.424         230.424    -10.4115E-03    -10.4115E-03     980.906E-03     980.906E-03
            2633         231.352         231.352    -14.6954E-03    -14.6954E-03     963.965E-03     963.965E-03
            2634         232.262         232.262    -19.3640E-03    -19.3640E-03     941.338E-03     941.338E-03
            2635         233.150         233.150    -24.7511E-03    -24.7511E-03     912.304E-03     912.304E-03
            2636         234.006         234.006    -31.1258E-03    -31.1258E-03     875.774E-03     875.774E-03
            2637         234.824         234.824    -38.7566E-03    -38.7566E-03     830.293E-03     830.293E-03
            2638         235.595         235.595    -47.8138E-03    -47.8138E-03     774.130E-03     774.130E-03
            2639         236.306         236.306    -58.3868E-03    -58.3868E-03     705.379E-03     705.379E-03
            2640         236.946         236.946    -70.3818E-03    -70.3818E-03     622.134E-03     622.134E-03
            2641         237.499         237.499    -83.5061E-03    -83.5061E-03     522.740E-03     522.740E-03
            2642         237.951         237.951    -97.1573E-03    -97.1573E-03     406.102E-03     406.102E-03
            2643         238.285         238.285    -110.415E-03    -110.415E-03     272.121E-03     272.121E-03
            2644         238.485         238.485    -121.955E-03    -121.955E-03     122.111E-03     122.111E-03
            2645         238.539         238.539    -130.134E-03    -130.134E-03    -40.6820E-03    -40.6820E-03
            2646         238.437         238.437    -133.017E-03    -133.017E-03    -210.728E-03    -210.728E-03
            2647         238.177         238.177    -128.654E-03    -128.654E-03    -379.993E-03    -379.993E-03
            2648         237.763         237.763    -115.336E-03    -115.336E-03    -538.035E-03    -538.035E-03
            2649         237.212         237.212    -91.9072E-03    -91.9072E-03    -672.186E-03    -672.186E-03
            2650         248.428         248.428        -7.79289        -7.79289     645.994E-03     645.994E-03
            2651         246.813         246.813        -5.40127        -5.40127         2.13147         2.13147
            2652         245.086         245.086        -3.58688        -3.58688         2.84207         2.84207
            2653         243.489         243.489        -2.29506        -2.29506         3.09816         3.09816
            2654         242.085         242.085        -1.41333        -1.41333         3.10515         3.10515
            2655         240.865         240.865    -831.996E-03    -831.996E-03         2.98268         2.98268
            2656         239.799         239.799    -462.691E-03    -462.691E-03         2.79157         2.79157
            2657         238.850         238.850    -238.841E-03    -238.841E-03         2.55523         2.55523
            2658         237.984         237.984    -111.686E-03    -111.686E-03         2.27143         2.27143
            2659         237.173         237.173    -45.7050E-03    -45.7050E-03         1.91783         1.91783
            2660         236.392         236.392    -15.3609E-03    -15.3609E-03         1.45252         1.45252
            2661         235.625         235.625    -3.63029E-03    -3.63029E-03     815.207E-03     815.207E-03
            2662         250.119         250.119        -4.60315        -4.60315         3.87811         3.87811
            2663         247.446         247.446        -2.22618        -2.22618         4.42467         4.42467
            2664         245.169         245.169    -756.263E-03    -756.263E-03         4.36301         4.36301
            2665         243.307         243.307     81.2072E-03     81.2072E-03         4.05271         4.05271
            2666         241.790         241.790     505.489E-03     505.489E-03         3.66729         3.66729
            2667         240.531         240.531     669.197E-03     669.197E-03         3.28103         3.28103
            2668         239.450         239.450     673.267E-03     673.267E-03         2.91730         2.91730
            2669         238.483         238.483     584.117E-03     584.117E-03         2.57265         2.57265
            2670         237.574         237.574     447.123E-03     447.123E-03         2.22720         2.22720
            2671         236.672         236.672     295.721E-03     295.721E-03         1.84743         1.84743
            2672         235.731         235.731     157.412E-03     157.412E-03         1.38444         1.38444
            2673         234.701         234.701     57.7839E-03     57.7839E-03     773.019E-03     773.019E-03
            2674         250.306         250.306         1.18887         1.18887         6.58751         6.58751
            2675         246.975         246.975         2.53239         2.53239         5.87137         5.87137
            2676         244.503         244.503         2.98240         2.98240         5.01703         5.01703
            2677         242.642         242.642         2.95454         2.95454         4.23137         4.23137
            2678         241.193         241.193         2.68253         2.68253         3.57101         3.57101
            2679         240.013         240.013         2.29485         2.29485         3.03150         3.03150
            2680         238.997         238.997         1.86165         1.86165         2.58950         2.58950
            2681         238.067         238.067         1.42351         1.42351         2.21526         2.21526
            2682         237.157         237.157         1.00687         1.00687         1.87547         1.87547
            2683         236.203         236.203     633.452E-03     633.452E-03         1.53183         1.53183
            2684         235.138         235.138     326.948E-03     326.948E-03         1.13699         1.13699
            2685         233.883         233.883     117.889E-03     117.889E-03     631.682E-03     631.682E-03
            2686         248.891         248.891         8.74062         8.74062         7.18034         7.18034
            2687         245.625         245.625         7.94689         7.94689         5.55818         5.55818
            2688         243.382         243.382         6.85589         6.85589         4.31136         4.31136
            2689         241.758         241.758         5.73748         5.73748         3.38511         3.38511
            2690         240.505         240.505         4.68965         4.68965         2.69982         2.69982
            2691         239.476         239.476         3.73855         3.73855         2.18889         2.18889
            2692         238.568         238.568         2.88717         2.88717         1.80072         1.80072
            2693         237.704         237.704         2.13207         2.13207         1.49471         1.49471
            2694         236.819         236.819         1.47158         1.47158         1.23621         1.23621
            2695         235.843         235.843     910.614E-03     910.614E-03     992.445E-03     992.445E-03
            2696         234.699         234.699     464.957E-03     464.957E-03     728.081E-03     728.081E-03
            2697         233.285         233.285     166.361E-03     166.361E-03     401.805E-03     401.805E-03
            2698         246.901         246.901         15.4654         15.4654         4.53837         4.53837
            2699         244.209         244.209         12.2696         12.2696         3.11553         3.11553
            2700         242.387         242.387         9.72395         9.72395         2.19214         2.19214
            2701         241.052         241.052         7.69121         7.69121         1.57513         1.57513
            2702         240.000         240.000         6.04074         6.04074         1.15206         1.15206
            2703         239.110         239.110         4.67779         4.67779     857.272E-03     857.272E-03
            2704         238.297         238.297         3.53541         3.53541     648.964E-03     648.964E-03
            2705         237.494         237.494         2.56898         2.56898     498.562E-03     498.562E-03
            2706         236.638         236.638         1.75211         1.75211     385.280E-03     385.280E-03
            2707         235.662         235.662         1.07524         1.07524     292.324E-03     292.324E-03
            2708         234.484         234.484     546.534E-03     546.534E-03     204.912E-03     204.912E-03
            2709         232.994         232.994     195.458E-03     195.458E-03     109.215E-03     109.215E-03
            2710         246.113         246.113         17.7694         17.7694    -786.252E-03    -786.252E-03
            2711         243.753         243.753         13.5435         13.5435    -846.898E-03    -846.898E-03
            2712         242.115         242.115         10.4779         10.4779    -846.140E-03    -846.140E-03
            2713         240.891         240.891         8.15171         8.15171    -823.231E-03    -823.231E-03
            2714         239.911         239.911         6.32543         6.32543    -788.120E-03    -788.120E-03
            2715         239.069         239.069         4.85258         4.85258    -745.120E-03    -745.120E-03
            2716         238.289         238.289         3.63968         3.63968    -695.012E-03    -695.012E-03
            2717         237.509         237.509         2.62745         2.62745    -636.557E-03    -636.557E-03
            2718         236.670         236.670         1.78132         1.78132    -566.619E-03    -566.619E-03
            2719         235.707         235.707         1.08687         1.08687    -479.377E-03    -479.377E-03
            2720         234.538         234.538     549.340E-03     549.340E-03    -364.908E-03    -364.908E-03
            2721         233.063         233.063     195.469E-03     195.469E-03    -207.022E-03    -207.022E-03
            2722         247.418         247.418         13.7061         13.7061        -5.96627        -5.96627
            2723         244.668         244.668         10.8791         10.8791        -4.67669        -4.67669
            2724         242.783         242.783         8.65107         8.65107        -3.78980        -3.78980
            2725         241.396         241.396         6.86194         6.86194        -3.15092        -3.15092
            2726         240.308         240.308         5.39904         5.39904        -2.67381        -2.67381
            2727         239.394         239.394         4.18258         4.18258        -2.30313        -2.30313
            2728         238.569         238.569         3.15756         3.15756        -2.00048        -2.00048
            2729         237.767         237.767         2.28798         2.28798        -1.73630        -1.73630
            2730         236.927         236.927         1.55320         1.55320        -1.48460        -1.48460
            2731         235.986         235.986     946.849E-03     946.849E-03        -1.21850        -1.21850
            2732         234.871         234.871     477.291E-03     477.291E-03    -905.236E-03    -905.236E-03
            2733         233.494         233.494     169.229E-03     169.229E-03    -503.372E-03    -503.372E-03
            2734         249.482         249.482         5.48473         5.48473        -7.70124        -7.70124
            2735         246.247         246.247         5.40538         5.40538        -6.47616        -6.47616
            2736         243.982         243.982         4.87966         4.87966        -5.44758        -5.44758
            2737         242.317         242.317         4.20740         4.20740        -4.62528        -4.62528
            2738         241.029         241.029         3.50733         3.50733        -3.96998        -3.96998
            2739         239.977         239.977         2.83071         2.83071        -3.43912        -3.43912
            2740         239.064         239.064         2.20022         2.20022        -2.99350        -2.99350
            2741         238.215         238.215         1.62711         1.62711        -2.59780        -2.59780
            2742         237.368         237.368         1.11983         1.11983        -2.21729        -2.21729
            2743         236.466         236.466     688.719E-03     688.719E-03        -1.81400        -1.81400
            2744         235.446         235.446     349.338E-03     349.338E-03        -1.34134        -1.34134
            2745         234.241         234.241     124.598E-03     124.598E-03    -742.083E-03    -742.083E-03
            2746         250.092         250.092        -2.29940        -2.29940        -5.62298        -5.62298
            2747         247.205         247.205    -395.553E-03    -395.553E-03        -5.68193        -5.68193
            2748         244.931         244.931     608.787E-03     608.787E-03        -5.32726        -5.32726
            2749         243.159         243.159         1.06456         1.06456        -4.85269        -4.85269
            2750         241.756         241.756         1.19856         1.19856        -4.37123        -4.37123
            2751         240.608         240.608         1.14649         1.14649        -3.91675        -3.91675
            2752         239.629         239.629     991.511E-03     991.511E-03        -3.49108        -3.49108
            2753         238.750         238.750     786.254E-03     786.254E-03        -3.07929        -3.07929
            2754         237.918         237.918     566.313E-03     566.313E-03        -2.65603        -2.65603
            2755         237.081         237.081     358.276E-03     358.276E-03        -2.18561        -2.18561
            2756         236.196         236.196     184.533E-03     184.533E-03        -1.61955        -1.61955
            2757         235.218         235.218     66.2070E-03     66.2070E-03    -895.892E-03    -895.892E-03
            2758         248.517         248.517        -6.84156        -6.84156        -1.98211        -1.98211
            2759         246.770         246.770        -4.49930        -4.49930        -3.31051        -3.31051
            2760         245.030         245.030        -2.81038        -2.81038        -3.87850        -3.87850
            2761         243.491         243.491        -1.66722        -1.66722        -4.02236        -4.02236
            2762         242.179         242.179    -927.592E-03    -927.592E-03        -3.94118        -3.94118
            2763         241.064         241.064    -469.473E-03    -469.473E-03        -3.74127        -3.74127
            2764         240.104         240.104    -202.504E-03    -202.504E-03        -3.47209        -3.47209
            2765         239.254         239.254    -61.3334E-03    -61.3334E-03        -3.15004        -3.15004
            2766         238.479         238.479     893.023E-06     893.023E-06        -2.76910        -2.76910
            2767         237.747         237.747     17.9692E-03     17.9692E-03        -2.30577        -2.30577
            2768         237.032         237.032     14.2030E-03     14.2030E-03        -1.71905        -1.71905
            2769         236.318         236.318     5.95304E-03     5.95304E-03    -952.712E-03    -952.712E-03
            2770         221.263         221.263         64.4657         64.4657         11.9992         11.9992
            2771         223.472         223.472         59.2054         59.2054         11.9367         11.9367
            2772         225.637         225.637         53.9387         53.9387         11.5776         11.5776
            2773         227.699         227.699         48.7647         48.7647         11.0400         11.0400
            2774         229.624         229.624         43.7526         43.7526         10.3432         10.3432
            2775         231.379         231.379         38.9648         38.9648         9.51017         9.51017
            2776         232.940         232.940         34.4532         34.4532         8.57507         8.57507
            2777         234.296         234.296         30.2546         30.2546         7.57217         7.57217
            2778         235.442         235.442         26.3934         26.3934         6.53760         6.53760
            2779         236.385         236.385         22.8791         22.8791         5.50364         5.50364
            2780         237.133         237.133         19.7114         19.7114         4.49735         4.49735
            2781         237.703         237.703         16.8803         16.8803         3.54086         3.54086
            2782         238.113         238.113         14.3696         14.3696         2.64876         2.64876
            2783         238.382         238.382         12.1591         12.1591         1.83153         1.83153
            2784         238.527         238.527         10.2258         10.2258         1.09324         1.09324
            2785         238.567         238.567         8.54599         8.54599     435.361E-03     435.361E-03
            2786         238.517         238.517         7.09529         7.09529    -144.887E-03    -144.887E-03
            2787         238.391         238.391         5.85053         5.85053    -651.512E-03    -651.512E-03
            2788         238.204         238.204         4.78884         4.78884        -1.09085        -1.09085
            2789         237.964         237.964         3.88907         3.88907        -1.46956        -1.46956
            2790         237.683         237.683         3.13093         3.13093        -1.79538        -1.79538
            2791         237.367         237.367         2.49572         2.49572        -2.07589        -2.07589
            2792         237.025         237.025         1.96573         1.96573        -2.31905        -2.31905
            2793         236.661         236.661         1.52461         1.52461        -2.53262        -2.53262
            2794         236.280         236.280         1.15682         1.15682        -2.72446        -2.72446
            2795         235.888         235.888     847.874E-03     847.874E-03        -2.90234        -2.90234
            2796         235.487         235.487     583.841E-03     583.841E-03        -3.07428        -3.07428
            2797         235.082         235.082     351.375E-03     351.375E-03        -3.24846        -3.24846
            2798         234.677         234.677     137.316E-03     137.316E-03        -3.43364        -3.43364
            2799         234.274         234.274    -71.5232E-03    -71.5232E-03        -3.63918        -3.63918
            2800         233.881         233.881    -288.827E-03    -288.827E-03        -3.87542        -3.87542
            2801         233.504         233.504    -529.288E-03    -529.288E-03        -4.15384        -4.15384
            2802         233.152         233.152    -809.360E-03    -809.360E-03        -4.48724        -4.48724
            2803         232.841         232.841        -1.14834        -1.14834        -4.88976        -4.88976
            2804         232.592         232.592        -1.56970        -1.56970        -5.37656        -5.37656
            2805         232.438         232.438        -2.10323        -2.10323        -5.96270        -5.96270
            2806         232.428         232.428        -2.78710        -2.78710        -6.66065        -6.66065
            2807         232.638         232.638        -3.67122        -3.67122        -7.47464        -7.47464
            2808         233.180         233.180        -4.81739        -4.81739        -8.38907        -8.38907
            2809         234.222         234.222        -6.29726        -6.29726        -9.34503        -9.34503
            2810         235.987         235.987        -8.15782        -8.15782        -10.1960        -10.1960
            2811         238.728         238.728        -10.3568        -10.3568        -10.6581        -10.6581
            2812         220.904         220.904         64.5607         64.5607         9.21887         9.21887
            2813         223.042         223.042         59.4969         59.4969         9.16779         9.16779
            2814         225.139         225.139         54.4318         54.4318         8.89584         8.89584
            2815         227.152         227.152         49.4488         49.4488         8.49632         8.49632
            2816         229.046         229.046         44.6064         44.6064         7.97883         7.97883
            2817         230.795         230.795         39.9577         39.9577         7.36202         7.36202
            2818         232.375         232.375         35.5475         35.5475         6.66615         6.66615
            2819         233.773         233.773         31.4116         31.4116         5.91679         5.91679
            2820         234.982         234.982         27.5742         27.5742         5.13823         5.13823
            2821         236.000         236.000         24.0501         24.0501         4.35419         4.35419
            2822         236.834         236.834         20.8439         20.8439         3.58535         3.58535
            2823         237.492         237.492         17.9525         17.9525         2.84812         2.84812
            2824         237.988         237.988         15.3662         15.3662         2.15562         2.15562
            2825         238.337         238.337         13.0705         13.0705         1.51585         1.51585
            2826         238.553         238.553         11.0480         11.0480     934.251E-03     934.251E-03
            2827         238.652         238.652         9.27849         9.27849     412.064E-03     412.064E-03
            2828         238.649         238.649         7.74151         7.74151    -51.0360E-03    -51.0360E-03
            2829         238.558         238.558         6.41559         6.41559    -458.108E-03    -458.108E-03
            2830         238.390         238.390         5.28001         5.28001    -812.953E-03    -812.953E-03
            2831         238.159         238.159         4.31424         4.31424        -1.12087        -1.12087
            2832         237.873         237.873         3.49896         3.49896        -1.38735        -1.38735
            2833         237.540         237.540         2.81558         2.81558        -1.61863        -1.61863
            2834         237.169         237.169         2.24678         2.24678        -1.82088        -1.82088
            2835         236.764         236.764         1.77616         1.77616        -2.00064        -2.00064
            2836         236.331         236.331         1.38852         1.38852        -2.16445        -2.16445
            2837         235.873         235.873         1.06953         1.06953        -2.31917        -2.31917
            2838         235.394         235.394     805.814E-03     805.814E-03        -2.47190        -2.47190
            2839         234.895         234.895     584.719E-03     584.719E-03        -2.63033        -2.63033
            2840         234.376         234.376     394.210E-03     394.210E-03        -2.80289        -2.80289
            2841         233.840         233.840     222.579E-03     222.579E-03        -2.99914        -2.99914
            2842         233.284         233.284     58.1621E-03     58.1621E-03        -3.23015        -3.23015
            2843         232.711         232.711    -111.151E-03    -111.151E-03        -3.50909        -3.50909
            2844         232.120         232.120    -298.627E-03    -298.627E-03        -3.85190        -3.85190
            2845         231.513         231.513    -519.700E-03    -519.700E-03        -4.27815        -4.27815
            2846         230.896         230.896    -793.707E-03    -793.707E-03        -4.81210        -4.81210
            2847         230.280         230.280        -1.14623        -1.14623        -5.48392        -5.48392
            2848         229.689         229.689        -1.61343        -1.61343        -6.33082        -6.33082
            2849         229.169         229.169        -2.24770        -2.24770        -7.39766        -7.39766
            2850         228.800         228.800        -3.12850        -3.12850        -8.73467        -8.73467
            2851         228.737         228.737        -4.37470        -4.37470        -10.3885        -10.3885
            2852         229.258         229.258        -6.16663        -6.16663        -12.3654        -12.3654
            2853         230.841         230.841        -8.72071        -8.72071        -14.5475        -14.5475
            2854         220.658         220.658         64.6312         64.6312         6.52072         6.52072
            2855         222.743         222.743         59.7061         59.7061         6.47640         6.47640
            2856         224.793         224.793         54.7821         54.7821         6.28105         6.28105
            2857         226.768         226.768         49.9342         49.9342         5.99880         5.99880
            2858         228.637         228.637         45.2129         45.2129         5.63832         5.63832
            2859         230.377         230.377         40.6648         40.6648         5.20923         5.20923
            2860         231.966         231.966         36.3309         36.3309         4.72683         4.72683
            2861         233.388         233.388         32.2443         32.2443         4.20615         4.20615
            2862         234.635         234.635         28.4302         28.4302         3.66428         3.66428
            2863         235.703         235.703         24.9049         24.9049         3.11673         3.11673
            2864         236.593         236.593         21.6767         21.6767         2.57759         2.57759
            2865         237.312         237.312         18.7465         18.7465         2.05882         2.05882
            2866         237.868         237.868         16.1092         16.1092         1.56917         1.56917
            2867         238.274         238.274         13.7547         13.7547         1.11545         1.11545
            2868         238.541         238.541         11.6687         11.6687     701.118E-03     701.118E-03
            2869         238.685         238.685         9.83502         9.83502     328.245E-03     328.245E-03
            2870         238.717         238.717         8.23502         8.23502    -3.68507E-03    -3.68507E-03
            2871         238.652         238.652         6.84965         6.84965    -295.966E-03    -295.966E-03
            2872         238.502         238.502         5.65925         5.65925    -551.537E-03    -551.537E-03
            2873         238.277         238.277         4.64458         4.64458    -773.653E-03    -773.653E-03
            2874         237.989         237.989         3.78672         3.78672    -966.469E-03    -966.469E-03
            2875         237.644         237.644         3.06772         3.06772        -1.13420        -1.13420
            2876         237.252         237.252         2.47040         2.47040        -1.28152        -1.28152
            2877         236.816         236.816         1.97876         1.97876        -1.41312        -1.41312
            2878         236.343         236.343         1.57780         1.57780        -1.53399        -1.53399
            2879         235.835         235.835         1.25368         1.25368        -1.64928        -1.64928
            2880         235.292         235.292     993.620E-03     993.620E-03        -1.76454        -1.76454
            2881         234.716         234.716     785.911E-03     785.911E-03        -1.88582        -1.88582
            2882         234.105         234.105     619.815E-03     619.815E-03        -2.01997        -2.01997
            2883         233.455         233.455     485.489E-03     485.489E-03        -2.17491        -2.17491
            2884         232.760         232.760     373.818E-03     373.818E-03        -2.36017        -2.36017
            2885         232.013         232.013     276.175E-03     276.175E-03        -2.58745        -2.58745
            2886         231.204         231.204     184.072E-03     184.072E-03        -2.87157        -2.87157
            2887         230.320         230.320     88.4839E-03     88.4839E-03        -3.23167        -3.23167
            2888         229.345         229.345    -21.0512E-03    -21.0512E-03        -3.69312        -3.69312
            2889         228.260         228.260    -158.366E-03    -158.366E-03        -4.29008        -4.29008
            2890         227.045         227.045    -343.281E-03    -343.281E-03        -5.06968        -5.06968
            2891         225.680         225.680    -607.553E-03    -607.553E-03        -6.09788        -6.09788
            2892         224.154         224.154        -1.00358        -1.00358        -7.46913        -7.46913
            2893         222.479         222.479        -1.62500        -1.62500        -9.31901        -9.31901
            2894         220.743         220.743        -2.64507        -2.64507        -11.8460        -11.8460
            2895         219.239         219.239        -4.39848        -4.39848        -15.3073        -15.3073
            2896         220.503         220.503         64.6786         64.6786         3.87816         3.87816
            2897         222.555         222.555         59.8414         59.8414         3.83919         3.83919
            2898         224.575         224.575         55.0066         55.0066         3.71176         3.71176
            2899         226.525         226.525         50.2440         50.2440         3.53630         3.53630
            2900         228.378         228.378         45.5995         45.5995         3.31610         3.31610
            2901         230.110         230.110         41.1159         41.1159         3.05866         3.05866
            2902         231.703         231.703         36.8312         36.8312         2.77111         2.77111
            2903         233.138         233.138         32.7775         32.7775         2.46335         2.46335
            2904         234.408         234.408         28.9797         28.9797         2.14421         2.14421
            2905         235.505         235.505         25.4555         25.4555         1.82296         1.82296
            2906         236.430         236.430         22.2149         22.2149         1.50757         1.50757
            2907         237.185         237.185         19.2614         19.2614         1.20464         1.20464
            2908         237.779         237.779         16.5927         16.5927     919.615E-03     919.615E-03
            2909         238.220         238.220         14.2010         14.2010     655.858E-03     655.858E-03
            2910         238.521         238.521         12.0750         12.0750     415.925E-03     415.925E-03
            2911         238.692         238.692         10.2000         10.2000     200.410E-03     200.410E-03
            2912         238.748         238.748         8.55953         8.55953     9.48291E-03     9.48291E-03
            2913         238.700         238.700         7.13561         7.13561    -158.117E-03    -158.117E-03
            2914         238.561         238.561         5.90976         5.90976    -303.789E-03    -303.789E-03
            2915         238.342         238.342         4.86327         4.86327    -429.807E-03    -429.807E-03
            2916         238.052         238.052         3.97787         3.97787    -538.414E-03    -538.414E-03
            2917         237.700         237.700         3.23581         3.23581    -632.327E-03    -632.327E-03
            2918         237.294         237.294         2.62027         2.62027    -714.180E-03    -714.180E-03
            2919         236.839         236.839         2.11539         2.11539    -786.871E-03    -786.871E-03
            2920         236.339         236.339         1.70650         1.70650    -853.264E-03    -853.264E-03
            2921         235.796         235.796         1.38006         1.38006    -916.457E-03    -916.457E-03
            2922         235.212         235.212         1.12383         1.12383    -979.668E-03    -979.668E-03
            2923         234.585         234.585     926.824E-03     926.824E-03        -1.04648        -1.04648
            2924         233.910         233.910     779.384E-03     779.384E-03        -1.12089        -1.12089
            2925         233.181         233.181     673.172E-03     673.172E-03        -1.20761        -1.20761
            2926         232.389         232.389     601.206E-03     601.206E-03        -1.31229        -1.31229
            2927         231.520         231.520     557.875E-03     557.875E-03        -1.44202        -1.44202
            2928         230.555         230.555     538.912E-03     538.912E-03        -1.60587        -1.60587
            2929         229.468         229.468     541.410E-03     541.410E-03        -1.81588        -1.81588
            2930         228.226         228.226     563.595E-03     563.595E-03        -2.08837        -2.08837
            2931         226.782         226.782     604.724E-03     604.724E-03        -2.44626        -2.44626
            2932         225.073         225.073     664.107E-03     664.107E-03        -2.92236        -2.92236
            2933         223.012         223.012     740.288E-03     740.288E-03        -3.56564        -3.56564
            2934         220.477         220.477     827.069E-03     827.069E-03        -4.45096        -4.45096
            2935         217.294         217.294     907.864E-03     907.864E-03        -5.69939        -5.69939
            2936         213.208         213.208     938.450E-03     938.450E-03        -7.51559        -7.51559
            2937         207.847         207.847     796.226E-03     796.226E-03        -10.2846        -10.2846
            2938         220.428         220.428         64.7017         64.7017         1.27104         1.27104
            2939         222.464         222.464         59.9061         59.9061         1.23812         1.23812
            2940         224.470         224.470         55.1133         55.1133         1.17830         1.17830
            2941         226.408         226.408         50.3908         50.3908         1.10419         1.10419
            2942         228.254         228.254         45.7820         45.7820         1.01888         1.01888
            2943         229.983         229.983         41.3280         41.3280     923.895E-03     923.895E-03
            2944         231.577         231.577         37.0658         37.0658     823.103E-03     823.103E-03
            2945         233.019         233.019         33.0268         33.0268     718.863E-03     718.863E-03
            2946         234.299         234.299         29.2359         29.2359     614.713E-03     614.713E-03
            2947         235.409         235.409         25.7114         25.7114     513.079E-03     513.079E-03
            2948         236.350         236.350         22.4643         22.4643     416.342E-03     416.342E-03
            2949         237.123         237.123         19.4993         19.4993     326.365E-03     326.365E-03
            2950         237.734         237.734         16.8153         16.8153     244.184E-03     244.184E-03
            2951         238.191         238.191         14.4059         14.4059     170.805E-03     170.805E-03
            2952         238.507         238.507         12.2608         12.2608     106.191E-03     106.191E-03
            2953         238.691         238.691         10.3664         10.3664     50.5433E-03     50.5433E-03
            2954         238.757         238.757         8.70688         8.70688     3.17486E-03     3.17486E-03
            2955         238.717         238.717         7.26501         7.26501    -36.2727E-03    -36.2727E-03
            2956         238.583         238.583         6.02267         6.02267    -68.7623E-03    -68.7623E-03
            2957         238.366         238.366         4.96153         4.96153    -94.9425E-03    -94.9425E-03
            2958         238.075         238.075         4.06348         4.06348    -115.809E-03    -115.809E-03
            2959         237.720         237.720         3.31092         3.31092    -132.095E-03    -132.095E-03
            2960         237.308         237.308         2.68712         2.68712    -144.706E-03    -144.706E-03
            2961         236.844         236.844         2.17629         2.17629    -154.346E-03    -154.346E-03
            2962         236.332         236.332         1.76385         1.76385    -161.792E-03    -161.792E-03
            2963         235.775         235.775         1.43638         1.43638    -167.676E-03    -167.676E-03
            2964         235.173         235.173         1.18185         1.18185    -172.658E-03    -172.658E-03
            2965         234.523         234.523     989.561E-03     989.561E-03    -177.307E-03    -177.307E-03
            2966         233.821         233.821     850.308E-03     850.308E-03    -182.211E-03    -182.211E-03
            2967         233.060         233.060     756.375E-03     756.375E-03    -187.910E-03    -187.910E-03
            2968         232.226         232.226     701.725E-03     701.725E-03    -194.983E-03    -194.983E-03
            2969         231.305         231.305     682.024E-03     682.024E-03    -204.003E-03    -204.003E-03
            2970         230.274         230.274     694.956E-03     694.956E-03    -215.632E-03    -215.632E-03
            2971         229.102         229.102     740.278E-03     740.278E-03    -230.571E-03    -230.571E-03
            2972         227.746         227.746     820.445E-03     820.445E-03    -249.719E-03    -249.719E-03
            2973         226.148         226.148     940.634E-03     940.634E-03    -274.050E-03    -274.050E-03
            2974         224.225         224.225         1.11014         1.11014    -304.981E-03    -304.981E-03
            2975         221.859         221.859         1.34215         1.34215    -343.956E-03    -343.956E-03
            2976         218.873         218.873         1.65699         1.65699    -393.288E-03    -393.288E-03
            2977         215.000         215.000         2.08129         2.08129    -454.588E-03    -454.588E-03
            2978         209.799         209.799         2.65642         2.65642    -529.305E-03    -529.305E-03
            2979         202.486         202.486         3.44110         3.44110    -601.551E-03    -601.551E-03
            2980         220.428         220.428         64.7017         64.7017        -1.32072        -1.32072
            2981         222.465         222.465         59.9042         59.9042        -1.34134        -1.34134
            2982         224.472         224.472         55.1093         55.1093        -1.33083        -1.33083
            2983         226.412         226.412         50.3841         50.3841        -1.30000        -1.30000
            2984         228.259         228.259         45.7722         45.7722        -1.25034        -1.25034
            2985         229.990         229.990         41.3147         41.3147        -1.18198        -1.18198
            2986         231.585         231.585         37.0489         37.0489        -1.09789        -1.09789
            2987         233.027         233.027         33.0065         33.0065        -1.00002        -1.00002
            2988         234.307         234.307         29.2125         29.2125    -892.052E-03    -892.052E-03
            2989         235.418         235.418         25.6854         25.6854    -777.002E-03    -777.002E-03
            2990         236.357         236.357         22.4365         22.4365    -658.253E-03    -658.253E-03
            2991         237.129         237.129         19.4704         19.4704    -538.921E-03    -538.921E-03
            2992         237.738         237.738         16.7858         16.7858    -421.442E-03    -421.442E-03
            2993         238.194         238.194         14.3766         14.3766    -308.262E-03    -308.262E-03
            2994         238.507         238.507         12.2322         12.2322    -200.702E-03    -200.702E-03
            2995         238.690         238.690         10.3390         10.3390    -100.207E-03    -100.207E-03
            2996         238.754         238.754         8.68102         8.68102    -7.12602E-03    -7.12602E-03
            2997         238.712         238.712         7.24090         7.24090     78.0511E-03     78.0511E-03
            2998         238.577         238.577         6.00039         6.00039     155.688E-03     155.688E-03
            2999         238.359         238.359         4.94109         4.94109     226.037E-03     226.037E-03
            3000         238.068         238.068         4.04474         4.04474     289.939E-03     289.939E-03
            3001         237.713         237.713         3.29369         3.29369     348.175E-03     348.175E-03
            3002         237.302         237.302         2.67107         2.67107     401.921E-03     401.921E-03
            3003         236.840         236.840         2.16103         2.16103     452.367E-03     452.367E-03
            3004         236.332         236.332         1.74885         1.74885     501.014E-03     501.014E-03
            3005         235.779         235.779         1.42100         1.42100     549.485E-03     549.485E-03
            3006         235.182         235.182         1.16528         1.16528     599.750E-03     599.750E-03
            3007         234.540         234.540     970.800E-03     970.800E-03     654.085E-03     654.085E-03
            3008         233.848         233.848     828.052E-03     828.052E-03     715.298E-03     715.298E-03
            3009         233.098         233.098     728.973E-03     728.973E-03     786.833E-03     786.833E-03
            3010         232.281         232.281     666.971E-03     666.971E-03     873.103E-03     873.103E-03
            3011         231.382         231.382     637.011E-03     637.011E-03     979.803E-03     979.803E-03
            3012         230.380         230.380     635.655E-03     635.655E-03         1.11456         1.11456
            3013         229.246         229.246     661.172E-03     661.172E-03         1.28767         1.28767
            3014         227.944         227.944     713.527E-03     713.527E-03         1.51361         1.51361
            3015         226.421         226.421     794.438E-03     794.438E-03         1.81283         1.81283
            3016         224.607         224.607     907.045E-03     907.045E-03         2.21579         2.21579
            3017         222.402         222.402         1.05535         1.05535         2.76803         2.76803
            3018         219.664         219.664         1.24204         1.24204         3.54242         3.54242
            3019         216.189         216.189         1.46366         1.46366         4.65762         4.65762
            3020         211.669         211.669         1.69619         1.69619         6.32530         6.32530
            3021         205.665         205.665         1.84102         1.84102         8.94923         8.94923
            3022         220.503         220.503         64.6795         64.6795        -3.92055        -3.92055
            3023         222.558         222.558         59.8377         59.8377        -3.92650        -3.92650
            3024         224.581         224.581         54.9972         54.9972        -3.84074        -3.84074
            3025         226.535         226.535         50.2275         50.2275        -3.70172        -3.70172
            3026         228.392         228.392         45.5747         45.5747        -3.51129        -3.51129
            3027         230.128         230.128         41.0819         41.0819        -3.27583        -3.27583
            3028         231.723         231.723         36.7878         36.7878        -3.00167        -3.00167
            3029         233.160         233.160         32.7251         32.7251        -2.69848        -2.69848
            3030         234.430         234.430         28.9193         28.9193        -2.37526        -2.37526
            3031         235.527         235.527         25.3884         25.3884        -2.04188        -2.04188
            3032         236.449         236.449         22.1429         22.1429        -1.70723        -1.70723
            3033         237.202         237.202         19.1864         19.1864        -1.37903        -1.37903
            3034         237.791         237.791         16.5164         16.5164        -1.06397        -1.06397
            3035         238.227         238.227         14.1252         14.1252    -766.618E-03    -766.618E-03
            3036         238.522         238.522         12.0011         12.0011    -490.706E-03    -490.706E-03
            3037         238.689         238.689         10.1292         10.1292    -237.832E-03    -237.832E-03
            3038         238.740         238.740         8.49275         8.49275    -9.03616E-03    -9.03616E-03
            3039         238.688         238.688         7.07334         7.07334     196.279E-03     196.279E-03
            3040         238.545         238.545         5.85226         5.85226     379.016E-03     379.016E-03
            3041         238.324         238.324         4.81051         4.81051     541.154E-03     541.154E-03
            3042         238.033         238.033         3.92955         3.92955     684.804E-03     684.804E-03
            3043         237.683         237.683         3.19138         3.19138     812.730E-03     812.730E-03
            3044         237.279         237.279         2.57895         2.57895     927.776E-03     927.776E-03
            3045         236.829         236.829         2.07615         2.07615         1.03321         1.03321
            3046         236.337         236.337         1.66802         1.66802         1.13246         1.13246
            3047         235.806         235.806         1.34072         1.34072         1.22935         1.22935
            3048         235.236         235.236         1.08160         1.08160         1.32807         1.32807
            3049         234.627         234.627     879.162E-03     879.162E-03         1.43347         1.43347
            3050         233.976         233.976     723.081E-03     723.081E-03         1.55112         1.55112
            3051         233.279         233.279     604.095E-03     604.095E-03         1.68780         1.68780
            3052         232.528         232.528     513.960E-03     513.960E-03         1.85180         1.85180
            3053         231.713         231.713     445.286E-03     445.286E-03         2.05368         2.05368
            3054         230.820         230.820     391.290E-03     391.290E-03         2.30705         2.30705
            3055         229.830         229.830     345.384E-03     345.384E-03         2.63005         2.63005
            3056         228.720         228.720     300.387E-03     300.387E-03         3.04711         3.04711
            3057         227.460         227.460     247.286E-03     247.286E-03         3.59233         3.59233
            3058         226.013         226.013     172.610E-03     172.610E-03         4.31362         4.31362
            3059         224.335         224.335     54.2444E-03     54.2444E-03         5.28108         5.28108
            3060         222.380         222.380    -148.217E-03    -148.217E-03         6.59772         6.59772
            3061         220.104         220.104    -510.800E-03    -510.800E-03         8.42145         8.42145
            3062         217.511         217.511        -1.18917        -1.18917         10.9940         10.9940
            3063         214.766         214.766        -2.50201        -2.50201         14.6653         14.6653
            3064         220.658         220.658         64.6330         64.6330        -6.55341        -6.55341
            3065         222.747         222.747         59.7028         59.7028        -6.54288        -6.54288
            3066         224.802         224.802         54.7712         54.7712        -6.37882        -6.37882
            3067         226.782         226.782         49.9139         49.9139        -6.12377        -6.12377
            3068         228.656         228.656         45.1815         45.1815        -5.78522        -5.78522
            3069         230.401         230.401         40.6214         40.6214        -5.37186        -5.37186
            3070         231.993         231.993         36.2753         36.2753        -4.89845        -4.89845
            3071         233.417         233.417         32.1771         32.1771        -4.37991        -4.37991
            3072         234.665         234.665         28.3527         28.3527        -3.83363        -3.83363
            3073         235.731         235.731         24.8190         24.8190        -3.27569        -3.27569
            3074         236.618         236.618         21.5848         21.5848        -2.72101        -2.72101
            3075         237.333         237.333         18.6510         18.6510        -2.18250        -2.18250
            3076         237.883         237.883         16.0124         16.0124        -1.66990        -1.66990
            3077         238.282         238.282         13.6586         13.6586        -1.19097        -1.19097
            3078         238.542         238.542         11.5754         11.5754    -750.008E-03    -750.008E-03
            3079         238.679         238.679         9.74579         9.74579    -349.847E-03    -349.847E-03
            3080         238.705         238.705         8.15098         8.15098     9.45149E-03     9.45149E-03
            3081         238.634         238.634         6.77147         6.77147     328.709E-03     328.709E-03
            3082         238.480         238.480         5.58721         5.58721     610.556E-03     610.556E-03
            3083         238.253         238.253         4.57863         4.57863     858.046E-03     858.046E-03
            3084         237.963         237.963         3.72648         3.72648         1.07527         1.07527
            3085         237.620         237.620         3.01251         3.01251         1.26646         1.26646
            3086         237.231         237.231         2.41925         2.41925         1.43643         1.43643
            3087         236.802         236.802         1.93040         1.93040         1.59011         1.59011
            3088         236.339         236.339         1.53065         1.53065         1.73280         1.73280
            3089         235.843         235.843         1.20580         1.20580         1.87008         1.87008
            3090         235.319         235.319     942.594E-03     942.594E-03         2.00804         2.00804
            3091         234.765         234.765     728.766E-03     728.766E-03         2.15338         2.15338
            3092         234.183         234.183     552.814E-03     552.814E-03         2.31376         2.31376
            3093         233.571         233.571     403.893E-03     403.893E-03         2.49807         2.49807
            3094         232.925         232.925     271.516E-03     271.516E-03         2.71703         2.71703
            3095         232.242         232.242     145.186E-03     145.186E-03         2.98374         2.98374
            3096         231.516         231.516     13.8097E-03     13.8097E-03         3.31467         3.31467
            3097         230.743         230.743    -135.296E-03    -135.296E-03         3.73077         3.73077
            3098         229.917         229.917    -317.793E-03    -317.793E-03         4.25931         4.25931
            3099         229.036         229.036    -555.038E-03    -555.038E-03         4.93590         4.93590
            3100         228.105         228.105    -877.746E-03    -877.746E-03         5.80789         5.80789
            3101         227.143         227.143        -1.33380        -1.33380         6.93753         6.93753
            3102         226.200         226.200        -1.99862        -1.99862         8.40668         8.40668
            3103         225.387         225.387        -2.99853        -2.99853         10.3154         10.3154
            3104         224.944         224.944        -4.54024        -4.54024         12.7666         12.7666
            3105         225.343         225.343        -6.93808        -6.93808         15.8006         15.8006
            3106         220.904         220.904         64.5627         64.5627        -9.24160        -9.24160
            3107         223.046         223.046         59.4938         59.4938        -9.21329        -9.21329
            3108         225.148         225.148         54.4215         54.4215        -8.96200        -8.96200
            3109         227.165         227.165         49.4294         49.4294        -8.58040        -8.58040
            3110         229.064         229.064         44.5764         44.5764        -8.07704        -8.07704
            3111         230.817         230.817         39.9162         39.9162        -7.46992        -7.46992
            3112         232.401         232.401         35.4944         35.4944        -6.77894        -6.77894
            3113         233.800         233.800         31.3476         31.3476        -6.02974        -6.02974
            3114         235.009         235.009         27.5009         27.5009        -5.24691        -5.24691
            3115         236.025         236.025         23.9694         23.9694        -4.45472        -4.45472
            3116         236.856         236.856         20.7579         20.7579        -3.67454        -3.67454
            3117         237.509         237.509         17.8635         17.8635        -2.92348        -2.92348
            3118         237.999         237.999         15.2765         15.2765        -2.21540        -2.21540
            3119         238.341         238.341         12.9821         12.9821        -1.55892        -1.55892
            3120         238.551         238.551         10.9624         10.9624    -960.047E-03    -960.047E-03
            3121         238.643         238.643         9.19714         9.19714    -420.460E-03    -420.460E-03
            3122         238.634         238.634         7.66524         7.66524     59.7970E-03     59.7970E-03
            3123         238.538         238.538         6.34495         6.34495     483.547E-03     483.547E-03
            3124         238.367         238.367         5.21522         5.21522     854.407E-03     854.407E-03
            3125         238.133         238.133         4.25520         4.25520         1.17759         1.17759
            3126         237.846         237.846         3.44531         3.44531         1.45856         1.45856
            3127         237.514         237.514         2.76669         2.76669         1.70356         1.70356
            3128         237.146         237.146         2.20179         2.20179         1.91885         1.91885
            3129         236.747         236.747         1.73397         1.73397         2.11107         2.11107
            3130         236.323         236.323         1.34778         1.34778         2.28689         2.28689
            3131         235.877         235.877         1.02857         1.02857         2.45336         2.45336
            3132         235.413         235.413     762.654E-03     762.654E-03         2.61776         2.61776
            3133         234.933         234.933     536.913E-03     536.913E-03         2.78799         2.78799
            3134         234.440         234.440     338.754E-03     338.754E-03         2.97271         2.97271
            3135         233.935         233.935     155.732E-03     155.732E-03         3.18166         3.18166
            3136         233.420         233.420    -24.7869E-03    -24.7869E-03         3.42607         3.42607
            3137         232.899         232.899    -216.191E-03    -216.191E-03         3.71914         3.71914
            3138         232.375         232.375    -433.445E-03    -433.445E-03         4.07655         4.07655
            3139         231.855         231.855    -694.199E-03    -694.199E-03         4.51716         4.51716
            3140         231.353         231.353        -1.02074        -1.02074         5.06348         5.06348
            3141         230.890         230.890        -1.44229        -1.44229         5.74227         5.74227
            3142         230.503         230.503        -1.99965        -1.99965         6.58393         6.58393
            3143         230.257         230.257        -2.74966        -2.74966         7.62052         7.62052
            3144         230.260         230.260        -3.77491        -3.77491         8.87813         8.87813
            3145         230.689         230.689        -5.18723        -5.18723         10.3584         10.3584
            3146         231.833         231.833        -7.12949        -7.12949         11.9917         11.9917
            3147         234.114         234.114        -9.72403        -9.72403         13.5659         13.5659
            3148         221.262         221.262         64.4670         64.4670        -12.0114        -12.0114
            3149         223.474         223.474         59.2030         59.2030        -11.9599        -11.9599
            3150         225.641         225.641         53.9316         53.9316        -11.6108        -11.6108
            3151         227.707         227.707         48.7517         48.7517        -11.0819        -11.0819
            3152         229.635         229.635         43.7328         43.7328        -10.3919        -10.3919
            3153         231.392         231.392         38.9378         38.9378        -9.56312        -9.56312
            3154         232.955         232.955         34.4191         34.4191        -8.62987        -8.62987
            3155         234.312         234.312         30.2139         30.2139        -7.62635        -7.62635
            3156         235.458         235.458         26.3470         26.3470        -6.58898        -6.58898
            3157         236.399         236.399         22.8284         22.8284        -5.55036        -5.55036
            3158         237.144         237.144         19.6578         19.6578        -4.53796        -4.53796
            3159         237.712         237.712         16.8253         16.8253        -3.57431        -3.57431
            3160         238.117         238.117         14.3145         14.3145        -2.67435        -2.67435
            3161         238.382         238.382         12.1052         12.1052        -1.84893        -1.84893
            3162         238.523         238.523         10.1739         10.1739        -1.10232        -1.10232
            3163         238.558         238.558         8.49688         8.49688    -436.242E-03    -436.242E-03
            3164         238.505         238.505         7.04948         7.04948     151.973E-03     151.973E-03
            3165         238.376         238.376         5.80833         5.80833     666.210E-03     666.210E-03
            3166         238.186         238.186         4.75032         4.75032         1.11276         1.11276
            3167         237.945         237.945         3.85418         3.85418         1.49826         1.49826
            3168         237.664         237.664         3.09939         3.09939         1.83041         1.83041
            3169         237.349         237.349         2.46717         2.46717         2.11683         2.11683
            3170         237.008         237.008         1.93965         1.93965         2.36552         2.36552
            3171         236.648         236.648         1.50034         1.50034         2.58423         2.58423
            3172         236.272         236.272         1.13359         1.13359         2.78089         2.78089
            3173         235.887         235.887     824.729E-03     824.729E-03         2.96329         2.96329
            3174         235.495         235.495     559.663E-03     559.663E-03         3.13947         3.13947
            3175         235.101         235.101     324.819E-03     324.819E-03         3.31762         3.31762
            3176         234.710         234.710     106.752E-03     106.752E-03         3.50645         3.50645
            3177         234.325         234.325    -108.080E-03    -108.080E-03         3.71522         3.71522
            3178         233.955         233.955    -333.805E-03    -333.805E-03         3.95408         3.95408
            3179         233.606         233.606    -585.677E-03    -585.677E-03         4.23408         4.23408
            3180         233.290         233.290    -880.809E-03    -880.809E-03         4.56738         4.56738
            3181         233.025         233.025        -1.23930        -1.23930         4.96692         4.96692
            3182         232.834         232.834        -1.68538        -1.68538         5.44590         5.44590
            3183         232.755         232.755        -2.24957        -2.24957         6.01610         6.01610
            3184         232.840         232.840        -2.96986        -2.96986         6.68459         6.68459
            3185         233.168         233.168        -3.89452        -3.89452         7.44702         7.44702
            3186         233.853         233.853        -5.07878        -5.07878         8.27446         8.27446
            3187         235.053         235.053        -6.57885        -6.57885         9.09072         9.09072
            3188         236.964         236.964        -8.41181        -8.41181         9.73561         9.73561
            3189         239.789         239.789        -10.4954        -10.4954         9.92257         9.92257
            3190         243.734         243.734        -8.67438        -8.67438        -3.76697        -3.76697
            3191         241.631         241.631        -7.94531        -7.94531        -4.86212        -4.86212
            3192         239.781         239.781        -6.94717        -6.94717        -5.48852        -5.48852
            3193         238.264         238.264        -5.87931        -5.87931        -5.75192        -5.75192
            3194         237.087         237.087        -4.86414        -4.86414        -5.77599        -5.77599
            3195         236.216         236.216        -3.95772        -3.95772        -5.65857        -5.65857
            3196         235.600         235.600        -3.17747        -3.17747        -5.46973        -5.46973
            3197         235.191         235.191        -2.51921        -2.51921        -5.25307        -5.25307
            3198         234.945         234.945        -1.97016        -1.97016        -5.03406        -5.03406
            3199         234.825         234.825        -1.51374        -1.51374        -4.82569        -4.82569
            3200         234.804         234.804        -1.13294        -1.13294        -4.63318        -4.63318
            3201         234.858         234.858    -811.096E-03    -811.096E-03        -4.45686        -4.45686
            3202         234.971         234.971    -532.459E-03    -532.459E-03        -4.29414        -4.29414
            3203         235.129         235.129    -282.145E-03    -282.145E-03        -4.14063        -4.14063
            3204         235.322         235.322    -45.9474E-03    -45.9474E-03        -3.99088        -3.99088
            3205         235.542         235.542     189.789E-03     189.789E-03        -3.83870        -3.83870
            3206         235.781         235.781     438.563E-03     438.563E-03        -3.67738        -3.67738
            3207         236.036         236.036     713.735E-03     713.735E-03        -3.49970        -3.49970
            3208         236.300         236.300         1.02908         1.02908        -3.29797        -3.29797
            3209         236.571         236.571         1.39861         1.39861        -3.06393        -3.06393
            3210         236.842         236.842         1.83740         1.83740        -2.78876        -2.78876
            3211         237.111         237.111         2.36106         2.36106        -2.46303        -2.46303
            3212         237.371         237.371         2.98704         2.98704        -2.07664        -2.07664
            3213         237.617         237.617         3.73358         3.73358        -1.61916        -1.61916
            3214         237.841         237.841         4.62170         4.62170        -1.07950        -1.07950
            3215         238.034         238.034         5.67333         5.67333    -446.952E-03    -446.952E-03
            3216         238.185         238.185         6.91429         6.91429     289.488E-03     289.488E-03
            3217         238.280         238.280         8.37111         8.37111         1.13875         1.13875
            3218         238.303         238.303         10.0752         10.0752         2.10932         2.10932
            3219         238.231         238.231         12.0579         12.0579         3.20430         3.20430
            3220         238.044         238.044         14.3553         14.3553         4.42497         4.42497
            3221         237.710         237.710         17.0012         17.0012         5.76202         5.76202
            3222         237.203         237.203         20.0307         20.0307         7.20211         7.20211
            3223         236.488         236.488         23.4727         23.4727         8.71580         8.71580
            3224         235.543         235.543         27.3469         27.3469         10.2668         10.2668
            3225         234.338         234.338         31.6611         31.6611         11.8028         11.8028
            3226         232.869         232.869         36.3981         36.3981         13.2633         13.2633
            3227         231.134         231.134         41.5229         41.5229         14.5852         14.5852
            3228         229.157         229.157         46.9669         46.9669         15.7006         15.7006
            3229         226.979         226.979         52.6426         52.6426         16.5642         16.5642
            3230         224.650         224.650         58.4428         58.4428         17.1335         17.1335
            3231         222.254         222.254         64.2242         64.2242         17.2385         17.2385
            3232         243.764         243.764        -7.29589        -7.29589        -1.83525        -1.83525
            3233         242.130         242.130        -7.01122        -7.01122        -3.05603        -3.05603
            3234         240.594         240.594        -6.39806        -6.39806        -3.91194        -3.91194
            3235         239.235         239.235        -5.61806        -5.61806        -4.45745        -4.45745
            3236         238.098         238.098        -4.79564        -4.79564        -4.76132        -4.76132
            3237         237.188         237.188        -4.00678        -4.00678        -4.89610        -4.89610
            3238         236.487         236.487        -3.29064        -3.29064        -4.92057        -4.92057
            3239         235.969         235.969        -2.66241        -2.66241        -4.87878        -4.87878
            3240         235.604         235.604        -2.12273        -2.12273        -4.80014        -4.80014
            3241         235.365         235.365        -1.66474        -1.66474        -4.70327        -4.70327
            3242         235.228         235.228        -1.27757        -1.27757        -4.59875        -4.59875
            3243         235.172         235.172    -948.695E-03    -948.695E-03        -4.49170        -4.49170
            3244         235.182         235.182    -664.962E-03    -664.962E-03        -4.38345        -4.38345
            3245         235.244         235.244    -413.167E-03    -413.167E-03        -4.27281        -4.27281
            3246         235.348         235.348    -180.303E-03    -180.303E-03        -4.15682        -4.15682
            3247         235.486         235.486     46.5042E-03     46.5042E-03        -4.03120        -4.03120
            3248         235.651         235.651     279.930E-03     279.930E-03        -3.89066        -3.89066
            3249         235.838         235.838     532.813E-03     532.813E-03        -3.72899        -3.72899
            3250         236.043         236.043     818.039E-03     818.039E-03        -3.53914        -3.53914
            3251         236.262         236.262         1.14917         1.14917        -3.31318        -3.31318
            3252         236.492         236.492         1.54016         1.54016        -3.04228        -3.04228
            3253         236.729         236.729         2.00633         2.00633        -2.71667        -2.71667
            3254         236.970         236.970         2.56374         2.56374        -2.32571        -2.32571
            3255         237.211         237.211         3.23082         3.23082        -1.85774        -1.85774
            3256         237.444         237.444         4.02701         4.02701        -1.30057        -1.30057
            3257         237.664         237.664         4.97555         4.97555    -641.060E-03    -641.060E-03
            3258         237.861         237.861         6.10076         6.10076     133.425E-03     133.425E-03
            3259         238.022         238.022         7.43266         7.43266         1.03612         1.03612
            3260         238.131         238.131         9.00201         9.00201         2.07725         2.07725
            3261         238.169         238.169         10.8472         10.8472         3.26683         3.26683
            3262         238.109         238.109         13.0061         13.0061         4.60677         4.60677
            3263         237.921         237.921         15.5243         15.5243         6.09717         6.09717
            3264         237.568         237.568         18.4443         18.4443         7.72166         7.72166
            3265         237.015         237.015         21.8100         21.8100         9.45903         9.45903
            3266         236.213         236.213         25.6563         25.6563         11.2635         11.2635
            3267         235.138         235.138         30.0017         30.0017         13.0798         13.0798
            3268         233.753         233.753         34.8472         34.8472         14.8325         14.8325
            3269         232.063         232.063         40.1528         40.1528         16.4344         16.4344
            3270         230.076         230.076         45.8531         45.8531         17.8064         17.8064
            3271         227.840         227.840         51.8374         51.8374         18.8648         18.8648
            3272         225.424         225.424         57.9725         57.9725         19.5712         19.5712
            3273         222.905         222.905         64.0887         64.0887         19.7074         19.7074
            3274         243.282         243.282        -5.91725        -5.91725    -423.660E-03    -423.660E-03
            3275         242.080         242.080        -5.96019        -5.96019        -1.63547        -1.63547
            3276         240.862         240.862        -5.64586        -5.64586        -2.58335        -2.58335
            3277         239.715         239.715        -5.12166        -5.12166        -3.28612        -3.28612
            3278         238.693         238.693        -4.49553        -4.49553        -3.77803        -3.77803
            3279         237.822         237.822        -3.84684        -3.84684        -4.10225        -4.10225
            3280         237.107         237.107        -3.22490        -3.22490        -4.30221        -4.30221
            3281         236.539         236.539        -2.65680        -2.65680        -4.41403        -4.41403
            3282         236.102         236.102        -2.15398        -2.15398        -4.46576        -4.46576
            3283         235.779         235.779        -1.71782        -1.71782        -4.47713        -4.47713
            3284         235.552         235.552        -1.34372        -1.34372        -4.46142        -4.46142
            3285         235.405         235.405        -1.02354        -1.02354        -4.42668        -4.42668
            3286         235.323         235.323    -747.268E-03    -747.268E-03        -4.37719        -4.37719
            3287         235.296         235.296    -503.969E-03    -503.969E-03        -4.31435        -4.31435
            3288         235.314         235.314    -282.254E-03    -282.254E-03        -4.23743        -4.23743
            3289         235.370         235.370    -70.6280E-03    -70.6280E-03        -4.14403        -4.14403
            3290         235.458         235.458     142.573E-03     142.573E-03        -4.03033        -4.03033
            3291         235.573         235.573     369.017E-03     369.017E-03        -3.89128        -3.89128
            3292         235.712         235.712     620.784E-03     620.784E-03        -3.72065        -3.72065
            3293         235.873         235.873     910.142E-03     910.142E-03        -3.51106        -3.51106
            3294         236.052         236.052         1.25034         1.25034        -3.25392        -3.25392
            3295         236.250         236.250         1.65511         1.65511        -2.93941        -2.93941
            3296         236.463         236.463         2.14009         2.14009        -2.55642        -2.55642
            3297         236.688         236.688         2.72174         2.72174        -2.09264        -2.09264
            3298         236.923         236.923         3.41980         3.41980        -1.53436        -1.53436
            3299         237.163         237.163         4.25512         4.25512    -867.092E-03    -867.092E-03
            3300         237.401         237.401         5.25399         5.25399    -74.9294E-03    -74.9294E-03
            3301         237.626         237.626         6.44388         6.44388     857.383E-03     857.383E-03
            3302         237.826         237.826         7.86076         7.86076         1.94628         1.94628
            3303         237.982         237.982         9.54121         9.54121         3.20390         3.20390
            3304         238.068         238.068         11.5339         11.5339         4.64288         4.64288
            3305         238.050         238.050         13.8862         13.8862         6.26353         6.26353
            3306         237.892         237.892         16.6583         16.6583         8.06488         8.06488
            3307         237.537         237.537         19.9053         19.9053         10.0197         10.0197
            3308         236.942         236.942         23.6835         23.6835         12.0952         12.0952
            3309         236.040         236.040         28.0360         28.0360         14.2199         14.2199
            3310         234.802         234.802         32.9738         32.9738         16.3093         16.3093
            3311         233.187         233.187         38.4820         38.4820         18.2553         18.2553
            3312         231.218         231.218         44.4769         44.4769         19.9336         19.9336
            3313         228.931         228.931         50.8397         50.8397         21.2538         21.2538
            3314         226.400         226.400         57.3968         57.3968         22.1206         22.1206
            3315         223.758         223.758         63.9225         63.9225         22.3127         22.3127
            3316         242.520         242.520        -4.65732        -4.65732     542.254E-03     542.254E-03
            3317         241.684         241.684        -4.90288        -4.90288    -566.032E-03    -566.032E-03
            3318         240.761         240.761        -4.80768        -4.80768        -1.51469        -1.51469
            3319         239.834         239.834        -4.48721        -4.48721        -2.28515        -2.28515
            3320         238.960         238.960        -4.03683        -4.03683        -2.88645        -2.88645
            3321         238.173         238.173        -3.52800        -3.52800        -3.33947        -3.33947
            3322         237.491         237.491        -3.01213        -3.01213        -3.67058        -3.67058
            3323         236.916         236.916        -2.52154        -2.52154        -3.90610        -3.90610
            3324         236.446         236.446        -2.07425        -2.07425        -4.06864        -4.06864
            3325         236.069         236.069        -1.67778        -1.67778        -4.17634        -4.17634
            3326         235.775         235.775        -1.33261        -1.33261        -4.24260        -4.24260
            3327         235.553         235.553        -1.03468        -1.03468        -4.27684        -4.27684
            3328         235.392         235.392    -777.088E-03    -777.088E-03        -4.28508        -4.28508
            3329         235.283         235.283    -551.318E-03    -551.318E-03        -4.27063        -4.27063
            3330         235.218         235.218    -347.950E-03    -347.950E-03        -4.23458        -4.23458
            3331         235.191         235.191    -157.022E-03    -157.022E-03        -4.17617        -4.17617
            3332         235.198         235.198     31.6296E-03     31.6296E-03        -4.09301        -4.09301
            3333         235.236         235.236     228.504E-03     228.504E-03        -3.98126        -3.98126
            3334         235.302         235.302     444.211E-03     444.211E-03        -3.83563        -3.83563
            3335         235.395         235.395     689.992E-03     689.992E-03        -3.64947        -3.64947
            3336         235.515         235.515     977.387E-03     977.387E-03        -3.41463        -3.41463
            3337         235.660         235.660         1.31925         1.31925        -3.12151        -3.12151
            3338         235.833         235.833         1.72906         1.72906        -2.75889        -2.75889
            3339         236.031         236.031         2.22277         2.22277        -2.31392        -2.31392
            3340         236.255         236.255         2.81733         2.81733        -1.77207        -1.77207
            3341         236.503         236.503         3.53413         3.53413        -1.11701        -1.11701
            3342         236.772         236.772         4.39582         4.39582    -331.142E-03    -331.142E-03
            3343         237.055         237.055         5.43277         5.43277     605.134E-03     605.134E-03
            3344         237.342         237.342         6.67652         6.67652         1.71086         1.71086
            3345         237.619         237.619         8.17150         8.17150         3.00720         3.00720
            3346         237.862         237.862         9.96225         9.96225         4.50945         4.50945
            3347         238.041         238.041         12.1128         12.1128         6.23483         6.23483
            3348         238.109         238.109         14.6843         14.6843         8.18168         8.18168
            3349         238.016         238.016         17.7596         17.7596         10.3487         10.3487
            3350         237.681         237.681         21.4131         21.4131         12.6912         12.6912
            3351         237.046         237.046         25.7181         25.7181         15.1577         15.1577
            3352         236.012         236.012         30.7273         30.7273         17.6361         17.6361
            3353         234.556         234.556         36.4292         36.4292         19.9928         19.9928
            3354         232.636         232.636         42.7720         42.7720         22.0769         22.0769
            3355         230.311         230.311         49.5911         49.5911         23.7144         23.7144
            3356         227.675         227.675         56.6745         56.6745         24.8200         24.8200
            3357         224.847         224.847         63.7339         63.7339         25.0727         25.0727
            3358         241.651         241.651        -3.57429        -3.57429         1.16479         1.16479
            3359         241.098         241.098        -3.91488        -3.91488     199.450E-03     199.450E-03
            3360         240.428         240.428        -3.95935        -3.95935    -689.703E-03    -689.703E-03
            3361         239.708         239.708        -3.79016        -3.79016        -1.46562        -1.46562
            3362         238.989         238.989        -3.48301        -3.48301        -2.11583        -2.11583
            3363         238.307         238.307        -3.10043        -3.10043        -2.64445        -2.64445
            3364         237.685         237.685        -2.68931        -2.68931        -3.06372        -3.06372
            3365         237.134         237.134        -2.28277        -2.28277        -3.38960        -3.38960
            3366         236.655         236.655        -1.90143        -1.90143        -3.63835        -3.63835
            3367         236.248         236.248        -1.55642        -1.55642        -3.82453        -3.82453
            3368         235.906         235.906        -1.25174        -1.25174        -3.96024        -3.96024
            3369         235.623         235.623    -986.535E-03    -986.535E-03        -4.05485        -4.05485
            3370         235.392         235.392    -756.630E-03    -756.630E-03        -4.11517        -4.11517
            3371         235.205         235.205    -555.823E-03    -555.823E-03        -4.14570        -4.14570
            3372         235.059         235.059    -376.620E-03    -376.620E-03        -4.14888        -4.14888
            3373         234.949         234.949    -210.846E-03    -210.846E-03        -4.12530        -4.12530
            3374         234.872         234.872    -49.8205E-03    -49.8205E-03        -4.07388        -4.07388
            3375         234.825         234.825     115.335E-03     115.335E-03        -3.99191        -3.99191
            3376         234.810         234.810     293.937E-03     293.937E-03        -3.87517        -3.87517
            3377         234.824         234.824     495.472E-03     495.472E-03        -3.71780        -3.71780
            3378         234.871         234.871     730.270E-03     730.270E-03        -3.51239        -3.51239
            3379         234.952         234.952         1.00904         1.00904        -3.24974        -3.24974
            3380         235.068         235.068         1.34421         1.34421        -2.91890        -2.91890
            3381         235.223         235.223         1.74889         1.74889        -2.50688        -2.50688
            3382         235.419         235.419         2.23948         2.23948        -1.99864        -1.99864
            3383         235.658         235.658         2.83343         2.83343        -1.37690        -1.37690
            3384         235.940         235.940         3.55422         3.55422    -621.921E-03    -621.921E-03
            3385         236.265         236.265         4.42662         4.42662     288.026E-03     288.026E-03
            3386         236.629         236.629         5.48642         5.48642         1.37763         1.37763
            3387         237.021         237.021         6.77032         6.77032         2.67151         2.67151
            3388         237.425         237.425         8.33466         8.33466         4.19805         4.19805
            3389         237.814         237.814         10.2348         10.2348         5.97794         5.97794
            3390         238.147         238.147         12.5580         12.5580         8.03672         8.03672
            3391         238.361         238.361         15.3858         15.3858         10.3705         10.3705
            3392         238.384         238.384         18.8377         18.8377         12.9799         12.9799
            3393         238.093         238.093         23.0187         23.0187         15.7902         15.7902
            3394         237.409         237.409         28.0240         28.0240         18.7179         18.7179
            3395         236.184         236.184         33.9155         33.9155         21.5825         21.5825
            3396         234.417         234.417         40.6216         40.6216         24.1664         24.1664
            3397         232.088         232.088         48.0065         48.0065         26.2706         26.2706
            3398         229.315         229.315         55.7625         55.7625         27.6620         27.6620
            3399         226.323         226.323         63.4907         63.4907         28.0446         28.0446
            3400         240.772         240.772        -2.67548        -2.67548         1.53669         1.53669
            3401         240.432         240.432        -3.03438        -3.03438     720.407E-03     720.407E-03
            3402         239.970         239.970        -3.15181        -3.15181    -80.0738E-03    -80.0738E-03
            3403         239.433         239.433        -3.08341        -3.08341    -819.702E-03    -819.702E-03
            3404         238.862         238.862        -2.88567        -2.88567        -1.47447        -1.47447
            3405         238.291         238.291        -2.60876        -2.60876        -2.03544        -2.03544
            3406         237.743         237.743        -2.29338        -2.29338        -2.50409        -2.50409
            3407         237.230         237.230        -1.96952        -1.96952        -2.88755        -2.88755
            3408         236.762         236.762        -1.65776        -1.65776        -3.19574        -3.19574
            3409         236.340         236.340        -1.37038        -1.37038        -3.43925        -3.43925
            3410         235.962         235.962        -1.11337        -1.11337        -3.62794        -3.62794
            3411         235.628         235.628    -887.956E-03    -887.956E-03        -3.77036        -3.77036
            3412         235.332         235.332    -692.096E-03    -692.096E-03        -3.87333        -3.87333
            3413         235.072         235.072    -521.524E-03    -521.524E-03        -3.94196        -3.94196
            3414         234.844         234.844    -370.613E-03    -370.613E-03        -3.97960        -3.97960
            3415         234.647         234.647    -232.833E-03    -232.833E-03        -3.98790        -3.98790
            3416         234.480         234.480    -101.207E-03    -101.207E-03        -3.96687        -3.96687
            3417         234.342         234.342     31.6745E-03     31.6745E-03        -3.91491        -3.91491
            3418         234.234         234.234     173.377E-03     173.377E-03        -3.82877        -3.82877
            3419         234.159         234.159     331.987E-03     331.987E-03        -3.70362        -3.70362
            3420         234.118         234.118     515.798E-03     515.798E-03        -3.53280        -3.53280
            3421         234.117         234.117     734.151E-03     734.151E-03        -3.30797        -3.30797
            3422         234.158         234.158     996.837E-03     996.837E-03        -3.01861        -3.01861
            3423         234.249         234.249         1.31576         1.31576        -2.65226        -2.65226
            3424         234.394         234.394         1.70362         1.70362        -2.19376        -2.19376
            3425         234.600         234.600         2.17723         2.17723        -1.62561        -1.62561
            3426         234.872         234.872         2.75453         2.75453    -926.976E-03    -926.976E-03
            3427         235.214         235.214         3.46147         3.46147    -73.9916E-03    -73.9916E-03
            3428         235.631         235.631         4.32518         4.32518     960.763E-03     960.763E-03
            3429         236.119         236.119         5.38837         5.38837         2.20887         2.20887
            3430         236.673         236.673         6.69398         6.69398         3.70346         3.70346
            3431         237.273         237.273         8.31512         8.31512         5.48397         5.48397
            3432         237.890         237.890         10.3214         10.3214         7.58077         7.58077
            3433         238.468         238.468         12.8366         12.8366         10.0347         10.0347
            3434         238.918         238.918         15.9724         15.9724         12.8401         12.8401
            3435         239.133         239.133         19.9111         19.9111         16.0062         16.0062
            3436         238.910         238.910         24.8109         24.8109         19.4014         19.4014
            3437         238.149         238.149         30.7884         30.7884         22.8810         22.8810
            3438         236.624         236.624         37.9035         37.9035         26.1483         26.1483
            3439         234.395         234.395         45.9361         45.9361         28.8374         28.8374
            3440         231.532         231.532         54.5615         54.5615         30.7221         30.7221
            3441         228.250         228.250         63.2074         63.2074         31.2430         31.2430
            3442         239.938         239.938        -1.94526        -1.94526         1.72619         1.72619
            3443         239.761         239.761        -2.27251        -2.27251         1.04838         1.04838
            3444         239.467         239.467        -2.41369        -2.41369     347.262E-03     347.262E-03
            3445         239.088         239.088        -2.40415        -2.40415    -331.787E-03    -331.787E-03
            3446         238.653         238.653        -2.28393        -2.28393    -959.016E-03    -959.016E-03
            3447         238.190         238.190        -2.09116        -2.09116        -1.51810        -1.51810
            3448         237.718         237.718        -1.85838        -1.85838        -2.00254        -2.00254
            3449         237.252         237.252        -1.61108        -1.61108        -2.41283        -2.41283
            3450         236.802         236.802        -1.36745        -1.36745        -2.75357        -2.75357
            3451         236.373         236.373        -1.13933        -1.13933        -3.03156        -3.03156
            3452         235.967         235.967    -933.120E-03    -933.120E-03        -3.25433        -3.25433
            3453         235.586         235.586    -751.201E-03    -751.201E-03        -3.42915        -3.42915
            3454         235.229         235.229    -592.903E-03    -592.903E-03        -3.56246        -3.56246
            3455         234.894         234.894    -455.525E-03    -455.525E-03        -3.65951        -3.65951
            3456         234.583         234.583    -334.975E-03    -334.975E-03        -3.72418        -3.72418
            3457         234.295         234.295    -226.354E-03    -226.354E-03        -3.75887        -3.75887
            3458         234.030         234.030    -124.186E-03    -124.186E-03        -3.76451        -3.76451
            3459         233.791         233.791    -22.7437E-03    -22.7437E-03        -3.74041        -3.74041
            3460         233.580         233.580     84.0658E-03     84.0658E-03        -3.68439        -3.68439
            3461         233.399         233.399     202.458E-03     202.458E-03        -3.59252        -3.59252
            3462         233.255         233.255     339.235E-03     339.235E-03        -3.45928        -3.45928
            3463         233.152         233.152     501.438E-03     501.438E-03        -3.27712        -3.27712
            3464         233.098         233.098     697.329E-03     697.329E-03        -3.03669        -3.03669
            3465         233.099         233.099     935.672E-03     935.672E-03        -2.72612        -2.72612
            3466         233.166         233.166         1.22772         1.22772        -2.33135        -2.33135
            3467         233.308         233.308         1.58556         1.58556        -1.83485        -1.83485
            3468         233.536         233.536         2.02631         2.02631        -1.21638        -1.21638
            3469         233.860         233.860         2.56820         2.56820    -450.835E-03    -450.835E-03
            3470         234.292         234.292         3.23976         3.23976     490.602E-03     490.602E-03
            3471         234.841         234.841         4.07045         4.07045         1.64308         1.64308
            3472         235.511         235.511         5.11139         5.11139         3.04736         3.04736
            3473         236.303         236.303         6.41257         6.41257         4.74977         4.74977
            3474         237.197         237.197         8.07035         8.07035         6.80665         6.80665
            3475         238.162         238.162         10.1726         10.1726         9.26640         9.26640
            3476         239.124         239.124         12.9017         12.9017         12.1982         12.1982
            3477         239.956         239.956         16.4146         16.4146         15.5988         15.5988
            3478         240.485         240.485         21.0117         21.0117         19.5035         19.5035
            3479         240.350         240.350         26.9505         26.9505         23.6634         23.6634
            3480         239.439         239.439         34.3434         34.3434         27.7979         27.7979
            3481         237.420         237.420         43.1931         43.1931         31.4212         31.4212
            3482         234.495         234.495         52.9309         52.9309         33.9105         33.9105
            3483         231.026         231.026         62.7867         62.7867         34.8010         34.8010
            3484         239.176         239.176        -1.35929        -1.35929         1.77597         1.77597
            3485         239.132         239.132        -1.62692        -1.62692         1.22055         1.22055
            3486         238.980         238.980        -1.75893        -1.75893     619.820E-03     619.820E-03
            3487         238.739         238.739        -1.77700        -1.77700     15.7391E-03     15.7391E-03
            3488         238.427         238.427        -1.70802        -1.70802    -561.030E-03    -561.030E-03
            3489         238.063         238.063        -1.57927        -1.57927        -1.09045        -1.09045
            3490         237.665         237.665        -1.41519        -1.41519        -1.56156        -1.56156
            3491         237.246         237.246        -1.23563        -1.23563        -1.97022        -1.97022
            3492         236.816         236.816        -1.05541        -1.05541        -2.31720        -2.31720
            3493         236.382         236.382    -884.515E-03    -884.515E-03        -2.60625        -2.60625
            3494         235.949         235.949    -728.837E-03    -728.837E-03        -2.84278        -2.84278
            3495         235.521         235.521    -590.951E-03    -590.951E-03        -3.03279        -3.03279
            3496         235.101         235.101    -470.993E-03    -470.993E-03        -3.18205        -3.18205
            3497         234.689         234.689    -367.325E-03    -367.325E-03        -3.29570        -3.29570
            3498         234.290         234.290    -277.173E-03    -277.173E-03        -3.37781        -3.37781
            3499         233.903         233.903    -196.979E-03    -196.979E-03        -3.43129        -3.43129
            3500         233.532         233.532    -122.780E-03    -122.780E-03        -3.45770        -3.45770
            3501         233.181         233.181    -50.2647E-03    -50.2647E-03        -3.45719        -3.45719
            3502         232.852         232.852     24.9921E-03     24.9921E-03        -3.42842        -3.42842
            3503         232.552         232.552     107.740E-03     107.740E-03        -3.36856        -3.36856
            3504         232.286         232.286     202.833E-03     202.833E-03        -3.27305        -3.27305
            3505         232.061         232.061     315.750E-03     315.750E-03        -3.13574        -3.13574
            3506         231.885         231.885     452.234E-03     452.234E-03        -2.94828        -2.94828
            3507         231.770         231.770     619.342E-03     619.342E-03        -2.70054        -2.70054
            3508         231.726         231.726     824.678E-03     824.678E-03        -2.37934        -2.37934
            3509         231.767         231.767         1.07856         1.07856        -1.96928        -1.96928
            3510         231.909         231.909         1.39221         1.39221        -1.45039        -1.45039
            3511         232.168         232.168         1.78255         1.78255    -799.802E-03    -799.802E-03
            3512         232.565         232.565         2.26771         2.26771     12.5816E-03     12.5816E-03
            3513         233.117         233.117         2.87828         2.87828         1.02103         1.02103
            3514         233.848         233.848         3.64556         3.64556         2.27102         2.27102
            3515         234.771         234.771         4.62984         4.62984         3.81494         3.81494
            3516         235.902         235.902         5.88819         5.88819         5.71969         5.71969
            3517         237.228         237.228         7.54808         7.54808         8.06674         8.06674
            3518         238.727         238.727         9.71915         9.71915         10.9392         10.9392
            3519         240.299         240.299         12.6806         12.6806         14.4593         14.4593
            3520         241.768         241.768         16.6557         16.6557         18.6418         18.6418
            3521         242.832         242.832         22.1926         22.1926         23.6007         23.6007
            3522         242.767         242.767         29.7556         29.7556         28.8145         28.8145
            3523         241.524         241.524         39.3140         39.3140         33.6613         33.6613
            3524         238.706         238.706         50.5971         50.5971         37.3951         37.3951
            3525         234.792         234.792         62.2386         62.2386         38.6701         38.6701
            3526         238.503         238.503    -894.174E-03    -894.174E-03         1.70537         1.70537
            3527         238.581         238.581        -1.09026        -1.09026         1.25772         1.25772
            3528         238.559         238.559        -1.19448        -1.19448     756.082E-03     756.082E-03
            3529         238.442         238.442        -1.21935        -1.21935     237.076E-03     237.076E-03
            3530         238.242         238.242        -1.18196        -1.18196    -270.586E-03    -270.586E-03
            3531         237.970         237.970        -1.10049        -1.10049    -746.493E-03    -746.493E-03
            3532         237.639         237.639    -991.858E-03    -991.858E-03        -1.17781        -1.17781
            3533         237.261         237.261    -870.223E-03    -870.223E-03        -1.55807        -1.55807
            3534         236.847         236.847    -746.423E-03    -746.423E-03        -1.88561        -1.88561
            3535         236.404         236.404    -628.024E-03    -628.024E-03        -2.16215        -2.16215
            3536         235.940         235.940    -519.634E-03    -519.634E-03        -2.39147        -2.39147
            3537         235.461         235.461    -423.499E-03    -423.499E-03        -2.57838        -2.57838
            3538         234.971         234.971    -340.012E-03    -340.012E-03        -2.72795        -2.72795
            3539         234.476         234.476    -268.278E-03    -268.278E-03        -2.84493        -2.84493
            3540         233.980         233.980    -206.483E-03    -206.483E-03        -2.93338        -2.93338
            3541         233.486         233.486    -152.277E-03    -152.277E-03        -2.99637        -2.99637
            3542         232.999         232.999    -102.924E-03    -102.924E-03        -3.03588        -3.03588
            3543         232.523         232.523    -55.5333E-03    -55.5333E-03        -3.05264        -3.05264
            3544         232.063         232.063    -7.00463E-03    -7.00463E-03        -3.04612        -3.04612
            3545         231.626         231.626     45.8058E-03     45.8058E-03        -3.01435        -3.01435
            3546         231.219         231.219     106.328E-03     106.328E-03        -2.95405        -2.95405
            3547         230.849         230.849     178.097E-03     178.097E-03        -2.86018        -2.86018
            3548         230.526         230.526     265.244E-03     265.244E-03        -2.72628        -2.72628
            3549         230.263         230.263     372.199E-03     372.199E-03        -2.54354        -2.54354
            3550         230.072         230.072     504.628E-03     504.628E-03        -2.30147        -2.30147
            3551         229.970         229.970     668.837E-03     668.837E-03        -1.98603        -1.98603
            3552         229.976         229.976     873.697E-03     873.697E-03        -1.58112        -1.58112
            3553         230.114         230.114         1.12925         1.12925        -1.06467        -1.06467
            3554         230.408         230.408         1.45115         1.45115    -411.891E-03    -411.891E-03
            3555         230.890         230.890         1.85680         1.85680     412.617E-03     412.617E-03
            3556         231.593         231.593         2.37706         2.37706         1.44813         1.44813
            3557         232.559         232.559         3.04412         3.04412         2.75332         2.75332
            3558         233.820         233.820         3.92570         3.92570         4.39357         4.39357
            3559         235.426         235.426         5.08487         5.08487         6.46733         6.46733
            3560         237.382         237.382         6.68666         6.68666         9.09070         9.09070
            3561         239.709         239.709         8.86345         8.86345         12.4151         12.4151
            3562         242.278         242.278         12.0537         12.0537         16.6583         16.6583
            3563         244.881         244.881         16.5708         16.5708         21.9144         21.9144
            3564         246.927         246.927         23.5514         23.5514         28.5304         28.5304
            3565         246.786         246.786         33.9219         33.9219         35.2854         35.2854
            3566         244.743         244.743         46.9248         46.9248         40.6113         40.6113
            3567         240.832         240.832         61.1964         61.1964         43.2726         43.2726
            3568         237.934         237.934    -531.950E-03    -531.950E-03         1.51342         1.51342
            3569         238.142         238.142    -656.996E-03    -656.996E-03         1.16471         1.16471
            3570         238.249         238.249    -726.263E-03    -726.263E-03     763.977E-03     763.977E-03
            3571         238.253         238.253    -746.465E-03    -746.465E-03     341.285E-03     341.285E-03
            3572         238.157         238.157    -727.444E-03    -727.444E-03    -78.7951E-03    -78.7951E-03
            3573         237.968         237.968    -680.174E-03    -680.174E-03    -477.857E-03    -477.857E-03
            3574         237.695         237.695    -615.082E-03    -615.082E-03    -843.619E-03    -843.619E-03
            3575         237.349         237.349    -541.083E-03    -541.083E-03        -1.16916        -1.16916
            3576         236.940         236.940    -465.137E-03    -465.137E-03        -1.45191        -1.45191
            3577         236.478         236.478    -392.156E-03    -392.156E-03        -1.69241        -1.69241
            3578         235.973         235.973    -325.236E-03    -325.236E-03        -1.89335        -1.89335
            3579         235.433         235.433    -265.925E-03    -265.925E-03        -2.05853        -2.05853
            3580         234.865         234.865    -214.613E-03    -214.613E-03        -2.19224        -2.19224
            3581         234.277         234.277    -170.814E-03    -170.814E-03        -2.29866        -2.29866
            3582         233.673         233.673    -133.488E-03    -133.488E-03        -2.38146        -2.38146
            3583         233.061         233.061    -101.195E-03    -101.195E-03        -2.44364        -2.44364
            3584         232.446         232.446    -72.3054E-03    -72.3054E-03        -2.48723        -2.48723
            3585         231.832         231.832    -45.0244E-03    -45.0244E-03        -2.51335        -2.51335
            3586         231.227         231.227    -17.5235E-03    -17.5235E-03        -2.52197        -2.52197
            3587         230.636         230.636     12.1539E-03     12.1539E-03        -2.51204        -2.51204
            3588         230.068         230.068     45.9870E-03     45.9870E-03        -2.48123        -2.48123
            3589         229.530         229.530     86.1794E-03     86.1794E-03        -2.42609        -2.42609
            3590         229.033         229.033     135.065E-03     135.065E-03        -2.34158        -2.34158
            3591         228.589         228.589     195.421E-03     195.421E-03        -2.22144        -2.22144
            3592         228.213         228.213     270.413E-03     270.413E-03        -2.05704        -2.05704
            3593         227.923         227.923     364.058E-03     364.058E-03        -1.83837        -1.83837
            3594         227.739         227.739     481.294E-03     481.294E-03        -1.55145        -1.55145
            3595         227.689         227.689     628.761E-03     628.761E-03        -1.18065        -1.18065
            3596         227.804         227.804     815.060E-03     815.060E-03    -702.934E-03    -702.934E-03
            3597         228.120         228.120         1.05268         1.05268    -93.4303E-03    -93.4303E-03
            3598         228.687         228.687         1.35781         1.35781     687.757E-03     687.757E-03
            3599         229.557         229.557         1.75739         1.75739         1.68230         1.68230
            3600         230.802         230.802         2.28369         2.28369         2.96382         2.96382
            3601         232.493         232.493         3.00408         3.00408         4.60793         4.60793
            3602         234.738         234.738         3.98616         3.98616         6.75869         6.75869
            3603         237.600         237.600         5.42758         5.42758         9.57052         9.57052
            3604         241.218         241.218         7.48008         7.48008         13.3275         13.3275
            3605         245.479         245.479         10.8261         10.8261         18.4021         18.4021
            3606         250.293         250.293         15.8729         15.8729         25.1838         25.1838
            3607         254.395         254.395         25.3227         25.3227         34.7029         34.7029
            3608         253.690         253.690         41.0836         41.0836         43.8286         43.8286
            3609         249.656         249.656         59.3914         59.3914         47.9174         47.9174
            3610         237.492         237.492    -263.645E-03    -263.645E-03         1.18034         1.18034
            3611         237.852         237.852    -328.111E-03    -328.111E-03     931.490E-03     931.490E-03
            3612         238.101         238.101    -364.616E-03    -364.616E-03     641.298E-03     641.298E-03
            3613         238.229         238.229    -376.143E-03    -376.143E-03     331.968E-03     331.968E-03
            3614         238.233         238.233    -367.548E-03    -367.548E-03     22.0492E-03     22.0492E-03
            3615         238.117         238.117    -344.319E-03    -344.319E-03    -274.226E-03    -274.226E-03
            3616         237.890         237.890    -311.766E-03    -311.766E-03    -547.103E-03    -547.103E-03
            3617         237.560         237.560    -274.485E-03    -274.485E-03    -790.896E-03    -790.896E-03
            3618         237.141         237.141    -236.079E-03    -236.079E-03        -1.00326        -1.00326
            3619         236.645         236.645    -199.134E-03    -199.134E-03        -1.18437        -1.18437
            3620         236.083         236.083    -165.273E-03    -165.273E-03        -1.33611        -1.33611
            3621         235.468         235.468    -135.346E-03    -135.346E-03        -1.46135        -1.46135
            3622         234.808         234.808    -109.568E-03    -109.568E-03        -1.56338        -1.56338
            3623         234.112         234.112    -87.7325E-03    -87.7325E-03        -1.64548        -1.64548
            3624         233.390         233.390    -69.3059E-03    -69.3059E-03        -1.71063        -1.71063
            3625         232.647         232.647    -53.5906E-03    -53.5906E-03        -1.76128        -1.76128
            3626         231.890         231.890    -39.7474E-03    -39.7474E-03        -1.79923        -1.79923
            3627         231.126         231.126    -26.9098E-03    -26.9098E-03        -1.82556        -1.82556
            3628         230.360         230.360    -14.1372E-03    -14.1372E-03        -1.84061        -1.84061
            3629         229.600         229.600    -502.449E-06    -502.449E-06        -1.84387        -1.84387
            3630         228.851         228.851     15.0014E-03     15.0014E-03        -1.83407        -1.83407
            3631         228.123         228.123     33.4105E-03     33.4105E-03        -1.80895        -1.80895
            3632         227.425         227.425     55.8754E-03     55.8754E-03        -1.76548        -1.76548
            3633         226.770         226.770     83.7375E-03     83.7375E-03        -1.69923        -1.69923
            3634         226.170         226.170     118.463E-03     118.463E-03        -1.60498        -1.60498
            3635         225.645         225.645     162.129E-03     162.129E-03        -1.47530        -1.47530
            3636         225.215         225.215     216.829E-03     216.829E-03        -1.30190        -1.30190
            3637         224.908         224.908     286.297E-03     286.297E-03        -1.07239        -1.07239
            3638         224.757         224.757     373.899E-03     373.899E-03    -773.661E-03    -773.661E-03
            3639         224.804         224.804     487.063E-03     487.063E-03    -384.101E-03    -384.101E-03
            3640         225.100         225.100     632.120E-03     632.120E-03     117.785E-03     117.785E-03
            3641         225.714         225.714     824.789E-03     824.789E-03     772.851E-03     772.851E-03
            3642         226.729         226.729         1.08002         1.08002         1.61868         1.61868
            3643         228.260         228.260         1.43235         1.43235         2.74057         2.74057
            3644         230.439         230.439         1.92806         1.92806         4.21145         4.21145
            3645         233.481         233.481         2.64492         2.64492         6.23029         6.23029
            3646         237.584         237.584         3.76778         3.76778         8.96626         8.96626
            3647         243.175         243.175         5.47658         5.47658         12.9384         12.9384
            3648         250.367         250.367         8.72027         8.72027         18.6844         18.6844
            3649         259.897         259.897         13.9696         13.9696         27.5941         27.5941
            3650         269.155         269.155         28.3834         28.3834         42.4839         42.4839
            3651         267.411         267.411         54.7900         54.7900         54.7515         54.7515
            3652         237.213         237.213    -92.4042E-03    -92.4042E-03     672.126E-03     672.126E-03
            3653         237.764         237.764    -115.462E-03    -115.462E-03     537.353E-03     537.353E-03
            3654         238.177         238.177    -128.632E-03    -128.632E-03     379.211E-03     379.211E-03
            3655         238.437         238.437    -132.904E-03    -132.904E-03     210.022E-03     210.022E-03
            3656         238.538         238.538    -129.988E-03    -129.988E-03     40.1360E-03     40.1360E-03
            3657         238.484         238.484    -121.817E-03    -121.817E-03    -122.481E-03    -122.481E-03
            3658         238.283         238.283    -110.301E-03    -110.301E-03    -272.331E-03    -272.331E-03
            3659         237.949         237.949    -97.0762E-03    -97.0762E-03    -406.192E-03    -406.192E-03
            3660         237.497         237.497    -83.4529E-03    -83.4529E-03    -522.744E-03    -522.744E-03
            3661         236.944         236.944    -70.3510E-03    -70.3510E-03    -622.086E-03    -622.086E-03
            3662         236.304         236.304    -58.3708E-03    -58.3708E-03    -705.301E-03    -705.301E-03
            3663         235.593         235.593    -47.8070E-03    -47.8070E-03    -774.038E-03    -774.038E-03
            3664         234.823         234.823    -38.7548E-03    -38.7548E-03    -830.195E-03    -830.195E-03
            3665         234.005         234.005    -31.1261E-03    -31.1261E-03    -875.676E-03    -875.676E-03
            3666         233.148         233.148    -24.7523E-03    -24.7523E-03    -912.206E-03    -912.206E-03
            3667         232.261         232.261    -19.3650E-03    -19.3650E-03    -941.242E-03    -941.242E-03
            3668         231.351         231.351    -14.6963E-03    -14.6963E-03    -963.869E-03    -963.869E-03
            3669         230.423         230.423    -10.4119E-03    -10.4119E-03    -980.811E-03    -980.811E-03
            3670         229.483         229.483    -6.22010E-03    -6.22010E-03    -992.345E-03    -992.345E-03
            3671         228.538         228.538    -1.76426E-03    -1.76426E-03    -998.373E-03    -998.373E-03
            3672         227.593         227.593     3.26699E-03     3.26699E-03    -998.295E-03    -998.295E-03
            3673         226.655         226.655     9.24776E-03     9.24776E-03    -991.148E-03    -991.148E-03
            3674         225.732         225.732     16.5738E-03     16.5738E-03    -975.345E-03    -975.345E-03
            3675         224.836         224.836     25.6332E-03     25.6332E-03    -948.943E-03    -948.943E-03
            3676         223.977         223.977     37.0857E-03     37.0857E-03    -909.077E-03    -909.077E-03
            3677         223.172         223.172     51.2753E-03     51.2753E-03    -852.545E-03    -852.545E-03
            3678         222.442         222.442     69.5713E-03     69.5713E-03    -774.524E-03    -774.524E-03
            3679         221.809         221.809     92.0364E-03     92.0364E-03    -669.977E-03    -669.977E-03
            3680         221.307         221.307     121.862E-03     121.862E-03    -530.548E-03    -530.548E-03
            3681         220.975         220.975     158.123E-03     158.123E-03    -348.258E-03    -348.258E-03
            3682         220.864         220.864     208.644E-03     208.644E-03    -107.411E-03    -107.411E-03
            3683         221.042         221.042     269.727E-03     269.727E-03     205.009E-03     205.009E-03
            3684         221.597         221.597     361.016E-03     361.016E-03     622.085E-03     622.085E-03
            3685         222.646         222.646     472.426E-03     472.426E-03         1.16594         1.16594
            3686         224.355         224.355     654.082E-03     654.082E-03         1.91676         1.91676
            3687         226.949         226.949     887.153E-03     887.153E-03         2.91492         2.91492
            3688         230.788         230.788         1.30238         1.30238         4.38964         4.38964
            3689         236.342         236.342         1.91799         1.91799         6.43139         6.43139
            3690         244.604         244.604         3.09151         3.09151         9.85545         9.85545
            3691         256.611         256.611         5.55168         5.55168         15.0413         15.0413
            3692         276.480         276.480         10.4916         10.4916         26.2060         26.2060
            3693         301.666         301.666         37.2127         37.2127         48.1523         48.1523
            3694         13.6719         13.6719        -106.151        -106.151        -12.7703        -12.7703
            3695         49.7141         49.7141        -43.5329        -43.5329        -33.9827        -33.9827
            3696         96.8014         96.8014        -13.6846        -13.6846        -37.1208        -37.1208
            3697         141.096         141.096        -2.34403        -2.34403        -30.7477        -30.7477
            3698         175.719         175.719     755.339E-03     755.339E-03        -21.7994        -21.7994
            3699         43.6498         43.6498        -78.7836        -78.7836        -29.4790        -29.4790
            3700         96.5425         96.5425        -43.6037        -43.6037        -59.4946        -59.4946
            3701         143.721         143.721        -25.6868        -25.6868        -59.3002        -59.3002
            3702         178.861         178.861        -15.9716        -15.9716        -46.1748        -46.1748
            3703         202.271         202.271        -10.1085        -10.1085        -31.3969        -31.3969
            3704         93.7404         93.7404        -45.6704        -45.6704        -49.0988        -49.0988
            3705         159.564         159.564        -44.0183        -44.0183        -69.8712        -69.8712
            3706         198.315         198.315        -36.7896        -36.7896        -60.7761        -60.7761
            3707         218.367         218.367        -27.0099        -27.0099        -43.5431        -43.5431
            3708         228.040         228.040        -18.1641        -18.1641        -27.9563        -27.9563
            3709         159.857         159.857        -16.3112        -16.3112        -65.7218        -65.7218
            3710         221.704         221.704        -42.5067        -42.5067        -63.3527        -63.3527
            3711         242.636         242.636        -40.5918        -40.5918        -46.8424        -46.8424
            3712         246.366         246.366        -30.2604        -30.2604        -30.5920        -30.5920
            3713         244.518         244.518        -20.0633        -20.0633        -18.3989        -18.3989
            3714         263.658         263.658         29.8343         29.8343         10.7846         10.7846
            3715         285.240         285.240         46.0084         46.0084         12.7561         12.7561
            3716         324.016         324.016         62.7784         62.7784         9.43094         9.43094
            3717         391.712         391.712         71.7291         71.7291        -6.10373        -6.10373
            3718         502.646         502.646         59.0992         59.0992        -41.8432        -41.8432
            3719         266.750         266.750         11.0926         11.0926         12.9810         12.9810
            3720         286.910         286.910         20.2522         20.2522         15.5782         15.5782
            3721         318.728         318.728         33.3508         33.3508         10.9937         10.9937
            3722         368.798         368.798         48.2512         48.2512        -12.5769        -12.5769
            3723         447.209         447.209         57.5174         57.5174        -71.6821        -71.6821
            3724         265.964         265.964        -5.80775        -5.80775         7.07025         7.07025
            3725         283.845         283.845        -5.11797        -5.11797         7.82527         7.82527
            3726         308.291         308.291     439.890E-03     439.890E-03         2.51517         2.51517
            3727         338.418         338.418         16.5912         16.5912        -20.9377        -20.9377
            3728         373.667         373.667         48.5629         48.5629        -84.7507        -84.7507
            3729         260.508         260.508        -14.9133        -14.9133        -1.34520        -1.34520
            3730         274.777         274.777        -20.7981        -20.7981        -4.34059        -4.34059
            3731         292.108         292.108        -23.8743        -23.8743        -12.1839        -12.1839
            3732         305.496         305.496        -13.8314        -13.8314        -32.6452        -32.6452
            3733         298.383         298.383         30.0004         30.0004        -84.2042        -84.2042
            3734         170.918         170.918        -11.8385        -11.8385         68.2046         68.2046
            3735         231.194         231.194        -42.1273        -42.1273         61.6476         61.6476
            3736         248.975         248.975        -40.8267        -40.8267         44.1371         44.1371
            3737         250.145         250.145        -30.4085        -30.4085         28.2403         28.2403
            3738         246.633         246.633        -20.0812        -20.0812         16.7189         16.7189
            3739         113.425         113.425        -35.0972        -35.0972         55.3681         55.3681
            3740         180.944         180.944        -44.0856        -44.0856         70.2240         70.2240
            3741         215.100         215.100        -39.4240        -39.4240         58.1168         58.1168
            3742         229.700         229.700        -29.3915        -29.3915         40.3472         40.3472
            3743         235.056         235.056        -19.7636        -19.7636         25.3097         25.3097
            3744         65.4230         65.4230        -62.7331        -62.7331         39.0193         39.0193
            3745         126.404         126.404        -44.0513        -44.0513         67.4310         67.4310
            3746         171.122         171.122        -32.0223        -32.0223         63.3963         63.3963
            3747         199.557         199.557        -22.5679        -22.5679         47.5465         47.5465
            3748         216.190         216.190        -15.0968        -15.0968         31.4760         31.4760
            3749         30.6659         30.6659        -90.2592        -90.2592         23.1412         23.1412
            3750         77.4466         77.4466        -43.8337        -43.8337         52.8394         52.8394
            3751         125.288         125.288        -21.3647        -21.3647         54.9625         54.9625
            3752         164.494         164.494        -11.1893        -11.1893         44.0853         44.0853
            3753         192.411         192.411        -6.40531        -6.40531         30.5776         30.5776
            3754         10.2626         10.2626        -111.066        -111.066         10.2425         10.2425
            3755         43.6285         43.6285        -44.0665        -44.0665         28.9533         28.9533
            3756         90.0222         90.0222        -12.0657        -12.0657         32.1521         32.1521
            3757         135.158         135.158    -122.874E-03    -122.874E-03         26.9744         26.9744
            3758         171.295         171.295         2.68170         2.68170         19.3264         19.3264
            3759         260.798         260.798        -15.3222        -15.3222         1.89799         1.89799
            3760         275.042         275.042        -21.1489        -21.1489         4.75847         4.75847
            3761         292.349         292.349        -24.1610        -24.1610         12.4948         12.4948
            3762         305.770         305.770        -14.0557        -14.0557         32.8842         32.8842
            3763         298.733         298.733         29.8522         29.8522         84.4084         84.4084
            3764         266.180         266.180        -6.11821        -6.11821        -6.54634        -6.54634
            3765         284.045         284.045        -5.36782        -5.36782        -7.42487        -7.42487
            3766         308.479         308.479     265.629E-03     265.629E-03        -2.21578        -2.21578
            3767         338.635         338.635         16.5011         16.5011         21.1529         21.1529
            3768         374.002         374.002         48.5899         48.5899         84.9438         84.9438
            3769         266.888         266.888         10.8937         10.8937        -12.4754        -12.4754
            3770         287.035         287.035         20.1112         20.1112        -15.1755        -15.1755
            3771         318.842         318.842         33.2838         33.2838        -10.6788        -10.6788
            3772         368.938         368.938         48.2752         48.2752         12.8247         12.8247
            3773         447.483         447.483         57.6009         57.6009         71.8909         71.8909
            3774         263.723         263.723         29.7417         29.7417        -10.2815        -10.2815
            3775         285.295         285.295         45.9529         45.9529        -12.3356        -12.3356
            3776         324.063         324.063         62.7744         62.7744        -9.07555        -9.07555
            3777         391.779         391.779         71.7747         71.7747         6.40341         6.40341
            3778         502.803         502.803         59.1581         59.1581         42.0575         42.0575
            3779         286.435         286.435         26.8135         26.8135        -83.6990        -83.6990
            3780         300.256         300.256        -18.4892        -18.4892        -34.8264        -34.8264
            3781         289.448         289.448        -27.4276        -27.4276        -14.9756        -14.9756
            3782         273.317         273.317        -23.0897        -23.0897        -6.76927        -6.76927
            3783         259.735         259.735        -16.3748        -16.3748        -3.26460        -3.26460
            3784         348.478         348.478         44.1036         44.1036        -86.5944        -86.5944
            3785         327.923         327.923         5.93362         5.93362        -24.5198        -24.5198
            3786         303.975         303.975        -9.44965        -9.44965        -1.98172        -1.98172
            3787         281.935         281.935        -12.2586        -12.2586         3.68552         3.68552
            3788         265.050         265.050        -10.4333        -10.4333         3.80844         3.80844
            3789         412.555         412.555         54.7606         54.7606        -81.2728        -81.2728
            3790         354.638         354.638         33.2538         33.2538        -16.6401        -16.6401
            3791         314.619         314.619         16.4402         16.4402         7.95206         7.95206
            3792         286.611         286.611         6.38658         6.38658         12.7282         12.7282
            3793         267.445         267.445         1.36871         1.36871         10.5044         10.5044
            3794         470.205         470.205         58.8023         58.8023        -64.5692        -64.5692
            3795         378.346         378.346         57.8715         57.8715        -10.7168        -10.7168
            3796         321.363         321.363         44.7018         44.7018         11.5742         11.5742
            3797         286.937         286.937         29.7286         29.7286         16.0605         16.0605
            3798         266.209         266.209         17.6845         17.6845         13.3080         13.3080
            3799         511.013         511.013         58.8087         58.8087        -36.1285        -36.1285
            3800         395.356         395.356         74.6325         74.6325        -5.47098        -5.47098
            3801         324.919         324.919         66.9509         66.9509         8.08683         8.08683
            3802         284.918         284.918         49.9648         49.9648         11.0812         11.0812
            3803         263.053         263.053         32.8637         32.8637         9.33287         9.33287
            3804         260.464         260.464        -14.9610        -14.9610         1.39261         1.39261
            3805         274.713         274.713        -20.8669        -20.8669         4.41209         4.41209
            3806         292.016         292.016        -23.9567        -23.9567         12.2778         12.2778
            3807         305.394         305.394        -13.9398        -13.9398         32.7427         32.7427
            3808         298.283         298.283         29.8228         29.8228         84.2300         84.2300
            3809         265.941         265.941        -5.87938        -5.87938        -7.02395        -7.02395
            3810         283.805         283.805        -5.20616        -5.20616        -7.75391        -7.75391
            3811         308.221         308.221     346.706E-03     346.706E-03        -2.42050        -2.42050
            3812         338.297         338.297         16.4929         16.4929         21.0164         21.0164
            3813         373.495         373.495         48.4984         48.4984         84.7576         84.7576
            3814         266.751         266.751         11.0006         11.0006        -12.9386        -12.9386
            3815         286.892         286.892         20.1567         20.1567        -15.5031        -15.5031
            3816         318.671         318.671         33.2607         33.2607        -10.9020        -10.9020
            3817         368.662         368.662         48.1838         48.1838         12.6682         12.6682
            3818         446.945         446.945         57.4712         57.4712         71.7265         71.7265
            3819         263.688         263.688         29.7319         29.7319        -10.7612        -10.7612
            3820         285.255         285.255         45.8974         45.8974        -12.6968        -12.6968
            3821         323.971         323.971         62.7011         62.7011        -9.33450        -9.33450
            3822         391.575         391.575         71.7234         71.7234         6.20142         6.20142
            3823         502.303         502.303         59.1380         59.1380         41.8811         41.8811
            3824         171.230         171.230        -11.9901        -11.9901         68.3440         68.3440
            3825         231.582         231.582        -42.4259        -42.4259         61.8244         61.8244
            3826         249.381         249.381        -41.1878        -41.1878         44.3730         44.3730
            3827         250.580         250.580        -30.8319        -30.8319         28.5723         28.5723
            3828         247.111         247.111        -20.5890        -20.5890         17.1925         17.1925
            3829         113.648         113.648        -35.3526        -35.3526         55.4817         55.4817
            3830         181.288         181.288        -44.4350        -44.4350         70.4113         70.4113
            3831         215.499         215.499        -39.8235        -39.8235         58.3479         58.3479
            3832         230.152         230.152        -29.8474        -29.8474         40.6420         40.6420
            3833         235.582         235.582        -20.3059        -20.3059         25.7129         25.7129
            3834         65.5582         65.5582        -63.1036        -63.1036         39.0993         39.0993
            3835         126.666         126.666        -44.4408        -44.4408         67.6135         67.6135
            3836         171.477         171.477        -32.4420        -32.4420         63.6158         63.6158
            3837         200.000         200.000        -23.0424        -23.0424         47.8025         47.8025
            3838         216.742         216.742        -15.6628        -15.6628         31.8038         31.8038
            3839         30.7251         30.7251        -90.7436        -90.7436         23.1914         23.1914
            3840         77.6136         77.6136        -44.2520        -44.2520         52.9914         52.9914
            3841         125.571         125.571        -21.7864        -21.7864         55.1471         55.1471
            3842         164.901         164.901        -11.6649        -11.6649         44.2874         44.2874
            3843         192.964         192.964        -6.98059        -6.98059         30.8187         30.8187
            3844         10.2705         10.2705        -111.639        -111.639         10.2713         10.2713
            3845         43.7158         43.7158        -44.5035        -44.5035         29.0493         29.0493
            3846         90.2352         90.2352        -12.4796        -12.4796         32.2685         32.2685
            3847         135.520         135.520    -588.260E-03    -588.260E-03         27.0961         27.0961
            3848         171.834         171.834         2.10886         2.10886         19.4619         19.4619
            3849         244.986         244.986        -20.5686        -20.5686        -18.8580        -18.8580
            3850         246.769         246.769        -30.6727        -30.6727        -30.9173        -30.9173
            3851         242.977         242.977        -40.9321        -40.9321        -47.0709        -47.0709
            3852         221.997         221.997        -42.7985        -42.7985        -63.4897        -63.4897
            3853         160.084         160.084        -16.5267        -16.5267        -65.7777        -65.7777
            3854         228.557         228.557        -18.7066        -18.7066        -28.3244        -28.3244
            3855         218.780         218.780        -27.4575        -27.4575        -43.8144        -43.8144
            3856         198.642         198.642        -37.1815        -37.1815        -60.9807        -60.9807
            3857         159.815         159.815        -44.3888        -44.3888        -70.0174        -70.0174
            3858         93.8718         93.8718        -46.0245        -46.0245        -49.1449        -49.1449
            3859         202.803         202.803        -10.6691        -10.6691        -31.6604        -31.6604
            3860         179.249         179.249        -16.4324        -16.4324        -46.3779        -46.3779
            3861         143.989         143.989        -26.0974        -26.0974        -59.4672        -59.4672
            3862         96.6983         96.6983        -44.0170        -44.0170        -59.6177        -59.6177
            3863         43.6980         43.6980        -79.2648        -79.2648        -29.4966        -29.4966
            3864         176.246         176.246     190.395E-03     190.395E-03        -21.9348        -21.9348
            3865         141.445         141.445        -2.80196        -2.80196        -30.8543        -30.8543
            3866         97.0015         97.0015        -14.0934        -14.0934        -37.2098        -37.2098
            3867         49.7894         49.7894        -43.9697        -43.9697        -34.0444        -34.0444
            3868         13.6702         13.6702        -106.728        -106.728        -12.7669        -12.7669


  Minimum               -3.85800        -3.85800        -167.217        -167.217        -131.156        -131.156
         At Node              28              28              28              28             590             590

  Maximum                600.197         600.197         80.4294         80.4294         130.403         130.403
         At Node              27              27             585             585             574             574

           Total     910.826E+03     910.826E+03     14.6053E+03     14.6053E+03         440.073         440.073


