********************************************************************************
Field Output Report, written Sat Feb 24 11:10:47 2024

Source 1
---------

   ODB: C:/Users/Isabel Haycock/OneDrive - Imperial College London/Fourth Year/FYP/Isabel Haycock/06 - FE models/Specimen_2/Plate_hole_1.odb
   Step: load
   Frame: Increment      5: Step Time =   0.3571

Loc 1 : Nodal values at shell < composite > < elset = ASSEMBLY_PLATE_1-1_COMPOSITELAYUP-1-1 > from source 1 : SNEG, (fraction = -1.0), Layer = 1
Loc 2 : Nodal values at shell < composite > < elset = ASSEMBLY_PLATE_1-1_COMPOSITELAYUP-1-1 > from source 1 : SPOS, (fraction = 1.0), Layer = 8

Output sorted by column "Node Label".

Field Output reported at nodes for part: PLATE_1-1
   Computation algorithm: EXTRAPOLATE_COMPUTE_AVERAGE
   Averaged at nodes
   Averaging regions: ODB_REGIONS

      Node Label           S.S11           S.S11           S.S22           S.S22           S.S12           S.S12
                          @Loc 1          @Loc 2          @Loc 1          @Loc 2          @Loc 1          @Loc 2
-----------------------------------------------------------------------------------------------------------------
               1         615.888         615.888        -28.7249        -28.7249        -12.5014        -12.5014
               2         585.781         585.781     805.419E-03     805.419E-03    -36.9011E-03    -36.9011E-03
               3         585.891         585.891     3.85100E-03     3.85100E-03    -4.15863E-03    -4.15863E-03
               4         592.273         592.273    -37.4262E-03    -37.4262E-03         1.24632         1.24632
               5         616.136         616.136        -28.6221        -28.6221         12.0422         12.0422
               6         585.781         585.781     805.535E-03     805.535E-03     36.8977E-03     36.8977E-03
               7         471.668         471.668         13.1593         13.1593        -1.82153        -1.82153
               8         590.103         590.103    -45.7624E-03    -45.7624E-03        -1.04838        -1.04838
               9         617.149         617.149        -29.9273        -29.9273         13.7420         13.7420
              10         626.531         626.531         61.6971         61.6971     710.153E-03     710.153E-03
              11         592.389         592.389    -38.9279E-03    -38.9279E-03        -1.24625        -1.24625
              12         585.891         585.891     3.85181E-03     3.85181E-03     4.15950E-03     4.15950E-03
              13         550.818         550.818         167.519         167.519        -36.5158        -36.5158
              14         895.883         895.883         124.208         124.208        -144.906        -144.906
              15         616.484         616.484        -30.1194        -30.1194        -14.5651        -14.5651
              16         590.177         590.177    -47.6453E-03    -47.6453E-03         1.04944         1.04944
              17         626.297         626.297         62.4742         62.4742        -1.79820        -1.79820
              18         550.821         550.821         167.514         167.514         36.5074         36.5074
              19         473.436         473.436         11.4429         11.4429        -1.81929        -1.81929
              20         895.882         895.882         124.208         124.208         144.905         144.905
              21        -9.60686        -9.60686        -414.342        -414.342     370.045E-03     370.045E-03
              22         485.422         485.422         109.565         109.565        -236.953        -236.953
              23     1.49484E+03     1.49484E+03         96.3331         96.3331     171.165E-03     171.165E-03
              24         492.922         492.922         112.816         112.816         240.261         240.261
              25         493.821         493.821         112.947         112.947         240.739         240.739
              26         476.613         476.613         108.005         108.005        -234.434        -234.434
              27     1.49778E+03     1.49778E+03         95.3091         95.3091         6.93784         6.93784
              28        -9.67402        -9.67402        -416.151        -416.151     400.499E-03     400.499E-03
              29         604.420         604.420        -23.0767        -23.0767        -14.7175        -14.7175
              30         597.755         597.755        -19.4313        -19.4313        -16.1785        -16.1785
              31         592.464         592.464        -15.5959        -15.5959        -16.2631        -16.2631
              32         588.524         588.524        -12.0733        -12.0733        -15.5248        -15.5248
              33         585.716         585.716        -9.03688        -9.03688        -14.3778        -14.3778
              34         583.790         583.790        -6.50801        -6.50801        -13.0883        -13.0883
              35         582.521         582.521        -4.43671        -4.43671        -11.8056        -11.8056
              36         581.732         581.732        -2.75836        -2.75836        -10.6039        -10.6039
              37         581.287         581.287        -1.40853        -1.40853        -9.51495        -9.51495
              38         581.088         581.088    -331.387E-03    -331.387E-03        -8.54575        -8.54575
              39         581.063         581.063     520.268E-03     520.268E-03        -7.69133        -7.69133
              40         581.157         581.157         1.18526         1.18526        -6.94074        -6.94074
              41         581.334         581.334         1.69562         1.69562        -6.28116        -6.28116
              42         581.565         581.565         2.07779         2.07779        -5.69970        -5.69970
              43         581.828         581.828         2.35378         2.35378        -5.18459        -5.18459
              44         582.111         582.111         2.54203         2.54203        -4.72544        -4.72544
              45         582.400         582.400         2.65808         2.65808        -4.31350        -4.31350
              46         582.689         582.689         2.71511         2.71511        -3.94145        -3.94145
              47         582.972         582.972         2.72433         2.72433        -3.60333        -3.60333
              48         583.244         583.244         2.69531         2.69531        -3.29435        -3.29435
              49         583.504         583.504         2.63619         2.63619        -3.01063        -3.01063
              50         583.748         583.748         2.55390         2.55390        -2.74912        -2.74912
              51         583.977         583.977         2.45433         2.45433        -2.50733        -2.50733
              52         584.189         584.189         2.34248         2.34248        -2.28329        -2.28329
              53         584.385         584.385         2.22253         2.22253        -2.07538        -2.07538
              54         584.564         584.564         2.09801         2.09801        -1.88226        -1.88226
              55         584.728         584.728         1.97185         1.97185        -1.70278        -1.70278
              56         584.876         584.876         1.84646         1.84646        -1.53594        -1.53594
              57         585.010         585.010         1.72384         1.72384        -1.38083        -1.38083
              58         585.131         585.131         1.60561         1.60561        -1.23661        -1.23661
              59         585.239         585.239         1.49306         1.49306        -1.10249        -1.10249
              60         585.334         585.334         1.38723         1.38723    -977.675E-03    -977.675E-03
              61         585.419         585.419         1.28895         1.28895    -861.410E-03    -861.410E-03
              62         585.493         585.493         1.19884         1.19884    -752.933E-03    -752.933E-03
              63         585.557         585.557         1.11738         1.11738    -651.481E-03    -651.481E-03
              64         585.612         585.612         1.04495         1.04495    -556.289E-03    -556.289E-03
              65         585.658         585.658     981.804E-03     981.804E-03    -466.588E-03    -466.588E-03
              66         585.697         585.697     928.139E-03     928.139E-03    -381.602E-03    -381.602E-03
              67         585.728         585.728     884.089E-03     884.089E-03    -300.552E-03    -300.552E-03
              68         585.751         585.751     849.745E-03     849.745E-03    -222.655E-03    -222.655E-03
              69         585.768         585.768     825.167E-03     825.167E-03    -147.127E-03    -147.127E-03
              70         585.778         585.778     810.372E-03     810.372E-03    -73.3789E-03    -73.3789E-03
              71         585.851         585.851     724.990E-03     724.990E-03    -39.9992E-03    -39.9992E-03
              72         585.917         585.917     644.356E-03     644.356E-03    -41.8903E-03    -41.8903E-03
              73         585.981         585.981     560.972E-03     560.972E-03    -42.8116E-03    -42.8116E-03
              74         586.040         586.040     476.802E-03     476.802E-03    -42.7134E-03    -42.7134E-03
              75         586.089         586.089     393.879E-03     393.879E-03    -41.5766E-03    -41.5766E-03
              76         586.127         586.127     314.256E-03     314.256E-03    -39.3988E-03    -39.3988E-03
              77         586.150         586.150     239.962E-03     239.962E-03    -36.2074E-03    -36.2074E-03
              78         586.155         586.155     172.954E-03     172.954E-03    -32.0473E-03    -32.0473E-03
              79         586.139         586.139     115.061E-03     115.061E-03    -27.0053E-03    -27.0053E-03
              80         586.100         586.100     67.9356E-03     67.9356E-03    -21.1706E-03    -21.1706E-03
              81         586.036         586.036     32.9697E-03     32.9697E-03    -14.7191E-03    -14.7191E-03
              82         585.944         585.944     11.2651E-03     11.2651E-03    -7.76810E-03    -7.76810E-03
              83         585.899         585.899     3.93495E-03     3.93495E-03    -7.63076E-03    -7.63076E-03
              84         585.921         585.921     4.05447E-03     4.05447E-03    -14.9502E-03    -14.9502E-03
              85         585.958         585.958     4.17409E-03     4.17409E-03    -22.7664E-03    -22.7664E-03
              86         586.011         586.011     4.37716E-03     4.37716E-03    -30.9116E-03    -30.9116E-03
              87         586.081         586.081     4.63890E-03     4.63890E-03    -39.5291E-03    -39.5291E-03
              88         586.168         586.168     4.95822E-03     4.95822E-03    -48.7364E-03    -48.7364E-03
              89         586.273         586.273     5.33674E-03     5.33674E-03    -58.6542E-03    -58.6542E-03
              90         586.400         586.400     5.77121E-03     5.77121E-03    -69.4012E-03    -69.4012E-03
              91         586.548         586.548     6.26207E-03     6.26207E-03    -81.0947E-03    -81.0947E-03
              92         586.721         586.721     6.80568E-03     6.80568E-03    -93.8494E-03    -93.8494E-03
              93         586.920         586.920     7.39958E-03     7.39958E-03    -107.776E-03    -107.776E-03
              94         587.148         587.148     8.03813E-03     8.03813E-03    -122.977E-03    -122.977E-03
              95         587.406         587.406     8.71464E-03     8.71464E-03    -139.546E-03    -139.546E-03
              96         587.700         587.700     9.41917E-03     9.41917E-03    -157.560E-03    -157.560E-03
              97         588.030         588.030     10.1385E-03     10.1385E-03    -177.077E-03    -177.077E-03
              98         588.400         588.400     10.8551E-03     10.8551E-03    -198.125E-03    -198.125E-03
              99         588.813         588.813     11.5453E-03     11.5453E-03    -220.694E-03    -220.694E-03
             100         589.273         589.273     12.1799E-03     12.1799E-03    -244.723E-03    -244.723E-03
             101         589.781         589.781     12.7187E-03     12.7187E-03    -270.086E-03    -270.086E-03
             102         590.340         590.340     13.1149E-03     13.1149E-03    -296.572E-03    -296.572E-03
             103         590.953         590.953     13.3039E-03     13.3039E-03    -323.863E-03    -323.863E-03
             104         591.619         591.619     13.2143E-03     13.2143E-03    -351.509E-03    -351.509E-03
             105         592.340         592.340     12.7471E-03     12.7471E-03    -378.891E-03    -378.891E-03
             106         593.114         593.114     11.8006E-03     11.8006E-03    -405.192E-03    -405.192E-03
             107         593.938         593.938     10.2324E-03     10.2324E-03    -429.357E-03    -429.357E-03
             108         594.806         594.806     7.90991E-03     7.90991E-03    -450.053E-03    -450.053E-03
             109         595.710         595.710     4.64760E-03     4.64760E-03    -465.632E-03    -465.632E-03
             110         596.638         596.638     297.667E-06     297.667E-06    -474.106E-03    -474.106E-03
             111         597.573         597.573    -5.34234E-03    -5.34234E-03    -473.138E-03    -473.138E-03
             112         598.495         598.495    -12.3871E-03    -12.3871E-03    -460.054E-03    -460.054E-03
             113         599.376         599.376    -20.9744E-03    -20.9744E-03    -431.925E-03    -431.925E-03
             114         600.183         600.183    -31.0837E-03    -31.0837E-03    -385.669E-03    -385.669E-03
             115         600.878         600.878    -42.6197E-03    -42.6197E-03    -318.305E-03    -318.305E-03
             116         601.417         601.417    -55.2607E-03    -55.2607E-03    -227.215E-03    -227.215E-03
             117         601.750         601.750    -68.4276E-03    -68.4276E-03    -110.650E-03    -110.650E-03
             118         601.827         601.827    -81.3031E-03    -81.3031E-03     31.8135E-03     31.8135E-03
             119         601.599         601.599    -92.6098E-03    -92.6098E-03     198.557E-03     198.557E-03
             120         601.022         601.022    -100.956E-03    -100.956E-03     385.361E-03     385.361E-03
             121         600.063         600.063    -104.488E-03    -104.488E-03     584.828E-03     584.828E-03
             122         598.707         598.707    -101.563E-03    -101.563E-03     786.097E-03     786.097E-03
             123         596.966         596.966    -90.6579E-03    -90.6579E-03     975.183E-03     975.183E-03
             124         594.881         594.881    -70.7307E-03    -70.7307E-03         1.13453         1.13453
             125         592.790         592.790    -108.060E-03    -108.060E-03         2.29878         2.29878
             126         593.930         593.930    -313.320E-03    -313.320E-03         4.13513         4.13513
             127         595.265         595.265    -650.062E-03    -650.062E-03         5.49745         5.49745
             128         596.774         596.774        -1.14041        -1.14041         6.49723         6.49723
             129         598.464         598.464        -1.83494        -1.83494         7.20664         7.20664
             130         600.360         600.360        -2.81042        -2.81042         7.64917         7.64917
             131         602.493         602.493        -4.16992        -4.16992         7.79421         7.79421
             132         604.880         604.880        -6.04103        -6.04103         7.54526         7.54526
             133         607.493         607.493        -8.56729        -8.56729         6.71451         6.71451
             134         610.193         610.193        -11.8712        -11.8712         5.00051         5.00051
             135         612.622         612.622        -15.9805        -15.9805         1.97284         1.97284
             136         614.048         614.048        -20.6557        -20.6557        -2.82634        -2.82634
             137         604.729         604.729        -23.0135        -23.0135         14.2566         14.2566
             138         598.114         598.114        -19.4503        -19.4503         15.8003         15.8003
             139         592.836         592.836        -15.6754        -15.6754         15.9801         15.9801
             140         588.875         588.875        -12.1835        -12.1835         15.3326         15.3326
             141         586.026         586.026        -9.15346        -9.15346         14.2585         14.2585
             142         584.052         584.052        -6.61641        -6.61641         13.0217         13.0217
             143         582.737         582.737        -4.53088        -4.53088         11.7741         11.7741
             144         581.907         581.907        -2.83726        -2.83726         10.5952         10.5952
             145         581.429         581.429        -1.47317        -1.47317         9.52015         9.52015
             146         581.203         581.203    -383.748E-03    -383.748E-03         8.55920         8.55920
             147         581.156         581.156     478.112E-03     478.112E-03         7.70928         7.70928
             148         581.233         581.233         1.15135         1.15135         6.96079         6.96079
             149         581.396         581.396         1.66829         1.66829         6.30179         6.30179
             150         581.616         581.616         2.05567         2.05567         5.71998         5.71998
             151         581.871         581.871         2.33576         2.33576         5.20394         5.20394
             152         582.146         582.146         2.52723         2.52723         4.74356         4.74356
             153         582.430         582.430         2.64582         2.64582         4.33020         4.33020
             154         582.714         582.714         2.70486         2.70486         3.95668         3.95668
             155         582.993         582.993         2.71570         2.71570         3.61710         3.61710
             156         583.262         583.262         2.68798         2.68798         3.30669         3.30669
             157         583.519         583.519         2.62992         2.62992         3.02162         3.02162
             158         583.761         583.761         2.54851         2.54851         2.75884         2.75884
             159         583.987         583.987         2.44968         2.44968         2.51587         2.51587
             160         584.198         584.198         2.33845         2.33845         2.29075         2.29075
             161         584.392         584.392         2.21904         2.21904         2.08186         2.08186
             162         584.570         584.570         2.09499         2.09499         1.88785         1.88785
             163         584.733         584.733         1.96924         1.96924         1.70758         1.70758
             164         584.880         584.880         1.84421         1.84421         1.54002         1.54002
             165         585.014         585.014         1.72191         1.72191         1.38428         1.38428
             166         585.134         585.134         1.60396         1.60396         1.23950         1.23950
             167         585.241         585.241         1.49167         1.49167         1.10489         1.10489
             168         585.336         585.336         1.38606         1.38606     979.647E-03     979.647E-03
             169         585.420         585.420         1.28798         1.28798     863.012E-03     863.012E-03
             170         585.494         585.494         1.19804         1.19804     754.216E-03     754.216E-03
             171         585.557         585.557         1.11674         1.11674     652.493E-03     652.493E-03
             172         585.612         585.612         1.04445         1.04445     557.072E-03     557.072E-03
             173         585.659         585.659     981.427E-03     981.427E-03     467.178E-03     467.178E-03
             174         585.697         585.697     927.875E-03     927.875E-03     382.033E-03     382.033E-03
             175         585.728         585.728     883.929E-03     883.929E-03     300.853E-03     300.853E-03
             176         585.751         585.751     849.680E-03     849.680E-03     222.850E-03     222.850E-03
             177         585.768         585.768     825.190E-03     825.190E-03     147.234E-03     147.234E-03
             178         585.778         585.778     810.463E-03     810.463E-03     73.4108E-03     73.4108E-03
             179         585.707         585.707     887.061E-03     887.061E-03     32.2975E-03     32.2975E-03
             180         585.638         585.638     960.622E-03     960.622E-03     26.3878E-03     26.3878E-03
             181         585.582         585.582         1.01819         1.01819     19.5524E-03     19.5524E-03
             182         585.543         585.543         1.05773         1.05773     12.0307E-03     12.0307E-03
             183         585.524         585.524         1.07785         1.07785     4.08464E-03     4.08464E-03
             184         585.524         585.524         1.07783         1.07783    -4.00875E-03    -4.00875E-03
             185         585.544         585.544         1.05768         1.05768    -11.9658E-03    -11.9658E-03
             186         585.582         585.582         1.01813         1.01813    -19.5114E-03    -19.5114E-03
             187         585.638         585.638     960.537E-03     960.537E-03    -26.3729E-03    -26.3729E-03
             188         585.707         585.707     886.952E-03     886.952E-03    -32.2911E-03    -32.2911E-03
             189         484.719         484.719         6.81676         6.81676         32.2005         32.2005
             190         519.755         519.755        -9.18828        -9.18828         50.5794         50.5794
             191         558.429         558.429        -24.2552        -24.2552         51.4314         51.4314
             192         588.311         588.311        -32.2150        -32.2150         40.8354         40.8354
             193         606.015         606.015        -32.8454        -32.8454         26.7373         26.7373
             194         602.783         602.783        -32.7996        -32.7996        -29.5361        -29.5361
             195         577.242         577.242        -29.4801        -29.4801        -45.3651        -45.3651
             196         535.923         535.923        -15.6374        -15.6374        -51.6563        -51.6563
             197         492.431         492.431         3.25041         3.25041        -36.2868        -36.2868
             198         590.668         590.668    -132.326E-03    -132.326E-03        -1.91415        -1.91415
             199         591.932         591.932    -383.463E-03    -383.463E-03        -3.38964        -3.38964
             200         593.442         593.442    -791.932E-03    -791.932E-03        -4.42144        -4.42144
             201         595.169         595.169        -1.37530        -1.37530        -5.12932        -5.12932
             202         597.110         597.110        -2.17970        -2.17970        -5.59057        -5.59057
             203         599.283         599.283        -3.27756        -3.27756        -5.83239        -5.83239
             204         601.708         601.708        -4.76796        -4.76796        -5.82649        -5.82649
             205         604.395         604.395        -6.77459        -6.77459        -5.47740        -5.47740
             206         607.308         607.308        -9.43749        -9.43749        -4.59709        -4.59709
             207         610.301         610.301        -12.8759        -12.8759        -2.88209        -2.88209
             208         613.007         613.007        -17.1144        -17.1144     101.262E-03     101.262E-03
             209         614.684         614.684        -21.9136        -21.9136         4.82129         4.82129
             210         629.823         629.823        -26.1411        -26.1411         1.10846         1.10846
             211         637.826         637.826        -12.0157        -12.0157        -12.6522        -12.6522
             212         637.688         637.688         15.6141         15.6141        -22.4450        -22.4450
             213         630.869         630.869         47.1312         47.1312        -18.2378        -18.2378
             214         630.712         630.712         47.4062         47.4062         19.6708         19.6708
             215         637.365         637.365         16.1710         16.1710         23.9216         23.9216
             216         637.329         637.329        -11.1812        -11.1812         14.2113         14.2113
             217         629.144         629.144        -25.0474        -25.0474     565.993E-03     565.993E-03
             218         589.022         589.022     12.6569E-03     12.6569E-03         1.27555         1.27555
             219         585.638         585.638     71.6332E-03     71.6332E-03         1.17023         1.17023
             220         582.758         582.758     126.286E-03     126.286E-03     911.158E-03     911.158E-03
             221         580.771         580.771     164.893E-03     164.893E-03     525.810E-03     525.810E-03
             222         579.947         579.947     178.352E-03     178.352E-03     69.9124E-03     69.9124E-03
             223         580.381         580.381     163.178E-03     163.178E-03    -383.578E-03    -383.578E-03
             224         581.966         581.966     122.858E-03     122.858E-03    -761.700E-03    -761.700E-03
             225         584.416         584.416     66.5227E-03     66.5227E-03        -1.00875        -1.00875
             226         587.330         587.330     5.86052E-03     5.86052E-03        -1.09724        -1.09724
             227         613.949         613.949        -20.6992        -20.6992         2.89330         2.89330
             228         612.551         612.551        -16.0256        -16.0256        -1.92457        -1.92457
             229         610.139         610.139        -11.9194        -11.9194        -4.95928        -4.95928
             230         607.455         607.455        -8.61874        -8.61874        -6.67811        -6.67811
             231         604.858         604.858        -6.09373        -6.09373        -7.51449        -7.51449
             232         602.484         602.484        -4.22039        -4.22039        -7.77005        -7.77005
             233         600.363         600.363        -2.85504        -2.85504        -7.63151        -7.63151
             234         598.479         598.479        -1.87101        -1.87101        -7.19423        -7.19423
             235         596.803         596.803        -1.16671        -1.16671        -6.48840        -6.48840
             236         595.312         595.312    -666.700E-03    -666.700E-03        -5.49080        -5.49080
             237         594.000         594.000    -322.018E-03    -322.018E-03        -4.13014        -4.13014
             238         592.890         592.890    -111.490E-03    -111.490E-03        -2.29669        -2.29669
             239         594.915         594.915    -70.6348E-03    -70.6348E-03        -1.13330        -1.13330
             240         596.998         596.998    -90.7340E-03    -90.7340E-03    -973.628E-03    -973.628E-03
             241         598.736         598.736    -101.569E-03    -101.569E-03    -784.493E-03    -784.493E-03
             242         600.088         600.088    -104.513E-03    -104.513E-03    -583.212E-03    -583.212E-03
             243         601.044         601.044    -100.919E-03    -100.919E-03    -383.779E-03    -383.779E-03
             244         601.618         601.618    -92.5681E-03    -92.5681E-03    -197.069E-03    -197.069E-03
             245         601.843         601.843    -81.2334E-03    -81.2334E-03    -30.4506E-03    -30.4506E-03
             246         601.763         601.763    -68.3530E-03    -68.3530E-03     111.857E-03     111.857E-03
             247         601.428         601.428    -55.1828E-03    -55.1828E-03     228.262E-03     228.262E-03
             248         600.887         600.887    -42.5436E-03    -42.5436E-03     319.191E-03     319.191E-03
             249         600.191         600.191    -31.0171E-03    -31.0171E-03     386.408E-03     386.408E-03
             250         599.382         599.382    -20.9139E-03    -20.9139E-03     432.533E-03     432.533E-03
             251         598.500         598.500    -12.3392E-03    -12.3392E-03     460.551E-03     460.551E-03
             252         597.578         597.578    -5.30074E-03    -5.30074E-03     473.543E-03     473.543E-03
             253         596.642         596.642     328.801E-06     328.801E-06     474.437E-03     474.437E-03
             254         595.713         595.713     4.67428E-03     4.67428E-03     465.904E-03     465.904E-03
             255         594.809         594.809     7.92933E-03     7.92933E-03     450.278E-03     450.278E-03
             256         593.940         593.940     10.2493E-03     10.2493E-03     429.545E-03     429.545E-03
             257         593.116         593.116     11.8129E-03     11.8129E-03     405.351E-03     405.351E-03
             258         592.342         592.342     12.7581E-03     12.7581E-03     379.025E-03     379.025E-03
             259         591.620         591.620     13.2224E-03     13.2224E-03     351.624E-03     351.624E-03
             260         590.954         590.954     13.3114E-03     13.3114E-03     323.963E-03     323.963E-03
             261         590.341         590.341     13.1206E-03     13.1206E-03     296.658E-03     296.658E-03
             262         589.782         589.782     12.7241E-03     12.7241E-03     270.160E-03     270.160E-03
             263         589.273         589.273     12.1841E-03     12.1841E-03     244.787E-03     244.787E-03
             264         588.814         588.814     11.5494E-03     11.5494E-03     220.750E-03     220.750E-03
             265         588.401         588.401     10.8583E-03     10.8583E-03     198.174E-03     198.174E-03
             266         588.030         588.030     10.1415E-03     10.1415E-03     177.120E-03     177.120E-03
             267         587.700         587.700     9.42167E-03     9.42167E-03     157.597E-03     157.597E-03
             268         587.407         587.407     8.71701E-03     8.71701E-03     139.578E-03     139.578E-03
             269         587.148         587.148     8.04009E-03     8.04009E-03     123.005E-03     123.005E-03
             270         586.920         586.920     7.40142E-03     7.40142E-03     107.800E-03     107.800E-03
             271         586.721         586.721     6.80724E-03     6.80724E-03     93.8702E-03     93.8702E-03
             272         586.548         586.548     6.26353E-03     6.26353E-03     81.1124E-03     81.1124E-03
             273         586.400         586.400     5.77247E-03     5.77247E-03     69.4163E-03     69.4163E-03
             274         586.273         586.273     5.33793E-03     5.33793E-03     58.6669E-03     58.6669E-03
             275         586.167         586.167     4.95927E-03     4.95927E-03     48.7469E-03     48.7469E-03
             276         586.080         586.080     4.63990E-03     4.63990E-03     39.5376E-03     39.5376E-03
             277         586.011         586.011     4.37809E-03     4.37809E-03     30.9183E-03     30.9183E-03
             278         585.958         585.958     4.17498E-03     4.17498E-03     22.7712E-03     22.7712E-03
             279         585.921         585.921     4.05532E-03     4.05532E-03     14.9534E-03     14.9534E-03
             280         585.898         585.898     3.93578E-03     3.93578E-03     7.63238E-03     7.63238E-03
             281         585.944         585.944     11.2675E-03     11.2675E-03     7.76973E-03     7.76973E-03
             282         586.036         586.036     32.9766E-03     32.9766E-03     14.7222E-03     14.7222E-03
             283         586.100         586.100     67.9500E-03     67.9500E-03     21.1751E-03     21.1751E-03
             284         586.139         586.139     115.086E-03     115.086E-03     27.0109E-03     27.0109E-03
             285         586.155         586.155     172.991E-03     172.991E-03     32.0540E-03     32.0540E-03
             286         586.150         586.150     240.012E-03     240.012E-03     36.2148E-03     36.2148E-03
             287         586.127         586.127     314.321E-03     314.321E-03     39.4066E-03     39.4066E-03
             288         586.089         586.089     393.959E-03     393.959E-03     41.5846E-03     41.5846E-03
             289         586.039         586.039     476.898E-03     476.898E-03     42.7214E-03     42.7214E-03
             290         585.981         585.981     561.082E-03     561.082E-03     42.8183E-03     42.8183E-03
             291         585.917         585.917     644.479E-03     644.479E-03     41.8963E-03     41.8963E-03
             292         585.851         585.851     725.113E-03     725.113E-03     39.9931E-03     39.9931E-03
             293         553.696         553.696         160.680         160.680        -36.7550        -36.7550
             294         559.460         559.460         146.908         146.908        -36.5590        -36.5590
             295         565.061         565.061         133.115         133.115        -35.4018        -35.4018
             296         570.368         570.368         119.586         119.586        -33.6743        -33.6743
             297         575.254         575.254         106.539         106.539        -31.4189        -31.4189
             298         579.630         579.630         94.1635         94.1635        -28.7446        -28.7446
             299         583.445         583.445         82.6014         82.6014        -25.7538        -25.7538
             300         586.664         586.664         71.9564         71.9564        -22.5786        -22.5786
             301         589.309         589.309         62.2727         62.2727        -19.3345        -19.3345
             302         591.394         591.394         53.5640         53.5640        -16.1259        -16.1259
             303         592.984         592.984         45.8041         45.8041        -13.0406        -13.0406
             304         594.121         594.121         38.9467         38.9467        -10.1363        -10.1363
             305         594.876         594.876         32.9311         32.9311        -7.46011        -7.46011
             306         595.299         595.299         27.6856         27.6856        -5.02973        -5.02973
             307         595.451         595.451         23.1411         23.1411        -2.85805        -2.85805
             308         595.374         595.374         19.2230         19.2230    -937.717E-03    -937.717E-03
             309         595.116         595.116         15.8657         15.8657     739.626E-03     739.626E-03
             310         594.710         594.710         13.0018         13.0018         2.19375         2.19375
             311         594.188         594.188         10.5737         10.5737         3.44338         3.44338
             312         593.575         593.575         8.52364         8.52364         4.51258         4.51258
             313         592.893         592.893         6.80212         6.80212         5.42354         5.42354
             314         592.161         592.161         5.36039         5.36039         6.20037         6.20037
             315         591.393         591.393         4.15580         4.15580         6.86526         6.86526
             316         590.602         590.602         3.14665         3.14665         7.44073         7.44073
             317         589.802         589.802         2.29536         2.29536         7.94772         7.94772
             318         589.004         589.004         1.56504         1.56504         8.40709         8.40709
             319         588.219         588.219     921.153E-03     921.153E-03         8.83874         8.83874
             320         587.459         587.459     329.156E-03     329.156E-03         9.26258         9.26258
             321         586.739         586.739    -244.811E-03    -244.811E-03         9.69823         9.69823
             322         586.077         586.077    -835.754E-03    -835.754E-03         10.1656         10.1656
             323         585.496         585.496        -1.47993        -1.47993         10.6843         10.6843
             324         585.024         585.024        -2.21651        -2.21651         11.2740         11.2740
             325         584.702         584.702        -3.08844        -3.08844         11.9528         11.9528
             326         584.583         584.583        -4.14398        -4.14398         12.7355         12.7355
             327         584.741         584.741        -5.43818        -5.43818         13.6296         13.6296
             328         585.273         585.273        -7.03272        -7.03272         14.6284         14.6284
             329         586.313         586.313        -8.99574        -8.99574         15.6998         15.6998
             330         588.034         588.034        -11.3916        -11.3916         16.7667         16.7667
             331         590.650         590.650        -14.2659        -14.2659         17.6789         17.6789
             332         594.396         594.396        -17.5899        -17.5899         18.1741         18.1741
             333         599.477         599.477        -21.1870        -21.1870         17.8520         17.8520
             334         605.908         605.908        -24.5612        -24.5612         16.1764         16.1764
             335         592.264         592.264    -80.3700E-03    -80.3700E-03    -916.812E-03    -916.812E-03
             336         593.899         593.899    -101.437E-03    -101.437E-03    -736.682E-03    -736.682E-03
             337         595.146         595.146    -113.550E-03    -113.550E-03    -524.322E-03    -524.322E-03
             338         595.959         595.959    -117.578E-03    -117.578E-03    -297.305E-03    -297.305E-03
             339         596.323         596.323    -115.269E-03    -115.269E-03    -69.5930E-03    -69.5930E-03
             340         596.247         596.247    -107.978E-03    -107.978E-03     147.965E-03     147.965E-03
             341         595.758         595.758    -97.8820E-03    -97.8820E-03     347.954E-03     347.954E-03
             342         594.896         594.896    -85.9483E-03    -85.9483E-03     526.131E-03     526.131E-03
             343         593.705         593.705    -73.9373E-03    -73.9373E-03     680.796E-03     680.796E-03
             344         592.231         592.231    -61.9959E-03    -61.9959E-03     812.265E-03     812.265E-03
             345         590.519         590.519    -51.4966E-03    -51.4966E-03     922.104E-03     922.104E-03
             346         588.608         588.608    -41.6498E-03    -41.6498E-03         1.01270         1.01270
             347         586.536         586.536    -33.9008E-03    -33.9008E-03         1.08671         1.08671
             348         584.330         584.330    -26.3991E-03    -26.3991E-03         1.14680         1.14680
             349         582.018         582.018    -21.3169E-03    -21.3169E-03         1.19540         1.19540
             350         579.619         579.619    -15.3780E-03    -15.3780E-03         1.23453         1.23453
             351         577.150         577.150    -12.3259E-03    -12.3259E-03         1.26574         1.26574
             352         574.626         574.626    -6.66601E-03    -6.66601E-03         1.29008         1.29008
             353         572.061         572.061    -4.94014E-03    -4.94014E-03         1.30803         1.30803
             354         569.466         569.466     2.03567E-03     2.03567E-03         1.31952         1.31952
             355         566.855         566.855     2.94355E-03     2.94355E-03         1.32395         1.32395
             356         564.244         564.244     13.2376E-03     13.2376E-03         1.32007         1.32007
             357         561.650         561.650     13.4826E-03     13.4826E-03         1.30612         1.30612
             358         559.095         559.095     29.8718E-03     29.8718E-03         1.27944         1.27944
             359         556.608         556.608     29.0948E-03     29.0948E-03         1.23696         1.23696
             360         554.225         554.225     55.8817E-03     55.8817E-03         1.17399         1.17399
             361         551.990         551.990     52.9371E-03     52.9371E-03         1.08575         1.08575
             362         549.962         549.962     97.4635E-03     97.4635E-03     964.067E-03     964.067E-03
             363         548.213         548.213     89.8513E-03     89.8513E-03     801.788E-03     801.788E-03
             364         546.837         546.837     165.841E-03     165.841E-03     583.547E-03     583.547E-03
             365         545.958         545.958     148.326E-03     148.326E-03     299.143E-03     299.143E-03
             366         545.733         545.733     284.270E-03     284.270E-03    -84.1371E-03    -84.1371E-03
             367         546.377         546.377     244.907E-03     244.907E-03    -578.929E-03    -578.929E-03
             368         548.177         548.177     508.339E-03     508.339E-03        -1.26576        -1.26576
             369         551.539         551.539     415.312E-03     415.312E-03        -2.15183        -2.15183
             370         557.051         557.051     995.831E-03     995.831E-03        -3.46950        -3.46950
             371         565.585         565.585     748.302E-03     748.302E-03        -5.17972        -5.17972
             372         578.617         578.617         2.31166         2.31166        -8.09587        -8.09587
             373         598.440         598.440         1.52903         1.52903        -11.9426        -11.9426
             374         630.445         630.445         7.42311         7.42311        -20.6280        -20.6280
             375         683.465         683.465         4.33903         4.33903        -32.7775        -32.7775
             376         806.155         806.155         57.8233         57.8233        -91.4693        -91.4693
             377         783.980         783.980         151.029         151.029        -154.162        -154.162
             378         654.371         654.371         174.135         174.135        -144.056        -144.056
             379         618.934         618.934         170.965         170.965        -121.102        -121.102
             380         594.586         594.586         170.727         170.727        -108.895        -108.895
             381         581.604         581.604         169.498         169.498        -96.2604        -96.2604
             382         572.086         572.086         168.872         168.872        -86.7436        -86.7436
             383         565.960         565.960         168.366         168.366        -77.5600        -77.5600
             384         561.283         561.283         168.018         168.018        -69.7016        -69.7016
             385         557.996         557.996         167.814         167.814        -62.2011        -62.2011
             386         555.421         555.421         167.655         167.655        -55.3970        -55.3970
             387         553.520         553.520         167.585         167.585        -48.8823        -48.8823
             388         552.010         552.010         167.523         167.523        -42.7802        -42.7802
             389         614.441         614.441        -22.0140        -22.0140        -5.13613        -5.13613
             390         612.862         612.862        -17.2854        -17.2854    -397.701E-03    -397.701E-03
             391         610.243         610.243        -13.0851        -13.0851         2.63986         2.63986
             392         607.309         607.309        -9.64941        -9.64941         4.42069         4.42069
             393         604.428         604.428        -6.96465        -6.96465         5.36069         5.36069
             394         601.753         601.753        -4.92453        -4.92453         5.75596         5.75596
             395         599.329         599.329        -3.39860        -3.39860         5.79424         5.79424
             396         597.155         597.155        -2.26781        -2.26781         5.57381         5.57381
             397         595.211         595.211        -1.43504        -1.43504         5.12565         5.12565
             398         593.485         593.485    -828.261E-03    -828.261E-03         4.42472         4.42472
             399         591.979         591.979    -401.547E-03    -401.547E-03         3.39492         3.39492
             400         590.731         590.731    -138.393E-03    -138.393E-03         1.91726         1.91726
             401         587.598         587.598    -514.224E-06    -514.224E-06         1.10703         1.10703
             402         584.886         584.886     54.4434E-03     54.4434E-03         1.04855         1.04855
             403         582.494         582.494     108.459E-03     108.459E-03     855.405E-03     855.405E-03
             404         580.742         580.742     151.303E-03     151.303E-03     542.624E-03     542.624E-03
             405         579.890         579.890     177.987E-03     177.987E-03     144.224E-03     144.224E-03
             406         580.082         580.082     177.301E-03     177.301E-03    -285.235E-03    -285.235E-03
             407         581.314         581.314     153.158E-03     153.158E-03    -683.340E-03    -683.340E-03
             408         583.444         583.444     113.907E-03     113.907E-03        -1.00299        -1.00299
             409         586.230         586.230     61.1337E-03     61.1337E-03        -1.20924        -1.20924
             410         589.368         589.368     7.09142E-03     7.09142E-03        -1.28459        -1.28459
             411         629.377         629.377         52.7063         52.7063         16.5101         16.5101
             412         636.034         636.034         26.9724         26.9724         23.8440         23.8440
             413         639.389         639.389    -31.9078E-03    -31.9078E-03         19.2511         19.2511
             414         636.330         636.330        -18.8594        -18.8594         8.12472         8.12472
             415         628.203         628.203        -27.7011        -27.7011        -3.33918        -3.33918
             416         629.061         629.061        -25.1500        -25.1500    -470.640E-03    -470.640E-03
             417         637.291         637.291        -11.3757        -11.3757        -14.1125        -14.1125
             418         637.403         637.403         15.8709         15.8709        -23.8742        -23.8742
             419         630.827         630.827         47.0458         47.0458        -19.7553        -19.7553
             420         553.698         553.698         160.676         160.676         36.7446         36.7446
             421         559.460         559.460         146.907         146.907         36.5439         36.5439
             422         565.059         565.059         133.119         133.119         35.3816         35.3816
             423         570.364         570.364         119.594         119.594         33.6494         33.6494
             424         575.247         575.247         106.552         106.552         31.3903         31.3903
             425         579.621         579.621         94.1826         94.1826         28.7138         28.7138
             426         583.436         583.436         82.6257         82.6257         25.7221         25.7221
             427         586.654         586.654         71.9855         71.9855         22.5478         22.5478
             428         589.299         589.299         62.3057         62.3057         19.3057         19.3057
             429         591.386         591.386         53.6002         53.6002         16.1003         16.1003
             430         592.978         592.978         45.8421         45.8421         13.0190         13.0190
             431         594.117         594.117         38.9855         38.9855         10.1192         10.1192
             432         594.875         594.875         32.9698         32.9698         7.44788         7.44788
             433         595.301         595.301         27.7234         27.7234         5.02239         5.02239
             434         595.456         595.456         23.1773         23.1773         2.85569         2.85569
             435         595.383         595.383         19.2570         19.2570     940.087E-03     940.087E-03
             436         595.127         595.127         15.8973         15.8973    -732.620E-03    -732.620E-03
             437         594.723         594.723         13.0308         13.0308        -2.18246        -2.18246
             438         594.203         594.203         10.6001         10.6001        -3.42799        -3.42799
             439         593.591         593.591         8.54742         8.54742        -4.49344        -4.49344
             440         592.909         592.909         6.82356         6.82356        -5.40086        -5.40086
             441         592.176         592.176         5.37972         5.37972        -6.17449        -6.17449
             442         591.407         591.407         4.17346         4.17346        -6.83638        -6.83638
             443         590.614         590.614         3.16307         3.16307        -7.40913        -7.40913
             444         589.811         589.811         2.31119         2.31119        -7.91362        -7.91362
             445         589.008         589.008         1.58092         1.58092        -8.37076        -8.37076
             446         588.216         588.216     937.967E-03     937.967E-03        -8.80046        -8.80046
             447         587.449         587.449     347.859E-03     347.859E-03        -9.22272        -9.22272
             448         586.719         586.719    -222.997E-03    -222.997E-03        -9.65726        -9.65726
             449         586.045         586.045    -809.440E-03    -809.440E-03        -10.1242        -10.1242
             450         585.448         585.448        -1.44740        -1.44740        -10.6436        -10.6436
             451         584.957         584.957        -2.17581        -2.17581        -11.2355        -11.2355
             452         584.611         584.611        -3.03729        -3.03729        -11.9190        -11.9190
             453         584.463         584.463        -4.08004        -4.08004        -12.7101        -12.7101
             454         584.585         584.585        -5.35911        -5.35911        -13.6183        -13.6183
             455         585.074         585.074        -6.93724        -6.93724        -14.6400        -14.6400
             456         586.065         586.065        -8.88449        -8.88449        -15.7466        -15.7466
             457         587.734         587.734        -11.2704        -11.2704        -16.8663        -16.8663
             458         590.306         590.306        -14.1485        -14.1485        -17.8512        -17.8512
             459         594.029         594.029        -17.5006        -17.5006        -18.4363        -18.4363
             460         599.121         599.121        -21.1549        -21.1549        -18.2068        -18.2068
             461         605.605         605.605        -24.6081        -24.6081        -16.6076        -16.6076
             462         604.109         604.109        -34.2838        -34.2838        -30.9944        -30.9944
             463         578.785         578.785        -31.0751        -31.0751        -46.5240        -46.5240
             464         537.603         537.603        -17.3052        -17.3052        -52.4685        -52.4685
             465         494.174         494.174         1.54801         1.54801        -36.7018        -36.7018
             466         486.491         486.491         5.09673         5.09673         32.5835         32.5835
             467         521.499         521.499        -10.8923        -10.8923         51.2945         51.2945
             468         560.089         560.089        -25.9132        -25.9132         52.4420         52.4420
             469         589.824         589.824        -33.7944        -33.7944         42.1107         42.1107
             470         607.321         607.321        -34.3206        -34.3206         28.2493         28.2493
             471         549.781         549.781         167.507         167.507        -29.7918        -29.7918
             472         548.986         548.986         167.514         167.514        -22.9072        -22.9072
             473         548.435         548.435         167.521         167.521        -16.2388        -16.2388
             474         548.092         548.092         167.532         167.532        -9.69677        -9.69677
             475         547.925         547.925         167.535         167.535        -3.24593        -3.24593
             476         547.927         547.927         167.532         167.532         3.19083         3.19083
             477         548.096         548.096         167.525         167.525         9.64836         9.64836
             478         548.439         548.439         167.512         167.512         16.2003         16.2003
             479         548.991         548.991         167.504         167.504         22.8802         22.8802
             480         549.786         549.786         167.500         167.500         29.7756         29.7756
             481         552.011         552.011         167.520         167.520         42.7753         42.7753
             482         553.521         553.521         167.584         167.584         48.8788         48.8788
             483         555.421         555.421         167.654         167.654         55.3944         55.3944
             484         557.997         557.997         167.814         167.814         62.1990         62.1990
             485         561.284         561.284         168.018         168.018         69.6999         69.6999
             486         565.961         565.961         168.366         168.366         77.5585         77.5585
             487         572.086         572.086         168.872         168.872         86.7424         86.7424
             488         581.604         581.604         169.498         169.498         96.2594         96.2594
             489         594.587         594.587         170.727         170.727         108.894         108.894
             490         618.934         618.934         170.965         170.965         121.101         121.101
             491         654.371         654.371         174.135         174.135         144.055         144.055
             492         783.979         783.979         151.029         151.029         154.161         154.161
             493         806.155         806.155         57.8232         57.8232         91.4689         91.4689
             494         683.465         683.465         4.33900         4.33900         32.7773         32.7773
             495         630.445         630.445         7.42308         7.42308         20.6278         20.6278
             496         598.441         598.441         1.52901         1.52901         11.9425         11.9425
             497         578.618         578.618         2.31164         2.31164         8.09579         8.09579
             498         565.587         565.587     748.282E-03     748.282E-03         5.17967         5.17967
             499         557.052         557.052     995.812E-03     995.812E-03         3.46949         3.46949
             500         551.541         551.541     415.296E-03     415.296E-03         2.15186         2.15186
             501         548.178         548.178     508.325E-03     508.325E-03         1.26582         1.26582
             502         546.378         546.378     244.897E-03     244.897E-03     579.009E-03     579.009E-03
             503         545.734         545.734     284.261E-03     284.261E-03     84.2346E-03     84.2346E-03
             504         545.958         545.958     148.321E-03     148.321E-03    -299.033E-03    -299.033E-03
             505         546.838         546.838     165.837E-03     165.837E-03    -583.427E-03    -583.427E-03
             506         548.213         548.213     89.8493E-03     89.8493E-03    -801.663E-03    -801.663E-03
             507         549.961         549.961     97.4622E-03     97.4622E-03    -963.939E-03    -963.939E-03
             508         551.990         551.990     52.9369E-03     52.9369E-03        -1.08562        -1.08562
             509         554.224         554.224     55.8820E-03     55.8820E-03        -1.17387        -1.17387
             510         556.607         556.607     29.0952E-03     29.0952E-03        -1.23683        -1.23683
             511         559.094         559.094     29.8729E-03     29.8729E-03        -1.27932        -1.27932
             512         561.648         561.648     13.4830E-03     13.4830E-03        -1.30599        -1.30599
             513         564.242         564.242     13.2391E-03     13.2391E-03        -1.31994        -1.31994
             514         566.853         566.853     2.94323E-03     2.94323E-03        -1.32383        -1.32383
             515         569.464         569.464     2.03745E-03     2.03745E-03        -1.31939        -1.31939
             516         572.058         572.058    -4.94152E-03    -4.94152E-03        -1.30790        -1.30790
             517         574.624         574.624    -6.66403E-03    -6.66403E-03        -1.28995        -1.28995
             518         577.147         577.147    -12.3286E-03    -12.3286E-03        -1.26562        -1.26562
             519         579.616         579.616    -15.3756E-03    -15.3756E-03        -1.23439        -1.23439
             520         582.014         582.014    -21.3206E-03    -21.3206E-03        -1.19526        -1.19526
             521         584.327         584.327    -26.3951E-03    -26.3951E-03        -1.14666        -1.14666
             522         586.532         586.532    -33.9022E-03    -33.9022E-03        -1.08657        -1.08657
             523         588.604         588.604    -41.6391E-03    -41.6391E-03        -1.01256        -1.01256
             524         590.514         590.514    -51.4841E-03    -51.4841E-03    -921.988E-03    -921.988E-03
             525         592.226         592.226    -61.9645E-03    -61.9645E-03    -812.185E-03    -812.185E-03
             526         593.700         593.700    -73.8870E-03    -73.8870E-03    -680.794E-03    -680.794E-03
             527         594.891         594.891    -85.8745E-03    -85.8745E-03    -526.244E-03    -526.244E-03
             528         595.754         595.754    -97.7688E-03    -97.7688E-03    -348.247E-03    -348.247E-03
             529         596.244         596.244    -107.858E-03    -107.858E-03    -148.482E-03    -148.482E-03
             530         596.321         596.321    -115.116E-03    -115.116E-03     68.8099E-03     68.8099E-03
             531         595.959         595.959    -117.485E-03    -117.485E-03     296.280E-03     296.280E-03
             532         595.148         595.148    -113.499E-03    -113.499E-03     523.156E-03     523.156E-03
             533         593.903         593.903    -101.514E-03    -101.514E-03     735.543E-03     735.543E-03
             534         592.269         592.269    -80.6639E-03    -80.6639E-03     916.385E-03     916.385E-03
             535         9.39295         9.39295        -293.113        -293.113        -1.34743        -1.34743
             536         80.2356         80.2356        -108.964        -108.964        -3.65759        -3.65759
             537         193.856         193.856        -20.7666        -20.7666        -4.17810        -4.17810
             538         311.044         311.044         10.6399         10.6399        -3.64712        -3.64712
             539         408.323         408.323         15.7702         15.7702        -2.63042        -2.63042
             540         632.797         632.797        -45.8433        -45.8433        -23.3876        -23.3876
             541         655.985         655.985        -69.0029        -69.0029        -42.0511        -42.0511
             542         677.890         677.890        -90.4872        -90.4872        -72.3073        -72.3073
             543         672.780         672.780        -84.3086        -84.3086        -119.710        -119.710
             544         571.994         571.994         20.0974         20.0974        -192.713        -192.713
             545         287.429         287.429         19.5534         19.5534        -152.370        -152.370
             546         133.564         133.564        -110.492        -110.492        -70.0513        -70.0513
             547         43.1459         43.1459        -253.501        -253.501        -12.0285        -12.0285
             548         1.44482         1.44482        -367.094        -367.094         8.17089         8.17089
             549         653.588         653.588         95.4286         95.4286     624.025E-03     624.025E-03
             550         709.173         709.173         142.123         142.123     534.534E-03     534.534E-03
             551         813.996         813.996         185.398         185.398     467.413E-03     467.413E-03
             552     1.00117E+03     1.00117E+03         198.767         198.767     397.285E-03     397.285E-03
             553     1.30745E+03     1.30745E+03         145.025         145.025     263.509E-03     263.509E-03
             554     1.42444E+03     1.42444E+03         112.324         112.324        -164.704        -164.704
             555     1.23552E+03     1.23552E+03         148.034         148.034        -281.537        -281.537
             556         980.399         980.399         172.651         172.651        -326.288        -326.288
             557         716.868         716.868         160.083         160.083        -303.391        -303.391
             558         578.602         578.602         22.0172         22.0172         193.869         193.869
             559         677.304         677.304        -83.8761        -83.8761         118.267         118.267
             560         680.431         680.431        -90.2342        -90.2342         70.5775         70.5775
             561         657.274         657.274        -68.7664        -68.7664         40.7162         40.7162
             562         633.407         633.407        -45.6320        -45.6320         22.4919         22.4919
             563        -2.46375        -2.46375        -386.533        -386.533        -9.34132        -9.34132
             564         23.3784         23.3784        -301.101        -301.101    -780.175E-03    -780.175E-03
             565         78.8328         78.8328        -184.522        -184.522         34.8789         34.8789
             566         174.357         174.357        -63.5533        -63.5533         94.7269         94.7269
             567         314.898         314.898         39.4045         39.4045         166.498         166.498
             568         634.433         634.433        -46.7543        -46.7543         23.7669         23.7669
             569         658.251         658.251        -69.6840        -69.6840         41.5939         41.5939
             570         681.378         681.378        -90.9795        -90.9795         71.1597         71.1597
             571         678.284         678.284        -84.4280        -84.4280         118.660         118.660
             572         579.555         579.555         21.8663         21.8663         194.271         194.271
             573         717.824         717.824         159.842         159.842         303.875         303.875
             574         981.456         981.456         172.897         172.897         326.814         326.814
             575     1.23646E+03     1.23646E+03         148.261         148.261         282.022         282.022
             576     1.42500E+03     1.42500E+03         112.451         112.451         165.092         165.092
             577         565.748         565.748         17.8301         17.8301        -191.994        -191.994
             578         670.069         670.069        -86.8907        -86.8907        -121.303        -121.303
             579         676.643         676.643        -92.3697        -92.3697        -74.3868        -74.3868
             580         655.590         655.590        -70.4585        -70.4585        -44.0501        -44.0501
             581         632.978         632.978        -47.1857        -47.1857        -25.3772        -25.3772
             582         653.389         653.389         96.3905         96.3905        -1.94700        -1.94700
             583         709.192         709.192         143.140         143.140        -2.07274        -2.07274
             584         814.502         814.502         186.175         186.175        -1.47607        -1.47607
             585     1.00242E+03     1.00242E+03         199.057         199.057     430.762E-03     430.762E-03
             586     1.30976E+03     1.30976E+03         144.523         144.523         4.36004         4.36004
             587     1.45254E+03     1.45254E+03         106.280         106.280        -141.581        -141.581
             588     1.31423E+03     1.31423E+03         135.538         135.538        -253.525        -253.525
             589     1.11579E+03     1.11579E+03         165.052         165.052        -317.030        -317.030
             590         892.090         892.090         175.899         175.899        -328.736        -328.736
             591         674.867         674.867         156.803         156.803        -297.158        -297.158
             592         716.608         716.608         159.530         159.530         303.294         303.294
             593         979.932         979.932         172.586         172.586         326.190         326.190
             594     1.23469E+03     1.23469E+03         147.917         147.917         281.533         281.533
             595     1.42320E+03     1.42320E+03         112.455         112.455         164.682         164.682
             596         409.626         409.626         14.3671         14.3671        -2.61497        -2.61497
             597         311.877         311.877         9.51043         9.51043        -3.61603        -3.61603
             598         194.295         194.295        -21.7743        -21.7743        -4.13322        -4.13322
             599         80.3593         80.3593        -110.062        -110.062        -3.60812        -3.60812
             600         9.35480         9.35480        -294.620        -294.620        -1.30791        -1.30791
             601        -2.50254        -2.50254        -388.201        -388.201        -9.39161        -9.39161
             602         23.4010         23.4010        -302.431        -302.431    -841.711E-03    -841.711E-03
             603         78.9844         78.9844        -185.415        -185.415         34.8865         34.8865
             604         174.695         174.695        -64.0183        -64.0183         94.8806         94.8806
             605         315.509         315.509         39.3062         39.3062         166.804         166.804
             606         287.862         287.862         19.1672         19.1672        -152.428        -152.428
             607         133.690         133.690        -111.339        -111.339        -69.9894        -69.9894
             608         43.1397         43.1397        -254.821        -254.821        -11.8855        -11.8855
             609         1.38421         1.38421        -368.777        -368.777         8.29292         8.29292
             610         607.780         607.780        -20.2076        -20.2076        -7.43962        -7.43962
             611         602.375         602.375        -18.1819        -18.1819        -9.99578        -9.99578
             612         597.602         597.602        -15.5140        -15.5140        -11.3735        -11.3735
             613         593.653         593.653        -12.6896        -12.6896        -11.8387        -11.8387
             614         590.539         590.539        -10.0119        -10.0119        -11.7003        -11.7003
             615         588.173         588.173        -7.62108        -7.62108        -11.2034        -11.2034
             616         586.428         586.428        -5.56261        -5.56261        -10.5241        -10.5241
             617         585.177         585.177        -3.82949        -3.82949        -9.77279        -9.77279
             618         584.310         584.310        -2.39446        -2.39446        -9.01577        -9.01577
             619         583.736         583.736        -1.22200        -1.22200        -8.28877        -8.28877
             620         583.383         583.383    -276.665E-03    -276.665E-03        -7.60912        -7.60912
             621         583.195         583.195     474.877E-03     474.877E-03        -6.98296        -6.98296
             622         583.128         583.128         1.06223         1.06223        -6.41019        -6.41019
             623         583.148         583.148         1.51148         1.51148        -5.88752        -5.88752
             624         583.231         583.231         1.84516         1.84516        -5.41025        -5.41025
             625         583.356         583.356         2.08277         2.08277        -4.97339        -4.97339
             626         583.509         583.509         2.24104         2.24104        -4.57217        -4.57217
             627         583.678         583.678         2.33435         2.33435        -4.20234        -4.20234
             628         583.855         583.855         2.37499         2.37499        -3.86028        -3.86028
             629         584.034         584.034         2.37343         2.37343        -3.54295        -3.54295
             630         584.210         584.210         2.33859         2.33859        -3.24785        -3.24785
             631         584.380         584.380         2.27805         2.27805        -2.97294        -2.97294
             632         584.541         584.541         2.19817         2.19817        -2.71655        -2.71655
             633         584.693         584.693         2.10432         2.10432        -2.47730        -2.47730
             634         584.834         584.834         2.00097         2.00097        -2.25403        -2.25403
             635         584.965         584.965         1.89185         1.89185        -2.04572        -2.04572
             636         585.084         585.084         1.78002         1.78002        -1.85147        -1.85147
             637         585.193         585.193         1.66802         1.66802        -1.67045        -1.67045
             638         585.291         585.291         1.55789         1.55789        -1.50184        -1.50184
             639         585.379         585.379         1.45128         1.45128        -1.34488        -1.34488
             640         585.458         585.458         1.34952         1.34952        -1.19880        -1.19880
             641         585.528         585.528         1.25364         1.25364        -1.06281        -1.06281
             642         585.589         585.589         1.16447         1.16447    -936.132E-03    -936.132E-03
             643         585.643         585.643         1.08264         1.08264    -817.964E-03    -817.964E-03
             644         585.690         585.690         1.00862         1.00862    -707.496E-03    -707.496E-03
             645         585.729         585.729     942.769E-03     942.769E-03    -603.902E-03    -603.902E-03
             646         585.763         585.763     885.347E-03     885.347E-03    -506.348E-03    -506.348E-03
             647         585.791         585.791     836.539E-03     836.539E-03    -413.987E-03    -413.987E-03
             648         585.813         585.813     796.477E-03     796.477E-03    -325.967E-03    -325.967E-03
             649         585.830         585.830     765.248E-03     765.248E-03    -241.426E-03    -241.426E-03
             650         585.842         585.842     742.910E-03     742.910E-03    -159.503E-03    -159.503E-03
             651         585.849         585.849     729.479E-03     729.479E-03    -79.5435E-03    -79.5435E-03
             652         608.236         608.236        -16.9353        -16.9353        -2.48301        -2.48301
             653         604.031         604.031        -16.0305        -16.0305        -5.36590        -5.36590
             654         600.083         600.083        -14.3309        -14.3309        -7.31321        -7.31321
             655         596.575         596.575        -12.2325        -12.2325        -8.47314        -8.47314
             656         593.613         593.613        -10.0427        -10.0427        -9.01946        -9.01946
             657         591.205         591.205        -7.95127        -7.95127        -9.13540        -9.13540
             658         589.307         589.307        -6.05735        -6.05735        -8.96965        -8.96965
             659         587.849         587.849        -4.40155        -4.40155        -8.63445        -8.63445
             660         586.754         586.754        -2.98932        -2.98932        -8.20600        -8.20600
             661         585.953         585.953        -1.80849        -1.80849        -7.73442        -7.73442
             662         585.385         585.385    -837.919E-03    -837.919E-03        -7.25052        -7.25052
             663         584.998         584.998    -53.6034E-03    -53.6034E-03        -6.77254        -6.77254
             664         584.750         584.750     568.882E-03     568.882E-03        -6.31041        -6.31041
             665         584.607         584.607         1.05258         1.05258        -5.86900        -5.86900
             666         584.544         584.544         1.41865         1.41865        -5.45016        -5.45016
             667         584.537         584.537         1.68599         1.68599        -5.05406        -5.05406
             668         584.572         584.572         1.87133         1.87133        -4.68004        -4.68004
             669         584.635         584.635         1.98921         1.98921        -4.32709        -4.32709
             670         584.716         584.716         2.05224         2.05224        -3.99411        -3.99411
             671         584.809         584.809         2.07124         2.07124        -3.68004        -3.68004
             672         584.906         584.906         2.05543         2.05543        -3.38396        -3.38396
             673         585.005         585.005         2.01264         2.01264        -3.10503        -3.10503
             674         585.102         585.102         1.94944         1.94944        -2.84253        -2.84253
             675         585.195         585.195         1.87135         1.87135        -2.59580        -2.59580
             676         585.283         585.283         1.78294         1.78294        -2.36423        -2.36423
             677         585.365         585.365         1.68801         1.68801        -2.14722        -2.14722
             678         585.440         585.440         1.58966         1.58966        -1.94418        -1.94418
             679         585.509         585.509         1.49043         1.49043        -1.75448        -1.75448
             680         585.571         585.571         1.39236         1.39236        -1.57748        -1.57748
             681         585.626         585.626         1.29710         1.29710        -1.41252        -1.41252
             682         585.676         585.676         1.20594         1.20594        -1.25887        -1.25887
             683         585.719         585.719         1.11991         1.11991        -1.11579        -1.11579
             684         585.758         585.758         1.03980         1.03980    -982.507E-03    -982.507E-03
             685         585.791         585.791     966.230E-03     966.230E-03    -858.207E-03    -858.207E-03
             686         585.820         585.820     899.645E-03     899.645E-03    -742.054E-03    -742.054E-03
             687         585.844         585.844     840.389E-03     840.389E-03    -633.189E-03    -633.189E-03
             688         585.864         585.864     788.708E-03     788.708E-03    -530.736E-03    -530.736E-03
             689         585.881         585.881     744.776E-03     744.776E-03    -433.803E-03    -433.803E-03
             690         585.895         585.895     708.714E-03     708.714E-03    -341.484E-03    -341.484E-03
             691         585.905         585.905     680.603E-03     680.603E-03    -252.867E-03    -252.867E-03
             692         585.912         585.912     660.496E-03     660.496E-03    -167.033E-03    -167.033E-03
             693         585.916         585.916     648.402E-03     648.402E-03    -83.2936E-03    -83.2936E-03
             694         607.407         607.407        -13.6407        -13.6407         1.13523         1.13523
             695         604.337         604.337        -13.5860        -13.5860        -1.73752        -1.73752
             696         601.231         601.231        -12.6483        -12.6483        -3.91758        -3.91758
             697         598.306         598.306        -11.2005        -11.2005        -5.46586        -5.46586
             698         595.688         595.688        -9.51057        -9.51057        -6.47326        -6.47326
             699         593.440         593.440        -7.77708        -7.77708        -7.05056        -7.05056
             700         591.573         591.573        -6.12439        -6.12439        -7.30885        -7.30885
             701         590.061         590.061        -4.62235        -4.62235        -7.34103        -7.34103
             702         588.863         588.863        -3.30267        -3.30267        -7.22017        -7.22017
             703         587.933         587.933        -2.17292        -2.17292        -6.99928        -6.99928
             704         587.224         587.224        -1.22669        -1.22669        -6.71601        -6.71601
             705         586.694         586.694    -449.765E-03    -449.765E-03        -6.39596        -6.39596
             706         586.307         586.307     175.541E-03     175.541E-03        -6.05640        -6.05640
             707         586.032         586.032     668.101E-03     668.101E-03        -5.70872        -5.70872
             708         585.844         585.844         1.04638         1.04638        -5.36044        -5.36044
             709         585.722         585.722         1.32773         1.32773        -5.01648        -5.01648
             710         585.649         585.649         1.52792         1.52792        -4.68011        -4.68011
             711         585.612         585.612         1.66103         1.66103        -4.35352        -4.35352
             712         585.601         585.601         1.73937         1.73937        -4.03819        -4.03819
             713         585.608         585.608         1.77363         1.77363        -3.73517        -3.73517
             714         585.628         585.628         1.77296         1.77296        -3.44517        -3.44517
             715         585.654         585.654         1.74513         1.74513        -3.16867        -3.16867
             716         585.685         585.685         1.69667         1.69667        -2.90597        -2.90597
             717         585.717         585.717         1.63306         1.63306        -2.65720        -2.65720
             718         585.750         585.750         1.55882         1.55882        -2.42236        -2.42236
             719         585.781         585.781         1.47767         1.47767        -2.20131        -2.20131
             720         585.810         585.810         1.39267         1.39267        -1.99381        -1.99381
             721         585.836         585.836         1.30628         1.30628        -1.79948        -1.79948
             722         585.860         585.860         1.22048         1.22048        -1.61787        -1.61787
             723         585.881         585.881         1.13686         1.13686        -1.44842        -1.44842
             724         585.900         585.900         1.05666         1.05666        -1.29052        -1.29052
             725         585.916         585.916     980.855E-03     980.855E-03        -1.14345        -1.14345
             726         585.929         585.929     910.198E-03     910.198E-03        -1.00648        -1.00648
             727         585.941         585.941     845.259E-03     845.259E-03    -878.784E-03    -878.784E-03
             728         585.951         585.951     786.464E-03     786.464E-03    -759.529E-03    -759.529E-03
             729         585.959         585.959     734.129E-03     734.129E-03    -647.838E-03    -647.838E-03
             730         585.965         585.965     688.479E-03     688.479E-03    -542.808E-03    -542.808E-03
             731         585.971         585.971     649.673E-03     649.673E-03    -443.516E-03    -443.516E-03
             732         585.975         585.975     617.818E-03     617.818E-03    -349.026E-03    -349.026E-03
             733         585.978         585.978     592.988E-03     592.988E-03    -258.389E-03    -258.389E-03
             734         585.980         585.980     575.227E-03     575.227E-03    -170.649E-03    -170.649E-03
             735         585.981         585.981     564.544E-03     564.544E-03    -85.0976E-03    -85.0976E-03
             736         605.874         605.874        -10.6352        -10.6352         3.57775         3.57775
             737         603.784         603.784        -11.1203        -11.1203     962.085E-03     962.085E-03
             738         601.475         601.475        -10.7532        -10.7532        -1.22379        -1.22379
             739         599.158         599.158        -9.83019        -9.83019        -2.94093        -2.94093
             740         596.974         596.974        -8.59207        -8.59207        -4.21776        -4.21776
             741         595.005         595.005        -7.21814        -7.21814        -5.11018        -5.11018
             742         593.292         593.292        -5.83828        -5.83828        -5.68700        -5.68700
             743         591.843         591.843        -4.53506        -4.53506        -6.01692        -6.01692
             744         590.643         590.643        -3.35613        -3.35613        -6.15961        -6.15961
             745         589.667         589.667        -2.32364        -2.32364        -6.16410        -6.16410
             746         588.885         588.885        -1.44295        -1.44295        -6.06832        -6.06832
             747         588.266         588.266    -709.000E-03    -709.000E-03        -5.90118        -5.90118
             748         587.781         587.781    -110.639E-03    -110.639E-03        -5.68415        -5.68415
             749         587.404         587.404     366.245E-03     366.245E-03        -5.43323        -5.43323
             750         587.114         587.114     736.886E-03     736.886E-03        -5.16025        -5.16025
             751         586.892         586.892         1.01635         1.01635        -4.87411        -4.87411
             752         586.722         586.722         1.21885         1.21885        -4.58147        -4.58147
             753         586.593         586.593         1.35736         1.35736        -4.28744        -4.28744
             754         586.495         586.495         1.44344         1.44344        -3.99593        -3.99593
             755         586.420         586.420         1.48719         1.48719        -3.70996        -3.70996
             756         586.362         586.362         1.49733         1.49733        -3.43184        -3.43184
             757         586.317         586.317         1.48126         1.48126        -3.16334        -3.16334
             758         586.280         586.280         1.44525         1.44525        -2.90576        -2.90576
             759         586.251         586.251         1.39449         1.39449        -2.66003        -2.66003
             760         586.226         586.226         1.33332         1.33332        -2.42674        -2.42674
             761         586.204         586.204         1.26527         1.26527        -2.20624        -2.20624
             762         586.185         586.185         1.19321         1.19321        -1.99862        -1.99862
             763         586.168         586.168         1.11948         1.11948        -1.80377        -1.80377
             764         586.152         586.152         1.04592         1.04592        -1.62143        -1.62143
             765         586.138         586.138     974.018E-03     974.018E-03        -1.45116        -1.45116
             766         586.124         586.124     904.920E-03     904.920E-03        -1.29244        -1.29244
             767         586.111         586.111     839.527E-03     839.527E-03        -1.14463        -1.14463
             768         586.100         586.100     778.524E-03     778.524E-03        -1.00701        -1.00701
             769         586.089         586.089     722.430E-03     722.430E-03    -878.801E-03    -878.801E-03
             770         586.079         586.079     671.632E-03     671.632E-03    -759.155E-03    -759.155E-03
             771         586.070         586.070     626.409E-03     626.409E-03    -647.200E-03    -647.200E-03
             772         586.062         586.062     586.963E-03     586.963E-03    -542.024E-03    -542.024E-03
             773         586.055         586.055     553.432E-03     553.432E-03    -442.694E-03    -442.694E-03
             774         586.050         586.050     525.909E-03     525.909E-03    -348.257E-03    -348.257E-03
             775         586.045         586.045     504.458E-03     504.458E-03    -257.745E-03    -257.745E-03
             776         586.042         586.042     489.114E-03     489.114E-03    -170.188E-03    -170.188E-03
             777         586.040         586.040     479.887E-03     479.887E-03    -84.8701E-03    -84.8701E-03
             778         604.072         604.072        -8.07454        -8.07454         5.09685         5.09685
             779         602.754         602.754        -8.82520        -8.82520         2.84071         2.84071
             780         601.145         601.145        -8.83115        -8.83115     801.250E-03     801.250E-03
             781         599.411         599.411        -8.30525        -8.30525    -932.048E-03    -932.048E-03
             782         597.683         597.683        -7.44010        -7.44010        -2.33167        -2.33167
             783         596.050         596.050        -6.39404        -6.39404        -3.41149        -3.41149
             784         594.567         594.567        -5.28566        -5.28566        -4.20506        -4.20506
             785         593.259         593.259        -4.19948        -4.19948        -4.75518        -4.75518
             786         592.131         592.131        -3.18916        -3.18916        -5.10569        -5.10569
             787         591.176         591.176        -2.28523        -2.28523        -5.29653        -5.29653
             788         590.376         590.376        -1.50108        -1.50108        -5.36224        -5.36224
             789         589.713         589.713    -838.596E-03    -838.596E-03        -5.33128        -5.33128
             790         589.165         589.165    -292.332E-03    -292.332E-03        -5.22684        -5.22684
             791         588.714         588.714     147.441E-03     147.441E-03        -5.06744        -5.06744
             792         588.343         588.343     492.541E-03     492.541E-03        -4.86789        -4.86789
             793         588.036         588.036     755.475E-03     755.475E-03        -4.63997        -4.63997
             794         587.781         587.781     948.490E-03     948.490E-03        -4.39308        -4.39308
             795         587.567         587.567         1.08305         1.08305        -4.13471        -4.13471
             796         587.386         587.386         1.16952         1.16952        -3.87085        -3.87085
             797         587.232         587.232         1.21708         1.21708        -3.60623        -3.60623
             798         587.098         587.098         1.23368         1.23368        -3.34458        -3.34458
             799         586.981         586.981         1.22611         1.22611        -3.08880        -3.08880
             800         586.877         586.877         1.20011         1.20011        -2.84112        -2.84112
             801         586.785         586.785         1.16045         1.16045        -2.60317        -2.60317
             802         586.702         586.702         1.11108         1.11108        -2.37610        -2.37610
             803         586.627         586.627         1.05522         1.05522        -2.16067        -2.16067
             804         586.559         586.559     995.510E-03     995.510E-03        -1.95729        -1.95729
             805         586.497         586.497     934.036E-03     934.036E-03        -1.76610        -1.76610
             806         586.441         586.441     872.478E-03     872.478E-03        -1.58699        -1.58699
             807         586.390         586.390     812.156E-03     812.156E-03        -1.41968        -1.41968
             808         586.343         586.343     754.100E-03     754.100E-03        -1.26371        -1.26371
             809         586.301         586.301     699.105E-03     699.105E-03        -1.11852        -1.11852
             810         586.263         586.263     647.775E-03     647.775E-03    -983.422E-03    -983.422E-03
             811         586.229         586.229     600.565E-03     600.565E-03    -857.669E-03    -857.669E-03
             812         586.199         586.199     557.808E-03     557.808E-03    -740.442E-03    -740.442E-03
             813         586.173         586.173     519.746E-03     519.746E-03    -630.874E-03    -630.874E-03
             814         586.150         586.150     486.550E-03     486.550E-03    -528.064E-03    -528.064E-03
             815         586.132         586.132     458.336E-03     458.336E-03    -431.083E-03    -431.083E-03
             816         586.116         586.116     435.182E-03     435.182E-03    -338.982E-03    -338.982E-03
             817         586.104         586.104     417.136E-03     417.136E-03    -250.797E-03    -250.797E-03
             818         586.096         586.096     404.230E-03     404.230E-03    -165.560E-03    -165.560E-03
             819         586.091         586.091     396.472E-03     396.472E-03    -82.5667E-03    -82.5667E-03
             820         602.246         602.246        -5.97809        -5.97809         5.92744         5.92744
             821         601.524         601.524        -6.79709        -6.79709         4.04457         4.04457
             822         600.499         600.499        -7.00769        -7.00769         2.22317         2.22317
             823         599.292         599.292        -6.75328        -6.75328     575.517E-03     575.517E-03
             824         598.008         598.008        -6.17827        -6.17827    -840.531E-03    -840.531E-03
             825         596.730         596.730        -5.41022        -5.41022        -2.00513        -2.00513
             826         595.514         595.514        -4.55252        -4.55252        -2.92465        -2.92465
             827         594.394         594.394        -3.68170        -3.68170        -3.61960        -3.61960
             828         593.388         593.388        -2.85095        -2.85095        -4.11774        -4.11774
             829         592.499         592.499        -2.09314        -2.09314        -4.44885        -4.44885
             830         591.723         591.723        -1.42582        -1.42582        -4.64152        -4.64152
             831         591.049         591.049    -855.272E-03    -855.272E-03        -4.72180        -4.72180
             832         590.467         590.467    -380.208E-03    -380.208E-03        -4.71238        -4.71238
             833         589.964         589.964     5.42796E-03     5.42796E-03        -4.63274        -4.63274
             834         589.529         589.529     310.360E-03     310.360E-03        -4.49924        -4.49924
             835         589.149         589.149     544.497E-03     544.497E-03        -4.32554        -4.32554
             836         588.817         588.817     717.957E-03     717.957E-03        -4.12291        -4.12291
             837         588.525         588.525     840.433E-03     840.433E-03        -3.90064        -3.90064
             838         588.265         588.265     920.839E-03     920.839E-03        -3.66623        -3.66623
             839         588.033         588.033     967.130E-03     967.130E-03        -3.42579        -3.42579
             840         587.825         587.825     986.247E-03     986.247E-03        -3.18415        -3.18415
             841         587.637         587.637     984.138E-03     984.138E-03        -2.94514        -2.94514
             842         587.466         587.466     965.825E-03     965.825E-03        -2.71168        -2.71168
             843         587.311         587.311     935.493E-03     935.493E-03        -2.48598        -2.48598
             844         587.169         587.169     896.595E-03     896.595E-03        -2.26966        -2.26966
             845         587.040         587.040     851.945E-03     851.945E-03        -2.06378        -2.06378
             846         586.923         586.923     803.819E-03     803.819E-03        -1.86903        -1.86903
             847         586.815         586.815     754.036E-03     754.036E-03        -1.68573        -1.68573
             848         586.718         586.718     704.040E-03     704.040E-03        -1.51392        -1.51392
             849         586.630         586.630     654.962E-03     654.962E-03        -1.35343        -1.35343
             850         586.550         586.550     607.681E-03     607.681E-03        -1.20387        -1.20387
             851         586.478         586.478     562.870E-03     562.870E-03        -1.06475        -1.06475
             852         586.414         586.414     521.038E-03     521.038E-03    -935.425E-03    -935.425E-03
             853         586.357         586.357     482.564E-03     482.564E-03    -815.185E-03    -815.185E-03
             854         586.307         586.307     447.726E-03     447.726E-03    -703.244E-03    -703.244E-03
             855         586.264         586.264     416.720E-03     416.720E-03    -598.762E-03    -598.762E-03
             856         586.227         586.227     389.684E-03     389.684E-03    -500.865E-03    -500.865E-03
             857         586.196         586.196     366.712E-03     366.712E-03    -408.647E-03    -408.647E-03
             858         586.171         586.171     347.864E-03     347.864E-03    -321.184E-03    -321.184E-03
             859         586.152         586.152     333.177E-03     333.177E-03    -237.538E-03    -237.538E-03
             860         586.138         586.138     322.675E-03     322.675E-03    -156.763E-03    -156.763E-03
             861         586.130         586.130     316.364E-03     316.364E-03    -78.1873E-03    -78.1873E-03
             862         600.523         600.523        -4.30250        -4.30250         6.24410         6.24410
             863         600.268         600.268        -5.06141        -5.06141         4.70322         4.70322
             864         599.730         599.730        -5.35126        -5.35126         3.12315         3.12315
             865         598.988         598.988        -5.26285        -5.26285         1.61781         1.61781
             866         598.119         598.119        -4.89853        -4.89853     260.685E-03     260.685E-03
             867         597.190         597.190        -4.35562        -4.35562    -909.139E-03    -909.139E-03
             868         596.253         596.253        -3.71692        -3.71692        -1.87743        -1.87743
             869         595.344         595.344        -3.04760        -3.04760        -2.64771        -2.64771
             870         594.486         594.486        -2.39452        -2.39452        -3.23405        -3.23405
             871         593.691         593.691        -1.78890        -1.78890        -3.65639        -3.65639
             872         592.964         592.964        -1.24875        -1.24875        -3.93702        -3.93702
             873         592.303         592.303    -782.371E-03    -782.371E-03        -4.09827        -4.09827
             874         591.704         591.704    -390.973E-03    -390.973E-03        -4.16118        -4.16118
             875         591.164         591.164    -71.1991E-03    -71.1991E-03        -4.14482        -4.14482
             876         590.674         590.674     183.079E-03     183.079E-03        -4.06600        -4.06600
             877         590.231         590.231     379.387E-03     379.387E-03        -3.93921        -3.93921
             878         589.827         589.827     525.706E-03     525.706E-03        -3.77677        -3.77677
             879         589.459         589.459     629.862E-03     629.862E-03        -3.58899        -3.58899
             880         589.123         589.123     699.146E-03     699.146E-03        -3.38439        -3.38439
             881         588.815         588.815     740.119E-03     740.119E-03        -3.16990        -3.16990
             882         588.533         588.533     758.535E-03     758.535E-03        -2.95111        -2.95111
             883         588.274         588.274     759.336E-03     759.336E-03        -2.73241        -2.73241
             884         588.036         588.036     746.693E-03     746.693E-03        -2.51723        -2.51723
             885         587.817         587.817     724.084E-03     724.084E-03        -2.30815        -2.30815
             886         587.617         587.617     694.367E-03     694.367E-03        -2.10704        -2.10704
             887         587.434         587.434     659.870E-03     659.870E-03        -1.91524        -1.91524
             888         587.267         587.267     622.465E-03     622.465E-03        -1.73356        -1.73356
             889         587.114         587.114     583.645E-03     583.645E-03        -1.56248        -1.56248
             890         586.976         586.976     544.588E-03     544.588E-03        -1.40213        -1.40213
             891         586.851         586.851     506.212E-03     506.212E-03        -1.25240        -1.25240
             892         586.738         586.738     469.228E-03     469.228E-03        -1.11299        -1.11299
             893         586.637         586.637     434.175E-03     434.175E-03    -983.455E-03    -983.455E-03
             894         586.547         586.547     401.458E-03     401.458E-03    -863.201E-03    -863.201E-03
             895         586.468         586.468     371.378E-03     371.378E-03    -751.559E-03    -751.559E-03
             896         586.398         586.398     344.150E-03     344.150E-03    -647.788E-03    -647.788E-03
             897         586.338         586.338     319.928E-03     319.928E-03    -551.095E-03    -551.095E-03
             898         586.287         586.287     298.816E-03     298.816E-03    -460.648E-03    -460.648E-03
             899         586.245         586.245     280.884E-03     280.884E-03    -375.588E-03    -375.588E-03
             900         586.210         586.210     266.176E-03     266.176E-03    -295.036E-03    -295.036E-03
             901         586.184         586.184     254.718E-03     254.718E-03    -218.103E-03    -218.103E-03
             902         586.165         586.165     246.525E-03     246.525E-03    -143.891E-03    -143.891E-03
             903         586.154         586.154     241.604E-03     241.604E-03    -71.7800E-03    -71.7800E-03
             904         598.964         598.964        -2.98095        -2.98095         6.15680         6.15680
             905         599.099         599.099        -3.60759        -3.60759         4.91190         4.91190
             906         598.979         598.979        -3.89217        -3.89217         3.57049         3.57049
             907         598.650         598.650        -3.89013        -3.89013         2.23820         2.23820
             908         598.162         598.162        -3.67021        -3.67021     991.288E-03     991.288E-03
             909         597.566         597.566        -3.30214        -3.30214    -121.072E-03    -121.072E-03
             910         596.903         596.903        -2.84826        -2.84826        -1.07295        -1.07295
             911         596.208         596.208        -2.35926        -2.35926        -1.85574        -1.85574
             912         595.507         595.507        -1.87334        -1.87334        -2.47343        -2.47343
             913         594.816         594.816        -1.41661        -1.41661        -2.93788        -2.93788
             914         594.147         594.147        -1.00524        -1.00524        -3.26554        -3.26554
             915         593.508         593.508    -647.336E-03    -647.336E-03        -3.47484        -3.47484
             916         592.901         592.901    -345.250E-03    -345.250E-03        -3.58445        -3.58445
             917         592.327         592.327    -97.3276E-03    -97.3276E-03        -3.61215        -3.61215
             918         591.788         591.788     100.537E-03     100.537E-03        -3.57421        -3.57421
             919         591.282         591.282     253.794E-03     253.794E-03        -3.48507        -3.48507
             920         590.809         590.809     368.418E-03     368.418E-03        -3.35721        -3.35721
             921         590.366         590.366     450.373E-03     450.373E-03        -3.20125        -3.20125
             922         589.953         589.953     505.281E-03     505.281E-03        -3.02603        -3.02603
             923         589.569         589.569     538.228E-03     538.228E-03        -2.83880        -2.83880
             924         589.212         589.212     553.689E-03     553.689E-03        -2.64540        -2.64540
             925         588.882         588.882     555.509E-03     555.509E-03        -2.45048        -2.45048
             926         588.576         588.576     546.938E-03     546.938E-03        -2.25763        -2.25763
             927         588.295         588.295     530.676E-03     530.676E-03        -2.06957        -2.06957
             928         588.036         588.036     508.938E-03     508.938E-03        -1.88829        -1.88829
             929         587.799         587.799     483.523E-03     483.523E-03        -1.71519        -1.71519
             930         587.583         587.583     455.872E-03     455.872E-03        -1.55117        -1.55117
             931         587.386         587.386     427.128E-03     427.128E-03        -1.39674        -1.39674
             932         587.207         587.207     398.191E-03     398.191E-03        -1.25209        -1.25209
             933         587.046         587.046     369.757E-03     369.757E-03        -1.11716        -1.11716
             934         586.901         586.901     342.361E-03     342.361E-03    -991.699E-03    -991.699E-03
             935         586.772         586.772     316.408E-03     316.408E-03    -875.293E-03    -875.293E-03
             936         586.657         586.657     292.199E-03     292.199E-03    -767.414E-03    -767.414E-03
             937         586.556         586.556     269.954E-03     269.954E-03    -667.445E-03    -667.445E-03
             938         586.468         586.468     249.831E-03     249.831E-03    -574.703E-03    -574.703E-03
             939         586.392         586.392     231.941E-03     231.941E-03    -488.457E-03    -488.457E-03
             940         586.327         586.327     216.358E-03     216.358E-03    -407.939E-03    -407.939E-03
             941         586.274         586.274     203.128E-03     203.128E-03    -332.360E-03    -332.360E-03
             942         586.230         586.230     192.279E-03     192.279E-03    -260.914E-03    -260.914E-03
             943         586.197         586.197     183.831E-03     183.831E-03    -192.781E-03    -192.781E-03
             944         586.174         586.174     177.789E-03     177.789E-03    -127.139E-03    -127.139E-03
             945         586.160         586.160     174.162E-03     174.162E-03    -63.4429E-03    -63.4429E-03
             946         597.599         597.599        -1.94893        -1.94893         5.71724         5.71724
             947         598.093         598.093        -2.41150        -2.41150         4.72575         4.72575
             948         598.357         598.357        -2.64192        -2.64192         3.61367         3.61367
             949         598.407         598.407        -2.67226        -2.67226         2.47324         2.47324
             950         598.272         598.272        -2.54625        -2.54625         1.37624         1.37624
             951         597.985         597.985        -2.31040        -2.31040     373.239E-03     373.239E-03
             952         597.581         597.581        -2.00787        -2.00787    -504.540E-03    -504.540E-03
             953         597.088         597.088        -1.67489        -1.67489        -1.24223        -1.24223
             954         596.535         596.535        -1.33931        -1.33931        -1.83723        -1.83723
             955         595.942         595.942        -1.02088        -1.02088        -2.29574        -2.29574
             956         595.327         595.327    -732.032E-03    -732.032E-03        -2.62949        -2.62949
             957         594.704         594.704    -479.486E-03    -479.486E-03        -2.85328        -2.85328
             958         594.083         594.083    -265.547E-03    -265.547E-03        -2.98309        -2.98309
             959         593.473         593.473    -89.5309E-03    -89.5309E-03        -3.03479        -3.03479
             960         592.880         592.880     51.1965E-03     51.1965E-03        -3.02328        -3.02328
             961         592.308         592.308     160.335E-03     160.335E-03        -2.96205        -2.96205
             962         591.760         591.760     242.054E-03     242.054E-03        -2.86293        -2.86293
             963         591.240         591.240     300.565E-03     300.565E-03        -2.73605        -2.73605
             964         590.748         590.748     339.864E-03     339.864E-03        -2.58988        -2.58988
             965         590.286         590.286     363.580E-03     363.580E-03        -2.43141        -2.43141
             966         589.853         589.853     374.909E-03     374.909E-03        -2.26626        -2.26626
             967         589.450         589.450     376.598E-03     376.598E-03        -2.09888        -2.09888
             968         589.077         589.077     370.960E-03     370.960E-03        -1.93273        -1.93273
             969         588.732         588.732     359.917E-03     359.917E-03        -1.77041        -1.77041
             970         588.415         588.415     345.041E-03     345.041E-03        -1.61383        -1.61383
             971         588.125         588.125     327.600E-03     327.600E-03        -1.46431        -1.46431
             972         587.860         587.860     308.610E-03     308.610E-03        -1.32271        -1.32271
             973         587.620         587.620     288.870E-03     288.870E-03        -1.18952        -1.18952
             974         587.403         587.403     269.008E-03     269.008E-03        -1.06493        -1.06493
             975         587.207         587.207     249.506E-03     249.506E-03    -948.908E-03    -948.908E-03
             976         587.032         587.032     230.732E-03     230.732E-03    -841.215E-03    -841.215E-03
             977         586.876         586.876     212.963E-03     212.963E-03    -741.490E-03    -741.490E-03
             978         586.738         586.738     196.403E-03     196.403E-03    -649.263E-03    -649.263E-03
             979         586.617         586.617     181.201E-03     181.201E-03    -563.986E-03    -563.986E-03
             980         586.511         586.511     167.460E-03     167.460E-03    -485.052E-03    -485.052E-03
             981         586.420         586.420     155.253E-03     155.253E-03    -411.813E-03    -411.813E-03
             982         586.344         586.344     144.627E-03     144.627E-03    -343.591E-03    -343.591E-03
             983         586.280         586.280     135.613E-03     135.613E-03    -279.693E-03    -279.693E-03
             984         586.229         586.229     128.225E-03     128.225E-03    -219.410E-03    -219.410E-03
             985         586.189         586.189     122.470E-03     122.470E-03    -162.023E-03    -162.023E-03
             986         586.161         586.161     118.353E-03     118.353E-03    -106.811E-03    -106.811E-03
             987         586.145         586.145     115.884E-03     115.884E-03    -53.3319E-03    -53.3319E-03
             988         596.457         596.457        -1.15568        -1.15568         4.92741         4.92741
             989         597.323         597.323        -1.45291        -1.45291         4.16108         4.16108
             990         597.965         597.965        -1.60855        -1.60855         3.27609         3.27609
             991         598.379         598.379        -1.64010        -1.64010         2.34838         2.34838
             992         598.575         598.575        -1.57288        -1.57288         1.43966         1.43966
             993         598.575         598.575        -1.43493        -1.43493     595.851E-03     595.851E-03
             994         598.403         598.403        -1.25289        -1.25289    -152.884E-03    -152.884E-03
             995         598.088         598.088        -1.04953        -1.04953    -790.040E-03    -790.040E-03
             996         597.658         597.658    -842.754E-03    -842.754E-03        -1.31026        -1.31026
             997         597.141         597.141    -645.337E-03    -645.337E-03        -1.71630        -1.71630
             998         596.559         596.559    -465.573E-03    -465.573E-03        -2.01646        -2.01646
             999         595.933         595.933    -307.979E-03    -307.979E-03        -2.22231        -2.22231
            1000         595.282         595.282    -174.286E-03    -174.286E-03        -2.34692        -2.34692
            1001         594.620         594.620    -64.2078E-03    -64.2078E-03        -2.40364        -2.40364
            1002         593.960         593.960     23.8039E-03     23.8039E-03        -2.40524        -2.40524
            1003         593.311         593.311     92.0340E-03     92.0340E-03        -2.36336        -2.36336
            1004         592.681         592.681     143.084E-03     143.084E-03        -2.28830        -2.28830
            1005         592.075         592.075     179.604E-03     179.604E-03        -2.18888        -2.18888
            1006         591.499         591.499     204.111E-03     204.111E-03        -2.07252        -2.07252
            1007         590.954         590.954     218.894E-03     218.894E-03        -1.94531        -1.94531
            1008         590.443         590.443     225.968E-03     225.968E-03        -1.81213        -1.81213
            1009         589.967         589.967     227.059E-03     227.059E-03        -1.67685        -1.67685
            1010         589.525         589.525     223.620E-03     223.620E-03        -1.54245        -1.54245
            1011         589.117         589.117     216.853E-03     216.853E-03        -1.41115        -1.41115
            1012         588.743         588.743     207.736E-03     207.736E-03        -1.28458        -1.28458
            1013         588.402         588.402     197.058E-03     197.058E-03        -1.16387        -1.16387
            1014         588.091         588.091     185.445E-03     185.445E-03        -1.04973        -1.04973
            1015         587.809         587.809     173.392E-03     173.392E-03    -942.561E-03    -942.561E-03
            1016         587.555         587.555     161.280E-03     161.280E-03    -842.514E-03    -842.514E-03
            1017         587.328         587.328     149.403E-03     149.403E-03    -749.539E-03    -749.539E-03
            1018         587.124         587.124     137.985E-03     137.985E-03    -663.439E-03    -663.439E-03
            1019         586.944         586.944     127.191E-03     127.191E-03    -583.900E-03    -583.900E-03
            1020         586.784         586.784     117.143E-03     117.143E-03    -510.522E-03    -510.522E-03
            1021         586.645         586.645     107.928E-03     107.928E-03    -442.845E-03    -442.845E-03
            1022         586.524         586.524     99.6075E-03     99.6075E-03    -380.363E-03    -380.363E-03
            1023         586.420         586.420     92.2219E-03     92.2219E-03    -322.537E-03    -322.537E-03
            1024         586.332         586.332     85.7981E-03     85.7981E-03    -268.809E-03    -268.809E-03
            1025         586.260         586.260     80.3519E-03     80.3519E-03    -218.605E-03    -218.605E-03
            1026         586.201         586.201     75.8947E-03     75.8947E-03    -171.345E-03    -171.345E-03
            1027         586.157         586.157     72.4222E-03     72.4222E-03    -126.452E-03    -126.452E-03
            1028         586.125         586.125     69.9272E-03     69.9272E-03    -83.3300E-03    -83.3300E-03
            1029         586.107         586.107     68.4301E-03     68.4301E-03    -41.6530E-03    -41.6530E-03
            1030         595.582         595.582    -572.731E-03    -572.731E-03         3.74383         3.74383
            1031         596.870         596.870    -727.314E-03    -727.314E-03         3.19829         3.19829
            1032         597.916         597.916    -810.362E-03    -810.362E-03         2.55718         2.55718
            1033         598.696         598.696    -830.119E-03    -830.119E-03         1.87707         1.87707
            1034         599.208         599.208    -799.041E-03    -799.041E-03         1.20470         1.20470
            1035         599.466         599.466    -731.132E-03    -731.132E-03     575.642E-03     575.642E-03
            1036         599.490         599.490    -639.954E-03    -639.954E-03     14.0479E-03     14.0479E-03
            1037         599.313         599.313    -537.271E-03    -537.271E-03    -466.342E-03    -466.342E-03
            1038         598.966         598.966    -432.343E-03    -432.343E-03    -860.301E-03    -860.301E-03
            1039         598.484         598.484    -331.901E-03    -331.901E-03        -1.16912        -1.16912
            1040         597.897         597.897    -240.280E-03    -240.280E-03        -1.39852        -1.39852
            1041         597.234         597.234    -159.916E-03    -159.916E-03        -1.55692        -1.55692
            1042         596.523         596.523    -91.7320E-03    -91.7320E-03        -1.65409        -1.65409
            1043         595.783         595.783    -35.6252E-03    -35.6252E-03        -1.70008        -1.70008
            1044         595.034         595.034     9.19437E-03     9.19437E-03        -1.70456        -1.70456
            1045         594.291         594.291     43.8950E-03     43.8950E-03        -1.67639        -1.67639
            1046         593.564         593.564     69.8181E-03     69.8181E-03        -1.62338        -1.62338
            1047         592.863         592.863     88.3294E-03     88.3294E-03        -1.55224        -1.55224
            1048         592.195         592.195     100.726E-03     100.726E-03        -1.46855        -1.46855
            1049         591.562         591.562     108.185E-03     108.185E-03        -1.37690        -1.37690
            1050         590.970         590.970     111.740E-03     111.740E-03        -1.28095        -1.28095
            1051         590.418         590.418     112.277E-03     112.277E-03        -1.18358        -1.18358
            1052         589.908         589.908     110.534E-03     110.534E-03        -1.08698        -1.08698
            1053         589.438         589.438     107.125E-03     107.125E-03    -992.793E-03    -992.793E-03
            1054         589.009         589.009     102.544E-03     102.544E-03    -902.184E-03    -902.184E-03
            1055         588.618         588.618     97.1906E-03     97.1906E-03    -815.959E-03    -815.959E-03
            1056         588.263         588.263     91.3793E-03     91.3793E-03    -734.622E-03    -734.622E-03
            1057         587.943         587.943     85.3570E-03     85.3570E-03    -658.443E-03    -658.443E-03
            1058         587.656         587.656     79.3146E-03     79.3146E-03    -587.505E-03    -587.505E-03
            1059         587.399         587.399     73.3978E-03     73.3978E-03    -521.754E-03    -521.754E-03
            1060         587.171         587.171     67.7165E-03     67.7165E-03    -461.025E-03    -461.025E-03
            1061         586.968         586.968     62.3519E-03     62.3519E-03    -405.075E-03    -405.075E-03
            1062         586.791         586.791     57.3633E-03     57.3633E-03    -353.601E-03    -353.601E-03
            1063         586.636         586.636     52.7926E-03     52.7926E-03    -306.258E-03    -306.258E-03
            1064         586.501         586.501     48.6690E-03     48.6690E-03    -262.671E-03    -262.671E-03
            1065         586.387         586.387     45.0113E-03     45.0113E-03    -222.443E-03    -222.443E-03
            1066         586.290         586.290     41.8325E-03     41.8325E-03    -185.167E-03    -185.167E-03
            1067         586.210         586.210     39.1393E-03     39.1393E-03    -150.427E-03    -150.427E-03
            1068         586.146         586.146     36.9364E-03     36.9364E-03    -117.799E-03    -117.799E-03
            1069         586.098         586.098     35.2310E-03     35.2310E-03    -86.8648E-03    -86.8648E-03
            1070         586.063         586.063     33.9981E-03     33.9981E-03    -57.2218E-03    -57.2218E-03
            1071         586.043         586.043     33.2312E-03     33.2312E-03    -28.6965E-03    -28.6965E-03
            1072         595.049         595.049    -201.296E-03    -201.296E-03         2.09000         2.09000
            1073         596.851         596.851    -257.116E-03    -257.116E-03         1.79395         1.79395
            1074         598.350         598.350    -287.453E-03    -287.453E-03         1.44350         1.44350
            1075         599.510         599.510    -295.238E-03    -295.238E-03         1.07032         1.07032
            1076         600.323         600.323    -284.762E-03    -284.762E-03     700.417E-03     700.417E-03
            1077         600.801         600.801    -260.974E-03    -260.974E-03     353.754E-03     353.754E-03
            1078         600.972         600.972    -228.752E-03    -228.752E-03     43.9759E-03     43.9759E-03
            1079         600.873         600.873    -192.295E-03    -192.295E-03    -221.055E-03    -221.055E-03
            1080         600.547         600.547    -154.978E-03    -154.978E-03    -438.340E-03    -438.340E-03
            1081         600.039         600.039    -119.207E-03    -119.207E-03    -608.506E-03    -608.506E-03
            1082         599.391         599.391    -86.5759E-03    -86.5759E-03    -734.749E-03    -734.749E-03
            1083         598.642         598.642    -57.9519E-03    -57.9519E-03    -821.770E-03    -821.770E-03
            1084         597.826         597.826    -33.6802E-03    -33.6802E-03    -875.044E-03    -875.044E-03
            1085         596.972         596.972    -13.7204E-03    -13.7204E-03    -900.194E-03    -900.194E-03
            1086         596.104         596.104     2.21085E-03     2.21085E-03    -902.625E-03    -902.625E-03
            1087         595.242         595.242     14.5338E-03     14.5338E-03    -887.267E-03    -887.267E-03
            1088         594.401         594.401     23.7327E-03     23.7327E-03    -858.456E-03    -858.456E-03
            1089         593.591         593.591     30.2966E-03     30.2966E-03    -819.893E-03    -819.893E-03
            1090         592.821         592.821     34.6919E-03     34.6919E-03    -774.657E-03    -774.657E-03
            1091         592.095         592.095     37.3388E-03     37.3388E-03    -725.251E-03    -725.251E-03
            1092         591.417         591.417     38.6071E-03     38.6071E-03    -673.667E-03    -673.667E-03
            1093         590.789         590.789     38.8108E-03     38.8108E-03    -621.455E-03    -621.455E-03
            1094         590.211         590.211     38.2135E-03     38.2135E-03    -569.793E-03    -569.793E-03
            1095         589.681         589.681     37.0313E-03     37.0313E-03    -519.547E-03    -519.547E-03
            1096         589.198         589.198     35.4395E-03     35.4395E-03    -471.336E-03    -471.336E-03
            1097         588.761         588.761     33.5782E-03     33.5782E-03    -425.572E-03    -425.572E-03
            1098         588.367         588.367     31.5581E-03     31.5581E-03    -382.509E-03    -382.509E-03
            1099         588.012         588.012     29.4654E-03     29.4654E-03    -342.276E-03    -342.276E-03
            1100         587.696         587.696     27.3669E-03     27.3669E-03    -304.903E-03    -304.903E-03
            1101         587.414         587.414     25.3132E-03     25.3132E-03    -270.347E-03    -270.347E-03
            1102         587.164         587.164     23.3423E-03     23.3423E-03    -238.508E-03    -238.508E-03
            1103         586.945         586.945     21.4824E-03     21.4824E-03    -209.248E-03    -209.248E-03
            1104         586.752         586.752     19.7536E-03     19.7536E-03    -182.394E-03    -182.394E-03
            1105         586.585         586.585     18.1705E-03     18.1705E-03    -157.757E-03    -157.757E-03
            1106         586.440         586.440     16.7427E-03     16.7427E-03    -135.131E-03    -135.131E-03
            1107         586.318         586.318     15.4771E-03     15.4771E-03    -114.301E-03    -114.301E-03
            1108         586.214         586.214     14.3769E-03     14.3769E-03    -95.0452E-03    -95.0452E-03
            1109         586.129         586.129     13.4465E-03     13.4465E-03    -77.1397E-03    -77.1397E-03
            1110         586.061         586.061     12.6839E-03     12.6839E-03    -60.3596E-03    -60.3596E-03
            1111         586.010         586.010     12.0985E-03     12.0985E-03    -44.4729E-03    -44.4729E-03
            1112         585.973         585.973     11.6919E-03     11.6919E-03    -29.2646E-03    -29.2646E-03
            1113         585.951         585.951     11.3973E-03     11.3973E-03    -14.7872E-03    -14.7872E-03
            1114         597.227         597.227        -24.3794        -24.3794         23.1349         23.1349
            1115         589.967         589.967        -18.9892        -18.9892         22.5168         22.5168
            1116         584.973         584.973        -14.2389        -14.2389         20.7600         20.7600
            1117         581.733         581.733        -10.3309        -10.3309         18.5764         18.5764
            1118         579.754         579.754        -7.22311        -7.22311         16.3635         16.3635
            1119         578.641         578.641        -4.77811        -4.77811         14.3106         14.3106
            1120         578.108         578.108        -2.86242        -2.86242         12.4898         12.4898
            1121         577.959         577.959        -1.36125        -1.36125         10.9132         10.9132
            1122         578.060         578.060    -186.378E-03    -186.378E-03         9.56542         9.56542
            1123         578.320         578.320     730.507E-03     730.507E-03         8.41980         8.41980
            1124         578.678         578.678         1.44087         1.44087         7.44723         7.44723
            1125         579.094         579.094         1.98447         1.98447         6.61994         6.61994
            1126         579.540         579.540         2.39206         2.39206         5.91312         5.91312
            1127         579.997         579.997         2.68809         2.68809         5.30553         5.30553
            1128         580.452         580.452         2.89220         2.89220         4.77938         4.77938
            1129         580.897         580.897         3.02054         3.02054         4.32000         4.32000
            1130         581.326         581.326         3.08656         3.08656         3.91552         3.91552
            1131         581.735         581.735         3.10159         3.10159         3.55634         3.55634
            1132         582.122         582.122         3.07528         3.07528         3.23484         3.23484
            1133         582.486         582.486         3.01589         3.01589         2.94493         2.94493
            1134         582.827         582.827         2.93051         2.93051         2.68182         2.68182
            1135         583.143         583.143         2.82523         2.82523         2.44172         2.44172
            1136         583.435         583.435         2.70528         2.70528         2.22162         2.22162
            1137         583.704         583.704         2.57512         2.57512         2.01914         2.01914
            1138         583.951         583.951         2.43858         2.43858         1.83236         1.83236
            1139         584.177         584.177         2.29888         2.29888         1.65971         1.65971
            1140         584.382         584.382         2.15874         2.15874         1.49989         1.49989
            1141         584.568         584.568         2.02043         2.02043         1.35181         1.35181
            1142         584.736         584.736         1.88584         1.88584         1.21450         1.21450
            1143         584.887         584.887         1.75651         1.75651         1.08708         1.08708
            1144         585.022         585.022         1.63371         1.63371     968.772E-03     968.772E-03
            1145         585.142         585.142         1.51846         1.51846     858.809E-03     858.809E-03
            1146         585.249         585.249         1.41155         1.41155     756.473E-03     756.473E-03
            1147         585.342         585.342         1.31362         1.31362     661.057E-03     661.057E-03
            1148         585.423         585.423         1.22515         1.22515     571.867E-03     571.867E-03
            1149         585.492         585.492         1.14652         1.14652     488.214E-03     488.214E-03
            1150         585.551         585.551         1.07800         1.07800     409.412E-03     409.412E-03
            1151         585.600         585.600         1.01980         1.01980     334.775E-03     334.775E-03
            1152         585.639         585.639     972.049E-03     972.049E-03     263.615E-03     263.615E-03
            1153         585.669         585.669     934.860E-03     934.860E-03     195.246E-03     195.246E-03
            1154         585.690         585.690     908.295E-03     908.295E-03     128.981E-03     128.981E-03
            1155         585.703         585.703     892.368E-03     892.368E-03     64.2927E-03     64.2927E-03
            1156         582.794         582.794        -22.3202        -22.3202         32.4455         32.4455
            1157         576.872         576.872        -15.6630        -15.6630         28.3952         28.3952
            1158         573.762         573.762        -10.6399        -10.6399         24.2062         24.2062
            1159         572.404         572.404        -6.94597        -6.94597         20.4010         20.4010
            1160         572.084         572.084        -4.22821        -4.22821         17.1499         17.1499
            1161         572.355         572.355        -2.21225        -2.21225         14.4475         14.4475
            1162         572.948         572.948    -697.876E-03    -697.876E-03         12.2292         12.2292
            1163         573.703         573.703     450.266E-03     450.266E-03         10.4160         10.4160
            1164         574.528         574.528         1.32637         1.32637         8.93417         8.93417
            1165         575.369         575.369         1.99481         1.99481         7.71961         7.71961
            1166         576.194         576.194         2.50134         2.50134         6.71941         6.71941
            1167         576.987         576.987         2.87872         2.87872         5.89050         5.89050
            1168         577.739         577.739         3.15141         3.15141         5.19840         5.19840
            1169         578.447         578.447         3.33806         3.33806         4.61558         4.61558
            1170         579.109         579.109         3.45349         3.45349         4.12025         4.12025
            1171         579.726         579.726         3.50977         3.50977         3.69515         3.69515
            1172         580.300         580.300         3.51696         3.51696         3.32669         3.32669
            1173         580.832         580.832         3.48369         3.48369         3.00419         3.00419
            1174         581.324         581.324         3.41738         3.41738         2.71925         2.71925
            1175         581.779         581.779         3.32452         3.32452         2.46530         2.46530
            1176         582.198         582.198         3.21082         3.21082         2.23721         2.23721
            1177         582.583         582.583         3.08125         3.08125         2.03093         2.03093
            1178         582.936         582.936         2.94021         2.94021         1.84332         1.84332
            1179         583.259         583.259         2.79149         2.79149         1.67187         1.67187
            1180         583.554         583.554         2.63840         2.63840         1.51461         1.51461
            1181         583.823         583.823         2.48381         2.48381         1.36993         1.36993
            1182         584.066         584.066         2.33016         2.33016         1.23654         1.23654
            1183         584.287         584.287         2.17950         2.17950         1.11334         1.11334
            1184         584.486         584.486         2.03359         2.03359     999.400E-03     999.400E-03
            1185         584.665         584.665         1.89387         1.89387     893.907E-03     893.907E-03
            1186         584.825         584.825         1.76154         1.76154     796.122E-03     796.122E-03
            1187         584.967         584.967         1.63755         1.63755     705.369E-03     705.369E-03
            1188         585.093         585.093         1.52269         1.52269     621.010E-03     621.010E-03
            1189         585.203         585.203         1.41758         1.41758     542.433E-03     542.433E-03
            1190         585.299         585.299         1.32269         1.32269     469.044E-03     469.044E-03
            1191         585.382         585.382         1.23839         1.23839     400.262E-03     400.262E-03
            1192         585.452         585.452         1.16496         1.16496     335.513E-03     335.513E-03
            1193         585.510         585.510         1.10261         1.10261     274.227E-03     274.227E-03
            1194         585.557         585.557         1.05147         1.05147     215.838E-03     215.838E-03
            1195         585.593         585.593         1.01166         1.01166     159.783E-03     159.783E-03
            1196         585.618         585.618     983.254E-03     983.254E-03     105.499E-03     105.499E-03
            1197         585.633         585.633     966.264E-03     966.264E-03     52.5587E-03     52.5587E-03
            1198         560.746         560.746        -15.2949        -15.2949         38.2668         38.2668
            1199         559.493         559.493        -9.13120        -9.13120         30.6204         30.6204
            1200         560.305         560.305        -5.10115        -5.10115         24.4330         24.4330
            1201         562.008         562.008        -2.42688        -2.42688         19.5978         19.5978
            1202         564.007         564.007    -598.735E-03    -598.735E-03         15.8556         15.8556
            1203         566.023         566.023     692.021E-03     692.021E-03         12.9567         12.9567
            1204         567.932         567.932         1.62709         1.62709         10.6976         10.6976
            1205         569.687         569.687         2.31876         2.31876         8.92459         8.92459
            1206         571.277         571.277         2.83570         2.83570         7.52126         7.52126
            1207         572.709         572.709         3.22208         3.22208         6.40112         6.40112
            1208         573.996         573.996         3.50661         3.50661         5.49887         5.49887
            1209         575.152         575.152         3.70903         3.70903         4.76539         4.76539
            1210         576.193         576.193         3.84339         3.84339         4.16322         4.16322
            1211         577.133         577.133         3.92039         3.92039         3.66382         3.66382
            1212         577.983         577.983         3.94855         3.94855         3.24525         3.24525
            1213         578.754         578.754         3.93504         3.93504         2.89063         2.89063
            1214         579.455         579.455         3.88614         3.88614         2.58690         2.58690
            1215         580.094         580.094         3.80743         3.80743         2.32396         2.32396
            1216         580.676         580.676         3.70401         3.70401         2.09400         2.09400
            1217         581.207         581.207         3.58055         3.58055         1.89094         1.89094
            1218         581.692         581.692         3.44130         3.44130         1.71007         1.71007
            1219         582.134         582.134         3.29015         3.29015         1.54773         1.54773
            1220         582.537         582.537         3.13061         3.13061         1.40105         1.40105
            1221         582.904         582.904         2.96584         2.96584         1.26780         1.26780
            1222         583.238         583.238         2.79866         2.79866         1.14619         1.14619
            1223         583.541         583.541         2.63153         2.63153         1.03481         1.03481
            1224         583.816         583.816         2.46661         2.46661     932.519E-03     932.519E-03
            1225         584.064         584.064         2.30578         2.30578     838.361E-03     838.361E-03
            1226         584.288         584.288         2.15062         2.15062     751.536E-03     751.536E-03
            1227         584.489         584.489         2.00246         2.00246     671.354E-03     671.354E-03
            1228         584.668         584.668         1.86243         1.86243     597.202E-03     597.202E-03
            1229         584.828         584.828         1.73143         1.73143     528.525E-03     528.525E-03
            1230         584.969         584.969         1.61022         1.61022     464.807E-03     464.807E-03
            1231         585.093         585.093         1.49938         1.49938     405.561E-03     405.561E-03
            1232         585.201         585.201         1.39939         1.39939     350.322E-03     350.322E-03
            1233         585.294         585.294         1.31059         1.31059     298.637E-03     298.637E-03
            1234         585.373         585.373         1.23326         1.23326     250.065E-03     250.065E-03
            1235         585.439         585.439         1.16761         1.16761     204.170E-03     204.170E-03
            1236         585.491         585.491         1.11378         1.11378     160.526E-03     160.526E-03
            1237         585.531         585.531         1.07188         1.07188     118.707E-03     118.707E-03
            1238         585.560         585.560         1.04199         1.04199     78.2943E-03     78.2943E-03
            1239         585.577         585.577         1.02412         1.02412     38.9700E-03     38.9700E-03
            1240         534.307         534.307        -4.22389        -4.22389         35.7345         35.7345
            1241         540.855         540.855    -752.484E-03    -752.484E-03         26.5482         26.5482
            1242         546.988         546.988         1.13937         1.13937         20.0983         20.0983
            1243         552.303         552.303         2.23781         2.23781         15.5108         15.5108
            1244         556.792         556.792         2.92385         2.92385         12.1830         12.1830
            1245         560.559         560.559         3.38095         3.38095         9.72209         9.72209
            1246         563.723         563.723         3.70332         3.70332         7.87247         7.87247
            1247         566.394         566.394         3.93904         3.93904         6.46065         6.46065
            1248         568.664         568.664         4.11358         4.11358         5.36863         5.36863
            1249         570.607         570.607         4.24018         4.24018         4.51313         4.51313
            1250         572.283         572.283         4.32605         4.32605         3.83508         3.83508
            1251         573.741         573.741         4.37536         4.37536         3.29141         3.29141
            1252         575.018         575.018         4.39096         4.39096         2.85057         2.85057
            1253         576.144         576.144         4.37526         4.37526         2.48901         2.48901
            1254         577.143         577.143         4.33062         4.33062         2.18907         2.18907
            1255         578.035         578.035         4.25960         4.25960         1.93737         1.93737
            1256         578.835         578.835         4.16494         4.16494         1.72371         1.72371
            1257         579.556         579.556         4.04955         4.04955         1.54029         1.54029
            1258         580.206         580.206         3.91646         3.91646         1.38115         1.38115
            1259         580.795         580.795         3.76875         3.76875         1.24167         1.24167
            1260         581.328         581.328         3.60947         3.60947         1.11830         1.11830
            1261         581.813         581.813         3.44155         3.44155         1.00829         1.00829
            1262         582.253         582.253         3.26779         3.26779     909.495E-03     909.495E-03
            1263         582.652         582.652         3.09080         3.09080     820.243E-03     820.243E-03
            1264         583.014         583.014         2.91297         2.91297     739.219E-03     739.219E-03
            1265         583.343         583.343         2.73646         2.73646     665.373E-03     665.373E-03
            1266         583.639         583.639         2.56321         2.56321     597.858E-03     597.858E-03
            1267         583.907         583.907         2.39489         2.39489     535.979E-03     535.979E-03
            1268         584.148         584.148         2.23296         2.23296     479.153E-03     479.153E-03
            1269         584.365         584.365         2.07868         2.07868     426.881E-03     426.881E-03
            1270         584.558         584.558         1.93309         1.93309     378.724E-03     378.724E-03
            1271         584.730         584.730         1.79705         1.79705     334.291E-03     334.291E-03
            1272         584.883         584.883         1.67128         1.67128     293.220E-03     293.220E-03
            1273         585.016         585.016         1.55635         1.55635     255.177E-03     255.177E-03
            1274         585.133         585.133         1.45271         1.45271     219.843E-03     219.843E-03
            1275         585.233         585.233         1.36071         1.36071     186.914E-03     186.914E-03
            1276         585.318         585.318         1.28060         1.28060     156.097E-03     156.097E-03
            1277         585.388         585.388         1.21260         1.21260     127.107E-03     127.107E-03
            1278         585.445         585.445         1.15684         1.15684     99.6655E-03     99.6655E-03
            1279         585.489         585.489         1.11343         1.11343     73.5021E-03     73.5021E-03
            1280         585.519         585.519         1.08244         1.08244     48.3523E-03     48.3523E-03
            1281         585.537         585.537         1.06390         1.06390     24.0145E-03     24.0145E-03
            1282         511.624         511.624         6.57133         6.57133         21.8598         21.8598
            1283         526.252         526.252         6.43326         6.43326         15.3175         15.3175
            1284         537.158         537.158         6.07196         6.07196         11.1521         11.1521
            1285         545.435         545.435         5.72639         5.72639         8.35917         8.35917
            1286         551.849         551.849         5.45135         5.45135         6.41248         6.41248
            1287         556.911         556.911         5.24998         5.24998         5.01733         5.01733
            1288         560.973         560.973         5.10970         5.10970         3.99298         3.99298
            1289         564.281         564.281         5.01359         5.01359         3.22674         3.22674
            1290         567.012         567.012         4.94588         4.94588         2.64354         2.64354
            1291         569.297         569.297         4.89296         4.89296         2.19324         2.19324
            1292         571.229         571.229         4.84416         4.84416         1.84067         1.84067
            1293         572.882         572.882         4.79134         4.79134         1.56116         1.56116
            1294         574.309         574.309         4.72880         4.72880         1.33677         1.33677
            1295         575.554         575.554         4.65282         4.65282         1.15449         1.15449
            1296         576.647         576.647         4.56134         4.56134         1.00460         1.00460
            1297         577.614         577.614         4.45363         4.45363     879.894E-03     879.894E-03
            1298         578.474         578.474         4.33002         4.33002     774.920E-03     774.920E-03
            1299         579.244         579.244         4.19160         4.19160     685.560E-03     685.560E-03
            1300         579.936         579.936         4.04002         4.04002     608.672E-03     608.672E-03
            1301         580.559         580.559         3.87731         3.87731     541.857E-03     541.857E-03
            1302         581.123         581.123         3.70571         3.70571     483.272E-03     483.272E-03
            1303         581.632         581.632         3.52755         3.52755     431.496E-03     431.496E-03
            1304         582.094         582.094         3.34517         3.34517     385.426E-03     385.426E-03
            1305         582.512         582.512         3.16083         3.16083     344.201E-03     344.201E-03
            1306         582.890         582.890         2.97664         2.97664     307.141E-03     307.141E-03
            1307         583.233         583.233         2.79457         2.79457     273.705E-03     273.705E-03
            1308         583.542         583.542         2.61639         2.61639     243.453E-03     243.453E-03
            1309         583.821         583.821         2.44368         2.44368     216.025E-03     216.025E-03
            1310         584.073         584.073         2.27782         2.27782     191.118E-03     191.118E-03
            1311         584.298         584.298         2.11999         2.11999     168.472E-03     168.472E-03
            1312         584.499         584.499         1.97119         1.97119     147.861E-03     147.861E-03
            1313         584.678         584.678         1.83227         1.83227     129.085E-03     129.085E-03
            1314         584.836         584.836         1.70390         1.70390     111.961E-03     111.961E-03
            1315         584.975         584.975         1.58664         1.58664     96.3234E-03     96.3234E-03
            1316         585.096         585.096         1.48092         1.48092     82.0183E-03     82.0183E-03
            1317         585.201         585.201         1.38709         1.38709     68.9019E-03     68.9019E-03
            1318         585.289         585.289         1.30541         1.30541     56.8397E-03     56.8397E-03
            1319         585.362         585.362         1.23606         1.23606     45.7053E-03     45.7053E-03
            1320         585.421         585.421         1.17918         1.17918     35.3802E-03     35.3802E-03
            1321         585.466         585.466         1.13487         1.13487     25.7536E-03     25.7536E-03
            1322         585.498         585.498         1.10321         1.10321     16.7231E-03     16.7231E-03
            1323         585.517         585.517         1.08420         1.08420     8.21456E-03     8.21456E-03
            1324         503.717         503.717         10.5393         10.5393        -1.48804        -1.48804
            1325         521.586         521.586         8.81921         8.81921        -1.29864        -1.29864
            1326         534.176         534.176         7.61115         7.61115        -1.10345        -1.10345
            1327         543.439         543.439         6.76497         6.76497    -941.384E-03    -941.384E-03
            1328         550.464         550.464         6.17347         6.17347    -808.712E-03    -808.712E-03
            1329         555.923         555.923         5.76542         5.76542    -701.260E-03    -701.260E-03
            1330         560.251         560.251         5.48448         5.48448    -613.255E-03    -613.255E-03
            1331         563.743         563.743         5.29103         5.29103    -541.079E-03    -541.079E-03
            1332         566.604         566.604         5.15401         5.15401    -481.285E-03    -481.285E-03
            1333         568.982         568.982         5.05124         5.05124    -431.543E-03    -431.543E-03
            1334         570.984         570.984         4.96585         4.96585    -389.823E-03    -389.823E-03
            1335         572.688         572.688         4.88600         4.88600    -354.631E-03    -354.631E-03
            1336         574.154         574.154         4.80320         4.80320    -324.699E-03    -324.699E-03
            1337         575.428         575.428         4.71195         4.71195    -299.038E-03    -299.038E-03
            1338         576.545         576.545         4.60883         4.60883    -276.819E-03    -276.819E-03
            1339         577.530         577.530         4.49220         4.49220    -257.376E-03    -257.376E-03
            1340         578.405         578.405         4.36166         4.36166    -240.157E-03    -240.157E-03
            1341         579.187         579.187         4.21783         4.21783    -224.718E-03    -224.718E-03
            1342         579.888         579.888         4.06197         4.06197    -210.695E-03    -210.695E-03
            1343         580.519         580.519         3.89584         3.89584    -197.798E-03    -197.798E-03
            1344         581.089         581.089         3.72147         3.72147    -185.798E-03    -185.798E-03
            1345         581.604         581.604         3.54104         3.54104    -174.513E-03    -174.513E-03
            1346         582.069         582.069         3.35677         3.35677    -163.806E-03    -163.806E-03
            1347         582.491         582.491         3.17083         3.17083    -153.572E-03    -153.572E-03
            1348         582.873         582.873         2.98529         2.98529    -143.732E-03    -143.732E-03
            1349         583.218         583.218         2.80206         2.80206    -134.231E-03    -134.231E-03
            1350         583.530         583.530         2.62287         2.62287    -125.028E-03    -125.028E-03
            1351         583.811         583.811         2.44928         2.44928    -116.095E-03    -116.095E-03
            1352         584.064         584.064         2.28264         2.28264    -107.410E-03    -107.410E-03
            1353         584.291         584.291         2.12413         2.12413    -98.9584E-03    -98.9584E-03
            1354         584.493         584.493         1.97473         1.97473    -90.7247E-03    -90.7247E-03
            1355         584.673         584.673         1.83527         1.83527    -82.6955E-03    -82.6955E-03
            1356         584.833         584.833         1.70644         1.70644    -74.8546E-03    -74.8546E-03
            1357         584.972         584.972         1.58877         1.58877    -67.1830E-03    -67.1830E-03
            1358         585.094         585.094         1.48269         1.48269    -59.6574E-03    -59.6574E-03
            1359         585.199         585.199         1.38854         1.38854    -52.2492E-03    -52.2492E-03
            1360         585.287         585.287         1.30657         1.30657    -44.9241E-03    -44.9241E-03
            1361         585.361         585.361         1.23697         1.23697    -37.6414E-03    -37.6414E-03
            1362         585.420         585.420         1.17987         1.17987    -30.3535E-03    -30.3535E-03
            1363         585.466         585.466         1.13535         1.13535    -23.0053E-03    -23.0053E-03
            1364         585.498         585.498         1.10349         1.10349    -15.5334E-03    -15.5334E-03
            1365         585.517         585.517         1.08428         1.08428    -7.88338E-03    -7.88338E-03
            1366         517.074         517.074         3.96570         3.96570        -25.1335        -25.1335
            1367         530.107         530.107         4.54004         4.54004        -18.2090        -18.2090
            1368         539.936         539.936         4.67905         4.67905        -13.6534        -13.6534
            1369         547.492         547.492         4.68197         4.68197        -10.5081        -10.5081
            1370         553.409         553.409         4.65381         4.65381        -8.26390        -8.26390
            1371         558.119         558.119         4.63047         4.63047        -6.61983        -6.61983
            1372         561.926         561.926         4.62147         4.62147        -5.39005        -5.39005
            1373         565.046         565.046         4.62358         4.62358        -4.45340        -4.45340
            1374         567.636         567.636         4.63063         4.63063        -3.72903        -3.72903
            1375         569.812         569.812         4.63526         4.63526        -3.16099        -3.16099
            1376         571.660         571.660         4.63128         4.63128        -2.70992        -2.70992
            1377         573.246         573.246         4.61365         4.61365        -2.34738        -2.34738
            1378         574.621         574.621         4.57895         4.57895        -2.05259        -2.05259
            1379         575.823         575.823         4.52512         4.52512        -1.81005        -1.81005
            1380         576.881         576.881         4.45137         4.45137        -1.60813        -1.60813
            1381         577.820         577.820         4.35791         4.35791        -1.43801        -1.43801
            1382         578.657         578.657         4.24582         4.24582        -1.29295        -1.29295
            1383         579.407         579.407         4.11675         4.11675        -1.16777        -1.16777
            1384         580.081         580.081         3.97283         3.97283        -1.05849        -1.05849
            1385         580.690         580.690         3.81643         3.81643    -962.035E-03    -962.035E-03
            1386         581.241         581.241         3.65009         3.65009    -876.035E-03    -876.035E-03
            1387         581.739         581.739         3.47637         3.47637    -798.651E-03    -798.651E-03
            1388         582.190         582.190         3.29777         3.29777    -728.460E-03    -728.460E-03
            1389         582.600         582.600         3.11670         3.11670    -664.357E-03    -664.357E-03
            1390         582.970         582.970         2.93539         2.93539    -605.479E-03    -605.479E-03
            1391         583.305         583.305         2.75588         2.75588    -551.148E-03    -551.148E-03
            1392         583.608         583.608         2.58002         2.58002    -500.823E-03    -500.823E-03
            1393         583.881         583.881         2.40941         2.40941    -454.067E-03    -454.067E-03
            1394         584.127         584.127         2.24548         2.24548    -410.519E-03    -410.519E-03
            1395         584.347         584.347         2.08943         2.08943    -369.873E-03    -369.873E-03
            1396         584.544         584.544         1.94228         1.94228    -331.858E-03    -331.858E-03
            1397         584.719         584.719         1.80486         1.80486    -296.233E-03    -296.233E-03
            1398         584.873         584.873         1.67788         1.67788    -262.772E-03    -262.772E-03
            1399         585.009         585.009         1.56189         1.56189    -231.258E-03    -231.258E-03
            1400         585.127         585.127         1.45730         1.45730    -201.481E-03    -201.481E-03
            1401         585.228         585.228         1.36447         1.36447    -173.230E-03    -173.230E-03
            1402         585.314         585.314         1.28363         1.28363    -146.295E-03    -146.295E-03
            1403         585.386         585.386         1.21497         1.21497    -120.460E-03    -120.460E-03
            1404         585.443         585.443         1.15863         1.15863    -95.5077E-03    -95.5077E-03
            1405         585.487         585.487         1.11468         1.11468    -71.2128E-03    -71.2128E-03
            1406         585.519         585.519         1.08317         1.08317    -47.3451E-03    -47.3451E-03
            1407         585.537         585.537         1.06411         1.06411    -23.7274E-03    -23.7274E-03
            1408         545.506         545.506        -8.96873        -8.96873        -37.2292        -37.2292
            1409         548.971         548.971        -4.40307        -4.40307        -28.5389        -28.5389
            1410         552.984         552.984        -1.66415        -1.66415        -22.1776        -22.1776
            1411         556.815         556.815     74.7634E-03     74.7634E-03        -17.5003        -17.5003
            1412         560.250         560.250         1.23917         1.23917        -14.0116        -14.0116
            1413         563.254         563.254         2.05649         2.05649        -11.3741        -11.3741
            1414         565.858         565.858         2.65097         2.65097        -9.35323        -9.35323
            1415         568.110         568.110         3.09488         3.09488        -7.78577        -7.78577
            1416         570.061         570.061         3.42973         3.42973        -6.55589        -6.55589
            1417         571.759         571.759         3.68104         3.68104        -5.58040        -5.58040
            1418         573.245         573.245         3.86449         3.86449        -4.79844        -4.79844
            1419         574.552         574.552         3.99071         3.99071        -4.16504        -4.16504
            1420         575.709         575.709         4.06723         4.06723        -3.64649        -3.64649
            1421         576.739         576.739         4.10001         4.10001        -3.21734        -3.21734
            1422         577.660         577.660         4.09415         4.09415        -2.85821        -2.85821
            1423         578.488         578.488         4.05427         4.05427        -2.55423        -2.55423
            1424         579.234         579.234         3.98474         3.98474        -2.29399        -2.29399
            1425         579.909         579.909         3.88977         3.88977        -2.06865        -2.06865
            1426         580.521         580.521         3.77339         3.77339        -1.87141        -1.87141
            1427         581.076         581.076         3.63948         3.63948        -1.69698        -1.69698
            1428         581.581         581.581         3.49169         3.49169        -1.54128        -1.54128
            1429         582.041         582.041         3.33348         3.33348        -1.40115        -1.40115
            1430         582.459         582.459         3.16803         3.16803        -1.27410        -1.27410
            1431         582.838         582.838         2.99824         2.99824        -1.15823        -1.15823
            1432         583.183         583.183         2.82675         2.82675        -1.05202        -1.05202
            1433         583.495         583.495         2.65589         2.65589    -954.272E-03    -954.272E-03
            1434         583.777         583.777         2.48773         2.48773    -864.025E-03    -864.025E-03
            1435         584.032         584.032         2.32404         2.32404    -780.494E-03    -780.494E-03
            1436         584.261         584.261         2.16637         2.16637    -703.020E-03    -703.020E-03
            1437         584.467         584.467         2.01599         2.01599    -631.036E-03    -631.036E-03
            1438         584.650         584.650         1.87400         1.87400    -564.043E-03    -564.043E-03
            1439         584.813         584.813         1.74127         1.74127    -501.588E-03    -501.588E-03
            1440         584.957         584.957         1.61853         1.61853    -443.246E-03    -443.246E-03
            1441         585.084         585.084         1.50635         1.50635    -388.614E-03    -388.614E-03
            1442         585.194         585.194         1.40516         1.40516    -337.301E-03    -337.301E-03
            1443         585.289         585.289         1.31532         1.31532    -288.920E-03    -288.920E-03
            1444         585.369         585.369         1.23707         1.23707    -243.089E-03    -243.089E-03
            1445         585.435         585.435         1.17059         1.17059    -199.423E-03    -199.423E-03
            1446         585.489         585.489         1.11602         1.11602    -157.538E-03    -157.538E-03
            1447         585.530         585.530         1.07344         1.07344    -117.044E-03    -117.044E-03
            1448         585.559         585.559         1.04289         1.04289    -77.5497E-03    -77.5497E-03
            1449         585.576         585.576         1.02438         1.02438    -38.7574E-03    -38.7574E-03
            1450         574.580         574.580        -19.7999        -19.7999        -35.0013        -35.0013
            1451         570.388         570.388        -13.2458        -13.2458        -29.4492        -29.4492
            1452         568.817         568.817        -8.59540        -8.59540        -24.4147        -24.4147
            1453         568.676         568.676        -5.31179        -5.31179        -20.1858        -20.1858
            1454         569.266         569.266        -2.95009        -2.95009        -16.7444        -16.7444
            1455         570.210         570.210        -1.21946        -1.21946        -13.9734        -13.9734
            1456         571.299         571.299     72.4102E-03     72.4102E-03        -11.7479        -11.7479
            1457         572.424         572.424         1.04947         1.04947        -9.95734        -9.95734
            1458         573.526         573.526         1.79445         1.79445        -8.51096        -8.51096
            1459         574.575         574.575         2.36252         2.36252        -7.33602        -7.33602
            1460         575.559         575.559         2.79209         2.79209        -6.37516        -6.37516
            1461         576.475         576.475         3.11032         3.11032        -5.58332        -5.58332
            1462         577.322         577.322         3.33739         3.33739        -4.92519        -4.92519
            1463         578.105         578.105         3.48873         3.48873        -4.37307        -4.37307
            1464         578.827         578.827         3.57669         3.57669        -3.90529        -3.90529
            1465         579.492         579.492         3.61146         3.61146        -3.50485        -3.50485
            1466         580.104         580.104         3.60170         3.60170        -3.15845        -3.15845
            1467         580.668         580.668         3.55493         3.55493        -2.85569        -2.85569
            1468         581.186         581.186         3.47778         3.47778        -2.58844        -2.58844
            1469         581.662         581.662         3.37612         3.37612        -2.35036        -2.35036
            1470         582.099         582.099         3.25516         3.25516        -2.13650        -2.13650
            1471         582.499         582.499         3.11955         3.11955        -1.94299        -1.94299
            1472         582.865         582.865         2.97339         2.97339        -1.76682        -1.76682
            1473         583.199         583.199         2.82031         2.82031        -1.60561        -1.60561
            1474         583.504         583.504         2.66346         2.66346        -1.45750        -1.45750
            1475         583.781         583.781         2.50559         2.50559        -1.32098        -1.32098
            1476         584.031         584.031         2.34906         2.34906        -1.19484        -1.19484
            1477         584.258         584.258         2.19587         2.19587        -1.07806        -1.07806
            1478         584.462         584.462         2.04772         2.04772    -969.794E-03    -969.794E-03
            1479         584.645         584.645         1.90601         1.90601    -869.280E-03    -869.280E-03
            1480         584.808         584.808         1.77192         1.77192    -775.852E-03    -775.852E-03
            1481         584.954         584.954         1.64638         1.64638    -688.888E-03    -688.888E-03
            1482         585.082         585.082         1.53015         1.53015    -607.804E-03    -607.804E-03
            1483         585.195         585.195         1.42382         1.42382    -532.038E-03    -532.038E-03
            1484         585.293         585.293         1.32786         1.32786    -461.041E-03    -461.041E-03
            1485         585.377         585.377         1.24262         1.24262    -394.272E-03    -394.272E-03
            1486         585.448         585.448         1.16836         1.16836    -331.193E-03    -331.193E-03
            1487         585.507         585.507         1.10526         1.10526    -271.266E-03    -271.266E-03
            1488         585.555         585.555         1.05345         1.05345    -213.952E-03    -213.952E-03
            1489         585.591         585.591         1.01302         1.01302    -158.712E-03    -158.712E-03
            1490         585.617         585.617     984.034E-03     984.034E-03    -105.005E-03    -105.005E-03
            1491         585.633         585.633     966.469E-03     966.469E-03    -52.4201E-03    -52.4201E-03
            1492         594.540         594.540        -24.0198        -24.0198        -25.0243        -25.0243
            1493         587.488         587.488        -18.3470        -18.3470        -23.7235        -23.7235
            1494         582.855         582.855        -13.5279        -13.5279        -21.4558        -21.4558
            1495         580.003         580.003        -9.66836        -9.66836        -18.9275        -18.9275
            1496         578.372         578.372        -6.65323        -6.65323        -16.5013        -16.5013
            1497         577.547         577.547        -4.30719        -4.30719        -14.3230        -14.3230
            1498         577.243         577.243        -2.48072        -2.48072        -12.4317        -12.4317
            1499         577.273         577.273        -1.05500        -1.05500        -10.8181        -10.8181
            1500         577.512         577.512     58.4845E-03     58.4845E-03        -9.45305        -9.45305
            1501         577.880         577.880     926.247E-03     926.247E-03        -8.30196        -8.30196
            1502         578.323         578.323         1.59778         1.59778        -7.33071        -7.33071
            1503         578.805         578.805         2.11083         2.11083        -6.50850        -6.50850
            1504         579.303         579.303         2.49445         2.49445        -5.80876        -5.80876
            1505         579.801         579.801         2.77167         2.77167        -5.20917        -5.20917
            1506         580.290         580.290         2.96100         2.96100        -4.69128        -4.69128
            1507         580.761         580.761         3.07766         3.07766        -4.24008        -4.24008
            1508         581.212         581.212         3.13441         3.13441        -3.84348        -3.84348
            1509         581.639         581.639         3.14201         3.14201        -3.49176        -3.49176
            1510         582.042         582.042         3.10970         3.10970        -3.17723        -3.17723
            1511         582.418         582.418         3.04540         3.04540        -2.89381        -2.89381
            1512         582.769         582.769         2.95596         2.95596        -2.63667        -2.63667
            1513         583.094         583.094         2.84727         2.84727        -2.40203        -2.40203
            1514         583.394         583.394         2.72442         2.72442        -2.18692        -2.18692
            1515         583.669         583.669         2.59179         2.59179        -1.98896        -1.98896
            1516         583.922         583.922         2.45309         2.45309        -1.80625        -1.80625
            1517         584.152         584.152         2.31150         2.31150        -1.63727        -1.63727
            1518         584.362         584.362         2.16970         2.16970        -1.48074        -1.48074
            1519         584.551         584.551         2.02992         2.02992        -1.33557        -1.33557
            1520         584.722         584.722         1.89403         1.89403        -1.20084        -1.20084
            1521         584.876         584.876         1.76355         1.76355        -1.07570        -1.07570
            1522         585.013         585.013         1.63972         1.63972    -959.382E-03    -959.382E-03
            1523         585.135         585.135         1.52356         1.52356    -851.155E-03    -851.155E-03
            1524         585.242         585.242         1.41584         1.41584    -750.319E-03    -750.319E-03
            1525         585.337         585.337         1.31720         1.31720    -656.192E-03    -656.192E-03
            1526         585.419         585.419         1.22811         1.22811    -568.099E-03    -568.099E-03
            1527         585.489         585.489         1.14893         1.14893    -485.370E-03    -485.370E-03
            1528         585.549         585.549         1.07992         1.07992    -407.335E-03    -407.335E-03
            1529         585.598         585.598         1.02128         1.02128    -333.323E-03    -333.323E-03
            1530         585.638         585.638     973.135E-03     973.135E-03    -262.661E-03    -262.661E-03
            1531         585.668         585.668     935.583E-03     935.583E-03    -194.676E-03    -194.676E-03
            1532         585.690         585.690     908.679E-03     908.679E-03    -128.691E-03    -128.691E-03
            1533         585.703         585.703     892.423E-03     892.423E-03    -64.2032E-03    -64.2032E-03
            1534         588.309         588.309     12.4513E-03     12.4513E-03        -2.00763        -2.00763
            1535         590.263         590.263     21.2742E-03     21.2742E-03        -3.57721        -3.57721
            1536         592.232         592.232     5.06718E-03     5.06718E-03        -4.72885        -4.72885
            1537         594.261         594.261    -77.8165E-03    -77.8165E-03        -5.61265        -5.61265
            1538         596.413         596.413    -287.986E-03    -287.986E-03        -6.33607        -6.33607
            1539         598.765         598.765    -709.542E-03    -709.542E-03        -6.96089        -6.96089
            1540         601.408         601.408        -1.45933        -1.45933        -7.50310        -7.50310
            1541         604.446         604.446        -2.70112        -2.70112        -7.92079        -7.92079
            1542         607.981         607.981        -4.66235        -4.66235        -8.08540        -8.08540
            1543         612.080         612.080        -7.64657        -7.64657        -7.72306        -7.72306
            1544         616.661         616.661        -12.0035        -12.0035        -6.32633        -6.32633
            1545         621.223         621.223        -17.9860        -17.9860        -3.05029        -3.05029
            1546         585.822         585.822     183.083E-03     183.083E-03        -1.84753        -1.84753
            1547         588.470         588.470     500.267E-03     500.267E-03        -3.30453        -3.30453
            1548         590.857         590.857     955.170E-03     955.170E-03        -4.40936        -4.40936
            1549         593.111         593.111         1.48877         1.48877        -5.32225        -5.32225
            1550         595.356         595.356         2.04233         2.04233        -6.16667        -6.16667
            1551         597.719         597.719         2.54844         2.54844        -7.03334        -7.03334
            1552         600.342         600.342         2.91685         2.91685        -7.98706        -7.98706
            1553         603.395         603.395         3.01255         3.01255        -9.06522        -9.06522
            1554         607.098         607.098         2.62002         2.62002        -10.2614        -10.2614
            1555         611.730         611.730         1.38438         1.38438        -11.4801        -11.4801
            1556         617.619         617.619        -1.27654        -1.27654        -12.4157        -12.4157
            1557         625.011         625.011        -6.24426        -6.24426        -12.2997        -12.2997
            1558         583.729         583.729     341.893E-03     341.893E-03        -1.39442        -1.39442
            1559         586.942         586.942     947.602E-03     947.602E-03        -2.49640        -2.49640
            1560         589.637         589.637         1.84786         1.84786        -3.34676        -3.34676
            1561         592.012         592.012         2.97591         2.97591        -4.08247        -4.08247
            1562         594.236         594.236         4.29007         4.29007        -4.81466        -4.81466
            1563         596.461         596.461         5.76426         5.76426        -5.63650        -5.63650
            1564         598.847         598.847         7.37744         7.37744        -6.63536        -6.63536
            1565         601.581         601.581         9.09914         9.09914        -7.90199        -7.90199
            1566         604.912         604.912         10.8648         10.8648        -9.53718        -9.53718
            1567         609.201         609.201         12.5259         12.5259        -11.6505        -11.6505
            1568         615.018         615.018         13.7335         13.7335        -14.3295        -14.3295
            1569         623.278         623.278         13.6558         13.6558        -17.5018        -17.5018
            1570         582.382         582.382     455.647E-03     455.647E-03    -698.540E-03    -698.540E-03
            1571         585.962         585.962         1.26866         1.26866        -1.24249        -1.24249
            1572         588.839         588.839         2.49110         2.49110        -1.65865        -1.65865
            1573         591.258         591.258         4.05475         4.05475        -2.02781        -2.02781
            1574         593.412         593.412         5.93752         5.93752        -2.41731        -2.41731
            1575         595.464         595.464         8.15626         8.15626        -2.88754        -2.88754
            1576         597.570         597.570         10.7637         10.7637        -3.50141        -3.50141
            1577         599.897         599.897         13.8506         13.8506        -4.33477        -4.33477
            1578         602.660         602.660         17.5517         17.5517        -5.49013        -5.49013
            1579         606.172         606.172         22.0560         22.0560        -7.11809        -7.11809
            1580         610.949         610.949         27.6145         27.6145        -9.46247        -9.46247
            1581         617.939         617.939         34.4988         34.4988        -12.9447        -12.9447
            1582         582.029         582.029     498.489E-03     498.489E-03     136.978E-03     136.978E-03
            1583         585.731         585.731         1.38977         1.38977     268.565E-03     268.565E-03
            1584         588.660         588.660         2.73427         2.73427     392.577E-03     392.577E-03
            1585         591.076         591.076         4.46375         4.46375     504.957E-03     504.957E-03
            1586         593.183         593.183         6.56439         6.56439     602.846E-03     602.846E-03
            1587         595.145         595.145         9.07094         9.07094     684.033E-03     684.033E-03
            1588         597.112         597.112         12.0676         12.0676     746.872E-03     746.872E-03
            1589         599.240         599.240         15.6985         15.6985     790.336E-03     790.336E-03
            1590         601.720         601.720         20.1908         20.1908     813.852E-03     813.852E-03
            1591         604.821         604.821         25.8997         25.8997     817.435E-03     817.435E-03
            1592         608.971         608.971         33.4052         33.4052     801.813E-03     801.813E-03
            1593         614.946         614.946         43.7514         43.7514     767.262E-03     767.262E-03
            1594         582.765         582.765     460.632E-03     460.632E-03     977.092E-03     977.092E-03
            1595         586.327         586.327         1.28306         1.28306         1.78828         1.78828
            1596         589.176         589.176         2.52025         2.52025         2.45592         2.45592
            1597         591.557         591.557         4.10309         4.10309         3.05267         3.05267
            1598         593.666         593.666         6.00866         6.00866         3.64019         3.64019
            1599         595.669         595.669         8.25296         8.25296         4.27445         4.27445
            1600         597.720         597.720         10.8880         10.8880         5.01517         5.01517
            1601         599.991         599.991         14.0037         14.0037         5.93610         5.93610
            1602         602.698         602.698         17.7344         17.7344         7.13882         7.13882
            1603         606.154         606.154         22.2685         22.2685         8.77387         8.77387
            1604         610.878         610.878         27.8558         27.8558         11.0858         11.0858
            1605         617.817         617.817         34.7682         34.7682         14.4991         14.4991
            1606         584.508         584.508     351.841E-03     351.841E-03         1.68674         1.68674
            1607         587.684         587.684     976.351E-03     976.351E-03         3.06815         3.06815
            1608         590.319         590.319         1.90604         1.90604         4.18032         4.18032
            1609         592.618         592.618         3.07240         3.07240         5.15209         5.15209
            1610         594.750         594.750         4.43199         4.43199         6.08897         6.08897
            1611         596.873         596.873         5.95711         5.95711         7.07982         7.07982
            1612         599.150         599.150         7.62515         7.62515         8.20891         8.20891
            1613         601.771         601.771         9.40422         9.40422         9.56511         9.56511
            1614         604.988         604.988         11.2285         11.2285         11.2484         11.2484
            1615         609.164         609.164         12.9484         12.9484         13.3685         13.3685
            1616         614.872         614.872         14.2145         14.2145         16.0137         16.0137
            1617         623.031         623.031         14.1922         14.1922         19.1130         19.1130
            1618         587.021         587.021     197.952E-03     197.952E-03         2.16277         2.16277
            1619         589.608         589.608     543.260E-03     543.260E-03         3.91948         3.91948
            1620         591.901         591.901         1.04218         1.04218         5.30327         5.30327
            1621         594.036         594.036         1.63301         1.63301         6.46623         6.46623
            1622         596.141         596.141         2.25439         2.25439         7.52635         7.52635
            1623         598.347         598.347         2.83640         2.83640         8.57016         8.57016
            1624         600.803         600.803         3.28642         3.28642         9.65959         9.65959
            1625         603.684         603.684         3.46725         3.46725         10.8304         10.8304
            1626         607.212         607.212         3.16144         3.16144         12.0755         12.0755
            1627         611.673         611.673         2.01257         2.01257         13.3004         13.3004
            1628         617.395         617.395    -562.793E-03    -562.793E-03         14.2008         14.2008
            1629         624.630         624.630        -5.44568        -5.44568         14.0080         14.0080
            1630         589.966         589.966     32.2065E-03     32.2065E-03         2.35492         2.35492
            1631         591.830         591.830     78.3931E-03     78.3931E-03         4.25249         4.25249
            1632         593.666         593.666     120.632E-03     120.632E-03         5.70697         5.70697
            1633         595.527         595.527     113.664E-03     113.664E-03         6.86027         6.86027
            1634         597.484         597.484    -6.69268E-03    -6.69268E-03         7.81452         7.81452
            1635         599.620         599.620    -327.941E-03    -327.941E-03         8.62756         8.62756
            1636         602.034         602.034    -970.162E-03    -970.162E-03         9.31275         9.31275
            1637         604.835         604.835        -2.10010        -2.10010         9.82681         9.82681
            1638         608.133         608.133        -3.94792        -3.94792         10.0412         10.0412
            1639         611.999         611.999        -6.81962        -6.81962         9.68310         9.68310
            1640         616.358         616.358        -11.0663        -11.0663         8.24819         8.24819
            1641         620.705         620.705        -16.9405        -16.9405         4.89466         4.89466
            1642         585.849         585.849     729.615E-03     729.615E-03     79.5424E-03     79.5424E-03
            1643         585.841         585.841     743.063E-03     743.063E-03     159.519E-03     159.519E-03
            1644         585.830         585.830     765.408E-03     765.408E-03     241.466E-03     241.466E-03
            1645         585.813         585.813     796.641E-03     796.641E-03     326.026E-03     326.026E-03
            1646         585.790         585.790     836.708E-03     836.708E-03     414.064E-03     414.064E-03
            1647         585.763         585.763     885.523E-03     885.523E-03     506.440E-03     506.440E-03
            1648         585.729         585.729     942.956E-03     942.956E-03     604.010E-03     604.010E-03
            1649         585.689         585.689         1.00882         1.00882     707.620E-03     707.620E-03
            1650         585.643         585.643         1.08286         1.08286     818.106E-03     818.106E-03
            1651         585.589         585.589         1.16471         1.16471     936.292E-03     936.292E-03
            1652         585.528         585.528         1.25391         1.25391         1.06299         1.06299
            1653         585.458         585.458         1.34981         1.34981         1.19900         1.19900
            1654         585.379         585.379         1.45161         1.45161         1.34511         1.34511
            1655         585.291         585.291         1.55825         1.55825         1.50210         1.50210
            1656         585.193         585.193         1.66843         1.66843         1.67074         1.67074
            1657         585.084         585.084         1.78047         1.78047         1.85180         1.85180
            1658         584.964         584.964         1.89234         1.89234         2.04609         2.04609
            1659         584.834         584.834         2.00151         2.00151         2.25445         2.25445
            1660         584.692         584.692         2.10490         2.10490         2.47776         2.47776
            1661         584.540         584.540         2.19880         2.19880         2.71706         2.71706
            1662         584.379         584.379         2.27871         2.27871         2.97350         2.97350
            1663         584.209         584.209         2.33928         2.33928         3.24845         3.24845
            1664         584.033         584.033         2.37412         2.37412         3.54359         3.54359
            1665         583.854         583.854         2.37566         2.37566         3.86094         3.86094
            1666         583.677         583.677         2.33497         2.33497         4.20299         4.20299
            1667         583.508         583.508         2.24154         2.24154         4.57274         4.57274
            1668         583.355         583.355         2.08308         2.08308         4.97381         4.97381
            1669         583.230         583.230         1.84519         1.84519         5.41040         5.41040
            1670         583.147         583.147         1.51113         1.51113         5.88719         5.88719
            1671         583.127         583.127         1.06137         1.06137         6.40910         6.40910
            1672         583.194         583.194     473.403E-03     473.403E-03         6.98066         6.98066
            1673         583.382         583.382    -278.831E-03    -278.831E-03         7.60499         7.60499
            1674         583.735         583.735        -1.22479        -1.22479         8.28191         8.28191
            1675         584.308         584.308        -2.39758        -2.39758         9.00500         9.00500
            1676         585.174         585.174        -3.83211        -3.83211         9.75660         9.75660
            1677         586.420         586.420        -5.56314        -5.56314         10.5008         10.5008
            1678         588.156         588.156        -7.61665        -7.61665         11.1720         11.1720
            1679         590.506         590.506        -9.99827        -9.99827         11.6616         11.6616
            1680         593.592         593.592        -12.6631        -12.6631         11.7987         11.7987
            1681         597.507         597.507        -15.4763        -15.4763         11.3451         11.3451
            1682         602.251         602.251        -18.1475        -18.1475         9.99746         9.99746
            1683         607.660         607.660        -20.2075        -20.2075         7.47691         7.47691
            1684         585.916         585.916     648.528E-03     648.528E-03     83.3049E-03     83.3049E-03
            1685         585.912         585.912     660.628E-03     660.628E-03     167.058E-03     167.058E-03
            1686         585.904         585.904     680.743E-03     680.743E-03     252.909E-03     252.909E-03
            1687         585.894         585.894     708.860E-03     708.860E-03     341.545E-03     341.545E-03
            1688         585.881         585.881     744.928E-03     744.928E-03     433.882E-03     433.882E-03
            1689         585.864         585.864     788.867E-03     788.867E-03     530.833E-03     530.833E-03
            1690         585.844         585.844     840.559E-03     840.559E-03     633.303E-03     633.303E-03
            1691         585.819         585.819     899.829E-03     899.829E-03     742.185E-03     742.185E-03
            1692         585.791         585.791     966.430E-03     966.430E-03     858.356E-03     858.356E-03
            1693         585.757         585.757         1.04002         1.04002     982.677E-03     982.677E-03
            1694         585.719         585.719         1.12015         1.12015         1.11598         1.11598
            1695         585.675         585.675         1.20621         1.20621         1.25908         1.25908
            1696         585.626         585.626         1.29740         1.29740         1.41276         1.41276
            1697         585.570         585.570         1.39270         1.39270         1.57775         1.57775
            1698         585.508         585.508         1.49080         1.49080         1.75478         1.75478
            1699         585.440         585.440         1.59008         1.59008         1.94451         1.94451
            1700         585.364         585.364         1.68847         1.68847         2.14759         2.14759
            1701         585.282         585.282         1.78344         1.78344         2.36464         2.36464
            1702         585.194         585.194         1.87189         1.87189         2.59625         2.59625
            1703         585.101         585.101         1.95003         1.95003         2.84302         2.84302
            1704         585.004         585.004         2.01327         2.01327         3.10555         3.10555
            1705         584.905         584.905         2.05609         2.05609         3.38450         3.38450
            1706         584.808         584.808         2.07192         2.07192         3.68060         3.68060
            1707         584.715         584.715         2.05292         2.05292         3.99465         3.99465
            1708         584.634         584.634         1.98987         1.98987         4.32759         4.32759
            1709         584.571         584.571         1.87195         1.87195         4.68043         4.68043
            1710         584.536         584.536         1.68653         1.68653         5.05424         5.05424
            1711         584.542         584.542         1.41906         1.41906         5.45001         5.45001
            1712         584.606         584.606         1.05284         1.05284         5.86833         5.86833
            1713         584.748         584.748     568.967E-03     568.967E-03         6.30895         6.30895
            1714         584.995         584.995    -53.6778E-03    -53.6778E-03         6.76993         6.76993
            1715         585.382         585.382    -838.039E-03    -838.039E-03         7.24629         7.24629
            1716         585.949         585.949        -1.80841        -1.80841         7.72797         7.72797
            1717         586.748         586.748        -2.98853        -2.98853         8.19666         8.19666
            1718         587.839         587.839        -4.39921        -4.39921         8.62161         8.62161
            1719         589.291         589.291        -6.05212        -6.05212         8.95308         8.95308
            1720         591.179         591.179        -7.94147        -7.94147         9.11587         9.11587
            1721         593.573         593.573        -10.0271        -10.0271         8.99988         8.99988
            1722         596.518         596.518        -12.2121        -12.2121         8.45883         8.45883
            1723         600.011         600.011        -14.3114        -14.3114         7.31161         7.31161
            1724         603.954         603.954        -16.0238        -16.0238         5.38005         5.38005
            1725         608.168         608.168        -16.9490        -16.9490         2.50429         2.50429
            1726         585.981         585.981     564.657E-03     564.657E-03     85.1119E-03     85.1119E-03
            1727         585.979         585.979     575.343E-03     575.343E-03     170.679E-03     170.679E-03
            1728         585.977         585.977     593.109E-03     593.109E-03     258.436E-03     258.436E-03
            1729         585.974         585.974     617.945E-03     617.945E-03     349.091E-03     349.091E-03
            1730         585.970         585.970     649.806E-03     649.806E-03     443.599E-03     443.599E-03
            1731         585.965         585.965     688.621E-03     688.621E-03     542.909E-03     542.909E-03
            1732         585.959         585.959     734.281E-03     734.281E-03     647.959E-03     647.959E-03
            1733         585.951         585.951     786.629E-03     786.629E-03     759.670E-03     759.670E-03
            1734         585.941         585.941     845.438E-03     845.438E-03     878.946E-03     878.946E-03
            1735         585.929         585.929     910.395E-03     910.395E-03         1.00666         1.00666
            1736         585.916         585.916     981.074E-03     981.074E-03         1.14366         1.14366
            1737         585.899         585.899         1.05690         1.05690         1.29076         1.29076
            1738         585.881         585.881         1.13713         1.13713         1.44869         1.44869
            1739         585.860         585.860         1.22078         1.22078         1.61817         1.61817
            1740         585.836         585.836         1.30661         1.30661         1.79981         1.79981
            1741         585.809         585.809         1.39304         1.39304         1.99418         1.99418
            1742         585.780         585.780         1.47809         1.47809         2.20173         2.20173
            1743         585.749         585.749         1.55927         1.55927         2.42282         2.42282
            1744         585.717         585.717         1.63356         1.63356         2.65771         2.65771
            1745         585.685         585.685         1.69722         1.69722         2.90652         2.90652
            1746         585.654         585.654         1.74572         1.74572         3.16927         3.16927
            1747         585.627         585.627         1.77359         1.77359         3.44580         3.44580
            1748         585.608         585.608         1.77430         1.77430         3.73582         3.73582
            1749         585.600         585.600         1.74007         1.74007         4.03884         4.03884
            1750         585.611         585.611         1.66176         1.66176         4.35412         4.35412
            1751         585.648         585.648         1.52868         1.52868         4.68062         4.68062
            1752         585.720         585.720         1.32851         1.32851         5.01682         5.01682
            1753         585.842         585.842         1.04717         1.04717         5.36049         5.36049
            1754         586.030         586.030     668.939E-03     668.939E-03         5.70833         5.70833
            1755         586.305         586.305     176.466E-03     176.466E-03         6.05537         6.05537
            1756         586.691         586.691    -448.648E-03    -448.648E-03         6.39404         6.39404
            1757         587.219         587.219        -1.22521        -1.22521         6.71291         6.71291
            1758         587.927         587.927        -2.17076        -2.17076         6.99469         6.99469
            1759         588.854         588.854        -3.29938        -3.29938         7.21385         7.21385
            1760         590.048         590.048        -4.61730        -4.61730         7.33297         7.33297
            1761         591.554         591.554        -6.11689        -6.11689         7.29954         7.29954
            1762         593.413         593.413        -7.76671        -7.76671         7.04137         7.04137
            1763         595.651         595.651        -9.49791        -9.49791         6.46651         6.46651
            1764         598.261         598.261        -11.1879        -11.1879         5.46469         5.46469
            1765         601.180         601.180        -12.6409        -12.6409         3.92371         3.92371
            1766         604.286         604.286        -13.5878        -13.5878         1.74871         1.74871
            1767         607.361         607.361        -13.6520        -13.6520        -1.12417        -1.12417
            1768         586.040         586.040     479.984E-03     479.984E-03     84.8858E-03     84.8858E-03
            1769         586.042         586.042     489.213E-03     489.213E-03     170.220E-03     170.220E-03
            1770         586.045         586.045     504.561E-03     504.561E-03     257.794E-03     257.794E-03
            1771         586.049         586.049     526.018E-03     526.018E-03     348.323E-03     348.323E-03
            1772         586.055         586.055     553.547E-03     553.547E-03     442.780E-03     442.780E-03
            1773         586.062         586.062     587.085E-03     587.085E-03     542.129E-03     542.129E-03
            1774         586.070         586.070     626.541E-03     626.541E-03     647.325E-03     647.325E-03
            1775         586.079         586.079     671.775E-03     671.775E-03     759.302E-03     759.302E-03
            1776         586.089         586.089     722.587E-03     722.587E-03     878.970E-03     878.970E-03
            1777         586.099         586.099     778.697E-03     778.697E-03         1.00721         1.00721
            1778         586.111         586.111     839.719E-03     839.719E-03         1.14486         1.14486
            1779         586.124         586.124     905.134E-03     905.134E-03         1.29270         1.29270
            1780         586.138         586.138     974.256E-03     974.256E-03         1.45145         1.45145
            1781         586.152         586.152         1.04619         1.04619         1.62175         1.62175
            1782         586.168         586.168         1.11978         1.11978         1.80413         1.80413
            1783         586.185         586.185         1.19355         1.19355         1.99902         1.99902
            1784         586.204         586.204         1.26564         1.26564         2.20669         2.20669
            1785         586.226         586.226         1.33373         1.33373         2.42724         2.42724
            1786         586.250         586.250         1.39495         1.39495         2.66058         2.66058
            1787         586.280         586.280         1.44574         1.44574         2.90636         2.90636
            1788         586.316         586.316         1.48181         1.48181         3.16399         3.16399
            1789         586.361         586.361         1.49793         1.49793         3.43254         3.43254
            1790         586.419         586.419         1.48785         1.48785         3.71070         3.71070
            1791         586.494         586.494         1.44416         1.44416         3.99669         3.99669
            1792         586.592         586.592         1.35814         1.35814         4.28818         4.28818
            1793         586.721         586.721         1.21971         1.21971         4.58216         4.58216
            1794         586.890         586.890         1.01730         1.01730         4.87468         4.87468
            1795         587.112         587.112     737.976E-03     737.976E-03         5.16064         5.16064
            1796         587.402         587.402     367.519E-03     367.519E-03         5.43332         5.43332
            1797         587.778         587.778    -109.094E-03    -109.094E-03         5.68382         5.68382
            1798         588.262         588.262    -707.058E-03    -707.058E-03         5.90029         5.90029
            1799         588.880         588.880        -1.44042        -1.44042         6.06675         6.06675
            1800         589.660         589.660        -2.32027        -2.32027         6.16176         6.16176
            1801         590.633         590.633        -3.35161        -3.35161         6.15655         6.15655
            1802         591.829         591.829        -4.52909        -4.52909         6.01344         6.01344
            1803         593.274         593.274        -5.83071        -5.83071         5.68377         5.68377
            1804         594.981         594.981        -7.20930        -7.20930         5.10830         5.10830
            1805         596.944         596.944        -8.58306        -8.58306         4.21866         4.21866
            1806         599.125         599.125        -9.82325        -9.82325         2.94556         2.94556
            1807         601.439         601.439        -10.7506        -10.7506         1.23176         1.23176
            1808         603.748         603.748        -11.1235        -11.1235    -952.784E-03    -952.784E-03
            1809         605.839         605.839        -10.6428        -10.6428        -3.56978        -3.56978
            1810         586.091         586.091     396.553E-03     396.553E-03     82.5827E-03     82.5827E-03
            1811         586.096         586.096     404.314E-03     404.314E-03     165.592E-03     165.592E-03
            1812         586.104         586.104     417.223E-03     417.223E-03     250.847E-03     250.847E-03
            1813         586.116         586.116     435.272E-03     435.272E-03     339.049E-03     339.049E-03
            1814         586.131         586.131     458.432E-03     458.432E-03     431.168E-03     431.168E-03
            1815         586.150         586.150     486.653E-03     486.653E-03     528.169E-03     528.169E-03
            1816         586.173         586.173     519.857E-03     519.857E-03     630.999E-03     630.999E-03
            1817         586.199         586.199     557.929E-03     557.929E-03     740.589E-03     740.589E-03
            1818         586.229         586.229     600.697E-03     600.697E-03     857.840E-03     857.840E-03
            1819         586.263         586.263     647.922E-03     647.922E-03     983.619E-03     983.619E-03
            1820         586.301         586.301     699.268E-03     699.268E-03         1.11874         1.11874
            1821         586.343         586.343     754.282E-03     754.282E-03         1.26397         1.26397
            1822         586.389         586.389     812.360E-03     812.360E-03         1.41997         1.41997
            1823         586.441         586.441     872.706E-03     872.706E-03         1.58732         1.58732
            1824         586.497         586.497     934.292E-03     934.292E-03         1.76647         1.76647
            1825         586.559         586.559     995.795E-03     995.795E-03         1.95771         1.95771
            1826         586.627         586.627         1.05554         1.05554         2.16114         2.16114
            1827         586.702         586.702         1.11143         1.11143         2.37662         2.37662
            1828         586.785         586.785         1.16084         1.16084         2.60375         2.60375
            1829         586.877         586.877         1.20055         1.20055         2.84176         2.84176
            1830         586.981         586.981         1.22661         1.22661         3.08950         3.08950
            1831         587.097         587.097         1.23423         1.23423         3.34534         3.34534
            1832         587.231         587.231         1.21770         1.21770         3.60704         3.60704
            1833         587.386         587.386         1.17022         1.17022         3.87171         3.87171
            1834         587.567         587.567         1.08384         1.08384         4.13560         4.13560
            1835         587.780         587.780     949.395E-03     949.395E-03         4.39396         4.39396
            1836         588.035         588.035     756.534E-03     756.534E-03         4.64082         4.64082
            1837         588.342         588.342     493.799E-03     493.799E-03         4.86867         4.86867
            1838         588.712         588.712     148.970E-03     148.970E-03         5.06809         5.06809
            1839         589.162         589.162    -290.442E-03    -290.442E-03         5.22731         5.22731
            1840         589.709         589.709    -836.217E-03    -836.217E-03         5.33153         5.33153
            1841         590.371         590.371        -1.49806        -1.49806         5.36226         5.36226
            1842         591.169         591.169        -2.28141        -2.28141         5.29639         5.29639
            1843         592.122         592.122        -3.18439        -3.18439         5.10556         5.10556
            1844         593.247         593.247        -4.19371        -4.19371         4.75544         4.75544
            1845         594.552         594.552        -5.27907        -5.27907         4.20626         4.20626
            1846         596.031         596.031        -6.38717        -6.38717         3.41433         3.41433
            1847         597.661         597.661        -7.43404        -7.43404         2.33669         2.33669
            1848         599.386         599.386        -8.30126        -8.30126     939.300E-03     939.300E-03
            1849         601.119         601.119        -8.83041        -8.83041    -792.513E-03    -792.513E-03
            1850         602.728         602.728        -8.82784        -8.82784        -2.83196        -2.83196
            1851         604.046         604.046        -8.07973        -8.07973        -5.08923        -5.08923
            1852         586.130         586.130     316.429E-03     316.429E-03     78.2029E-03     78.2029E-03
            1853         586.138         586.138     322.742E-03     322.742E-03     156.795E-03     156.795E-03
            1854         586.152         586.152     333.247E-03     333.247E-03     237.586E-03     237.586E-03
            1855         586.171         586.171     347.937E-03     347.937E-03     321.249E-03     321.249E-03
            1856         586.196         586.196     366.790E-03     366.790E-03     408.730E-03     408.730E-03
            1857         586.227         586.227     389.767E-03     389.767E-03     500.966E-03     500.966E-03
            1858         586.264         586.264     416.810E-03     416.810E-03     598.884E-03     598.884E-03
            1859         586.307         586.307     447.824E-03     447.824E-03     703.387E-03     703.387E-03
            1860         586.357         586.357     482.673E-03     482.673E-03     815.353E-03     815.353E-03
            1861         586.414         586.414     521.158E-03     521.158E-03     935.618E-03     935.618E-03
            1862         586.478         586.478     563.004E-03     563.004E-03         1.06497         1.06497
            1863         586.550         586.550     607.830E-03     607.830E-03         1.20413         1.20413
            1864         586.630         586.630     655.129E-03     655.129E-03         1.35371         1.35371
            1865         586.718         586.718     704.228E-03     704.228E-03         1.51425         1.51425
            1866         586.815         586.815     754.247E-03     754.247E-03         1.68610         1.68610
            1867         586.923         586.923     804.056E-03     804.056E-03         1.86945         1.86945
            1868         587.040         587.040     852.211E-03     852.211E-03         2.06425         2.06425
            1869         587.169         587.169     896.894E-03     896.894E-03         2.27018         2.27018
            1870         587.311         587.311     935.829E-03     935.829E-03         2.48657         2.48657
            1871         587.466         587.466     966.203E-03     966.203E-03         2.71233         2.71233
            1872         587.636         587.636     984.565E-03     984.565E-03         2.94586         2.94586
            1873         587.825         587.825     986.732E-03     986.732E-03         3.18495         3.18495
            1874         588.033         588.033     967.684E-03     967.684E-03         3.42666         3.42666
            1875         588.265         588.265     921.479E-03     921.479E-03         3.66718         3.66718
            1876         588.524         588.524     841.180E-03     841.180E-03         3.90165         3.90165
            1877         588.817         588.817     718.842E-03     718.842E-03         4.12399         4.12399
            1878         589.149         589.149     545.558E-03     545.558E-03         4.32666         4.32666
            1879         589.528         589.528     311.652E-03     311.652E-03         4.50040         4.50040
            1880         589.963         589.963     7.01842E-03     7.01842E-03         4.63394         4.63394
            1881         590.465         590.465    -378.233E-03    -378.233E-03         4.71362         4.71362
            1882         591.046         591.046    -852.816E-03    -852.816E-03         4.72310         4.72310
            1883         591.719         591.719        -1.42278        -1.42278         4.64296         4.64296
            1884         592.494         592.494        -2.08943        -2.08943         4.45054         4.45054
            1885         593.381         593.381        -2.84655        -2.84655         4.11992         4.11992
            1886         594.385         594.385        -3.67671        -3.67671         3.62256         3.62256
            1887         595.503         595.503        -4.54722        -4.54722         2.92877         2.92877
            1888         596.716         596.716        -5.40517        -5.40517         2.01074         2.01074
            1889         597.993         597.993        -6.17415        -6.17415     847.756E-03     847.756E-03
            1890         599.275         599.275        -6.75088        -6.75088    -566.938E-03    -566.938E-03
            1891         600.482         600.482        -7.00741        -7.00741        -2.21396        -2.21396
            1892         601.507         601.507        -6.79893        -6.79893        -4.03566        -4.03566
            1893         602.228         602.228        -5.98160        -5.98160        -5.91954        -5.91954
            1894         586.154         586.154     241.655E-03     241.655E-03     71.7946E-03     71.7946E-03
            1895         586.165         586.165     246.577E-03     246.577E-03     143.920E-03     143.920E-03
            1896         586.184         586.184     254.771E-03     254.771E-03     218.148E-03     218.148E-03
            1897         586.210         586.210     266.233E-03     266.233E-03     295.097E-03     295.097E-03
            1898         586.244         586.244     280.944E-03     280.944E-03     375.665E-03     375.665E-03
            1899         586.287         586.287     298.881E-03     298.881E-03     460.743E-03     460.743E-03
            1900         586.338         586.338     319.998E-03     319.998E-03     551.209E-03     551.209E-03
            1901         586.398         586.398     344.226E-03     344.226E-03     647.923E-03     647.923E-03
            1902         586.468         586.468     371.462E-03     371.462E-03     751.716E-03     751.716E-03
            1903         586.547         586.547     401.552E-03     401.552E-03     863.383E-03     863.383E-03
            1904         586.637         586.637     434.279E-03     434.279E-03     983.665E-03     983.665E-03
            1905         586.738         586.738     469.345E-03     469.345E-03         1.11324         1.11324
            1906         586.851         586.851     506.343E-03     506.343E-03         1.25267         1.25267
            1907         586.976         586.976     544.735E-03     544.735E-03         1.40244         1.40244
            1908         587.114         587.114     583.811E-03     583.811E-03         1.56283         1.56283
            1909         587.267         587.267     622.653E-03     622.653E-03         1.73396         1.73396
            1910         587.434         587.434     660.082E-03     660.082E-03         1.91569         1.91569
            1911         587.617         587.617     694.607E-03     694.607E-03         2.10755         2.10755
            1912         587.818         587.818     724.355E-03     724.355E-03         2.30872         2.30872
            1913         588.036         588.036     747.002E-03     747.002E-03         2.51788         2.51788
            1914         588.274         588.274     759.688E-03     759.688E-03         2.73313         2.73313
            1915         588.533         588.533     758.942E-03     758.942E-03         2.95191         2.95191
            1916         588.815         588.815     740.592E-03     740.592E-03         3.17080         3.17080
            1917         589.123         589.123     699.701E-03     699.701E-03         3.38538         3.38538
            1918         589.459         589.459     630.524E-03     630.524E-03         3.59008         3.59008
            1919         589.827         589.827     526.504E-03     526.504E-03         3.77798         3.77798
            1920         590.230         590.230     380.361E-03     380.361E-03         3.94054         3.94054
            1921         590.674         590.674     184.278E-03     184.278E-03         4.06747         4.06747
            1922         591.163         591.163    -69.7140E-03    -69.7140E-03         4.14646         4.14646
            1923         591.703         591.703    -389.136E-03    -389.136E-03         4.16304         4.16304
            1924         592.301         592.301    -780.112E-03    -780.112E-03         4.10040         4.10040
            1925         592.961         592.961        -1.24602        -1.24602         3.93954         3.93954
            1926         593.688         593.688        -1.78566        -1.78566         3.65943         3.65943
            1927         594.482         594.482        -2.39084        -2.39084         3.23780         3.23780
            1928         595.338         595.338        -3.04360        -3.04360         2.65241         2.65241
            1929         596.246         596.246        -3.71291        -3.71291         1.88327         1.88327
            1930         597.182         597.182        -4.35199        -4.35199     916.236E-03     916.236E-03
            1931         598.110         598.110        -4.89576        -4.89576    -252.388E-03    -252.388E-03
            1932         598.978         598.978        -5.26128        -5.26128        -1.60863        -1.60863
            1933         599.721         599.721        -5.35108        -5.35108        -3.11362        -3.11362
            1934         600.258         600.258        -5.06242        -5.06242        -4.69406        -4.69406
            1935         600.513         600.513        -4.30475        -4.30475        -6.23593        -6.23593
            1936         586.160         586.160     174.199E-03     174.199E-03     63.4561E-03     63.4561E-03
            1937         586.174         586.174     177.826E-03     177.826E-03     127.166E-03     127.166E-03
            1938         586.197         586.197     183.869E-03     183.869E-03     192.821E-03     192.821E-03
            1939         586.230         586.230     192.320E-03     192.320E-03     260.968E-03     260.968E-03
            1940         586.274         586.274     203.171E-03     203.171E-03     332.430E-03     332.430E-03
            1941         586.327         586.327     216.404E-03     216.404E-03     408.024E-03     408.024E-03
            1942         586.392         586.392     231.992E-03     231.992E-03     488.559E-03     488.559E-03
            1943         586.468         586.468     249.887E-03     249.887E-03     574.825E-03     574.825E-03
            1944         586.556         586.556     270.016E-03     270.016E-03     667.588E-03     667.588E-03
            1945         586.657         586.657     292.268E-03     292.268E-03     767.579E-03     767.579E-03
            1946         586.772         586.772     316.485E-03     316.485E-03     875.484E-03     875.484E-03
            1947         586.901         586.901     342.448E-03     342.448E-03     991.918E-03     991.918E-03
            1948         587.046         587.046     369.854E-03     369.854E-03         1.11741         1.11741
            1949         587.207         587.207     398.301E-03     398.301E-03         1.25237         1.25237
            1950         587.386         587.386     427.252E-03     427.252E-03         1.39706         1.39706
            1951         587.583         587.583     456.012E-03     456.012E-03         1.55154         1.55154
            1952         587.799         587.799     483.681E-03     483.681E-03         1.71561         1.71561
            1953         588.036         588.036     509.118E-03     509.118E-03         1.88877         1.88877
            1954         588.295         588.295     530.881E-03     530.881E-03         2.07011         2.07011
            1955         588.577         588.577     547.174E-03     547.174E-03         2.25824         2.25824
            1956         588.882         588.882     555.782E-03     555.782E-03         2.45117         2.45117
            1957         589.213         589.213     554.006E-03     554.006E-03         2.64618         2.64618
            1958         589.570         589.570     538.602E-03     538.602E-03         2.83967         2.83967
            1959         589.954         589.954     505.728E-03     505.728E-03         3.02701         3.02701
            1960         590.367         590.367     450.913E-03     450.913E-03         3.20236         3.20236
            1961         590.809         590.809     369.078E-03     369.078E-03         3.35848         3.35848
            1962         591.283         591.283     254.608E-03     254.608E-03         3.48651         3.48651
            1963         591.789         591.789     101.547E-03     101.547E-03         3.57587         3.57587
            1964         592.328         592.328    -96.0768E-03    -96.0768E-03         3.61406         3.61406
            1965         592.901         592.901    -343.708E-03    -343.708E-03         3.58668         3.58668
            1966         593.508         593.508    -645.462E-03    -645.462E-03         3.47749         3.47749
            1967         594.147         594.147        -1.00301        -1.00301         3.26871         3.26871
            1968         594.815         594.815        -1.41403        -1.41403         2.94170         2.94170
            1969         595.505         595.505        -1.87048        -1.87048         2.47805         2.47805
            1970         596.206         596.206        -2.35628        -2.35628         1.86131         1.86131
            1971         596.901         596.901        -2.84537        -2.84537         1.07955         1.07955
            1972         597.563         597.563        -3.29964        -3.29964     128.711E-03     128.711E-03
            1973         598.160         598.160        -3.66837        -3.66837    -982.737E-03    -982.737E-03
            1974         598.647         598.647        -3.88913        -3.88913        -2.22898        -2.22898
            1975         598.977         598.977        -3.89196        -3.89196        -3.56102        -3.56102
            1976         599.096         599.096        -3.60800        -3.60800        -4.90265        -4.90265
            1977         598.962         598.962        -2.98184        -2.98184        -6.14861        -6.14861
            1978         586.145         586.145     115.908E-03     115.908E-03     53.3430E-03     53.3430E-03
            1979         586.161         586.161     118.378E-03     118.378E-03     106.833E-03     106.833E-03
            1980         586.189         586.189     122.496E-03     122.496E-03     162.057E-03     162.057E-03
            1981         586.228         586.228     128.253E-03     128.253E-03     219.456E-03     219.456E-03
            1982         586.280         586.280     135.642E-03     135.642E-03     279.751E-03     279.751E-03
            1983         586.344         586.344     144.659E-03     144.659E-03     343.664E-03     343.664E-03
            1984         586.420         586.420     155.287E-03     155.287E-03     411.900E-03     411.900E-03
            1985         586.511         586.511     167.497E-03     167.497E-03     485.156E-03     485.156E-03
            1986         586.617         586.617     181.242E-03     181.242E-03     564.108E-03     564.108E-03
            1987         586.738         586.738     196.450E-03     196.450E-03     649.405E-03     649.405E-03
            1988         586.876         586.876     213.015E-03     213.015E-03     741.653E-03     741.653E-03
            1989         587.032         587.032     230.791E-03     230.791E-03     841.403E-03     841.403E-03
            1990         587.208         587.208     249.572E-03     249.572E-03     949.124E-03     949.124E-03
            1991         587.403         587.403     269.083E-03     269.083E-03         1.06518         1.06518
            1992         587.620         587.620     288.955E-03     288.955E-03         1.18980         1.18980
            1993         587.861         587.861     308.705E-03     308.705E-03         1.32303         1.32303
            1994         588.125         588.125     327.709E-03     327.709E-03         1.46467         1.46467
            1995         588.416         588.416     345.165E-03     345.165E-03         1.61425         1.61425
            1996         588.732         588.732     360.060E-03     360.060E-03         1.77089         1.77089
            1997         589.077         589.077     371.125E-03     371.125E-03         1.93327         1.93327
            1998         589.451         589.451     376.790E-03     376.790E-03         2.09949         2.09949
            1999         589.854         589.854     375.136E-03     375.136E-03         2.26695         2.26695
            2000         590.286         590.286     363.850E-03     363.850E-03         2.43220         2.43220
            2001         590.749         590.749     340.189E-03     340.189E-03         2.59079         2.59079
            2002         591.241         591.241     300.963E-03     300.963E-03         2.73710         2.73710
            2003         591.762         591.762     242.545E-03     242.545E-03         2.86415         2.86415
            2004         592.309         592.309     160.946E-03     160.946E-03         2.96347         2.96347
            2005         592.881         592.881     51.9561E-03     51.9561E-03         3.02494         3.02494
            2006         593.475         593.475    -88.5885E-03    -88.5885E-03         3.03675         3.03675
            2007         594.085         594.085    -264.391E-03    -264.391E-03         2.98544         2.98544
            2008         594.706         594.706    -478.091E-03    -478.091E-03         2.85609         2.85609
            2009         595.329         595.329    -730.395E-03    -730.395E-03         2.63287         2.63287
            2010         595.943         595.943        -1.01902        -1.01902         2.29979         2.29979
            2011         596.536         596.536        -1.33730        -1.33730         1.84206         1.84206
            2012         597.090         597.090        -1.67284        -1.67284         1.24792         1.24792
            2013         597.583         597.583        -2.00595        -2.00595     511.118E-03     511.118E-03
            2014         597.988         597.988        -2.30878        -2.30878    -365.823E-03    -365.823E-03
            2015         598.275         598.275        -2.54511        -2.54511        -1.36811        -1.36811
            2016         598.411         598.411        -2.67167        -2.67167        -2.46461        -2.46461
            2017         598.362         598.362        -2.64181        -2.64181        -3.60476        -3.60476
            2018         598.099         598.099        -2.41150        -2.41150        -4.71688        -4.71688
            2019         597.605         597.605        -1.94865        -1.94865        -5.70915        -5.70915
            2020         586.106         586.106     68.4445E-03     68.4445E-03     41.6618E-03     41.6618E-03
            2021         586.125         586.125     69.9420E-03     69.9420E-03     83.3476E-03     83.3476E-03
            2022         586.157         586.157     72.4376E-03     72.4376E-03     126.479E-03     126.479E-03
            2023         586.201         586.201     75.9109E-03     75.9109E-03     171.382E-03     171.382E-03
            2024         586.260         586.260     80.3693E-03     80.3693E-03     218.651E-03     218.651E-03
            2025         586.332         586.332     85.8168E-03     85.8168E-03     268.866E-03     268.866E-03
            2026         586.420         586.420     92.2423E-03     92.2423E-03     322.606E-03     322.606E-03
            2027         586.524         586.524     99.6299E-03     99.6299E-03     380.445E-03     380.445E-03
            2028         586.645         586.645     107.953E-03     107.953E-03     442.942E-03     442.942E-03
            2029         586.784         586.784     117.171E-03     117.171E-03     510.634E-03     510.634E-03
            2030         586.944         586.944     127.222E-03     127.222E-03     584.029E-03     584.029E-03
            2031         587.124         587.124     138.020E-03     138.020E-03     663.589E-03     663.589E-03
            2032         587.328         587.328     149.443E-03     149.443E-03     749.712E-03     749.712E-03
            2033         587.556         587.556     161.325E-03     161.325E-03     842.711E-03     842.711E-03
            2034         587.809         587.809     173.443E-03     173.443E-03     942.787E-03     942.787E-03
            2035         588.091         588.091     185.503E-03     185.503E-03         1.04999         1.04999
            2036         588.402         588.402     197.124E-03     197.124E-03         1.16417         1.16417
            2037         588.744         588.744     207.812E-03     207.812E-03         1.28492         1.28492
            2038         589.118         589.118     216.940E-03     216.940E-03         1.41154         1.41154
            2039         589.526         589.526     223.722E-03     223.722E-03         1.54289         1.54289
            2040         589.968         589.968     227.178E-03     227.178E-03         1.67736         1.67736
            2041         590.444         590.444     226.109E-03     226.109E-03         1.81271         1.81271
            2042         590.955         590.955     219.064E-03     219.064E-03         1.94597         1.94597
            2043         591.500         591.500     204.318E-03     204.318E-03         2.07329         2.07329
            2044         592.077         592.077     179.858E-03     179.858E-03         2.18978         2.18978
            2045         592.682         592.682     143.401E-03     143.401E-03         2.28935         2.28935
            2046         593.313         593.313     92.4296E-03     92.4296E-03         2.36461         2.36461
            2047         593.962         593.962     24.2983E-03     24.2983E-03         2.40673         2.40673
            2048         594.622         594.622    -63.5948E-03    -63.5948E-03         2.40543         2.40543
            2049         595.285         595.285    -173.535E-03    -173.535E-03         2.34907         2.34907
            2050         595.936         595.936    -307.079E-03    -307.079E-03         2.22490         2.22490
            2051         596.562         596.562    -464.524E-03    -464.524E-03         2.01959         2.01959
            2052         597.145         597.145    -644.163E-03    -644.163E-03         1.72004         1.72004
            2053         597.663         597.663    -841.500E-03    -841.500E-03         1.31469         1.31469
            2054         598.093         598.093        -1.04828        -1.04828     795.192E-03     795.192E-03
            2055         598.409         598.409        -1.25173        -1.25173     158.751E-03     158.751E-03
            2056         598.582         598.582        -1.43400        -1.43400    -589.333E-03    -589.333E-03
            2057         598.584         598.584        -1.57225        -1.57225        -1.43262        -1.43262
            2058         598.389         598.389        -1.63982        -1.63982        -2.34097        -2.34097
            2059         597.977         597.977        -1.60856        -1.60856        -3.26848        -3.26848
            2060         597.336         597.336        -1.45287        -1.45287        -4.15330        -4.15330
            2061         596.472         596.472        -1.15477        -1.15477        -4.91990        -4.91990
            2062         586.042         586.042     33.2383E-03     33.2383E-03     28.7026E-03     28.7026E-03
            2063         586.063         586.063     34.0053E-03     34.0053E-03     57.2340E-03     57.2340E-03
            2064         586.097         586.097     35.2385E-03     35.2385E-03     86.8832E-03     86.8832E-03
            2065         586.146         586.146     36.9443E-03     36.9443E-03     117.824E-03     117.824E-03
            2066         586.210         586.210     39.1477E-03     39.1477E-03     150.459E-03     150.459E-03
            2067         586.290         586.290     41.8416E-03     41.8416E-03     185.207E-03     185.207E-03
            2068         586.387         586.387     45.0213E-03     45.0213E-03     222.491E-03     222.491E-03
            2069         586.501         586.501     48.6799E-03     48.6799E-03     262.728E-03     262.728E-03
            2070         586.636         586.636     52.8047E-03     52.8047E-03     306.325E-03     306.325E-03
            2071         586.791         586.791     57.3769E-03     57.3769E-03     353.679E-03     353.679E-03
            2072         586.969         586.969     62.3672E-03     62.3672E-03     405.165E-03     405.165E-03
            2073         587.171         587.171     67.7337E-03     67.7337E-03     461.129E-03     461.129E-03
            2074         587.399         587.399     73.4173E-03     73.4173E-03     521.874E-03     521.874E-03
            2075         587.656         587.656     79.3366E-03     79.3366E-03     587.643E-03     587.643E-03
            2076         587.943         587.943     85.3820E-03     85.3820E-03     658.601E-03     658.601E-03
            2077         588.263         588.263     91.4078E-03     91.4078E-03     734.804E-03     734.804E-03
            2078         588.618         588.618     97.2233E-03     97.2233E-03     816.167E-03     816.167E-03
            2079         589.009         589.009     102.582E-03     102.582E-03     902.422E-03     902.422E-03
            2080         589.439         589.439     107.168E-03     107.168E-03     993.066E-03     993.066E-03
            2081         589.909         589.909     110.585E-03     110.585E-03         1.08730         1.08730
            2082         590.419         590.419     112.336E-03     112.336E-03         1.18394         1.18394
            2083         590.971         590.971     111.812E-03     111.812E-03         1.28137         1.28137
            2084         591.564         591.564     108.271E-03     108.271E-03         1.37738         1.37738
            2085         592.196         592.196     100.831E-03     100.831E-03         1.46912         1.46912
            2086         592.865         592.865     88.4604E-03     88.4604E-03         1.55290         1.55290
            2087         593.566         593.566     69.9819E-03     69.9819E-03         1.62417         1.62417
            2088         594.293         594.293     44.1007E-03     44.1007E-03         1.67733         1.67733
            2089         595.037         595.037     9.45183E-03     9.45183E-03         1.70570         1.70570
            2090         595.786         595.786    -35.3050E-03    -35.3050E-03         1.70145         1.70145
            2091         596.526         596.526    -91.3406E-03    -91.3406E-03         1.65575         1.65575
            2092         597.239         597.239    -159.448E-03    -159.448E-03         1.55895         1.55895
            2093         597.902         597.902    -239.738E-03    -239.738E-03         1.40096         1.40096
            2094         598.490         598.490    -331.297E-03    -331.297E-03         1.17205         1.17205
            2095         598.974         598.974    -431.708E-03    -431.708E-03     863.751E-03     863.751E-03
            2096         599.322         599.322    -536.641E-03    -536.641E-03     470.331E-03     470.331E-03
            2097         599.501         599.501    -639.391E-03    -639.391E-03    -9.53643E-03    -9.53643E-03
            2098         599.478         599.478    -730.683E-03    -730.683E-03    -570.677E-03    -570.677E-03
            2099         599.223         599.223    -798.767E-03    -798.767E-03        -1.19939        -1.19939
            2100         598.712         598.712    -830.031E-03    -830.031E-03        -1.87154        -1.87154
            2101         597.934         597.934    -810.443E-03    -810.443E-03        -2.55155        -2.55155
            2102         596.891         596.891    -727.394E-03    -727.394E-03        -3.19258        -3.19258
            2103         595.606         595.606    -571.992E-03    -571.992E-03        -3.73807        -3.73807
            2104         585.951         585.951     11.3997E-03     11.3997E-03     14.7903E-03     14.7903E-03
            2105         585.973         585.973     11.6944E-03     11.6944E-03     29.2709E-03     29.2709E-03
            2106         586.009         586.009     12.1011E-03     12.1011E-03     44.4824E-03     44.4824E-03
            2107         586.061         586.061     12.6866E-03     12.6866E-03     60.3724E-03     60.3724E-03
            2108         586.129         586.129     13.4494E-03     13.4494E-03     77.1562E-03     77.1562E-03
            2109         586.214         586.214     14.3800E-03     14.3800E-03     95.0656E-03     95.0656E-03
            2110         586.317         586.317     15.4805E-03     15.4805E-03     114.325E-03     114.325E-03
            2111         586.440         586.440     16.7464E-03     16.7464E-03     135.161E-03     135.161E-03
            2112         586.585         586.585     18.1747E-03     18.1747E-03     157.792E-03     157.792E-03
            2113         586.752         586.752     19.7583E-03     19.7583E-03     182.435E-03     182.435E-03
            2114         586.945         586.945     21.4876E-03     21.4876E-03     209.294E-03     209.294E-03
            2115         587.165         587.165     23.3482E-03     23.3482E-03     238.563E-03     238.563E-03
            2116         587.414         587.414     25.3199E-03     25.3199E-03     270.409E-03     270.409E-03
            2117         587.696         587.696     27.3745E-03     27.3745E-03     304.975E-03     304.975E-03
            2118         588.013         588.013     29.4741E-03     29.4741E-03     342.359E-03     342.359E-03
            2119         588.367         588.367     31.5679E-03     31.5679E-03     382.604E-03     382.604E-03
            2120         588.762         588.762     33.5895E-03     33.5895E-03     425.680E-03     425.680E-03
            2121         589.199         589.199     35.4525E-03     35.4525E-03     471.460E-03     471.460E-03
            2122         589.682         589.682     37.0463E-03     37.0463E-03     519.691E-03     519.691E-03
            2123         590.212         590.212     38.2311E-03     38.2311E-03     569.957E-03     569.957E-03
            2124         590.790         590.790     38.8316E-03     38.8316E-03     621.646E-03     621.646E-03
            2125         591.419         591.419     38.6320E-03     38.6320E-03     673.887E-03     673.887E-03
            2126         592.096         592.096     37.3691E-03     37.3691E-03     725.508E-03     725.508E-03
            2127         592.822         592.822     34.7291E-03     34.7291E-03     774.958E-03     774.958E-03
            2128         593.593         593.593     30.3429E-03     30.3429E-03     820.250E-03     820.250E-03
            2129         594.403         594.403     23.7910E-03     23.7910E-03     858.882E-03     858.882E-03
            2130         595.245         595.245     14.6072E-03     14.6072E-03     887.780E-03     887.780E-03
            2131         596.108         596.108     2.30303E-03     2.30303E-03     903.248E-03     903.248E-03
            2132         596.976         596.976    -13.6057E-03    -13.6057E-03     900.953E-03     900.953E-03
            2133         597.831         597.831    -33.5397E-03    -33.5397E-03     875.971E-03     875.971E-03
            2134         598.648         598.648    -57.7844E-03    -57.7844E-03     822.901E-03     822.901E-03
            2135         599.398         599.398    -86.3820E-03    -86.3820E-03     736.118E-03     736.118E-03
            2136         600.047         600.047    -118.993E-03    -118.993E-03     610.147E-03     610.147E-03
            2137         600.557         600.557    -154.753E-03    -154.753E-03     440.273E-03     440.273E-03
            2138         600.885         600.885    -192.077E-03    -192.077E-03     223.289E-03     223.289E-03
            2139         600.986         600.986    -228.555E-03    -228.555E-03    -41.4604E-03    -41.4604E-03
            2140         600.818         600.818    -260.828E-03    -260.828E-03    -350.993E-03    -350.993E-03
            2141         600.343         600.343    -284.674E-03    -284.674E-03    -697.483E-03    -697.483E-03
            2142         599.532         599.532    -295.238E-03    -295.238E-03        -1.06729        -1.06729
            2143         598.375         598.375    -287.500E-03    -287.500E-03        -1.44047        -1.44047
            2144         596.879         596.879    -257.215E-03    -257.215E-03        -1.79095        -1.79095
            2145         595.080         595.080    -201.024E-03    -201.024E-03        -2.08717        -2.08717
            2146         555.042         555.042         160.359         160.359        -43.0285        -43.0285
            2147         561.033         561.033         145.904         145.904        -42.7543        -42.7543
            2148         566.855         566.855         131.404         131.404        -41.3200        -41.3200
            2149         572.298         572.298         117.218         117.218        -39.1510        -39.1510
            2150         577.235         577.235         103.615         103.615        -36.3542        -36.3542
            2151         581.569         581.569         90.8138         90.8138        -33.0439        -33.0439
            2152         585.234         585.234         78.9842         78.9842        -29.3900        -29.3900
            2153         588.239         588.239         68.2140         68.2140        -25.5502        -25.5502
            2154         590.595         590.595         58.5446         58.5446        -21.6762        -21.6762
            2155         592.375         592.375         49.9559         49.9559        -17.8979        -17.8979
            2156         593.635         593.635         42.3981         42.3981        -14.3059        -14.3059
            2157         594.465         594.465         35.7984         35.7984        -10.9730        -10.9730
            2158         594.931         594.931         30.0691         30.0691        -7.93231        -7.93231
            2159         595.107         595.107         25.1252         25.1252        -5.20642        -5.20642
            2160         595.049         595.049         20.8765         20.8765        -2.79178        -2.79178
            2161         594.811         594.811         17.2449         17.2449    -680.281E-03    -680.281E-03
            2162         594.432         594.432         14.1517         14.1517         1.14956         1.14956
            2163         593.949         593.949         11.5309         11.5309         2.72024         2.72024
            2164         593.390         593.390         9.31779         9.31779         4.05946         4.05946
            2165         592.776         592.776         7.45782         7.45782         5.19403         5.19403
            2166         592.127         592.127         5.89854         5.89854         6.15174         6.15174
            2167         591.458         591.458         4.59444         4.59444         6.95871         6.95871
            2168         590.780         590.780         3.50205         3.50205         7.64021         7.64021
            2169         590.107         590.107         2.58240         2.58240         8.21971         8.21971
            2170         589.447         589.447         1.79797         1.79797         8.71931         8.71931
            2171         588.812         588.812         1.11379         1.11379         9.15951         9.15951
            2172         588.214         588.214     495.562E-03     495.562E-03         9.55955         9.55955
            2173         587.666         587.666    -90.0372E-03    -90.0372E-03         9.93735         9.93735
            2174         587.184         587.184    -676.634E-03    -676.634E-03         10.3096         10.3096
            2175         586.789         586.789        -1.29828        -1.29828         10.6917         10.6917
            2176         586.505         586.505        -1.99034        -1.99034         11.0972         11.0972
            2177         586.368         586.368        -2.78991        -2.78991         11.5368         11.5368
            2178         586.418         586.418        -3.73610        -3.73610         12.0169         12.0169
            2179         586.713         586.713        -4.87030        -4.87030         12.5368         12.5368
            2180         587.321         587.321        -6.23453        -6.23453         13.0833         13.0833
            2181         588.332         588.332        -7.86961        -7.86961         13.6244         13.6244
            2182         589.852         589.852        -9.80659        -9.80659         14.0974         14.0974
            2183         592.004         592.004        -12.0553        -12.0553         14.3966         14.3966
            2184         594.910         594.910        -14.5743        -14.5743         14.3529         14.3529
            2185         598.661         598.661        -17.2311        -17.2311         13.7297         13.7297
            2186         603.253         603.253        -19.7365        -19.7365         12.2249         12.2249
            2187         608.521         608.521        -21.6210        -21.6210         9.56160         9.56160
            2188         556.668         556.668         160.014         160.014        -49.1898        -49.1898
            2189         562.966         562.966         144.722         144.722        -48.8363        -48.8363
            2190         569.006         569.006         129.386         129.386        -47.0570        -47.0570
            2191         574.593         574.593         114.431         114.431        -44.3989        -44.3989
            2192         579.554         579.554         100.190         100.190        -40.9596        -40.9596
            2193         583.771         583.771         86.9393         86.9393        -36.9488        -36.9488
            2194         587.226         587.226         74.8419         74.8419        -32.5649        -32.5649
            2195         589.905         589.905         63.9961         63.9961        -28.0258        -28.0258
            2196         591.901         591.901         54.3986         54.3986        -23.5199        -23.5199
            2197         593.277         593.277         46.0024         46.0024        -19.1848        -19.1848
            2198         594.155         594.155         38.7193         38.7193        -15.1340        -15.1340
            2199         594.619         594.619         32.4392         32.4392        -11.4201        -11.4201
            2200         594.767         594.767         27.0559         27.0559        -8.08326        -8.08326
            2201         594.671         594.671         22.4554         22.4554        -5.12274        -5.12274
            2202         594.397         594.397         18.5430         18.5430        -2.53331        -2.53331
            2203         593.995         593.995         15.2227         15.2227    -289.562E-03    -289.562E-03
            2204         593.504         593.504         12.4179         12.4179         1.63427         1.63427
            2205         592.955         592.955         10.0537         10.0537         3.27151         3.27151
            2206         592.372         592.372         8.06939         8.06939         4.65379         4.65379
            2207         591.774         591.774         6.40704         6.40704         5.81409         5.81409
            2208         591.173         591.173         5.01823         5.01823         6.78288         6.78288
            2209         590.582         590.582         3.85697         3.85697         7.58936         7.58936
            2210         590.009         590.009         2.88327         2.88327         8.26008         8.26008
            2211         589.463         589.463         2.05892         2.05892         8.81947         8.81947
            2212         588.952         588.952         1.34918         1.34918         9.28952         9.28952
            2213         588.485         588.485     720.246E-03     720.246E-03         9.69002         9.69002
            2214         588.074         588.074     140.011E-03     140.011E-03         10.0385         10.0385
            2215         587.730         587.730    -423.505E-03    -423.505E-03         10.3505         10.3505
            2216         587.469         587.469        -1.00190        -1.00190         10.6392         10.6392
            2217         587.313         587.313        -1.62722        -1.62722         10.9151         10.9151
            2218         587.287         587.287        -2.33191        -2.33191         11.1856         11.1856
            2219         587.424         587.424        -3.14881        -3.14881         11.4537         11.4537
            2220         587.763         587.763        -4.11067        -4.11067         11.7161         11.7161
            2221         588.355         588.355        -5.24859        -5.24859         11.9601         11.9601
            2222         589.258         589.258        -6.58960        -6.58960         12.1597         12.1597
            2223         590.541         590.541        -8.15071        -8.15071         12.2691         12.2691
            2224         592.277         592.277        -9.93053        -9.93053         12.2162         12.2162
            2225         594.533         594.533        -11.8926        -11.8926         11.8935         11.8935
            2226         597.355         597.355        -13.9428        -13.9428         11.1570         11.1570
            2227         600.736         600.736        -15.8983        -15.8983         9.82726         9.82726
            2228         604.578         604.578        -17.4594        -17.4594         7.72813         7.72813
            2229         608.698         608.698        -18.2273        -18.2273         4.70252         4.70252
            2230         558.802         558.802         159.592         159.592        -55.6910        -55.6910
            2231         565.407         565.407         143.276         143.276        -55.1958        -55.1958
            2232         571.731         571.731         126.886         126.886        -53.0128        -53.0128
            2233         577.444         577.444         110.987         110.987        -49.6987        -49.6987
            2234         582.358         582.358         96.0133         96.0133        -45.4922        -45.4922
            2235         586.386         586.386         82.2604         82.2604        -40.6212        -40.6212
            2236         589.469         589.469         69.9357         69.9357        -35.3968        -35.3968
            2237         591.716         591.716         59.0755         59.0755        -30.0885        -30.0885
            2238         593.194         593.194         49.6506         49.6506        -24.9079        -24.9079
            2239         594.074         594.074         41.5524         41.5524        -20.0317        -20.0317
            2240         594.465         594.465         34.6396         34.6396        -15.5415        -15.5415
            2241         594.506         594.506         28.7744         28.7744        -11.5044        -11.5044
            2242         594.289         594.289         23.8062         23.8062        -7.92214        -7.92214
            2243         593.901         593.901         19.6167         19.6167        -4.79327        -4.79327
            2244         593.402         593.402         16.0843         16.0843        -2.08584        -2.08584
            2245         592.840         592.840         13.1179         13.1179     230.818E-03     230.818E-03
            2246         592.248         592.248         10.6277         10.6277         2.19802         2.19802
            2247         591.650         591.650         8.54523         8.54523         3.85402         3.85402
            2248         591.065         591.065         6.80505         6.80505         5.23868         5.23868
            2249         590.504         590.504         5.35515         5.35515         6.38824         6.38824
            2250         589.975         589.975         4.14632         4.14632         7.33702         7.33702
            2251         589.484         589.484         3.13757         3.13757         8.11576         8.11576
            2252         589.036         589.036         2.28996         2.28996         8.75224         8.75224
            2253         588.637         588.637         1.56926         1.56926         9.27095         9.27095
            2254         588.291         588.291     942.482E-03     942.482E-03         9.69330         9.69330
            2255         588.004         588.004     379.049E-03     379.049E-03         10.0378         10.0378
            2256         587.786         587.786    -151.121E-03    -151.121E-03         10.3198         10.3198
            2257         587.647         587.647    -677.104E-03    -677.104E-03         10.5520         10.5520
            2258         587.601         587.601        -1.22796        -1.22796         10.7439         10.7439
            2259         587.667         587.667        -1.83234        -1.83234         10.9014         10.9014
            2260         587.869         587.869        -2.51862        -2.51862         11.0264         11.0264
            2261         588.234         588.234        -3.31409        -3.31409         11.1155         11.1155
            2262         588.797         588.797        -4.24370        -4.24370         11.1579         11.1579
            2263         589.599         589.599        -5.32781        -5.32781         11.1339         11.1339
            2264         590.682         590.682        -6.57805        -6.57805         11.0108         11.0108
            2265         592.092         592.092        -7.99132        -7.99132         10.7398         10.7398
            2266         593.869         593.869        -9.53999        -9.53999         10.2519         10.2519
            2267         596.035         596.035        -11.1583        -11.1583         9.45782         9.45782
            2268         598.583         598.583        -12.7263        -12.7263         8.24942         8.24942
            2269         601.449         601.449        -14.0499        -14.0499         6.51653         6.51653
            2270         604.509         604.509        -14.8623        -14.8623         4.16628         4.16628
            2271         607.544         607.544        -14.7896        -14.7896         1.13726         1.13726
            2272         561.522         561.522         159.113         159.113        -62.5789        -62.5789
            2273         568.592         568.592         141.463         141.463        -61.9281        -61.9281
            2274         575.179         575.179         123.759         123.759        -59.1457        -59.1457
            2275         580.984         580.984         106.722         106.722        -55.0355        -55.0355
            2276         585.773         585.773         90.8837         90.8837        -49.8139        -49.8139
            2277         589.398         589.398         76.6509         76.6509        -43.9171        -43.9171
            2278         591.972         591.972         64.1522         64.1522        -37.7224        -37.7224
            2279         593.549         593.549         53.4142         53.4142        -31.5630        -31.5630
            2280         594.378         594.378         44.3032         44.3032        -25.7179        -25.7179
            2281         594.605         594.605         36.6352         36.6352        -20.3149        -20.3149
            2282         594.431         594.431         30.2240         30.2240        -15.4640        -15.4640
            2283         593.983         593.983         24.8627         24.8627        -11.1677        -11.1677
            2284         593.375         593.375         20.3982         20.3982        -7.42923        -7.42923
            2285         592.685         592.685         16.6710         16.6710        -4.20513        -4.20513
            2286         591.969         591.969         13.5700         13.5700        -1.45678        -1.45678
            2287         591.265         591.265         10.9844         10.9844     869.002E-03     869.002E-03
            2288         590.597         590.597         8.83574         8.83574         2.81993         2.81993
            2289         589.980         589.980         7.04821         7.04821         4.44514         4.44514
            2290         589.423         589.423         5.56545         5.56545         5.78858         5.78858
            2291         588.931         588.931         4.33414         4.33414         6.89119         6.89119
            2292         588.503         588.503         3.31212         3.31212         7.78918         7.78918
            2293         588.142         588.142         2.45961         2.45961         8.51471         8.51471
            2294         587.845         587.845         1.74307         1.74307         9.09575         9.09575
            2295         587.615         587.615         1.13047         1.13047         9.55632         9.55632
            2296         587.452         587.452     593.072E-03     593.072E-03         9.91670         9.91670
            2297         587.359         587.359     102.883E-03     102.883E-03         10.1935         10.1935
            2298         587.341         587.341    -366.532E-03    -366.532E-03         10.3999         10.3999
            2299         587.408         587.408    -841.334E-03    -841.334E-03         10.5454         10.5454
            2300         587.569         587.569        -1.34686        -1.34686         10.6361         10.6361
            2301         587.841         587.841        -1.90795        -1.90795         10.6738         10.6738
            2302         588.242         588.242        -2.54810        -2.54810         10.6558         10.6558
            2303         588.794         588.794        -3.28866        -3.28866         10.5739         10.5739
            2304         589.525         589.525        -4.14686        -4.14686         10.4132         10.4132
            2305         590.461         590.461        -5.13304        -5.13304         10.1504         10.1504
            2306         591.632         591.632        -6.24634        -6.24634         9.75218         9.75218
            2307         593.061         593.061        -7.46858        -7.46858         9.17373         9.17373
            2308         594.760         594.760        -8.75577        -8.75577         8.35882         8.35882
            2309         596.723         596.723        -10.0287        -10.0287         7.24155         7.24155
            2310         598.908         598.908        -11.1609        -11.1609         5.75481         5.75481
            2311         601.232         601.232        -11.9750        -11.9750         3.84314         3.84314
            2312         603.555         603.555        -12.2311        -12.2311         1.47835         1.47835
            2313         605.664         605.664        -11.6332        -11.6332        -1.30082        -1.30082
            2314         565.212         565.212         158.497         158.497        -69.9947        -69.9947
            2315         572.692         572.692         139.173         139.173        -69.0153        -69.0153
            2316         579.616         579.616         119.791         119.791        -65.5136        -65.5136
            2317         585.428         585.428         101.345         101.345        -60.2348        -60.2348
            2318         589.829         589.829         84.6039         84.6039        -53.7638        -53.7638
            2319         592.876         592.876         69.9037         69.9037        -46.5994        -46.5994
            2320         594.571         594.571         57.4196         57.4196        -39.2854        -39.2854
            2321         595.290         595.290         46.9943         46.9943        -32.2709        -32.2709
            2322         595.225         595.225         38.3890         38.3890        -25.7633        -25.7633
            2323         594.686         594.686         31.3399         31.3399        -19.9472        -19.9472
            2324         593.852         593.852         25.5487         25.5487        -14.8197        -14.8197
            2325         592.881         592.881         20.8120         20.8120        -10.3895        -10.3895
            2326         591.874         591.874         16.9119         16.9119        -6.59203        -6.59203
            2327         590.897         590.897         13.7107         13.7107        -3.37524        -3.37524
            2328         589.993         589.993         11.0677         11.0677    -667.892E-03    -667.892E-03
            2329         589.185         589.185         8.89183         8.89183         1.59169         1.59169
            2330         588.483         588.483         7.09374         7.09374         3.46530         3.46530
            2331         587.891         587.891         5.61183         5.61183         5.00729         5.00729
            2332         587.406         587.406         4.38760         4.38760         6.26695         6.26695
            2333         587.023         587.023         3.37761         3.37761         7.28749         7.28749
            2334         586.735         586.735         2.54105         2.54105         8.10645         8.10645
            2335         586.538         586.538         1.84524         1.84524         8.75627         8.75627
            2336         586.423         586.423         1.25925         1.25925         9.26426         9.26426
            2337         586.388         586.388     756.402E-03     756.402E-03         9.65340         9.65340
            2338         586.429         586.429     310.982E-03     310.982E-03         9.94217         9.94217
            2339         586.546         586.546    -100.644E-03    -100.644E-03         10.1452         10.1452
            2340         586.740         586.740    -501.688E-03    -501.688E-03         10.2729         10.2729
            2341         587.016         587.016    -914.278E-03    -914.278E-03         10.3322         10.3322
            2342         587.381         587.381        -1.36007        -1.36007         10.3257         10.3257
            2343         587.845         587.845        -1.85946        -1.85946         10.2520         10.2520
            2344         588.422         588.422        -2.43120        -2.43120         10.1049         10.1049
            2345         589.127         589.127        -3.09087        -3.09087         9.87327         9.87327
            2346         589.979         589.979        -3.84898        -3.84898         9.54017         9.54017
            2347         590.993         590.993        -4.70799        -4.70799         9.08232         9.08232
            2348         592.184         592.184        -5.65828        -5.65828         8.46956         8.46956
            2349         593.560         593.560        -6.67263        -6.67263         7.66558         7.66558
            2350         595.113         595.113        -7.70037        -7.70037         6.62949         6.62949
            2351         596.817         596.817        -8.65964        -8.65964         5.32067         5.32067
            2352         598.618         598.618        -9.43396        -9.43396         3.70695         3.70695
            2353         600.427         600.427        -9.86641        -9.86641         1.77529         1.77529
            2354         602.111         602.111        -9.76520        -9.76520    -446.445E-03    -446.445E-03
            2355         603.504         603.504        -8.91742        -8.91742        -2.86842        -2.86842
            2356         570.028         570.028         157.777         157.777        -77.9760        -77.9760
            2357         578.230         578.230         136.160         136.160        -76.6432        -76.6432
            2358         585.376         585.376         114.608         114.608        -71.9046        -71.9046
            2359         590.932         590.932         94.5505         94.5505        -65.1609        -65.1609
            2360         594.725         594.725         76.7958         76.7958        -56.9829        -56.9829
            2361         596.608         596.608         61.8873         61.8873        -48.2863        -48.2863
            2362         597.152         597.152         49.6718         49.6718        -39.8090        -39.8090
            2363         596.605         596.605         39.8549         39.8549        -31.9119        -31.9119
            2364         595.475         595.475         32.0395         32.0395        -24.9194        -24.9194
            2365         594.029         594.029         25.7710         25.7710        -18.8070        -18.8070
            2366         592.491         592.491         20.7701         20.7701        -13.5873        -13.5873
            2367         590.994         590.994         16.7287         16.7287        -9.15744        -9.15744
            2368         589.615         589.615         13.4732         13.4732        -5.44100        -5.44100
            2369         588.401         588.401         10.8215         10.8215        -2.33917        -2.33917
            2370         587.367         587.367         8.66681         8.66681     230.929E-03     230.929E-03
            2371         586.517         586.517         6.90266         6.90266         2.34830         2.34830
            2372         585.843         585.843         5.46160         5.46160         4.08143         4.08143
            2373         585.335         585.335         4.27902         4.27902         5.48997         5.48997
            2374         584.977         584.977         3.31027         3.31027         6.62585         6.62585
            2375         584.755         584.755         2.51346         2.51346         7.53287         7.53287
            2376         584.654         584.654         1.85702         1.85702         8.24877         8.24877
            2377         584.662         584.662         1.31127         1.31127         8.80471         8.80471
            2378         584.766         584.766     851.854E-03     851.854E-03         9.22687         9.22687
            2379         584.957         584.957     455.503E-03     455.503E-03         9.53612         9.53612
            2380         585.227         585.227     101.564E-03     101.564E-03         9.74905         9.74905
            2381         585.573         585.573    -230.111E-03    -230.111E-03         9.87772         9.87772
            2382         585.992         585.992    -558.372E-03    -558.372E-03         9.93023         9.93023
            2383         586.484         586.484    -901.699E-03    -901.699E-03         9.91053         9.91053
            2384         587.053         587.053        -1.27751        -1.27751         9.81865         9.81865
            2385         587.702         587.702        -1.70211        -1.70211         9.65041         9.65041
            2386         588.440         588.440        -2.18963        -2.18963         9.39750         9.39750
            2387         589.275         589.275        -2.75082        -2.75082         9.04716         9.04716
            2388         590.216         590.216        -3.39095        -3.39095         8.58234         8.58234
            2389         591.269         591.269        -4.10722        -4.10722         7.98167         7.98167
            2390         592.438         592.438        -4.88506        -4.88506         7.22042         7.22042
            2391         593.718         593.718        -5.69425        -5.69425         6.27195         6.27195
            2392         595.090         595.090        -6.48386        -6.48386         5.11096         5.11096
            2393         596.520         596.520        -7.17931        -7.17931         3.71873         3.71873
            2394         597.951         597.951        -7.67869        -7.67869         2.09014         2.09014
            2395         599.301         599.301        -7.85550        -7.85550     245.809E-03     245.809E-03
            2396         600.465         600.465        -7.56576        -7.56576        -1.75588        -1.75588
            2397         601.320         601.320        -6.66636        -6.66636        -3.80214        -3.80214
            2398         576.961         576.961         156.712         156.712        -86.8523        -86.8523
            2399         585.631         585.631         132.071         132.071        -84.5891        -84.5891
            2400         592.926         592.926         107.745         107.745        -78.3307        -78.3307
            2401         597.948         597.948         85.6570         85.6570        -69.2520        -69.2520
            2402         600.201         600.201         67.2176         67.2176        -58.9118        -58.9118
            2403         600.519         600.519         52.4139         52.4139        -48.5214        -48.5214
            2404         599.182         599.182         40.9592         40.9592        -38.7808        -38.7808
            2405         597.098         597.098         32.2060         32.2060        -30.3046        -30.3046
            2406         594.694         594.694         25.4057         25.4057        -23.0014        -23.0014
            2407         592.287         592.287         20.1665         20.1665        -16.8779        -16.8779
            2408         590.059         590.059         16.0340         16.0340        -11.7599        -11.7599
            2409         588.089         588.089         12.7894         12.7894        -7.52625        -7.52625
            2410         586.424         586.424         10.1929         10.1929        -4.03571        -4.03571
            2411         585.060         585.060         8.12000         8.12000        -1.17268        -1.17268
            2412         583.989         583.989         6.44347         6.44347         1.16479         1.16479
            2413         583.185         583.185         5.09008         5.09008         3.06436         3.06436
            2414         582.623         582.623         3.98878         3.98878         4.59802         4.59802
            2415         582.274         582.274         3.09421         3.09421         5.82834         5.82834
            2416         582.113         582.113         2.36375         2.36375         6.80590         6.80590
            2417         582.113         582.113         1.76734         1.76734         7.57437         7.57437
            2418         582.253         582.253         1.27692         1.27692         8.16881         8.16881
            2419         582.513         582.513     870.704E-03     870.704E-03         8.61888         8.61888
            2420         582.876         582.876     528.094E-03     528.094E-03         8.94790         8.94790
            2421         583.328         583.328     231.568E-03     231.568E-03         9.17466         9.17466
            2422         583.858         583.858    -35.8282E-03    -35.8282E-03         9.31297         9.31297
            2423         584.457         584.457    -289.577E-03    -289.577E-03         9.37260         9.37260
            2424         585.118         585.118    -544.873E-03    -544.873E-03         9.35903         9.35903
            2425         585.839         585.839    -816.003E-03    -816.003E-03         9.27394         9.27394
            2426         586.616         586.616        -1.11665        -1.11665         9.11503         9.11503
            2427         587.450         587.450        -1.45907        -1.45907         8.87629         8.87629
            2428         588.343         588.343        -1.85356        -1.85356         8.54800         8.54800
            2429         589.295         589.295        -2.30697        -2.30697         8.11703         8.11703
            2430         590.308         590.308        -2.82114        -2.82114         7.56721         7.56721
            2431         591.380         591.380        -3.39038        -3.39038         6.88029         6.88029
            2432         592.505         592.505        -3.99895        -3.99895         6.03724         6.03724
            2433         593.671         593.671        -4.61758        -4.61758         5.02073         5.02073
            2434         594.853         594.853        -5.20110        -5.20110         3.81870         3.81870
            2435         596.015         596.015        -5.68568        -5.68568         2.42911         2.42911
            2436         597.107         597.107        -5.98958        -5.98958     867.225E-03     867.225E-03
            2437         598.061         598.061        -6.01617        -6.01617    -827.173E-03    -827.173E-03
            2438         598.801         598.801        -5.66349        -5.66349        -2.58009        -2.58009
            2439         599.247         599.247        -4.84086        -4.84086        -4.27719        -4.27719
            2440         586.372         586.372         155.322         155.322        -96.5050        -96.5050
            2441         596.146         596.146         126.222         126.222        -93.2637        -93.2637
            2442         603.160         603.160         98.0476         98.0476        -83.8917        -83.8917
            2443         606.239         606.239         74.2021         74.2021        -71.7579        -71.7579
            2444         606.367         606.367         55.3521         55.3521        -58.7285        -58.7285
            2445         603.689         603.689         41.5602         41.5602        -46.3577        -46.3577
            2446         600.014         600.014         31.6578         31.6578        -35.9329        -35.9329
            2447         596.088         596.088         24.2804         24.2804        -27.1648        -27.1648
            2448         592.349         592.349         18.8705         18.8705        -20.0142        -20.0142
            2449         589.047         589.047         14.7328         14.7328        -14.1740        -14.1740
            2450         586.232         586.232         11.5949         11.5949        -9.43692        -9.43692
            2451         583.938         583.938         9.13909         9.13909        -5.59885        -5.59885
            2452         582.122         582.122         7.22379         7.22379        -2.49309        -2.49309
            2453         580.752         580.752         5.69873         5.69873     11.2349E-03     11.2349E-03
            2454         579.770         579.770         4.48622         4.48622         2.02749         2.02749
            2455         579.130         579.130         3.51000         3.51000         3.64117         3.64117
            2456         578.783         578.783         2.72504         2.72504         4.92729         4.92729
            2457         578.687         578.687         2.08920         2.08920         5.94292         5.94292
            2458         578.802         578.802         1.57454         1.57454         6.73781         6.73781
            2459         579.095         579.095         1.15536         1.15536         7.35037         7.35037
            2460         579.536         579.536     812.734E-03     812.734E-03         7.81344         7.81344
            2461         580.101         580.101     529.074E-03     529.074E-03         8.15233         8.15233
            2462         580.768         580.768     290.084E-03     290.084E-03         8.38784         8.38784
            2463         581.520         581.520     82.1031E-03     82.1031E-03         8.53530         8.53530
            2464         582.341         582.341    -106.959E-03    -106.959E-03         8.60611         8.60611
            2465         583.220         583.220    -288.947E-03    -288.947E-03         8.60731         8.60731
            2466         584.146         584.146    -474.899E-03    -474.899E-03         8.54229         8.54229
            2467         585.112         585.112    -675.576E-03    -675.576E-03         8.41060         8.41060
            2468         586.111         586.111    -900.888E-03    -900.888E-03         8.20838         8.20838
            2469         587.138         587.138        -1.15975        -1.15975         7.92837         7.92837
            2470         588.189         588.189        -1.45916        -1.45916         7.56031         7.56031
            2471         589.258         589.258        -1.80331        -1.80331         7.09135         7.09135
            2472         590.340         590.340        -2.19199        -2.19199         6.50692         6.50692
            2473         591.425         591.425        -2.61896        -2.61896         5.79189         5.79189
            2474         592.502         592.502        -3.06966        -3.06966         4.93248         4.93248
            2475         593.552         593.552        -3.51934        -3.51934         3.91890         3.91890
            2476         594.551         594.551        -3.93095        -3.93095         2.74873         2.74873
            2477         595.464         595.464        -4.25475        -4.25475         1.43175         1.43175
            2478         596.250         596.250        -4.42904        -4.42904    -5.31428E-03    -5.31428E-03
            2479         596.859         596.859        -4.38461        -4.38461        -1.51274        -1.51274
            2480         597.242         597.242        -4.05295        -4.05295        -3.01387        -3.01387
            2481         597.355         597.355        -3.37871        -3.37871        -4.40275        -4.40275
            2482         601.455         601.455         152.695         152.695        -107.977        -107.977
            2483         611.213         611.213         117.028         117.028        -101.262        -101.262
            2484         616.279         616.279         84.5740         84.5740        -87.9017        -87.9017
            2485         616.580         616.580         58.7277         58.7277        -71.0090        -71.0090
            2486         611.438         611.438         41.3472         41.3472        -54.5051        -54.5051
            2487         604.930         604.930         30.0977         30.0977        -41.4074        -41.4074
            2488         598.516         598.516         22.1517         22.1517        -30.8393        -30.8393
            2489         592.716         592.716         16.7281         16.7281        -22.5648        -22.5648
            2490         587.844         587.844         12.7349         12.7349        -16.0374        -16.0374
            2491         583.849         583.849         9.84381         9.84381        -10.8799        -10.8799
            2492         580.713         580.713         7.64334         7.64334        -6.80208        -6.80208
            2493         578.315         578.315         5.97732         5.97732        -3.55877        -3.55877
            2494         576.572         576.572         4.67680         4.67680    -986.801E-03    -986.801E-03
            2495         575.378         575.378         3.66201         3.66201         1.05998         1.05998
            2496         574.653         574.653         2.85595         2.85595         2.67946         2.67946
            2497         574.318         574.318         2.21546         2.21546         3.95988         3.95988
            2498         574.309         574.309         1.70145         1.70145         4.96299         4.96299
            2499         574.569         574.569         1.28899         1.28899         5.74377         5.74377
            2500         575.051         575.051     955.943E-03     955.943E-03         6.34238         6.34238
            2501         575.713         575.713     686.624E-03     686.624E-03         6.79379         6.79379
            2502         576.521         576.521     466.893E-03     466.893E-03         7.12415         7.12415
            2503         577.447         577.447     285.722E-03     285.722E-03         7.35542         7.35542
            2504         578.467         578.467     132.800E-03     132.800E-03         7.50374         7.50374
            2505         579.559         579.559    -679.586E-06    -679.586E-06         7.58166         7.58166
            2506         580.707         580.707    -123.277E-03    -123.277E-03         7.59738         7.59738
            2507         581.896         581.896    -242.831E-03    -242.831E-03         7.55582         7.55582
            2508         583.113         583.113    -367.080E-03    -367.080E-03         7.45829         7.45829
            2509         584.346         584.346    -503.248E-03    -503.248E-03         7.30298         7.30298
            2510         585.586         585.586    -658.184E-03    -658.184E-03         7.08494         7.08494
            2511         586.822         586.822    -837.782E-03    -837.782E-03         6.79647         6.79647
            2512         588.045         588.045        -1.04662        -1.04662         6.42738         6.42738
            2513         589.243         589.243        -1.28701        -1.28701         5.96576         5.96576
            2514         590.403         590.403        -1.55808        -1.55808         5.39879         5.39879
            2515         591.512         591.512        -1.85430        -1.85430         4.71424         4.71424
            2516         592.551         592.551        -2.16430        -2.16430         3.90240         3.90240
            2517         593.499         593.499        -2.46920        -2.46920         2.95860         2.95860
            2518         594.330         594.330        -2.74191        -2.74191         1.88663         1.88663
            2519         595.015         595.015        -2.94675        -2.94675     702.165E-03     702.165E-03
            2520         595.521         595.521        -3.04102        -3.04102    -562.997E-03    -562.997E-03
            2521         595.818         595.818        -2.97848        -2.97848        -1.85793        -1.85793
            2522         595.878         595.878        -2.71554        -2.71554        -3.11056        -3.11056
            2523         595.686         595.686        -2.22020        -2.22020        -4.22847        -4.22847
            2524         623.497         623.497         148.147         148.147        -119.556        -119.556
            2525         633.537         633.537         102.414         102.414        -109.228        -109.228
            2526         635.204         635.204         63.1250         63.1250        -86.3848        -86.3848
            2527         624.911         624.911         39.6052         39.6052        -62.6419        -62.6419
            2528         612.886         612.886         27.0407         27.0407          -45.75          -45.75
            2529         602.258         602.258         18.7064         18.7064        -33.1137        -33.1137
            2530         593.240         593.240         13.5926         13.5926        -23.7644        -23.7644
            2531         586.114         586.114         9.99789         9.99789        -16.7686        -16.7686
            2532         580.527         580.527         7.54743         7.54743        -11.4198        -11.4198
            2533         576.324         576.324         5.74785         5.74785        -7.33224        -7.33224
            2534         573.232         573.232         4.43215         4.43215        -4.14741        -4.14741
            2535         571.075         571.075         3.43197         3.43197        -1.67679        -1.67679
            2536         569.673         569.673         2.66745         2.66745     262.864E-03     262.864E-03
            2537         568.894         568.894         2.07127         2.07127         1.77536         1.77536
            2538         568.618         568.618         1.60329         1.60329         2.96007         2.96007
            2539         568.751         568.751         1.23227         1.23227         3.87890         3.87890
            2540         569.215         569.215     936.868E-03     936.868E-03         4.58929         4.58929
            2541         569.945         569.945     700.480E-03     700.480E-03         5.13012         5.13012
            2542         570.888         570.888     510.826E-03     510.826E-03         5.53624         5.53624
            2543         571.999         571.999     357.859E-03     357.859E-03         5.83259         5.83259
            2544         573.242         573.242     233.695E-03     233.695E-03         6.04070         6.04070
            2545         574.586         574.586     131.392E-03     131.392E-03         6.17614         6.17614
            2546         576.006         576.006     45.1296E-03     45.1296E-03         6.25154         6.25154
            2547         577.481         577.481    -30.5993E-03    -30.5993E-03         6.27544         6.27544
            2548         578.992         578.992    -100.733E-03    -100.733E-03         6.25371         6.25371
            2549         580.523         580.523    -170.161E-03    -170.161E-03         6.18897         6.18897
            2550         582.059         582.059    -243.448E-03    -243.448E-03         6.08127         6.08127
            2551         583.587         583.587    -325.089E-03    -325.089E-03         5.92788         5.92788
            2552         585.094         585.094    -419.158E-03    -419.158E-03         5.72365         5.72365
            2553         586.563         586.563    -529.274E-03    -529.274E-03         5.46114         5.46114
            2554         587.982         587.982    -658.065E-03    -658.065E-03         5.13108         5.13108
            2555         589.332         589.332    -806.795E-03    -806.795E-03         4.72297         4.72297
            2556         590.596         590.596    -974.531E-03    -974.531E-03         4.22600         4.22600
            2557         591.752         591.752        -1.15748        -1.15748         3.63042         3.63042
            2558         592.777         592.777        -1.34793        -1.34793         2.92934         2.92934
            2559         593.647         593.647        -1.53364        -1.53364         2.12104         2.12104
            2560         594.334         594.334        -1.69711        -1.69711         1.21165         1.21165
            2561         594.812         594.812        -1.81589        -1.81589     218.193E-03     218.193E-03
            2562         595.058         595.058        -1.86357        -1.86357    -828.818E-03    -828.818E-03
            2563         595.054         595.054        -1.81231        -1.81231        -1.88326        -1.88326
            2564         594.791         594.791        -1.63681        -1.63681        -2.88329        -2.88329
            2565         594.278         594.278        -1.31964        -1.31964        -3.75288        -3.75288
            2566         667.800         667.800         136.620         136.620        -136.520        -136.520
            2567         672.018         672.018         70.7353         70.7353        -105.778        -105.778
            2568         648.826         648.826         34.8577         34.8577        -68.6381        -68.6381
            2569         625.043         625.043         21.7948         21.7948        -46.4585        -46.4585
            2570         607.112         607.112         13.7114         13.7114        -32.1536        -32.1536
            2571         593.183         593.183         9.45329         9.45329        -22.2711        -22.2711
            2572         582.968         582.968         6.65018         6.65018        -15.4648        -15.4648
            2573         575.401         575.401         4.85993         4.85993        -10.4441        -10.4441
            2574         569.982         569.982         3.61954         3.61954        -6.78710        -6.78710
            2575         566.182         566.182         2.73726         2.73726        -3.99856        -3.99856
            2576         563.666         563.666         2.09680         2.09680        -1.89705        -1.89705
            2577         562.148         562.148         1.61280         1.61280    -270.143E-03    -270.143E-03
            2578         561.420         561.420         1.24759         1.24759     975.621E-03     975.621E-03
            2579         561.314         561.314     962.256E-03     962.256E-03         1.94202         1.94202
            2580         561.700         561.700     740.832E-03     740.832E-03         2.68249         2.68249
            2581         562.473         562.473     564.900E-03     564.900E-03         3.25091         3.25091
            2582         563.551         563.551     425.977E-03     425.977E-03         3.67989         3.67989
            2583         564.866         564.866     314.788E-03     314.788E-03         4.00030         4.00030
            2584         566.365         566.365     226.063E-03     226.063E-03         4.23277         4.23277
            2585         568.003         568.003     154.632E-03     154.632E-03         4.39585         4.39585
            2586         569.745         569.745     96.8089E-03     96.8089E-03         4.50255         4.50255
            2587         571.562         571.562     49.2483E-03     49.2483E-03         4.56388         4.56388
            2588         573.430         573.430     9.06266E-03     9.06266E-03         4.58740         4.58740
            2589         575.327         575.327    -26.3371E-03    -26.3371E-03         4.57881         4.57881
            2590         577.237         577.237    -59.4739E-03    -59.4739E-03         4.54124         4.54124
            2591         579.144         579.144    -92.6664E-03    -92.6664E-03         4.47598         4.47598
            2592         581.031         581.031    -128.269E-03    -128.269E-03         4.38219         4.38219
            2593         582.885         582.885    -168.452E-03    -168.452E-03         4.25720         4.25720
            2594         584.688         584.688    -215.318E-03    -215.318E-03         4.09648         4.09648
            2595         586.424         586.424    -270.621E-03    -270.621E-03         3.89392         3.89392
            2596         588.073         588.073    -335.705E-03    -335.705E-03         3.64205         3.64205
            2597         589.612         589.612    -411.106E-03    -411.106E-03         3.33261         3.33261
            2598         591.016         591.016    -496.309E-03    -496.309E-03         2.95727         2.95727
            2599         592.259         592.259    -589.202E-03    -589.202E-03         2.50871         2.50871
            2600         593.310         593.310    -685.747E-03    -685.747E-03         1.98206         1.98206
            2601         594.138         594.138    -779.445E-03    -779.445E-03         1.37663         1.37663
            2602         594.713         594.713    -861.244E-03    -861.244E-03     698.072E-03     698.072E-03
            2603         595.009         595.009    -919.518E-03    -919.518E-03    -39.6016E-03    -39.6016E-03
            2604         595.005         595.005    -940.830E-03    -940.830E-03    -812.079E-03    -812.079E-03
            2605         594.692         594.692    -911.231E-03    -911.231E-03        -1.58372        -1.58372
            2606         594.077         594.077    -818.311E-03    -818.311E-03        -2.30774        -2.30774
            2607         593.185         593.185    -653.828E-03    -653.828E-03        -2.92758        -2.92758
            2608         753.114         753.114         92.7493         92.7493        -119.986        -119.986
            2609         690.152         690.152         26.1635         26.1635        -65.1878        -65.1878
            2610         640.587         640.587         13.8878         13.8878        -37.4048        -37.4048
            2611         610.663         610.663         7.74986         7.74986        -24.4983        -24.4983
            2612         590.081         590.081         4.82561         4.82561        -15.9796        -15.9796
            2613         576.254         576.254         3.28553         3.28553        -10.9012        -10.9012
            2614         566.703         566.703         2.24757         2.24757        -7.23330        -7.23330
            2615         560.254         560.254         1.66238         1.66238        -4.75158        -4.75158
            2616         556.010         556.010         1.20656         1.20656        -2.88494        -2.88494
            2617         553.410         553.410     925.661E-03     925.661E-03        -1.53347        -1.53347
            2618         552.042         552.042     695.539E-03     695.539E-03    -497.274E-03    -497.274E-03
            2619         551.611         551.611     540.795E-03     540.795E-03     278.436E-03     278.436E-03
            2620         551.898         551.898     412.742E-03     412.742E-03     876.173E-03     876.173E-03
            2621         552.735         552.735     320.372E-03     320.372E-03         1.32821         1.32821
            2622         553.995         553.995     244.277E-03     244.277E-03         1.67370         1.67370
            2623         555.578         555.578     186.663E-03     186.663E-03         1.93246         1.93246
            2624         557.405         557.405     139.605E-03     139.605E-03         2.12533         2.12533
            2625         559.415         559.415     102.899E-03     102.899E-03         2.26483         2.26483
            2626         561.558         561.558     73.1377E-03     73.1377E-03         2.36299         2.36299
            2627         563.796         563.796     49.4375E-03     49.4375E-03         2.42778         2.42778
            2628         566.097         566.097     30.1522E-03     30.1522E-03         2.46635         2.46635
            2629         568.436         568.436     14.2982E-03     14.2982E-03         2.48355         2.48355
            2630         570.793         570.793     884.742E-06     884.742E-06         2.48333         2.48333
            2631         573.150         573.150    -11.0311E-03    -11.0311E-03         2.46810         2.46810
            2632         575.491         575.491    -22.2308E-03    -22.2308E-03         2.43936         2.43936
            2633         577.804         577.804    -33.6100E-03    -33.6100E-03         2.39737         2.39737
            2634         580.074         580.074    -45.9017E-03    -45.9017E-03         2.34144         2.34144
            2635         582.286         582.286    -59.9431E-03    -59.9431E-03         2.26978         2.26978
            2636         584.422         584.422    -76.4082E-03    -76.4082E-03         2.17966         2.17966
            2637         586.464         586.464    -95.9693E-03    -95.9693E-03         2.06746         2.06746
            2638         588.387         588.387    -119.052E-03    -119.052E-03         1.92884         1.92884
            2639         590.164         590.164    -145.880E-03    -145.880E-03         1.75901         1.75901
            2640         591.764         591.764    -176.217E-03    -176.217E-03         1.55317         1.55317
            2641         593.150         593.150    -209.327E-03    -209.327E-03         1.30714         1.30714
            2642         594.283         594.283    -243.699E-03    -243.699E-03         1.01809         1.01809
            2643         595.123         595.123    -277.023E-03    -277.023E-03     685.650E-03     685.650E-03
            2644         595.632         595.632    -305.976E-03    -305.976E-03     312.998E-03     312.998E-03
            2645         595.775         595.775    -326.426E-03    -326.426E-03    -91.9053E-03    -91.9053E-03
            2646         595.530         595.530    -333.511E-03    -333.511E-03    -515.375E-03    -515.375E-03
            2647         594.888         594.888    -322.327E-03    -322.327E-03    -937.454E-03    -937.454E-03
            2648         593.863         593.863    -288.573E-03    -288.573E-03        -1.33212        -1.33212
            2649         592.495         592.495    -229.335E-03    -229.335E-03        -1.66774        -1.66774
            2650         620.390         620.390        -19.4278        -19.4278         1.46561         1.46561
            2651         616.387         616.387        -13.4769        -13.4769         5.20205         5.20205
            2652         612.095         612.095        -8.95646        -8.95646         7.00222         7.00222
            2653         608.121         608.121        -5.73419        -5.73419         7.66314         7.66314
            2654         604.622         604.622        -3.53241        -3.53241         7.69726         7.69726
            2655         601.583         601.583        -2.07918        -2.07918         7.40396         7.40396
            2656         598.925         598.925        -1.15493        -1.15493         6.93597         6.93597
            2657         596.561         596.561    -594.026E-03    -594.026E-03         6.35264         6.35264
            2658         594.406         594.406    -275.073E-03    -275.073E-03         5.64924         5.64924
            2659         592.387         592.387    -109.629E-03    -109.629E-03         4.77079         4.77079
            2660         590.446         590.446    -34.1623E-03    -34.1623E-03         3.61354         3.61354
            2661         588.543         588.543    -6.43213E-03    -6.43213E-03         2.02807         2.02807
            2662         624.659         624.659        -11.5025        -11.5025         9.53192         9.53192
            2663         618.005         618.005        -5.57594        -5.57594         10.9369         10.9369
            2664         612.328         612.328        -1.90512        -1.90512         10.8138         10.8138
            2665         607.682         607.682     190.189E-03     190.189E-03         10.0613         10.0613
            2666         603.898         603.898         1.25476         1.25476         9.11467         9.11467
            2667         600.755         600.755         1.66842         1.66842         8.16108         8.16108
            2668         598.060         598.060         1.68271         1.68271         7.26036         7.26036
            2669         595.648         595.648         1.46327         1.46327         6.40494         6.40494
            2670         593.382         593.382         1.12327         1.12327         5.54606         5.54606
            2671         591.139         591.139     746.039E-03     746.039E-03         4.60077         4.60077
            2672         588.798         588.798     399.997E-03     399.997E-03         3.44773         3.44773
            2673         586.237         586.237     148.605E-03     148.605E-03         1.92499         1.92499
            2674         625.172         625.172         2.92705         2.92705         16.3193         16.3193
            2675         616.859         616.859         6.28944         6.28944         14.5746         14.5746
            2676         610.683         610.683         7.42347         7.42347         12.4702         12.4702
            2677         606.033         606.033         7.36365         7.36365         10.5271         10.5271
            2678         602.413         602.413         6.69252         6.69252         8.89036         8.89036
            2679         599.464         599.464         5.73085         5.73085         7.55106         7.55106
            2680         596.929         596.929         4.65395         4.65395         6.45244         6.45244
            2681         594.610         594.610         3.56325         3.56325         5.52119         5.52119
            2682         592.341         592.341         2.52485         2.52485         4.67483         4.67483
            2683         589.965         589.965         1.59287         1.59287         3.81827         3.81827
            2684         587.315         587.315     826.136E-03     826.136E-03         2.83389         2.83389
            2685         584.197         584.197     300.320E-03     300.320E-03         1.57430         1.57430
            2686         621.674         621.674         21.7697         21.7697         17.8426         17.8426
            2687         613.506         613.506         19.8074         19.8074         13.8272         13.8272
            2688         607.895         607.895         17.0989         17.0989         10.7343         10.7343
            2689         603.830         603.830         14.3177         14.3177         8.43371         8.43371
            2690         600.698         600.698         11.7098         11.7098         6.72997         6.72997
            2691         598.124         598.124         9.34099         9.34099         5.45869         5.45869
            2692         595.856         595.856         7.21946         7.21946         4.49208         4.49208
            2693         593.703         593.703         5.33680         5.33680         3.72941         3.72941
            2694         591.496         591.496         3.68896         3.68896         3.08464         3.08464
            2695         589.066         589.066         2.28803         2.28803         2.47627         2.47627
            2696         586.217         586.217         1.17307         1.17307         1.81640         1.81640
            2697         582.701         582.701     422.659E-03     422.659E-03         1.00228         1.00228
            2698         616.724         616.724         38.5640         38.5640         11.2954         11.2954
            2699         609.977         609.977         30.6080         30.6080         7.76150         7.76150
            2700         605.412         605.412         24.2673         24.2673         5.46565         5.46565
            2701         602.067         602.067         19.2022         19.2022         3.93057         3.93057
            2702         599.436         599.436         15.0885         15.0885         2.87733         2.87733
            2703         597.210         597.210         11.6904         11.6904         2.14293         2.14293
            2704         595.178         595.178         8.84152         8.84152         1.62352         1.62352
            2705         593.175         593.175         6.43058         6.43058         1.24806         1.24806
            2706         591.042         591.042         4.39173         4.39173     964.860E-03     964.860E-03
            2707         588.613         588.613         2.70092         2.70092     732.135E-03     732.135E-03
            2708         585.679         585.679         1.37809         1.37809     513.118E-03     513.118E-03
            2709         581.974         581.974     496.031E-03     496.031E-03     273.410E-03     273.410E-03
            2710         614.758         614.758         44.3192         44.3192        -1.95075        -1.95075
            2711         608.839         608.839         33.7913         33.7913        -2.10218        -2.10218
            2712         604.733         604.733         26.1514         26.1514        -2.10057        -2.10057
            2713         601.667         601.667         20.3530         20.3530        -2.04381        -2.04381
            2714         599.213         599.213         15.7999         15.7999        -1.95671        -1.95671
            2715         597.106         597.106         12.1272         12.1272        -1.85004        -1.85004
            2716         595.157         595.157         9.10201         9.10201        -1.72578        -1.72578
            2717         593.211         593.211         6.57664         6.57664        -1.58083        -1.58083
            2718         591.120         591.120         4.46469         4.46469        -1.40740        -1.40740
            2719         588.721         588.721         2.72996         2.72996        -1.19097        -1.19097
            2720         585.814         585.814         1.38507         1.38507    -906.812E-03    -906.812E-03
            2721         582.144         582.144     496.041E-03     496.041E-03    -514.576E-03    -514.576E-03
            2722         618.011         618.011         34.1671         34.1671        -14.8308        -14.8308
            2723         611.121         611.121         27.1307         27.1307        -11.6307        -11.6307
            2724         606.400         606.400         21.5831         21.5831        -9.42760        -9.42760
            2725         602.927         602.927         17.1266         17.1266        -7.83950        -7.83950
            2726         600.203         600.203         13.4817         13.4817        -6.65299        -6.65299
            2727         597.917         597.917         10.4500         10.4500        -5.73087        -5.73087
            2728         595.857         595.857         7.89462         7.89462        -4.97788        -4.97788
            2729         593.855         593.855         5.72600         5.72600        -4.32057        -4.32057
            2730         591.761         591.761         3.89264         3.89264        -3.69434        -3.69434
            2731         589.417         589.417         2.37840         2.37840        -3.03226        -3.03226
            2732         586.643         586.643         1.20378         1.20378        -2.25279        -2.25279
            2733         583.219         583.219     429.767E-03     429.767E-03        -1.25275        -1.25275
            2734         623.139         623.139         13.6398         13.6398        -19.1062        -19.1062
            2735         615.053         615.053         13.4571         13.4571        -16.0840        -16.0840
            2736         609.387         609.387         12.1580         12.1580        -13.5386        -13.5386
            2737         605.223         605.223         10.4902         10.4902        -11.5001        -11.5001
            2738         602.002         602.002         8.75069         8.75069        -9.87371        -9.87371
            2739         599.373         599.373         7.06777         7.06777        -8.55516        -8.55516
            2740         597.092         597.092         5.49841         5.49841        -7.44767        -7.44767
            2741         594.973         594.973         4.07092         4.07092        -6.46378        -6.46378
            2742         592.863         592.863         2.80638         2.80638        -5.51737        -5.51737
            2743         590.616         590.616         1.73053         1.73053        -4.51402        -4.51402
            2744         588.078         588.078     881.838E-03     881.838E-03        -3.33793        -3.33793
            2745         585.081         585.081     316.983E-03     316.983E-03        -1.84671        -1.84671
            2746         624.614         624.614        -5.77034        -5.77034        -13.8785        -13.8785
            2747         617.414         617.414        -1.01788        -1.01788        -14.0663        -14.0663
            2748         611.740         611.740         1.49497         1.49497        -13.2098        -13.2098
            2749         607.317         607.317         2.63984         2.63984        -12.0453        -12.0453
            2750         603.811         603.811         2.98113         2.98113        -10.8577        -10.8577
            2751         600.943         600.943         2.85705         2.85705        -9.73341        -9.73341
            2752         598.499         598.499         2.47499         2.47499        -8.67848        -8.67848
            2753         596.308         596.308         1.96628         1.96628        -7.65659        -7.65659
            2754         594.232         594.232         1.41972         1.41972        -6.60520        -6.60520
            2755         592.150         592.150     901.522E-03     901.522E-03        -5.43587        -5.43587
            2756         589.948         589.948     467.340E-03     467.340E-03        -4.02824        -4.02824
            2757         587.517         587.517     169.493E-03     169.493E-03        -2.22838        -2.22838
            2758         620.625         620.625        -17.0698        -17.0698        -4.78344        -4.78344
            2759         616.289         616.289        -11.2388        -11.2388        -8.12914        -8.12914
            2760         611.960         611.960        -7.02842        -7.02842        -9.57343        -9.57343
            2761         608.126         608.126        -4.17486        -4.17486        -9.95381        -9.95381
            2762         604.855         604.855        -2.32604        -2.32604        -9.76762        -9.76762
            2763         602.076         602.076        -1.17901        -1.17901        -9.28127        -9.28127
            2764         599.679         599.679    -509.080E-03    -509.080E-03        -8.61924        -8.61924
            2765         597.562         597.562    -153.591E-03    -153.591E-03        -7.82337        -7.82337
            2766         595.630         595.630     4.12593E-03     4.12593E-03        -6.87943        -6.87943
            2767         593.807         593.807     48.1970E-03     48.1970E-03        -5.72953        -5.72953
            2768         592.030         592.030     39.0653E-03     39.0653E-03        -4.27212        -4.27212
            2769         590.257         590.257     17.2848E-03     17.2848E-03        -2.36779        -2.36779
            2770         552.564         552.564         160.966         160.966         29.9486         29.9486
            2771         558.091         558.091         147.813         147.813         29.7868         29.7868
            2772         563.501         563.501         134.646         134.646         28.8829         28.8829
            2773         568.657         568.657         121.713         121.713         27.5333         27.5333
            2774         573.467         573.467         109.187         109.187         25.7862         25.7862
            2775         577.851         577.851         97.2244         97.2244         23.6997         23.6997
            2776         581.750         581.750         85.9546         85.9546         21.3595         21.3595
            2777         585.136         585.136         75.4691         75.4691         18.8515         18.8515
            2778         587.995         587.995         65.8283         65.8283         16.2662         16.2662
            2779         590.346         590.346         57.0560         57.0560         13.6841         13.6841
            2780         592.211         592.211         49.1504         49.1504         11.1729         11.1729
            2781         593.632         593.632         42.0865         42.0865         8.78737         8.78737
            2782         594.652         594.652         35.8234         35.8234         6.56391         6.56391
            2783         595.320         595.320         30.3104         30.3104         4.52838         4.52838
            2784         595.679         595.679         25.4894         25.4894         2.69064         2.69064
            2785         595.776         595.776         21.3015         21.3015         1.05412         1.05412
            2786         595.649         595.649         17.6855         17.6855    -388.350E-03    -388.350E-03
            2787         595.335         595.335         14.5834         14.5834        -1.64698        -1.64698
            2788         594.865         594.865         11.9382         11.9382        -2.73773        -2.73773
            2789         594.267         594.267         9.69693         9.69693        -3.67739        -3.67739
            2790         593.563         593.563         7.80894         7.80894        -4.48531        -4.48531
            2791         592.776         592.776         6.22760         6.22760        -5.18051        -5.18051
            2792         591.920         591.920         4.90870         4.90870        -5.78292        -5.78292
            2793         591.012         591.012         3.81142         3.81142        -6.31187        -6.31187
            2794         590.062         590.062         2.89709         2.89709        -6.78701        -6.78701
            2795         589.083         589.083         2.12953         2.12953        -7.22773        -7.22773
            2796         588.084         588.084         1.47406         1.47406        -7.65398        -7.65398
            2797         587.073         587.073     897.423E-03     897.423E-03        -8.08619        -8.08619
            2798         586.060         586.060     366.854E-03     366.854E-03        -8.54613        -8.54613
            2799         585.056         585.056    -150.475E-03    -150.475E-03        -9.05716        -9.05716
            2800         584.073         584.073    -688.622E-03    -688.622E-03        -9.64507        -9.64507
            2801         583.130         583.130        -1.28414        -1.28414        -10.3385        -10.3385
            2802         582.250         582.250        -1.97794        -1.97794        -11.1694        -11.1694
            2803         581.470         581.470        -2.81802        -2.81802        -12.1732        -12.1732
            2804         580.844         580.844        -3.86275        -3.86275        -13.3878        -13.3878
            2805         580.452         580.452        -5.18620        -5.18620        -14.8514        -14.8514
            2806         580.418         580.418        -6.88338        -6.88338        -16.5954        -16.5954
            2807         580.930         580.930        -9.07856        -9.07856        -18.6315        -18.6315
            2808         582.269         582.269        -11.9259        -11.9259        -20.9222        -20.9222
            2809         584.851         584.851        -15.6044        -15.6044        -23.3226        -23.3226
            2810         589.235         589.235        -20.2330        -20.2330        -25.4702        -25.4702
            2811         596.059         596.059        -25.7096        -25.7096        -26.6591        -26.6591
            2812         551.669         551.669         161.207         161.207         23.0093         23.0093
            2813         557.016         557.016         148.544         148.544         22.8775         22.8775
            2814         562.259         562.259         135.881         135.881         22.1934         22.1934
            2815         567.290         567.290         123.425         123.425         21.1904         21.1904
            2816         572.025         572.025         111.322         111.322         19.8930         19.8930
            2817         576.393         576.393         99.7058         99.7058         18.3480         18.3480
            2818         580.343         580.343         88.6876         88.6876         16.6063         16.6063
            2819         583.833         583.833         78.3570         78.3570         14.7322         14.7322
            2820         586.851         586.851         68.7743         68.7743         12.7863         12.7863
            2821         589.391         589.391         59.9759         59.9759         10.8280         10.8280
            2822         591.471         591.471         51.9730         51.9730         8.90894         8.90894
            2823         593.112         593.112         44.7573         44.7573         7.06993         7.06993
            2824         594.348         594.348         38.3046         38.3046         5.34360         5.34360
            2825         595.215         595.215         32.5783         32.5783         3.74976         3.74976
            2826         595.751         595.751         27.5344         27.5344         2.30176         2.30176
            2827         595.996         595.996         23.1226         23.1226         1.00253         1.00253
            2828         595.986         595.986         19.2913         19.2913    -148.928E-03    -148.928E-03
            2829         595.756         595.756         15.9869         15.9869        -1.16041        -1.16041
            2830         595.337         595.337         13.1575         13.1575        -2.04154        -2.04154
            2831         594.757         594.757         10.7519         10.7519        -2.80563        -2.80563
            2832         594.041         594.041         8.72175         8.72175        -3.46652        -3.46652
            2833         593.211         593.211         7.02056         7.02056        -4.03976        -4.03976
            2834         592.283         592.283         5.60513         5.60513        -4.54083        -4.54083
            2835         591.273         591.273         4.43454         4.43454        -4.98606        -4.98606
            2836         590.192         590.192         3.47084         3.47084        -5.39176        -5.39176
            2837         589.051         589.051         2.67828         2.67828        -5.77502        -5.77502
            2838         587.855         587.855         2.02355         2.02355        -6.15355        -6.15355
            2839         586.609         586.609         1.47508         1.47508        -6.54650        -6.54650
            2840         585.316         585.316         1.00290         1.00290        -6.97483        -6.97483
            2841         583.977         583.977     577.853E-03     577.853E-03        -7.46234        -7.46234
            2842         582.591         582.591     170.896E-03     170.896E-03        -8.03662        -8.03662
            2843         581.160         581.160    -248.093E-03    -248.093E-03        -8.73048        -8.73048
            2844         579.683         579.683    -712.095E-03    -712.095E-03        -9.58364        -9.58364
            2845         578.167         578.167        -1.25945        -1.25945        -10.6449        -10.6449
            2846         576.625         576.625        -1.93818        -1.93818        -11.9749        -11.9749
            2847         575.084         575.084        -2.81179        -2.81179        -13.6489        -13.6489
            2848         573.605         573.605        -3.97007        -3.97007        -15.7600        -15.7600
            2849         572.296         572.296        -5.54309        -5.54309        -18.4207        -18.4207
            2850         571.365         571.365        -7.72832        -7.72832        -21.7572        -21.7572
            2851         571.188         571.188        -10.8212        -10.8212        -25.8878        -25.8878
            2852         572.463         572.463        -15.2708        -15.2708        -30.8314        -30.8314
            2853         576.380         576.380        -21.6171        -21.6171        -36.2996        -36.2996
            2854         551.054         551.054         161.385         161.385         16.2751         16.2751
            2855         556.267         556.267         149.070         149.070         16.1616         16.1616
            2856         561.394         561.394         136.759         136.759         15.6703         15.6703
            2857         566.330         566.330         124.640         124.640         14.9619         14.9619
            2858         571.004         571.004         112.839         112.839         14.0582         14.0582
            2859         575.352         575.352         101.473         101.473         12.9835         12.9835
            2860         579.321         579.321         90.6445         90.6445         11.7761         11.7761
            2861         582.875         582.875         80.4359         80.4359         10.4738         10.4738
            2862         585.988         585.988         70.9102         70.9102         9.11940         9.11940
            2863         588.654         588.654         62.1075         62.1075         7.75166         7.75166
            2864         590.875         590.875         54.0487         54.0487         6.40578         6.40578
            2865         592.668         592.668         46.7356         46.7356         5.11155         5.11155
            2866         594.054         594.054         40.1549         40.1549         3.89075         3.89075
            2867         595.063         595.063         34.2810         34.2810         2.76025         2.76025
            2868         595.728         595.728         29.0786         29.0786         1.72857         1.72857
            2869         596.083         596.083         24.5063         24.5063     800.719E-03     800.719E-03
            2870         596.161         596.161         20.5177         20.5177    -24.6942E-03    -24.6942E-03
            2871         595.996         595.996         17.0650         17.0650    -751.024E-03    -751.024E-03
            2872         595.619         595.619         14.0990         14.0990        -1.38570        -1.38570
            2873         595.057         595.057         11.5716         11.5716        -1.93693        -1.93693
            2874         594.335         594.335         9.43538         9.43538        -2.41513        -2.41513
            2875         593.474         593.474         7.64553         7.64553        -2.83088        -2.83088
            2876         592.494         592.494         6.15914         6.15914        -3.19586        -3.19586
            2877         591.407         591.407         4.93624         4.93624        -3.52178        -3.52178
            2878         590.226         590.226         3.93936         3.93936        -3.82110        -3.82110
            2879         588.957         588.957         3.13399         3.13399        -4.10663        -4.10663
            2880         587.605         587.605         2.48822         2.48822        -4.39223        -4.39223
            2881         586.168         586.168         1.97286         1.97286        -4.69292        -4.69292
            2882         584.643         584.643         1.56112         1.56112        -5.02575        -5.02575
            2883         583.022         583.022         1.22847         1.22847        -5.41043        -5.41043
            2884         581.289         581.289     952.201E-03     952.201E-03        -5.87066        -5.87066
            2885         579.427         579.427     710.820E-03     710.820E-03        -6.43558        -6.43558
            2886         577.409         577.409     483.211E-03     483.211E-03        -7.14206        -7.14206
            2887         575.204         575.204     246.947E-03     246.947E-03        -8.03780        -8.03780
            2888         572.772         572.772    -23.9350E-03    -23.9350E-03        -9.18594        -9.18594
            2889         570.065         570.065    -363.738E-03    -363.738E-03        -10.6716        -10.6716
            2890         567.033         567.033    -821.576E-03    -821.576E-03        -12.6124        -12.6124
            2891         563.626         563.626        -1.47616        -1.47616        -15.1726        -15.1726
            2892         559.812         559.812        -2.45734        -2.45734        -18.5882        -18.5882
            2893         555.625         555.625        -3.99736        -3.99736        -23.1976        -23.1976
            2894         551.278         551.278        -6.52611        -6.52611        -29.4972        -29.4972
            2895         547.501         547.501        -10.8748        -10.8748        -38.1320        -38.1320
            2896         550.665         550.665         161.504         161.504         9.67953         9.67953
            2897         555.797         555.797         149.409         149.409         9.58057         9.58057
            2898         560.848         560.848         137.321         137.321         9.26044         9.26044
            2899         565.723         565.723         125.415         125.415         8.82025         8.82025
            2900         570.356         570.356         113.806         113.806         8.26838         8.26838
            2901         574.687         574.687         102.600         102.600         7.62368         7.62368
            2902         578.665         578.665         91.8942         91.8942         6.90407         6.90407
            2903         582.252         582.252         81.7673         81.7673         6.13437         6.13437
            2904         585.422         585.422         72.2815         72.2815         5.33671         5.33671
            2905         588.161         588.161         63.4808         63.4808         4.53427         4.53427
            2906         590.469         590.469         55.3903         55.3903         3.74693         3.74693
            2907         592.354         592.354         48.0184         48.0184         2.99116         2.99116
            2908         593.834         593.834         41.3587         41.3587         2.28052         2.28052
            2909         594.933         594.933         35.3919         35.3919         1.62331         1.62331
            2910         595.680         595.680         30.0891         30.0891         1.02586         1.02586
            2911         596.105         596.105         25.4137         25.4137     489.561E-03     489.561E-03
            2912         596.242         596.242         21.3241         21.3241     14.7679E-03     14.7679E-03
            2913         596.120         596.120         17.7753         17.7753    -401.727E-03    -401.727E-03
            2914         595.770         595.770         14.7209         14.7209    -763.479E-03    -763.479E-03
            2915         595.220         595.220         12.1142         12.1142        -1.07620        -1.07620
            2916         594.495         594.495         9.90938         9.90938        -1.34554        -1.34554
            2917         593.616         593.616         8.06211         8.06211        -1.57829        -1.57829
            2918         592.602         592.602         6.53037         6.53037        -1.78103        -1.78103
            2919         591.465         591.465         5.27451         5.27451        -1.96101        -1.96101
            2920         590.218         590.218         4.25785         4.25785        -2.12537        -2.12537
            2921         588.865         588.865         3.44663         3.44663        -2.28182        -2.28182
            2922         587.407         587.407         2.81027         2.81027        -2.43837        -2.43837
            2923         585.842         585.842         2.32136         2.32136        -2.60395        -2.60395
            2924         584.160         584.160         1.95578         1.95578        -2.78849        -2.78849
            2925         582.344         582.344         1.69273         1.69273        -3.00370        -3.00370
            2926         580.370         580.370         1.51476         1.51476        -3.26364        -3.26364
            2927         578.204         578.204         1.40788         1.40788        -3.58593        -3.58593
            2928         575.798         575.798         1.36142         1.36142        -3.99314        -3.99314
            2929         573.091         573.091         1.36813         1.36813        -4.51523        -4.51523
            2930         569.995         569.995         1.42358         1.42358        -5.19283        -5.19283
            2931         566.396         566.396         1.52595         1.52595        -6.08293        -6.08293
            2932         562.136         562.136         1.67356         1.67356        -7.26725        -7.26725
            2933         556.998         556.998         1.86292         1.86292        -8.86770        -8.86770
            2934         550.678         550.678         2.07881         2.07881        -11.0707        -11.0707
            2935         542.742         542.742         2.28037         2.28037        -14.1779        -14.1779
            2936         532.554         532.554         2.35837         2.35837        -18.6991        -18.6991
            2937         519.180         519.180         2.00916         2.00916        -25.5941        -25.5941
            2938         550.478         550.478         161.563         161.563         3.17240         3.17240
            2939         555.570         555.570         149.571         149.571         3.08969         3.08969
            2940         560.586         560.586         137.588         137.588         2.93975         2.93975
            2941         565.432         565.432         125.782         125.782         2.75410         2.75410
            2942         570.047         570.047         114.262         114.262         2.54051         2.54051
            2943         574.370         574.370         103.131         103.131         2.30285         2.30285
            2944         578.352         578.352         92.4803         92.4803         2.05077         2.05077
            2945         581.955         581.955         82.3896         82.3896         1.79021         1.79021
            2946         585.151         585.151         72.9208         72.9208         1.53001         1.53001
            2947         587.924         587.924         64.1190         64.1190         1.27624         1.27624
            2948         590.272         590.272         56.0120         56.0120         1.03484         1.03484
            2949         592.199         592.199         48.6112         48.6112     810.423E-03     810.423E-03
            2950         593.722         593.722         41.9131         41.9131     605.590E-03     605.590E-03
            2951         594.862         594.862         35.9020         35.9020     422.803E-03     422.803E-03
            2952         595.646         595.646         30.5514         30.5514     261.963E-03     261.963E-03
            2953         596.104         596.104         25.8274         25.8274     123.532E-03     123.532E-03
            2954         596.266         596.266         21.6903         21.6903     5.78765E-03     5.78765E-03
            2955         596.163         596.163         18.0967         18.0967    -92.1925E-03    -92.1925E-03
            2956         595.826         595.826         15.0012         15.0012    -172.821E-03    -172.821E-03
            2957         595.281         595.281         12.3580         12.3580    -237.731E-03    -237.731E-03
            2958         594.554         594.554         10.1217         10.1217    -289.412E-03    -289.412E-03
            2959         593.667         593.667         8.24826         8.24826    -329.702E-03    -329.702E-03
            2960         592.637         592.637         6.69595         6.69595    -360.860E-03    -360.860E-03
            2961         591.479         591.479         5.42526         5.42526    -384.643E-03    -384.643E-03
            2962         590.203         590.203         4.39975         4.39975    -402.984E-03    -402.984E-03
            2963         588.813         588.813         3.58594         3.58594    -417.461E-03    -417.461E-03
            2964         587.311         587.311         2.95376         2.95376    -429.715E-03    -429.715E-03
            2965         585.690         585.690         2.47650         2.47650    -441.159E-03    -441.159E-03
            2966         583.941         583.941         2.13117         2.13117    -453.254E-03    -453.254E-03
            2967         582.042         582.042         1.89849         1.89849    -467.342E-03    -467.342E-03
            2968         579.966         579.966         1.76339         1.76339    -484.859E-03    -484.859E-03
            2969         577.671         577.671         1.71500         1.71500    -507.233E-03    -507.233E-03
            2970         575.102         575.102         1.74751         1.74751    -536.107E-03    -536.107E-03
            2971         572.181         572.181         1.86026         1.86026    -573.223E-03    -573.223E-03
            2972         568.803         568.803         2.05930         2.05930    -620.815E-03    -620.815E-03
            2973         564.821         564.821         2.35747         2.35747    -681.310E-03    -681.310E-03
            2974         560.030         560.030         2.77786         2.77786    -758.235E-03    -758.235E-03
            2975         554.135         554.135         3.35325         3.35325    -855.185E-03    -855.185E-03
            2976         546.697         546.697         4.13419         4.13419    -977.922E-03    -977.922E-03
            2977         537.045         537.045         5.18699         5.18699        -1.13048        -1.13048
            2978         524.086         524.086         6.61458         6.61458        -1.31645        -1.31645
            2979         505.864         505.864         8.56351         8.56351        -1.49650        -1.49650
            2980         550.478         550.478         161.563         161.563        -3.29640        -3.29640
            2981         555.573         555.573         149.567         149.567        -3.34731        -3.34731
            2982         560.592         560.592         137.578         137.578        -3.32029        -3.32029
            2983         565.442         565.442         125.765         125.765        -3.24251        -3.24251
            2984         570.059         570.059         114.237         114.237        -3.11764        -3.11764
            2985         574.386         574.386         103.097         103.097        -2.94612        -2.94612
            2986         578.371         578.371         92.4381         92.4381        -2.73539        -2.73539
            2987         581.976         581.976         82.3388         82.3388        -2.49037        -2.49037
            2988         585.172         585.172         72.8624         72.8624        -2.22028        -2.22028
            2989         587.945         587.945         64.0544         64.0544        -1.93270        -1.93270
            2990         590.290         590.290         55.9427         55.9427        -1.63608        -1.63608
            2991         592.214         592.214         48.5390         48.5390        -1.33821        -1.33821
            2992         593.733         593.733         41.8398         41.8398        -1.04517        -1.04517
            2993         594.869         594.869         35.8290         35.8290    -763.034E-03    -763.034E-03
            2994         595.647         595.647         30.4803         30.4803    -495.089E-03    -495.089E-03
            2995         596.100         596.100         25.7593         25.7593    -244.907E-03    -244.907E-03
            2996         596.257         596.257         21.6260         21.6260    -13.3377E-03    -13.3377E-03
            2997         596.151         596.151         18.0368         18.0368     198.434E-03     198.434E-03
            2998         595.810         595.810         14.9459         14.9459     391.334E-03     391.334E-03
            2999         595.264         595.264         12.3072         12.3072     566.023E-03     566.023E-03
            3000         594.536         594.536         10.0752         10.0752     724.611E-03     724.611E-03
            3001         593.650         593.650         8.20556         8.20556     869.067E-03     869.067E-03
            3002         592.623         592.623         6.65619         6.65619         1.00233         1.00233
            3003         591.470         591.470         5.38749         5.38749         1.12738         1.12738
            3004         590.201         590.201         4.36263         4.36263         1.24796         1.24796
            3005         588.822         588.822         3.54791         3.54791         1.36811         1.36811
            3006         587.334         587.334         2.91279         2.91279         1.49275         1.49275
            3007         585.732         585.732         2.43011         2.43011         1.62753         1.62753
            3008         584.006         584.006         2.07613         2.07613         1.77944         1.77944
            3009         582.138         582.138         1.83073         1.83073         1.95704         1.95704
            3010         580.103         580.103         1.67743         1.67743         2.17131         2.17131
            3011         577.861         577.861         1.60365         1.60365         2.43641         2.43641
            3012         575.363         575.363         1.60079         1.60079         2.77132         2.77132
            3013         572.539         572.539         1.66451         1.66451         3.20164         3.20164
            3014         569.294         569.294         1.79469         1.79469         3.76338         3.76338
            3015         565.499         565.499         1.99560         1.99560         4.50743         4.50743
            3016         560.978         560.978         2.27508         2.27508         5.50961         5.50961
            3017         555.483         555.483         2.64316         2.64316         6.88324         6.88324
            3018         548.660         548.660         3.10668         3.10668         8.80973         8.80973
            3019         539.999         539.999         3.65737         3.65737         11.5845         11.5845
            3020         528.730         528.730         4.23614         4.23614         15.7347         15.7347
            3021         513.759         513.759         4.59918         4.59918         22.2665         22.2665
            3022         550.665         550.665         161.507         161.507        -9.78534        -9.78534
            3023         555.805         555.805         149.400         149.400        -9.79847        -9.79847
            3024         560.864         560.864         137.298         137.298        -9.58222        -9.58222
            3025         565.749         565.749         125.374         125.374        -9.23283        -9.23283
            3026         570.391         570.391         113.744         113.744        -8.75505        -8.75505
            3027         574.730         574.730         102.515         102.515        -8.16494        -8.16494
            3028         578.716         578.716         91.7858         91.7858        -7.47848        -7.47848
            3029         582.307         582.307         81.6364         81.6364        -6.71988        -6.71988
            3030         585.479         585.479         72.1306         72.1306        -5.91172        -5.91172
            3031         588.215         588.215         63.3135         63.3135        -5.07873        -5.07873
            3032         590.518         590.518         55.2109         55.2109        -4.24310        -4.24310
            3033         592.394         592.394         47.8315         47.8315        -3.42411        -3.42411
            3034         593.863         593.863         41.1689         41.1689        -2.63842        -2.63842
            3035         594.950         594.950         35.2033         35.2033        -1.89738        -1.89738
            3036         595.684         595.684         29.9054         29.9054        -1.21021        -1.21021
            3037         596.096         596.096         25.2378         25.2378    -580.833E-03    -580.833E-03
            3038         596.220         596.220         21.1581         21.1581    -11.7577E-03    -11.7577E-03
            3039         596.087         596.087         17.6206         17.6206     498.576E-03     498.576E-03
            3040         595.729         595.729         14.5781         14.5781     952.495E-03     952.495E-03
            3041         595.174         595.174         11.9833         11.9833         1.35498         1.35498
            3042         594.448         594.448         9.78955         9.78955         1.71137         1.71137
            3043         593.572         593.572         7.95201         7.95201         2.02857         2.02857
            3044         592.564         592.564         6.42803         6.42803         2.31371         2.31371
            3045         591.441         591.441         5.17736         5.17736         2.57496         2.57496
            3046         590.213         590.213         4.16264         4.16264         2.82084         2.82084
            3047         588.886         588.886         3.34931         3.34931         3.06092         3.06092
            3048         587.465         587.465         2.70583         2.70583         3.30563         3.30563
            3049         585.946         585.946         2.20350         2.20350         3.56700         3.56700
            3050         584.324         584.324         1.81655         1.81655         3.85894         3.85894
            3051         582.587         582.587         1.52188         1.52188         4.19828         4.19828
            3052         580.715         580.715         1.29894         1.29894         4.60566         4.60566
            3053         578.683         578.683         1.12932         1.12932         5.10734         5.10734
            3054         576.456         576.456     996.122E-03     996.122E-03         5.73718         5.73718
            3055         573.988         573.988     882.969E-03     882.969E-03         6.54035         6.54035
            3056         571.220         571.220     772.038E-03     772.038E-03         7.57767         7.57767
            3057         568.077         568.077     640.998E-03     640.998E-03         8.93403         8.93403
            3058         564.469         564.469     456.503E-03     456.503E-03         10.7288         10.7288
            3059         560.285         560.285     163.829E-03     163.829E-03         13.1366         13.1366
            3060         555.404         555.404    -337.077E-03    -337.077E-03         16.4143         16.4143
            3061         549.721         549.721        -1.23455        -1.23455         20.9556         20.9556
            3062         543.244         543.244        -2.91445        -2.91445         27.3642         27.3642
            3063         536.375         536.375        -6.16786        -6.16786         36.5146         36.5146
            3064         551.054         551.054         161.389         161.389        -16.3567        -16.3567
            3065         556.278         556.278         149.061         149.061        -16.3275        -16.3275
            3066         561.417         561.417         136.731         136.731        -15.9142        -15.9142
            3067         566.365         566.365         124.589         124.589        -15.2736        -15.2736
            3068         571.052         571.052         112.760         112.760        -14.4244        -14.4244
            3069         575.411         575.411         101.365         101.365        -13.3888        -13.3888
            3070         579.388         579.388         90.5056         90.5056        -12.2036        -12.2036
            3071         582.947         582.947         80.2681         80.2681        -10.9064        -10.9064
            3072         586.062         586.062         70.7169         70.7169        -9.54078        -9.54078
            3073         588.724         588.724         61.8934         61.8934        -8.14691        -8.14691
            3074         590.937         590.937         53.8196         53.8196        -6.76209        -6.76209
            3075         592.718         592.718         46.4975         46.4975        -5.41851        -5.41851
            3076         594.089         594.089         39.9136         39.9136        -4.14039        -4.14039
            3077         595.082         595.082         34.0420         34.0420        -2.94699        -2.94699
            3078         595.729         595.729         28.8463         28.8463        -1.84893        -1.84893
            3079         596.067         596.067         24.2844         24.2844    -853.114E-03    -853.114E-03
            3080         596.129         596.129         20.3088         20.3088     40.4229E-03     40.4229E-03
            3081         595.951         595.951         16.8708         16.8708     833.859E-03     833.859E-03
            3082         595.563         595.563         13.9202         13.9202         1.53386         1.53386
            3083         594.994         594.994         11.4079         11.4079         2.14814         2.14814
            3084         594.270         594.270         9.28599         9.28599         2.68696         2.68696
            3085         593.413         593.413         7.50868         7.50868         3.16096         3.16096
            3086         592.442         592.442         6.03241         6.03241         3.58217         3.58217
            3087         591.371         591.371         4.81649         4.81649         3.96288         3.96288
            3088         590.214         590.214         3.82267         3.82267         4.31636         4.31636
            3089         588.978         588.978         3.01551         3.01551         4.65649         4.65649
            3090         587.669         587.669         2.36199         2.36199         4.99845         4.99845
            3091         586.289         586.289         1.83150         1.83150         5.35891         5.35891
            3092         584.837         584.837         1.39538         1.39538         5.75693         5.75693
            3093         583.310         583.310         1.02660         1.02660         6.21467         6.21467
            3094         581.699         581.699     699.059E-03     699.059E-03         6.75878         6.75878
            3095         579.994         579.994     386.629E-03     386.629E-03         7.42187         7.42187
            3096         578.184         578.184     61.7348E-03     61.7348E-03         8.24497         8.24497
            3097         576.254         576.254    -307.122E-03    -307.122E-03         9.28029         9.28029
            3098         574.193         574.193    -758.809E-03    -758.809E-03         10.5958         10.5958
            3099         571.993         571.993        -1.34630        -1.34630         12.2803         12.2803
            3100         569.667         569.667        -2.14576        -2.14576         14.4520         14.4520
            3101         567.261         567.261        -3.27597        -3.27597         17.2664         17.2664
            3102         564.897         564.897        -4.92405        -4.92405         20.9283         20.9283
            3103         562.853         562.853        -7.40362        -7.40362         25.6886         25.6886
            3104         561.724         561.724        -11.2284        -11.2284         31.8068         31.8068
            3105         562.685         562.685        -17.1805        -17.1805         39.3888         39.3888
            3106         551.668         551.668         161.212         161.212        -23.0661        -23.0661
            3107         557.025         557.025         148.537         148.537        -22.9911        -22.9911
            3108         562.280         562.280         135.855         135.855        -22.3584        -22.3584
            3109         567.324         567.324         123.376         123.376        -21.4000        -21.4000
            3110         572.070         572.070         111.247         111.247        -20.1378        -20.1378
            3111         576.449         576.449         99.6020         99.6020        -18.6168        -18.6168
            3112         580.406         580.406         88.5550         88.5550        -16.8872        -16.8872
            3113         583.900         583.900         78.1974         78.1974        -15.0133        -15.0133
            3114         586.918         586.918         68.5914         68.5914        -13.0566        -13.0566
            3115         589.454         589.454         59.7745         59.7745        -11.0779        -11.0779
            3116         591.525         591.525         51.7586         51.7586        -9.13043        -9.13043
            3117         593.154         593.154         44.5358         44.5358        -7.25687        -7.25687
            3118         594.375         594.375         38.0814         38.0814        -5.49166        -5.49166
            3119         595.225         595.225         32.3583         32.3583        -3.85614        -3.85614
            3120         595.745         595.745         27.3216         27.3216        -2.36510        -2.36510
            3121         595.973         595.973         22.9203         22.9203        -1.02255        -1.02255
            3122         595.948         595.948         19.1017         19.1017     171.597E-03     171.597E-03
            3123         595.705         595.705         15.8114         15.8114         1.22455         1.22455
            3124         595.276         595.276         12.9967         12.9967         2.14548         2.14548
            3125         594.691         594.691         10.6054         10.6054         2.94751         2.94751
            3126         593.973         593.973         8.58868         8.58868         3.64436         3.64436
            3127         593.146         593.146         6.89935         6.89935         4.25168         4.25168
            3128         592.226         592.226         5.49365         5.49365         4.78512         4.78512
            3129         591.231         591.231         4.33005         4.33005         5.26128         5.26128
            3130         590.171         590.171         3.36996         3.36996         5.69681         5.69681
            3131         589.058         589.058         2.57692         2.57692         6.10925         6.10925
            3132         587.900         587.900         1.91674         1.91674         6.51678         6.51678
            3133         586.703         586.703         1.35679         1.35679         6.93909         6.93909
            3134         585.472         585.472     865.665E-03     865.665E-03         7.39767         7.39767
            3135         584.212         584.212     412.396E-03     412.396E-03         7.91686         7.91686
            3136         582.928         582.928    -34.4600E-03    -34.4600E-03         8.52459         8.52459
            3137         581.626         581.626    -508.197E-03    -508.197E-03         9.25379         9.25379
            3138         580.316         580.316        -1.04602        -1.04602         10.1435         10.1435
            3139         579.017         579.017        -1.69177        -1.69177         11.2409         11.2409
            3140         577.761         577.761        -2.50080        -2.50080         12.6022         12.6022
            3141         576.600         576.600        -3.54572        -3.54572         14.2943         14.2943
            3142         575.628         575.628        -4.92782        -4.92782         16.3936         16.3936
            3143         575.003         575.003        -6.78839        -6.78839         18.9807         18.9807
            3144         574.995         574.995        -9.33283        -9.33283         22.1220         22.1220
            3145         576.047         576.047        -12.8396        -12.8396         25.8238         25.8238
            3146         578.875         578.875        -17.6651        -17.6651         29.9161         29.9161
            3147         584.537         584.537        -24.1165        -24.1165         33.8749         33.8749
            3148         552.562         552.562         160.969         160.969        -29.9792        -29.9792
            3149         558.095         558.095         147.807         147.807        -29.8447        -29.8447
            3150         563.513         563.513         134.628         134.628        -28.9658        -28.9658
            3151         568.676         568.676         121.680         121.680        -27.6378        -27.6378
            3152         573.493         573.493         109.138         109.138        -25.9074        -25.9074
            3153         577.883         577.883         97.1570         97.1570        -23.8316        -23.8316
            3154         581.787         581.787         85.8692         85.8692        -21.4959        -21.4959
            3155         585.175         585.175         75.3673         75.3673        -18.9864        -18.9864
            3156         588.033         588.033         65.7127         65.7127        -16.3940        -16.3940
            3157         590.380         590.380         56.9296         56.9296        -13.8002        -13.8002
            3158         592.239         592.239         49.0169         49.0169        -11.2736        -11.2736
            3159         593.652         593.652         41.9495         41.9495        -8.87029        -8.87029
            3160         594.663         594.663         35.6862         35.6862        -6.62723        -6.62723
            3161         595.320         595.320         30.1760         30.1760        -4.57127        -4.57127
            3162         595.668         595.668         25.3603         25.3603        -2.71283        -2.71283
            3163         595.755         595.755         21.1794         21.1794        -1.05590        -1.05590
            3164         595.619         595.619         17.5716         17.5716     406.382E-03     406.382E-03
            3165         595.297         595.297         14.4786         14.4786         1.68393         1.68393
            3166         594.821         594.821         11.8426         11.8426         2.79261         2.79261
            3167         594.219         594.219         9.61033         9.61033         3.74911         3.74911
            3168         593.515         593.515         7.73072         7.73072         4.57277         4.57277
            3169         592.729         592.729         6.15682         6.15682         5.28266         5.28266
            3170         591.879         591.879         4.84405         4.84405         5.89877         5.89877
            3171         590.979         590.979         3.75131         3.75131         6.44050         6.44050
            3172         590.042         590.042         2.83954         2.83954         6.92761         6.92761
            3173         589.079         589.079         2.07222         2.07222         7.37957         7.37957
            3174         588.102         588.102         1.41420         1.41420         7.81637         7.81637
            3175         587.119         587.119     831.678E-03     831.678E-03         8.25847         8.25847
            3176         586.142         586.142     291.177E-03     291.177E-03         8.72753         8.72753
            3177         585.182         585.182    -241.008E-03    -241.008E-03         9.24667         9.24667
            3178         584.256         584.256    -800.036E-03    -800.036E-03         9.84118         9.84118
            3179         583.383         583.383        -1.42386        -1.42386         10.5387         10.5387
            3180         582.593         582.593        -2.15503        -2.15503         11.3695         11.3695
            3181         581.927         581.927        -3.04354        -3.04354         12.3662         12.3662
            3182         581.446         581.446        -4.14968        -4.14968         13.5618         13.5618
            3183         581.240         581.240        -5.54933        -5.54933         14.9861         14.9861
            3184         581.442         581.442        -7.33714        -7.33714         16.6576         16.6576
            3185         582.249         582.249        -9.63339        -9.63339         18.5662         18.5662
            3186         583.943         583.943        -12.5760        -12.5760         20.6414         20.6414
            3187         586.921         586.921        -16.3059        -16.3059         22.6951         22.6951
            3188         591.673         591.673        -20.8676        -20.8676         24.3302         24.3302
            3189         598.709         598.709        -26.0596        -26.0596         24.8336         24.8336
            3190         608.619         608.619        -21.5761        -21.5761        -9.50560        -9.50560
            3191         603.361         603.361        -19.7452        -19.7452        -12.2134        -12.2134
            3192         598.741         598.741        -17.2496        -17.2496        -13.7526        -13.7526
            3193         594.958         594.958        -14.5853        -14.5853        -14.3892        -14.3892
            3194         592.027         592.027        -12.0561        -12.0561        -14.4326        -14.4326
            3195         589.860         589.860        -9.80005        -9.80005        -14.1267        -14.1267
            3196         588.332         588.332        -7.85967        -7.85967        -13.6458        -13.6458
            3197         587.318         587.318        -6.22384        -6.22384        -13.0981        -13.0981
            3198         586.709         586.709        -4.86027        -4.86027        -12.5465        -12.5465
            3199         586.415         586.415        -3.72742        -3.72742        -12.0230        -12.0230
            3200         586.365         586.365        -2.78272        -2.78272        -11.5403        -11.5403
            3201         586.504         586.504        -1.98460        -1.98460        -11.0990        -11.0990
            3202         586.787         586.787        -1.29380        -1.29380        -10.6925        -10.6925
            3203         587.184         587.184    -673.212E-03    -673.212E-03        -10.3097        -10.3097
            3204         587.666         587.666    -87.4502E-03    -87.4502E-03        -9.93700        -9.93700
            3205         588.214         588.214     497.495E-03     497.495E-03        -9.55894        -9.55894
            3206         588.813         588.813         1.11524         1.11524        -9.15875        -9.15875
            3207         589.447         589.447         1.79905         1.79905        -8.71845        -8.71845
            3208         590.107         590.107         2.58324         2.58324        -8.21881        -8.21881
            3209         590.781         590.781         3.50272         3.50272        -7.63927        -7.63927
            3210         591.458         591.458         4.59500         4.59500        -6.95773        -6.95773
            3211         592.128         592.128         5.89903         5.89903        -6.15072        -6.15072
            3212         592.777         592.777         7.45827         7.45827        -5.19297        -5.19297
            3213         593.390         593.390         9.31822         9.31822        -4.05834        -4.05834
            3214         593.949         593.949         11.5313         11.5313        -2.71908        -2.71908
            3215         594.432         594.432         14.1521         14.1521        -1.14832        -1.14832
            3216         594.810         594.810         17.2452         17.2452     681.585E-03     681.585E-03
            3217         595.049         595.049         20.8768         20.8768         2.79317         2.79317
            3218         595.107         595.107         25.1254         25.1254         5.20787         5.20787
            3219         594.931         594.931         30.0691         30.0691         7.93383         7.93383
            3220         594.465         594.465         35.7983         35.7983         10.9746         10.9746
            3221         593.635         593.635         42.3978         42.3978         14.3075         14.3075
            3222         592.374         592.374         49.9552         49.9552         17.8996         17.8996
            3223         590.594         590.594         58.5436         58.5436         21.6778         21.6778
            3224         588.239         588.239         68.2126         68.2126         25.5519         25.5519
            3225         585.234         585.234         78.9823         78.9823         29.3916         29.3916
            3226         581.569         581.569         90.8113         90.8113         33.0453         33.0453
            3227         577.235         577.235         103.612         103.612         36.3554         36.3554
            3228         572.299         572.299         117.214         117.214         39.1517         39.1517
            3229         566.856         566.856         131.399         131.399         41.3199         41.3199
            3230         561.035         561.035         145.899         145.899         42.7529         42.7529
            3231         555.043         555.043         160.355         160.355         43.0249         43.0249
            3232         608.724         608.724        -18.1595        -18.1595        -4.68016        -4.68016
            3233         604.631         604.631        -17.4354        -17.4354        -7.70925        -7.70925
            3234         600.791         600.791        -15.8969        -15.8969        -9.82660        -9.82660
            3235         597.398         597.398        -13.9468        -13.9468        -11.1700        -11.1700
            3236         594.561         594.561        -11.8947        -11.8947        -11.9124        -11.9124
            3237         592.293         592.293        -9.92894        -9.92894        -12.2354        -12.2354
            3238         590.549         590.549        -8.14621        -8.14621        -12.2856        -12.2856
            3239         589.261         589.261        -6.58362        -6.58362        -12.1727        -12.1727
            3240         588.356         588.356        -5.24226        -5.24226        -11.9697        -11.9697
            3241         587.763         587.763        -4.10469        -4.10469        -11.7230        -11.7230
            3242         587.423         587.423        -3.14355        -3.14355        -11.4584        -11.4584
            3243         587.287         587.287        -2.32749        -2.32749        -11.1887        -11.1887
            3244         587.313         587.313        -1.62364        -1.62364        -10.9171        -10.9171
            3245         587.469         587.469    -999.053E-03    -999.053E-03        -10.6404        -10.6404
            3246         587.730         587.730    -421.299E-03    -421.299E-03        -10.3512        -10.3512
            3247         588.074         588.074     141.705E-03     141.705E-03        -10.0389        -10.0389
            3248         588.486         588.486     721.535E-03     721.535E-03        -9.69009        -9.69009
            3249         588.952         588.952         1.35016         1.35016        -9.28943        -9.28943
            3250         589.463         589.463         2.05968         2.05968        -8.81927        -8.81927
            3251         590.009         590.009         2.88388         2.88388        -8.25979        -8.25979
            3252         590.582         590.582         3.85747         3.85747        -7.58900        -7.58900
            3253         591.173         591.173         5.01867         5.01867        -6.78246        -6.78246
            3254         591.774         591.774         6.40744         6.40744        -5.81360        -5.81360
            3255         592.372         592.372         8.06975         8.06975        -4.65324        -4.65324
            3256         592.955         592.955         10.0540         10.0540        -3.27089        -3.27089
            3257         593.503         593.503         12.4182         12.4182        -1.63358        -1.63358
            3258         593.994         593.994         15.2230         15.2230     290.337E-03     290.337E-03
            3259         594.397         594.397         18.5432         18.5432         2.53417         2.53417
            3260         594.670         594.670         22.4555         22.4555         5.12368         5.12368
            3261         594.766         594.766         27.0559         27.0559         8.08428         8.08428
            3262         594.618         594.618         32.4390         32.4390         11.4212         11.4212
            3263         594.154         594.154         38.7189         38.7189         15.1352         15.1352
            3264         593.277         593.277         46.0018         46.0018         19.1860         19.1860
            3265         591.900         591.900         54.3976         54.3976         23.5212         23.5212
            3266         589.905         589.905         63.9947         63.9947         28.0271         28.0271
            3267         587.226         587.226         74.8401         74.8401         32.5661         32.5661
            3268         583.771         583.771         86.9370         86.9370         36.9498         36.9498
            3269         579.554         579.554         100.187         100.187         40.9604         40.9604
            3270         574.594         574.594         114.427         114.427         44.3992         44.3992
            3271         569.007         569.007         129.382         129.382         47.0565         47.0565
            3272         562.967         562.967         144.719         144.719         48.8346         48.8346
            3273         556.670         556.670         160.012         160.012         49.1869         49.1869
            3274         607.545         607.545        -14.7368        -14.7368        -1.14731        -1.14731
            3275         604.530         604.530        -14.8304        -14.8304        -4.16091        -4.16091
            3276         601.480         601.480        -14.0363        -14.0363        -6.51305        -6.51305
            3277         598.613         598.613        -12.7223        -12.7223        -8.25258        -8.25258
            3278         596.059         596.059        -11.1574        -11.1574        -9.46624        -9.46624
            3279         593.886         593.886        -9.53885        -9.53885        -10.2627        -10.2627
            3280         592.103         592.103        -7.98901        -7.98901        -10.7506        -10.7506
            3281         590.689         590.689        -6.57471        -6.57471        -11.0203        -11.0203
            3282         589.602         589.602        -5.32396        -5.32396        -11.1417        -11.1417
            3283         588.799         588.799        -4.23980        -4.23980        -11.1639        -11.1639
            3284         588.235         588.235        -3.31045        -3.31045        -11.1198        -11.1198
            3285         587.869         587.869        -2.51542        -2.51542        -11.0295        -11.0295
            3286         587.668         587.668        -1.82964        -1.82964        -10.9035        -10.9035
            3287         587.601         587.601        -1.22575        -1.22575        -10.7452        -10.7452
            3288         587.647         587.647    -675.342E-03    -675.342E-03        -10.5528        -10.5528
            3289         587.786         587.786    -149.740E-03    -149.740E-03        -10.3202        -10.3202
            3290         588.005         588.005     380.126E-03     380.126E-03        -10.0379        -10.0379
            3291         588.291         588.291     943.317E-03     943.317E-03        -9.69321        -9.69321
            3292         588.637         588.637         1.56992         1.56992        -9.27071        -9.27071
            3293         589.037         589.037         2.29049         2.29049        -8.75189        -8.75189
            3294         589.484         589.484         3.13800         3.13800        -8.11532        -8.11532
            3295         589.975         589.975         4.14670         4.14670        -7.33650        -7.33650
            3296         590.504         590.504         5.35548         5.35548        -6.38766        -6.38766
            3297         591.065         591.065         6.80535         6.80535        -5.23804        -5.23804
            3298         591.650         591.650         8.54550         8.54550        -3.85331        -3.85331
            3299         592.247         592.247         10.6279         10.6279        -2.19724        -2.19724
            3300         592.839         592.839         13.1181         13.1181    -229.971E-03    -229.971E-03
            3301         593.402         593.402         16.0844         16.0844         2.08676         2.08676
            3302         593.901         593.901         19.6167         19.6167         4.79426         4.79426
            3303         594.289         594.289         23.8061         23.8061         7.92318         7.92318
            3304         594.506         594.506         28.7741         28.7741         11.5055         11.5055
            3305         594.465         594.465         34.6392         34.6392         15.5427         15.5427
            3306         594.073         594.073         41.5517         41.5517         20.0328         20.0328
            3307         593.194         593.194         49.6497         49.6497         24.9090         24.9090
            3308         591.716         591.716         59.0742         59.0742         30.0896         30.0896
            3309         589.470         589.470         69.9340         69.9340         35.3977         35.3977
            3310         586.387         586.387         82.2583         82.2583         40.6219         40.6219
            3311         582.359         582.359         96.0108         96.0108         45.4925         45.4925
            3312         577.445         577.445         110.985         110.985         49.6986         49.6986
            3313         571.732         571.732         126.883         126.883         53.0120         53.0120
            3314         565.409         565.409         143.274         143.274         55.1941         55.1941
            3315         558.802         558.802         159.591         159.591         55.6886         55.6886
            3316         605.664         605.664        -11.6047        -11.6047         1.27562         1.27562
            3317         603.563         603.563        -12.2059        -12.2059        -1.48512        -1.48512
            3318         601.248         601.248        -11.9588        -11.9588        -3.84389        -3.84389
            3319         598.927         598.927        -11.1525        -11.1525        -5.75596        -5.75596
            3320         596.741         596.741        -10.0247        -10.0247        -7.24511        -7.24511
            3321         594.775         594.775        -8.75344        -8.75344        -8.36438        -8.36438
            3322         593.072         593.072        -7.46656        -7.46656        -9.18017        -9.18017
            3323         591.640         591.640        -6.24412        -6.24412        -9.75850        -9.75850
            3324         590.466         590.466        -5.13059        -5.13059        -10.1559        -10.1559
            3325         589.528         589.528        -4.14433        -4.14433        -10.4178        -10.4178
            3326         588.797         588.797        -3.28623        -3.28623        -10.5775        -10.5775
            3327         588.243         588.243        -2.54590        -2.54590        -10.6584        -10.6584
            3328         587.842         587.842        -1.90603        -1.90603        -10.6756        -10.6756
            3329         587.570         587.570        -1.34525        -1.34525        -10.6373        -10.6373
            3330         587.408         587.408    -840.015E-03    -840.015E-03        -10.5461        -10.5461
            3331         587.342         587.342    -365.472E-03    -365.472E-03        -10.4002        -10.4002
            3332         587.359         587.359     103.722E-03     103.722E-03        -10.1936        -10.1936
            3333         587.452         587.452     593.735E-03     593.735E-03        -9.91654        -9.91654
            3334         587.615         587.615         1.13099         1.13099        -9.55601        -9.55601
            3335         587.845         587.845         1.74349         1.74349        -9.09533        -9.09533
            3336         588.142         588.142         2.45996         2.45996        -8.51419        -8.51419
            3337         588.503         588.503         3.31242         3.31242        -7.78858        -7.78858
            3338         588.931         588.931         4.33441         4.33441        -6.89052        -6.89052
            3339         589.423         589.423         5.56568         5.56568        -5.78786        -5.78786
            3340         589.980         589.980         7.04841         7.04841        -4.44435        -4.44435
            3341         590.596         590.596         8.83591         8.83591        -2.81908        -2.81908
            3342         591.264         591.264         10.9846         10.9846    -868.100E-03    -868.100E-03
            3343         591.969         591.969         13.5701         13.5701         1.45773         1.45773
            3344         592.685         592.685         16.6710         16.6710         4.20613         4.20613
            3345         593.375         593.375         20.3980         20.3980         7.43026         7.43026
            3346         593.983         593.983         24.8624         24.8624         11.1687         11.1687
            3347         594.431         594.431         30.2235         30.2235         15.4651         15.4651
            3348         594.605         594.605         36.6345         36.6345         20.3159         20.3159
            3349         594.378         594.378         44.3022         44.3022         25.7189         25.7189
            3350         593.549         593.549         53.4129         53.4129         31.5639         31.5639
            3351         591.972         591.972         64.1507         64.1507         37.7231         37.7231
            3352         589.399         589.399         76.6491         76.6491         43.9176         43.9176
            3353         585.773         585.773         90.8817         90.8817         49.8141         49.8141
            3354         580.985         580.985         106.720         106.720         55.0352         55.0352
            3355         575.180         575.180         123.757         123.757         59.1447         59.1447
            3356         568.593         568.593         141.461         141.461         61.9266         61.9266
            3357         561.523         561.523         159.113         159.113         62.5769         62.5769
            3358         603.510         603.510        -8.90966        -8.90966         2.84152         2.84152
            3359         602.117         602.117        -9.75053        -9.75053     433.756E-03     433.756E-03
            3360         600.435         600.435        -9.85337        -9.85337        -1.78026        -1.78026
            3361         598.629         598.629        -9.42478        -9.42478        -3.70914        -3.70914
            3362         596.829         596.829        -8.65394        -8.65394        -5.32282        -5.32282
            3363         595.124         595.124        -7.69685        -7.69685        -6.63246        -6.63246
            3364         593.569         593.569        -6.67023        -6.67023        -7.66926        -7.66926
            3365         592.192         592.192        -5.65633        -5.65633        -8.47347        -8.47347
            3366         590.998         590.998        -4.70620        -4.70620        -9.08603        -9.08603
            3367         589.982         589.982        -3.84727        -3.84727        -9.54340        -9.54340
            3368         589.130         589.130        -3.08926        -3.08926        -9.87589        -9.87589
            3369         588.424         588.424        -2.42973        -2.42973        -10.1069        -10.1069
            3370         587.846         587.846        -1.85816        -1.85816        -10.2534        -10.2534
            3371         587.381         587.381        -1.35895        -1.35895        -10.3267        -10.3267
            3372         587.016         587.016    -913.350E-03    -913.350E-03        -10.3328        -10.3328
            3373         586.740         586.740    -500.930E-03    -500.930E-03        -10.2731        -10.2731
            3374         586.546         586.546    -100.031E-03    -100.031E-03        -10.1451        -10.1451
            3375         586.429         586.429     311.474E-03     311.474E-03        -9.94193        -9.94193
            3376         586.388         586.388     756.799E-03     756.799E-03        -9.65301        -9.65301
            3377         586.423         586.423         1.25957         1.25957        -9.26377        -9.26377
            3378         586.537         586.537         1.84551         1.84551        -8.75568        -8.75568
            3379         586.735         586.735         2.54129         2.54129        -8.10579        -8.10579
            3380         587.022         587.022         3.37781         3.37781        -7.28677        -7.28677
            3381         587.406         587.406         4.38778         4.38778        -6.26616        -6.26616
            3382         587.891         587.891         5.61198         5.61198        -5.00645        -5.00645
            3383         588.483         588.483         7.09386         7.09386        -3.46441        -3.46441
            3384         589.184         589.184         8.89190         8.89190        -1.59076        -1.59076
            3385         589.993         589.993         11.0678         11.0678     668.856E-03     668.856E-03
            3386         590.897         590.897         13.7106         13.7106         3.37623         3.37623
            3387         591.873         591.873         16.9118         16.9118         6.59304         6.59304
            3388         592.881         592.881         20.8117         20.8117         10.3905         10.3905
            3389         593.852         593.852         25.5483         25.5483         14.8207         14.8207
            3390         594.686         594.686         31.3392         31.3392         19.9481         19.9481
            3391         595.225         595.225         38.3882         38.3882         25.7641         25.7641
            3392         595.290         595.290         46.9933         46.9933         32.2716         32.2716
            3393         594.572         594.572         57.4183         57.4183         39.2859         39.2859
            3394         592.877         592.877         69.9022         69.9022         46.5996         46.5996
            3395         589.830         589.830         84.6022         84.6022         53.7637         53.7637
            3396         585.429         585.429         101.344         101.344         60.2344         60.2344
            3397         579.617         579.617         119.789         119.789         65.5127         65.5127
            3398         572.693         572.693         139.172         139.172         69.0140         69.0140
            3399         565.212         565.212         158.496         158.496         69.9931         69.9931
            3400         601.330         601.330        -6.67120        -6.67120         3.78068         3.78068
            3401         600.471         600.471        -7.56043        -7.56043         1.74256         1.74256
            3402         599.307         599.307        -7.84717        -7.84717    -252.812E-03    -252.812E-03
            3403         597.958         597.958        -7.67105        -7.67105        -2.09369        -2.09369
            3404         596.528         596.528        -7.17349        -7.17349        -3.72094        -3.72094
            3405         595.098         595.098        -6.47984        -6.47984        -5.11299        -5.11299
            3406         593.725         593.725        -5.69149        -5.69149        -6.27417        -6.27417
            3407         592.444         592.444        -4.88309        -4.88309        -7.22279        -7.22279
            3408         591.274         591.274        -4.10570        -4.10570        -7.98399        -7.98399
            3409         590.219         590.219        -3.38969        -3.38969        -8.58443        -8.58443
            3410         589.277         589.277        -2.74973        -2.74973        -9.04890        -9.04890
            3411         588.442         588.442        -2.18867        -2.18867        -9.39884        -9.39884
            3412         587.703         587.703        -1.70127        -1.70127        -9.65136        -9.65136
            3413         587.053         587.053        -1.27678        -1.27678        -9.81924        -9.81924
            3414         586.485         586.485    -901.090E-03    -901.090E-03        -9.91081        -9.91081
            3415         585.993         585.993    -557.867E-03    -557.867E-03        -9.93025        -9.93025
            3416         585.574         585.574    -229.697E-03    -229.697E-03        -9.87754        -9.87754
            3417         585.227         585.227     101.902E-03     101.902E-03        -9.74871        -9.74871
            3418         584.956         584.956     455.781E-03     455.781E-03        -9.53566        -9.53566
            3419         584.765         584.765     852.085E-03     852.085E-03        -9.22631        -9.22631
            3420         584.661         584.661         1.31146         1.31146        -8.80407        -8.80407
            3421         584.654         584.654         1.85718         1.85718        -8.24806        -8.24806
            3422         584.755         584.755         2.51361         2.51361        -7.53210        -7.53210
            3423         584.977         584.977         3.31040         3.31040        -6.62504        -6.62504
            3424         585.335         585.335         4.27912         4.27912        -5.48911        -5.48911
            3425         585.843         585.843         5.46168         5.46168        -4.08054        -4.08054
            3426         586.517         586.517         6.90270         6.90270        -2.34738        -2.34738
            3427         587.366         587.366         8.66680         8.66680    -229.981E-03    -229.981E-03
            3428         588.401         588.401         10.8214         10.8214         2.34013         2.34013
            3429         589.615         589.615         13.4730         13.4730         5.44196         5.44196
            3430         590.994         590.994         16.7284         16.7284         9.15838         9.15838
            3431         592.491         592.491         20.7697         20.7697         13.5882         13.5882
            3432         594.029         594.029         25.7704         25.7704         18.8078         18.8078
            3433         595.475         595.475         32.0388         32.0388         24.9201         24.9201
            3434         596.605         596.605         39.8539         39.8539         31.9125         31.9125
            3435         597.152         597.152         49.6707         49.6707         39.8094         39.8094
            3436         596.609         596.609         61.8861         61.8861         48.2865         48.2865
            3437         594.726         594.726         76.7945         76.7945         56.9827         56.9827
            3438         590.933         590.933         94.5492         94.5492         65.1604         65.1604
            3439         585.377         585.377         114.607         114.607         71.9038         71.9038
            3440         578.231         578.231         136.159         136.159         76.6420         76.6420
            3441         570.028         570.028         157.777         157.777         77.9747         77.9747
            3442         599.258         599.258        -4.85145        -4.85145         4.26294         4.26294
            3443         598.807         598.807        -5.66409        -5.66409         2.56920         2.56920
            3444         598.065         598.065        -6.01200        -6.01200     820.076E-03     820.076E-03
            3445         597.111         597.111        -5.98409        -5.98409    -871.475E-03    -871.475E-03
            3446         596.020         596.020        -5.68069        -5.68069        -2.43175        -2.43175
            3447         594.857         594.857        -5.19720        -5.19720        -3.82058        -3.82058
            3448         593.675         593.675        -4.61479        -4.61479        -5.02234        -5.02234
            3449         592.509         592.509        -3.99699        -3.99699        -6.03875        -6.03875
            3450         591.383         591.383        -3.38901        -3.38901        -6.88169        -6.88169
            3451         590.310         590.310        -2.82013        -2.82013        -7.56845        -7.56845
            3452         589.297         589.297        -2.30620        -2.30620        -8.11804        -8.11804
            3453         588.344         588.344        -1.85294        -1.85294        -8.54875        -8.54875
            3454         587.451         587.451        -1.45856        -1.45856        -8.87678        -8.87678
            3455         586.617         586.617        -1.11621        -1.11621        -9.11527        -9.11527
            3456         585.839         585.839    -815.637E-03    -815.637E-03        -9.27397        -9.27397
            3457         585.118         585.118    -544.566E-03    -544.566E-03        -9.35887        -9.35887
            3458         584.456         584.456    -289.321E-03    -289.321E-03        -9.37229        -9.37229
            3459         583.858         583.858    -35.6158E-03    -35.6158E-03        -9.31254        -9.31254
            3460         583.328         583.328     231.746E-03     231.746E-03        -9.17413        -9.17413
            3461         582.876         582.876     528.245E-03     528.245E-03        -8.94729        -8.94729
            3462         582.513         582.513     870.833E-03     870.833E-03        -8.61821        -8.61821
            3463         582.253         582.253         1.27703         1.27703        -8.16808        -8.16808
            3464         582.113         582.113         1.76744         1.76744        -7.57359        -7.57359
            3465         582.112         582.112         2.36384         2.36384        -6.80508        -6.80508
            3466         582.274         582.274         3.09428         3.09428        -5.82750        -5.82750
            3467         582.622         582.622         3.98882         3.98882        -4.59714        -4.59714
            3468         583.184         583.184         5.09010         5.09010        -3.06347        -3.06347
            3469         583.988         583.988         6.44345         6.44345        -1.16388        -1.16388
            3470         585.059         585.059         8.11992         8.11992         1.17358         1.17358
            3471         586.424         586.424         10.1927         10.1927         4.03660         4.03660
            3472         588.089         588.089         12.7892         12.7892         7.52710         7.52710
            3473         590.059         590.059         16.0336         16.0336         11.7607         11.7607
            3474         592.287         592.287         20.1660         20.1660         16.8786         16.8786
            3475         594.694         594.694         25.4051         25.4051         23.0020         23.0020
            3476         597.099         597.099         32.2053         32.2053         30.3050         30.3050
            3477         599.182         599.182         40.9583         40.9583         38.7810         38.7810
            3478         600.519         600.519         52.4129         52.4129         48.5214         48.5214
            3479         600.202         600.202         67.2166         67.2166         58.9115         58.9115
            3480         597.949         597.949         85.6560         85.6560         69.2514         69.2514
            3481         592.926         592.926         107.744         107.744         78.3299         78.3299
            3482         585.632         585.632         132.070         132.070         84.5880         84.5880
            3483         576.962         576.962         156.712         156.712         86.8511         86.8511
            3484         597.365         597.365        -3.39050        -3.39050         4.39498         4.39498
            3485         597.247         597.247        -4.05631        -4.05631         3.00620         3.00620
            3486         596.862         596.862        -4.38310        -4.38310         1.50667         1.50667
            3487         596.252         596.252        -4.42548        -4.42548     979.237E-06     979.237E-06
            3488         595.466         595.466        -4.25087        -4.25087        -1.43467        -1.43467
            3489         594.553         594.553        -3.92763        -3.92763        -2.75072        -2.75072
            3490         593.555         593.555        -3.51682        -3.51682        -3.92031        -3.92031
            3491         592.504         592.504        -3.06789        -3.06789        -4.93355        -4.93355
            3492         591.427         591.427        -2.61776        -2.61776        -5.79273        -5.79273
            3493         590.341         590.341        -2.19118        -2.19118        -6.50757        -6.50757
            3494         589.259         589.259        -1.80276        -1.80276        -7.09182        -7.09182
            3495         588.190         588.190        -1.45876        -1.45876        -7.56060        -7.56060
            3496         587.139         587.139        -1.15945        -1.15945        -7.92848        -7.92848
            3497         586.111         586.111    -900.647E-03    -900.647E-03        -8.20834        -8.20834
            3498         585.112         585.112    -675.378E-03    -675.378E-03        -8.41040        -8.41040
            3499         584.146         584.146    -474.734E-03    -474.734E-03        -8.54197        -8.54197
            3500         583.219         583.219    -288.808E-03    -288.808E-03        -8.60689        -8.60689
            3501         582.341         582.341    -106.841E-03    -106.841E-03        -8.60561        -8.60561
            3502         581.519         581.519     82.2046E-03     82.2046E-03        -8.53472        -8.53472
            3503         580.768         580.768     290.172E-03     290.172E-03        -8.38721        -8.38721
            3504         580.101         580.101     529.152E-03     529.152E-03        -8.15166        -8.15166
            3505         579.535         579.535     812.804E-03     812.804E-03        -7.81273        -7.81273
            3506         579.094         579.094         1.15542         1.15542        -7.34962        -7.34962
            3507         578.801         578.801         1.57459         1.57459        -6.73703        -6.73703
            3508         578.686         578.686         2.08924         2.08924        -5.94212        -5.94212
            3509         578.782         578.782         2.72507         2.72507        -4.92647        -4.92647
            3510         579.130         579.130         3.51000         3.51000        -3.64034        -3.64034
            3511         579.769         579.769         4.48619         4.48619        -2.02665        -2.02665
            3512         580.751         580.751         5.69866         5.69866    -10.4063E-03    -10.4063E-03
            3513         582.122         582.122         7.22366         7.22366         2.49389         2.49389
            3514         583.938         583.938         9.13890         9.13890         5.59962         5.59962
            3515         586.232         586.232         11.5946         11.5946         9.43762         9.43762
            3516         589.047         589.047         14.7325         14.7325         14.1746         14.1746
            3517         592.350         592.350         18.8700         18.8700         20.0147         20.0147
            3518         596.089         596.089         24.2799         24.2799         27.1652         27.1652
            3519         600.014         600.014         31.6572         31.6572         35.9330         35.9330
            3520         603.690         603.690         41.5594         41.5594         46.3576         46.3576
            3521         606.368         606.368         55.3513         55.3513         58.7282         58.7282
            3522         606.239         606.239         74.2014         74.2014         71.7574         71.7574
            3523         603.161         603.161         98.0470         98.0470         83.8909         83.8909
            3524         596.147         596.147         126.221         126.221         93.2628         93.2628
            3525         586.373         586.373         155.322         155.322         96.5040         96.5040
            3526         595.693         595.693        -2.23051        -2.23051         4.22546         4.22546
            3527         595.882         595.882        -2.71929        -2.71929         3.10569         3.10569
            3528         595.820         595.820        -2.97820        -2.97820         1.85305         1.85305
            3529         595.523         595.523        -3.03880        -3.03880     558.951E-03     558.951E-03
            3530         595.016         595.016        -2.94400        -2.94400    -705.167E-03    -705.167E-03
            3531         594.331         594.331        -2.73937        -2.73937        -1.88869        -1.88869
            3532         593.500         593.500        -2.46720        -2.46720        -2.95995        -2.95995
            3533         592.552         592.552        -2.16286        -2.16286        -3.90324        -3.90324
            3534         591.513         591.513        -1.85334        -1.85334        -4.71474        -4.71474
            3535         590.404         590.404        -1.55746        -1.55746        -5.39906        -5.39906
            3536         589.243         589.243        -1.28663        -1.28663        -5.96585        -5.96585
            3537         588.045         588.045        -1.04638        -1.04638        -6.42734        -6.42734
            3538         586.822         586.822    -837.620E-03    -837.620E-03        -6.79630        -6.79630
            3539         585.585         585.585    -658.067E-03    -658.067E-03        -7.08468        -7.08468
            3540         584.345         584.345    -503.159E-03    -503.159E-03        -7.30263        -7.30263
            3541         583.112         583.112    -367.006E-03    -367.006E-03        -7.45787        -7.45787
            3542         581.895         581.895    -242.768E-03    -242.768E-03        -7.55534        -7.55534
            3543         580.706         580.706    -123.221E-03    -123.221E-03        -7.59685        -7.59685
            3544         579.558         579.558    -629.758E-06    -629.758E-06        -7.58109        -7.58109
            3545         578.466         578.466     132.846E-03     132.846E-03        -7.50313        -7.50313
            3546         577.447         577.447     285.764E-03     285.764E-03        -7.35478        -7.35478
            3547         576.521         576.521     466.932E-03     466.932E-03        -7.12348        -7.12348
            3548         575.712         575.712     686.660E-03     686.660E-03        -6.79310        -6.79310
            3549         575.050         575.050     955.974E-03     955.974E-03        -6.34167        -6.34167
            3550         574.569         574.569         1.28901         1.28901        -5.74305        -5.74305
            3551         574.309         574.309         1.70146         1.70146        -4.96226        -4.96226
            3552         574.318         574.318         2.21545         2.21545        -3.95913        -3.95913
            3553         574.653         574.653         2.85593         2.85593        -2.67872        -2.67872
            3554         575.377         575.377         3.66196         3.66196        -1.05925        -1.05925
            3555         576.572         576.572         4.67671         4.67671     987.501E-03     987.501E-03
            3556         578.315         578.315         5.97718         5.97718         3.55942         3.55942
            3557         580.714         580.714         7.64315         7.64315         6.80267         6.80267
            3558         583.849         583.849         9.84355         9.84355         10.8804         10.8804
            3559         587.845         587.845         12.7346         12.7346         16.0378         16.0378
            3560         592.716         592.716         16.7277         16.7277         22.5651         22.5651
            3561         598.517         598.517         22.1512         22.1512         30.8394         30.8394
            3562         604.930         604.930         30.0972         30.0972         41.4073         41.4073
            3563         611.439         611.439         41.3467         41.3467         54.5048         54.5048
            3564         616.581         616.581         58.7272         58.7272         71.0085         71.0085
            3565         616.280         616.280         84.5736         84.5736         87.9010         87.9010
            3566         611.213         611.213         117.028         117.028         101.261         101.261
            3567         601.455         601.455         152.695         152.695         107.976         107.976
            3568         594.281         594.281        -1.32700        -1.32700         3.75260         3.75260
            3569         594.793         594.793        -1.63953        -1.63953         2.88014         2.88014
            3570         595.055         595.055        -1.81230        -1.81230         1.87931         1.87931
            3571         595.059         595.059        -1.86224        -1.86224     825.196E-03     825.196E-03
            3572         594.812         594.812        -1.81410        -1.81410    -221.015E-03    -221.015E-03
            3573         594.334         594.334        -1.69541        -1.69541        -1.21362        -1.21362
            3574         593.646         593.646        -1.53226        -1.53226        -2.12227        -2.12227
            3575         592.777         592.777        -1.34694        -1.34694        -2.93001        -2.93001
            3576         591.751         591.751        -1.15681        -1.15681        -3.63071        -3.63071
            3577         590.595         590.595    -974.121E-03    -974.121E-03        -4.22603        -4.22603
            3578         589.331         589.331    -806.553E-03    -806.553E-03        -4.72283        -4.72283
            3579         587.980         587.980    -657.930E-03    -657.930E-03        -5.13084        -5.13084
            3580         586.562         586.562    -529.197E-03    -529.197E-03        -5.46081        -5.46081
            3581         585.092         585.092    -419.113E-03    -419.113E-03        -5.72327        -5.72327
            3582         583.586         583.586    -325.058E-03    -325.058E-03        -5.92746        -5.92746
            3583         582.058         582.058    -243.425E-03    -243.425E-03        -6.08083        -6.08083
            3584         580.521         580.521    -170.140E-03    -170.140E-03        -6.18849        -6.18849
            3585         578.990         578.990    -100.713E-03    -100.713E-03        -6.25321        -6.25321
            3586         577.479         577.479    -30.5798E-03    -30.5798E-03        -6.27492        -6.27492
            3587         576.005         576.005     45.1489E-03     45.1489E-03        -6.25100        -6.25100
            3588         574.585         574.585     131.411E-03     131.411E-03        -6.17558        -6.17558
            3589         573.240         573.240     233.714E-03     233.714E-03        -6.04013        -6.04013
            3590         571.998         571.998     357.877E-03     357.877E-03        -5.83201        -5.83201
            3591         570.887         570.887     510.842E-03     510.842E-03        -5.53565        -5.53565
            3592         569.945         569.945     700.493E-03     700.493E-03        -5.12951        -5.12951
            3593         569.215         569.215     936.874E-03     936.874E-03        -4.58868        -4.58868
            3594         568.751         568.751         1.23226         1.23226        -3.87829        -3.87829
            3595         568.617         568.617         1.60327         1.60327        -2.95946        -2.95946
            3596         568.894         568.894         2.07123         2.07123        -1.77476        -1.77476
            3597         569.673         569.673         2.66740         2.66740    -262.292E-03    -262.292E-03
            3598         571.075         571.075         3.43189         3.43189         1.67732         1.67732
            3599         573.232         573.232         4.43203         4.43203         4.14788         4.14788
            3600         576.325         576.325         5.74769         5.74769         7.33264         7.33264
            3601         580.528         580.528         7.54722         7.54722         11.4201         11.4201
            3602         586.114         586.114         9.99765         9.99765         16.7688         16.7688
            3603         593.240         593.240         13.5924         13.5924         23.7644         23.7644
            3604         602.258         602.258         18.7061         18.7061         33.1136         33.1136
            3605         612.887         612.887         27.0404         27.0404         45.7497         45.7497
            3606         624.912         624.912         39.6049         39.6049         62.6414         62.6414
            3607         635.205         635.205         63.1247         63.1247         86.3841         86.3841
            3608         633.538         633.538         102.414         102.414         109.227         109.227
            3609         623.497         623.497         148.147         148.147         119.555         119.555
            3610         593.186         593.186    -657.746E-03    -657.746E-03         2.92790         2.92790
            3611         594.078         594.078    -819.575E-03    -819.575E-03         2.30526         2.30526
            3612         594.693         594.693    -911.182E-03    -911.182E-03         1.58052         1.58052
            3613         595.005         595.005    -940.103E-03    -940.103E-03     809.121E-03     809.121E-03
            3614         595.008         595.008    -918.552E-03    -918.552E-03     37.2661E-03     37.2661E-03
            3615         594.712         594.712    -860.309E-03    -860.309E-03    -699.682E-03    -699.682E-03
            3616         594.136         594.136    -778.686E-03    -778.686E-03        -1.37760        -1.37760
            3617         593.308         593.308    -685.193E-03    -685.193E-03        -1.98252        -1.98252
            3618         592.257         592.257    -588.838E-03    -588.838E-03        -2.50883        -2.50883
            3619         591.014         591.014    -496.087E-03    -496.087E-03        -2.95717        -2.95717
            3620         589.609         589.609    -410.984E-03    -410.984E-03        -3.33237        -3.33237
            3621         588.070         588.070    -335.642E-03    -335.642E-03        -3.64173        -3.64173
            3622         586.422         586.422    -270.592E-03    -270.592E-03        -3.89357        -3.89357
            3623         584.686         584.686    -215.306E-03    -215.306E-03        -4.09611        -4.09611
            3624         582.882         582.882    -168.447E-03    -168.447E-03        -4.25682        -4.25682
            3625         581.029         581.029    -128.266E-03    -128.266E-03        -4.38179        -4.38179
            3626         579.142         579.142    -92.6628E-03    -92.6628E-03        -4.47558        -4.47558
            3627         577.236         577.236    -59.4694E-03    -59.4694E-03        -4.54083        -4.54083
            3628         575.326         575.326    -26.3316E-03    -26.3316E-03        -4.57840        -4.57840
            3629         573.428         573.428     9.06904E-03     9.06904E-03        -4.58699        -4.58699
            3630         571.561         571.561     49.2555E-03     49.2555E-03        -4.56346        -4.56346
            3631         569.744         569.744     96.8165E-03     96.8165E-03        -4.50212        -4.50212
            3632         568.002         568.002     154.639E-03     154.639E-03        -4.39542        -4.39542
            3633         566.364         566.364     226.070E-03     226.070E-03        -4.23233        -4.23233
            3634         564.866         564.866     314.793E-03     314.793E-03        -3.99985        -3.99985
            3635         563.551         563.551     425.980E-03     425.980E-03        -3.67944        -3.67944
            3636         562.473         562.473     564.898E-03     564.898E-03        -3.25046        -3.25046
            3637         561.700         561.700     740.823E-03     740.823E-03        -2.68205        -2.68205
            3638         561.314         561.314     962.238E-03     962.238E-03        -1.94158        -1.94158
            3639         561.420         561.420         1.24756         1.24756    -975.206E-03    -975.206E-03
            3640         562.148         562.148         1.61275         1.61275     270.528E-03     270.528E-03
            3641         563.667         563.667         2.09674         2.09674         1.89739         1.89739
            3642         566.182         566.182         2.73718         2.73718         3.99884         3.99884
            3643         569.983         569.983         3.61944         3.61944         6.78730         6.78730
            3644         575.402         575.402         4.85980         4.85980         10.4442         10.4442
            3645         582.969         582.969         6.65003         6.65003         15.4648         15.4648
            3646         593.184         593.184         9.45313         9.45313         22.2709         22.2709
            3647         607.112         607.112         13.7113         13.7113         32.1534         32.1534
            3648         625.044         625.044         21.7946         21.7946         46.4581         46.4581
            3649         648.826         648.826         34.8575         34.8575         68.6375         68.6375
            3650         672.018         672.018         70.7351         70.7351         105.778         105.778
            3651         667.800         667.800         136.620         136.620         136.520         136.520
            3652         592.498         592.498    -230.587E-03    -230.587E-03         1.66755         1.66755
            3653         593.865         593.865    -288.891E-03    -288.891E-03         1.33038         1.33038
            3654         594.889         594.889    -322.272E-03    -322.272E-03     935.471E-03     935.471E-03
            3655         595.529         595.529    -333.226E-03    -333.226E-03     513.586E-03     513.586E-03
            3656         595.773         595.773    -326.055E-03    -326.055E-03     90.5209E-03     90.5209E-03
            3657         595.629         595.629    -305.625E-03    -305.625E-03    -313.940E-03    -313.940E-03
            3658         595.120         595.120    -276.733E-03    -276.733E-03    -686.190E-03    -686.190E-03
            3659         594.279         594.279    -243.492E-03    -243.492E-03        -1.01832        -1.01832
            3660         593.146         593.146    -209.189E-03    -209.189E-03        -1.30716        -1.30716
            3661         591.760         591.760    -176.135E-03    -176.135E-03        -1.55307        -1.55307
            3662         590.160         590.160    -145.836E-03    -145.836E-03        -1.75882        -1.75882
            3663         588.383         588.383    -119.032E-03    -119.032E-03        -1.92862        -1.92862
            3664         586.460         586.460    -95.9615E-03    -95.9615E-03        -2.06722        -2.06722
            3665         584.419         584.419    -76.4060E-03    -76.4060E-03        -2.17942        -2.17942
            3666         582.283         582.283    -59.9437E-03    -59.9437E-03        -2.26954        -2.26954
            3667         580.071         580.071    -45.9022E-03    -45.9022E-03        -2.34121        -2.34121
            3668         577.802         577.802    -33.6104E-03    -33.6104E-03        -2.39714        -2.39714
            3669         575.489         575.489    -22.2303E-03    -22.2303E-03        -2.43913        -2.43913
            3670         573.147         573.147    -11.0302E-03    -11.0302E-03        -2.46787        -2.46787
            3671         570.791         570.791     886.383E-06     886.383E-06        -2.48309        -2.48309
            3672         568.434         568.434     14.3002E-03     14.3002E-03        -2.48331        -2.48331
            3673         566.096         566.096     30.1545E-03     30.1545E-03        -2.46612        -2.46612
            3674         563.795         563.795     49.4399E-03     49.4399E-03        -2.42754        -2.42754
            3675         561.557         561.557     73.1399E-03     73.1399E-03        -2.36275        -2.36275
            3676         559.414         559.414     102.901E-03     102.901E-03        -2.26459        -2.26459
            3677         557.404         557.404     139.606E-03     139.606E-03        -2.12509        -2.12509
            3678         555.577         555.577     186.662E-03     186.662E-03        -1.93222        -1.93222
            3679         553.995         553.995     244.274E-03     244.274E-03        -1.67346        -1.67346
            3680         552.735         552.735     320.366E-03     320.366E-03        -1.32798        -1.32798
            3681         551.898         551.898     412.731E-03     412.731E-03    -875.949E-03    -875.949E-03
            3682         551.611         551.611     540.779E-03     540.779E-03    -278.229E-03    -278.229E-03
            3683         552.042         552.042     695.517E-03     695.517E-03     497.457E-03     497.457E-03
            3684         553.411         553.411     925.632E-03     925.632E-03         1.53362         1.53362
            3685         556.010         556.010         1.20652         1.20652         2.88505         2.88505
            3686         560.255         560.255         1.66233         1.66233         4.75163         4.75163
            3687         566.704         566.704         2.24751         2.24751         7.23330         7.23330
            3688         576.255         576.255         3.28547         3.28547         10.9012         10.9012
            3689         590.081         590.081         4.82555         4.82555         15.9795         15.9795
            3690         610.664         610.664         7.74980         7.74980         24.4981         24.4981
            3691         640.588         640.588         13.8878         13.8878         37.4045         37.4045
            3692         690.152         690.152         26.1635         26.1635         65.1874         65.1874
            3693         753.113         753.113         92.7492         92.7492         119.986         119.986
            3694         34.3525         34.3525        -263.806        -263.806        -32.3020        -32.3020
            3695         124.559         124.559        -107.912        -107.912        -85.1186        -85.1186
            3696         242.211         242.211        -33.8134        -33.8134        -92.7052        -92.7052
            3697         352.737         352.737        -5.72426        -5.72426        -76.6586        -76.6586
            3698         439.077         439.077         1.92908         1.92908        -54.2976        -54.2976
            3699         109.480         109.480        -195.484        -195.484        -74.2563        -74.2563
            3700         241.574         241.574        -108.196        -108.196        -148.880        -148.880
            3701         359.193         359.193        -63.7322        -63.7322        -148.072        -148.072
            3702         446.759         446.759        -39.6012        -39.6012        -115.176        -115.176
            3703         505.130         505.130        -25.0454        -25.0454        -78.2766        -78.2766
            3704         234.679         234.679        -112.746        -112.746        -123.300        -123.300
            3705         398.792         398.792        -109.204        -109.204        -174.718        -174.718
            3706         495.222         495.222        -91.3441        -91.3441        -151.808        -151.808
            3707         545.149         545.149        -67.0526        -67.0526        -108.741        -108.741
            3708         569.306         569.306        -45.0831        -45.0831        -69.8212        -69.8212
            3709         399.605         399.605        -39.3371        -39.3371        -164.836        -164.836
            3710         553.591         553.591        -105.284        -105.284        -158.470        -158.470
            3711         605.641         605.641        -100.772        -100.772        -117.188        -117.188
            3712         614.958         614.958        -75.1765        -75.1765        -76.5871        -76.5871
            3713         610.424         610.424        -49.8559        -49.8559        -46.0949        -46.0949
            3714         658.717         658.717         74.2821         74.2821         26.7182         26.7182
            3715         712.799         712.799         114.440         114.440         31.4227         31.4227
            3716         809.873         809.873         155.915         155.915         22.7678         22.7678
            3717         978.984         978.984         177.786         177.786        -16.3474        -16.3474
            3718     1.25513E+03     1.25513E+03         146.302         146.302        -105.367        -105.367
            3719         666.307         666.307         27.5789         27.5789         32.0725         32.0725
            3720         716.688         716.688         50.4030         50.4030         38.2655         38.2655
            3721         796.151         796.151         83.0544         83.0544         26.3364         26.3364
            3722         921.120         921.120         120.148         120.148        -33.0332        -33.0332
            3723     1.11654E+03     1.11654E+03         143.250         143.250        -180.399        -180.399
            3724         664.202         664.202        -14.5069        -14.5069         17.2838         17.2838
            3725         708.786         708.786        -12.7078        -12.7078         18.9208         18.9208
            3726         769.673         769.673         1.37602         1.37602         5.27882         5.27882
            3727         844.717         844.717         41.9873         41.9873        -53.7580        -53.7580
            3728         932.833         932.833         121.851         121.851        -213.084        -213.084
            3729         650.471         650.471        -37.1467        -37.1467        -3.68107        -3.68107
            3730         685.995         685.995        -51.7166        -51.7166        -11.3363        -11.3363
            3731         729.089         729.089        -59.1156        -59.1156        -31.1404        -31.1404
            3732         762.323         762.323        -33.5618        -33.5618        -82.4966        -82.4966
            3733         744.949         744.949         76.1295         76.1295        -211.445        -211.445
            3734         427.190         427.190        -28.1482        -28.1482         171.046         171.046
            3735         577.225         577.225        -104.309        -104.309         154.223         154.223
            3736         621.436         621.436        -101.351        -101.351         110.463         110.463
            3737         624.389         624.389        -75.5526        -75.5526         70.7432         70.7432
            3738         615.709         615.709        -49.9099        -49.9099         41.9197         41.9197
            3739         283.822         283.822        -86.3065        -86.3065         138.961         138.961
            3740         452.085         452.085        -109.334        -109.334         175.582         175.582
            3741         537.038         537.038        -97.8869        -97.8869         145.204         145.204
            3742         573.388         573.388        -72.9822        -72.9822         100.820         100.820
            3743         586.797         586.797        -49.0726        -49.0726         63.2638         63.2638
            3744         163.951         163.951        -155.385        -155.385         98.1270         98.1270
            3745         316.112         316.112        -109.326        -109.326         168.670         168.670
            3746         427.481         427.481        -79.5025        -79.5025         158.308         158.308
            3747         498.295         498.295        -56.0021        -56.0021         118.649         118.649
            3748         539.779         539.779        -37.4435        -37.4435         78.5303         78.5303
            3749         76.9679         76.9679        -224.138        -224.138         58.3878         58.3878
            3750         193.882         193.882        -108.740        -108.740         132.280         132.280
            3751         313.246         313.246        -52.9657        -52.9657         137.250         137.250
            3752         410.990         410.990        -27.7133        -27.7133         109.938         109.938
            3753         480.594         480.594        -15.8461        -15.8461         76.2001         76.2001
            3754         25.7856         25.7856        -276.074        -276.074         25.9375         25.9375
            3755         109.328         109.328        -109.210        -109.210         72.5377         72.5377
            3756         225.294         225.294        -29.7634        -29.7634         80.3028         80.3028
            3757         337.951         337.951    -197.455E-03    -197.455E-03         67.2483         67.2483
            3758         428.075         428.075         6.71151         6.71151         48.1305         48.1305
            3759         651.188         651.188        -38.1573        -38.1573         5.04902         5.04902
            3760         686.651         686.651        -52.5835        -52.5835         12.3710         12.3710
            3761         729.685         729.685        -59.8233        -59.8233         31.9118         31.9118
            3762         763.001         763.001        -34.1142        -34.1142         83.0919         83.0919
            3763         745.816         745.816         75.7639         75.7639         211.954         211.954
            3764         664.737         664.737        -15.2741        -15.2741        -15.9879        -15.9879
            3765         709.281         709.281        -13.3248        -13.3248        -17.9297        -17.9297
            3766         770.139         770.139     946.206E-03     946.206E-03        -4.53630        -4.53630
            3767         845.255         845.255         41.7651         41.7651         54.2937         54.2937
            3768         933.662         933.662         121.918         121.918         213.565         213.565
            3769         666.648         666.648         27.0880         27.0880        -30.8224        -30.8224
            3770         716.997         716.997         50.0553         50.0553        -37.2690        -37.2690
            3771         796.432         796.432         82.8891         82.8891        -25.5566        -25.5566
            3772         921.468         921.468         120.206         120.206         33.6479         33.6479
            3773     1.11722E+03     1.11722E+03         143.454         143.454         180.917         180.917
            3774         658.877         658.877         74.0537         74.0537        -25.4742        -25.4742
            3775         712.935         712.935         114.303         114.303        -30.3827        -30.3827
            3776         809.988         809.988         155.905         155.905        -21.8889        -21.8889
            3777         979.151         979.151         177.898         177.898         17.0880         17.0880
            3778     1.25552E+03     1.25552E+03         146.446         146.446         105.895         105.895
            3779         715.137         715.137         68.2531         68.2531        -210.128        -210.128
            3780         749.222         749.222        -45.1475        -45.1475        -87.8508        -87.8508
            3781         722.424         722.424        -67.9601        -67.9601        -38.0551        -38.0551
            3782         682.323         682.323        -57.4123        -57.4123        -17.3682        -17.3682
            3783         648.519         648.519        -40.7717        -40.7717        -8.45017        -8.45017
            3784         869.938         869.938         110.988         110.988        -217.631        -217.631
            3785         818.384         818.384         15.5967         15.5967        -62.5637        -62.5637
            3786         758.795         758.795        -23.1976        -23.1976        -5.85909        -5.85909
            3787         703.946         703.946        -30.4689        -30.4689         8.62394         8.62394
            3788         661.871         661.871        -26.0122        -26.0122         9.15814         9.15814
            3789     1.02994E+03     1.02994E+03         136.866         136.866        -204.439        -204.439
            3790         885.440         885.440         83.2017         83.2017        -43.1938        -43.1938
            3791         785.640         785.640         41.1268         41.1268         18.7469         18.7469
            3792         715.795         715.795         15.9219         15.9219         31.1370         31.1370
            3793         667.965         667.965         3.36259         3.36259         25.8697         25.8697
            3794     1.17400E+03     1.17400E+03         146.112         146.112        -162.525        -162.525
            3795         945.189         945.189         143.807         143.807        -28.3193        -28.3193
            3796         802.906         802.906         111.182         111.182         27.8198         27.8198
            3797         716.848         716.848         73.9731         73.9731         39.5037         39.5037
            3798         665.002         665.002         44.0063         44.0063         32.9277         32.9277
            3799     1.27603E+03     1.27603E+03         145.442         145.442        -90.9701        -90.9701
            3800         988.185         988.185         184.876         184.876        -14.6241        -14.6241
            3801         812.217         812.217         166.224         166.224         19.5085         19.5085
            3802         712.044         712.044         124.268         124.268         27.2981         27.2981
            3803         657.226         657.226         81.8325         81.8325         23.1317         23.1317
            3804         650.361         650.361        -37.2644        -37.2644         3.79898         3.79898
            3805         685.836         685.836        -51.8864        -51.8864         11.5139         11.5139
            3806         728.859         728.859        -59.3188        -59.3188         31.3737         31.3737
            3807         762.071         762.071        -33.8298        -33.8298         82.7392         82.7392
            3808         744.704         744.704         75.6879         75.6879         211.509         211.509
            3809         664.143         664.143        -14.6840        -14.6840        -17.1683        -17.1683
            3810         708.685         708.685        -12.9253        -12.9253        -18.7430        -18.7430
            3811         769.498         769.498         1.14668         1.14668        -5.04357        -5.04357
            3812         844.416         844.416         41.7445         41.7445         53.9525         53.9525
            3813         932.407         932.407         121.692         121.692         213.100         213.100
            3814         666.308         666.308         27.3513         27.3513        -31.9659        -31.9659
            3815         716.640         716.640         50.1679         50.1679        -38.0777        -38.0777
            3816         796.006         796.006         82.8338         82.8338        -26.1083        -26.1083
            3817         920.782         920.782         119.984         119.984         33.2581         33.2581
            3818     1.11589E+03     1.11589E+03         143.138         143.138         180.506         180.506
            3819         658.791         658.791         74.0274         74.0274        -26.6577        -26.6577
            3820         712.834         712.834         114.166         114.166        -31.2722        -31.2722
            3821         809.757         809.757         155.728         155.728        -22.5261        -22.5261
            3822         978.636         978.636         177.779         177.779         16.5889         16.5889
            3823     1.25428E+03     1.25428E+03         146.404         146.404         105.458         105.458
            3824         427.964         427.964        -28.5191        -28.5191         171.393         171.393
            3825         578.187         578.187        -105.045        -105.045         154.662         154.662
            3826         622.442         622.442        -102.243        -102.243         111.048         111.048
            3827         625.466         625.466        -76.5990        -76.5990         71.5657         71.5657
            3828         616.892         616.892        -51.1649        -51.1649         43.0921         43.0921
            3829         284.376         284.376        -86.9354        -86.9354         139.245         139.245
            3830         452.936         452.936        -110.197        -110.197         176.047         176.047
            3831         538.025         538.025        -98.8738        -98.8738         145.777         145.777
            3832         574.508         574.508        -74.1088        -74.1088         101.550         101.550
            3833         588.099         588.099        -50.4127        -50.4127         64.2623         64.2623
            3834         164.287         164.287        -156.299        -156.299         98.3277         98.3277
            3835         316.762         316.762        -110.289        -110.289         169.123         169.123
            3836         428.361         428.361        -80.5399        -80.5399         158.852         158.852
            3837         499.391         499.391        -57.1749        -57.1749         119.283         119.283
            3838         541.146         541.146        -38.8425        -38.8425         79.3421         79.3421
            3839         77.1154         77.1154        -225.335        -225.335         58.5149         58.5149
            3840         194.297         194.297        -109.775        -109.775         132.659         132.659
            3841         313.948         313.948        -54.0087        -54.0087         137.707         137.707
            3842         411.998         411.998        -28.8894        -28.8894         110.439         110.439
            3843         481.965         481.965        -17.2685        -17.2685         76.7970         76.7970
            3844         25.8048         25.8048        -277.489        -277.489         26.0107         26.0107
            3845         109.544         109.544        -110.291        -110.291         72.7772         72.7772
            3846         225.822         225.822        -30.7875        -30.7875         80.5918         80.5918
            3847         338.849         338.849        -1.34894        -1.34894         67.5497         67.5497
            3848         429.411         429.411         5.29440         5.29440         48.4658         48.4658
            3849         611.584         611.584        -51.1050        -51.1050        -47.2316        -47.2316
            3850         615.957         615.957        -76.1954        -76.1954        -77.3931        -77.3931
            3851         606.484         606.484        -101.613        -101.613        -117.755        -117.755
            3852         554.314         554.314        -106.005        -106.005        -158.811        -158.811
            3853         400.162         400.162        -39.8685        -39.8685        -164.975        -164.975
            3854         570.587         570.587        -46.4241        -46.4241        -70.7328        -70.7328
            3855         546.170         546.170        -68.1589        -68.1589        -109.413        -109.413
            3856         496.029         496.029        -92.3127        -92.3127        -152.315        -152.315
            3857         399.410         399.410        -110.120        -110.120        -175.081        -175.081
            3858         235.003         235.003        -113.621        -113.621        -123.415        -123.415
            3859         506.447         506.447        -26.4313        -26.4313        -78.9289        -78.9289
            3860         447.717         447.717        -40.7404        -40.7404        -115.679        -115.679
            3861         359.855         359.855        -64.7474        -64.7474        -148.486        -148.486
            3862         241.958         241.958        -109.218        -109.218        -149.186        -149.186
            3863         109.599         109.599        -196.674        -196.674        -74.3013        -74.3013
            3864         440.382         440.382     531.736E-03     531.736E-03        -54.6324        -54.6324
            3865         353.603         353.603        -6.85702        -6.85702        -76.9221        -76.9221
            3866         242.706         242.706        -34.8247        -34.8247        -92.9252        -92.9252
            3867         124.745         124.745        -108.992        -108.992        -85.2719        -85.2719
            3868         34.3474         34.3474        -265.233        -265.233        -32.2943        -32.2943


  Minimum               -9.67402        -9.67402        -416.151        -416.151        -328.736        -328.736
         At Node              28              28              28              28             590             590

  Maximum            1.49778E+03     1.49778E+03         199.057         199.057         326.814         326.814
         At Node              27              27             585             585             574             574

           Total     2.27467E+06     2.27467E+06     36.5666E+03     36.5666E+03     1.09663E+03     1.09663E+03


