********************************************************************************
Field Output Report, written Sat Feb 24 11:10:47 2024

Source 1
---------

   ODB: C:/Users/Isabel Haycock/OneDrive - Imperial College London/Fourth Year/FYP/Isabel Haycock/06 - FE models/Specimen_2/Plate_hole_1.odb
   Step: load
   Frame: Increment      1: Step Time =   7.1429E-02

Loc 1 : Nodal values at shell < composite > < elset = ASSEMBLY_PLATE_1-1_COMPOSITELAYUP-1-1 > from source 1 : SNEG, (fraction = -1.0), Layer = 1
Loc 2 : Nodal values at shell < composite > < elset = ASSEMBLY_PLATE_1-1_COMPOSITELAYUP-1-1 > from source 1 : SPOS, (fraction = 1.0), Layer = 8

Output sorted by column "Node Label".

Field Output reported at nodes for part: PLATE_1-1
   Computation algorithm: EXTRAPOLATE_COMPUTE_AVERAGE
   Averaged at nodes
   Averaging regions: ODB_REGIONS

      Node Label           S.S11           S.S11           S.S22           S.S22           S.S12           S.S12
                          @Loc 1          @Loc 2          @Loc 1          @Loc 2          @Loc 1          @Loc 2
-----------------------------------------------------------------------------------------------------------------
               1         123.379         123.379        -5.78040        -5.78040        -2.46158        -2.46158
               2         117.321         117.321     164.101E-03     164.101E-03    -7.50335E-03    -7.50335E-03
               3         117.345         117.345     751.303E-06     751.303E-06    -847.566E-06    -847.566E-06
               4         118.599         118.599    -7.64942E-03    -7.64942E-03     251.554E-03     251.554E-03
               5         123.428         123.428        -5.75940        -5.75940         2.36925         2.36925
               6         117.321         117.321     164.125E-03     164.125E-03     7.50267E-03     7.50267E-03
               7         94.3961         94.3961         2.65093         2.65093    -366.523E-03    -366.523E-03
               8         118.159         118.159    -9.35373E-03    -9.35373E-03    -211.377E-03    -211.377E-03
               9         123.633         123.633        -6.02444        -6.02444         2.71382         2.71382
              10         125.434         125.434         12.3874         12.3874     144.181E-03     144.181E-03
              11         118.623         118.623    -7.94432E-03    -7.94432E-03    -251.557E-03    -251.557E-03
              12         117.345         117.345     751.463E-06     751.463E-06     847.732E-06     847.732E-06
              13         110.322         110.322         33.5570         33.5570        -7.31834        -7.31834
              14         179.555         179.555         24.9616         24.9616        -29.0746        -29.0746
              15         123.501         123.501        -6.06380        -6.06380        -2.87948        -2.87948
              16         118.174         118.174    -9.72042E-03    -9.72042E-03     211.600E-03     211.600E-03
              17         125.387         125.387         12.5432         12.5432    -363.658E-03    -363.658E-03
              18         110.323         110.323         33.5561         33.5561         7.31666         7.31666
              19         94.7536         94.7536         2.30280         2.30280    -366.103E-03    -366.103E-03
              20         179.555         179.555         24.9615         24.9615         29.0745         29.0745
              21        -1.91376        -1.91376        -83.3691        -83.3691     78.7538E-03     78.7538E-03
              22         97.0773         97.0773         21.5183         21.5183        -47.1451        -47.1451
              23         299.689         299.689         19.6304         19.6304     34.9922E-03     34.9922E-03
              24         98.5783         98.5783         22.1707         22.1707         47.8058         47.8058
              25         98.7602         98.7602         22.1960         22.1960         47.9017         47.9017
              26         95.3121         95.3121         21.2006         21.2006        -46.6408        -46.6408
              27         300.281         300.281         19.4267         19.4267         1.38242         1.38242
              28        -1.92705        -1.92705        -83.7357        -83.7357     84.8470E-03     84.8470E-03
              29         121.080         121.080        -4.64976        -4.64976        -2.92061        -2.92061
              30         119.744         119.744        -3.91956        -3.91956        -3.22233        -3.22233
              31         118.681         118.681        -3.14938        -3.14938        -3.24652        -3.24652
              32         117.888         117.888        -2.44082        -2.44082        -3.10397        -3.10397
              33         117.322         117.322        -1.82928        -1.82928        -2.87791        -2.87791
              34         116.933         116.933        -1.31945        -1.31945        -2.62208        -2.62208
              35         116.676         116.676    -901.499E-03    -901.499E-03        -2.36674        -2.36674
              36         116.515         116.515    -562.560E-03    -562.560E-03        -2.12705        -2.12705
              37         116.424         116.424    -289.746E-03    -289.746E-03        -1.90955        -1.90955
              38         116.382         116.382    -71.8552E-03    -71.8552E-03        -1.71580        -1.71580
              39         116.376         116.376     100.587E-03     100.587E-03        -1.54488        -1.54488
              40         116.394         116.394     235.384E-03     235.384E-03        -1.39467        -1.39467
              41         116.429         116.429     338.978E-03     338.978E-03        -1.26262        -1.26262
              42         116.474         116.474     416.690E-03     416.690E-03        -1.14619        -1.14619
              43         116.527         116.527     472.949E-03     472.949E-03        -1.04302        -1.04302
              44         116.583         116.583     511.467E-03     511.467E-03    -951.050E-03    -951.050E-03
              45         116.641         116.641     535.376E-03     535.376E-03    -868.515E-03    -868.515E-03
              46         116.699         116.699     547.332E-03     547.332E-03    -793.957E-03    -793.957E-03
              47         116.755         116.755     549.595E-03     549.595E-03    -726.182E-03    -726.182E-03
              48         116.810         116.810     544.096E-03     544.096E-03    -664.226E-03    -664.226E-03
              49         116.862         116.862     532.476E-03     532.476E-03    -607.315E-03    -607.315E-03
              50         116.911         116.911     516.139E-03     516.139E-03    -554.833E-03    -554.833E-03
              51         116.957         116.957     496.275E-03     496.275E-03    -506.287E-03    -506.287E-03
              52         117.000         117.000     473.893E-03     473.893E-03    -461.279E-03    -461.279E-03
              53         117.039         117.039     449.842E-03     449.842E-03    -419.487E-03    -419.487E-03
              54         117.075         117.075     424.836E-03     424.836E-03    -380.643E-03    -380.643E-03
              55         117.108         117.108     399.470E-03     399.470E-03    -344.519E-03    -344.519E-03
              56         117.138         117.138     374.237E-03     374.237E-03    -310.915E-03    -310.915E-03
              57         117.165         117.165     349.541E-03     349.541E-03    -279.651E-03    -279.651E-03
              58         117.190         117.190     325.712E-03     325.712E-03    -250.562E-03    -250.562E-03
              59         117.211         117.211     303.015E-03     303.015E-03    -223.487E-03    -223.487E-03
              60         117.231         117.231     281.662E-03     281.662E-03    -198.272E-03    -198.272E-03
              61         117.248         117.248     261.822E-03     261.822E-03    -174.766E-03    -174.766E-03
              62         117.263         117.263     243.625E-03     243.625E-03    -152.818E-03    -152.818E-03
              63         117.276         117.276     227.171E-03     227.171E-03    -132.275E-03    -132.275E-03
              64         117.287         117.287     212.534E-03     212.534E-03    -112.985E-03    -112.985E-03
              65         117.296         117.296     199.770E-03     199.770E-03    -94.7942E-03    -94.7942E-03
              66         117.304         117.304     188.921E-03     188.921E-03    -77.5480E-03    -77.5480E-03
              67         117.310         117.310     180.013E-03     180.013E-03    -61.0905E-03    -61.0905E-03
              68         117.315         117.315     173.067E-03     173.067E-03    -45.2648E-03    -45.2648E-03
              69         117.319         117.319     168.096E-03     168.096E-03    -29.9140E-03    -29.9140E-03
              70         117.321         117.321     165.103E-03     165.103E-03    -14.9205E-03    -14.9205E-03
              71         117.336         117.336     147.691E-03     147.691E-03    -8.13428E-03    -8.13428E-03
              72         117.349         117.349     131.238E-03     131.238E-03    -8.51998E-03    -8.51998E-03
              73         117.362         117.362     114.225E-03     114.225E-03    -8.70867E-03    -8.70867E-03
              74         117.374         117.374     97.0517E-03     97.0517E-03    -8.69016E-03    -8.69016E-03
              75         117.384         117.384     80.1345E-03     80.1345E-03    -8.46046E-03    -8.46046E-03
              76         117.392         117.392     63.8930E-03     63.8930E-03    -8.01895E-03    -8.01895E-03
              77         117.397         117.397     48.7424E-03     48.7424E-03    -7.37107E-03    -7.37107E-03
              78         117.398         117.398     35.0833E-03     35.0833E-03    -6.52577E-03    -6.52577E-03
              79         117.395         117.395     23.2907E-03     23.2907E-03    -5.50049E-03    -5.50049E-03
              80         117.387         117.387     13.7037E-03     13.7037E-03    -4.31323E-03    -4.31323E-03
              81         117.374         117.374     6.60899E-03     6.60899E-03    -2.99954E-03    -2.99954E-03
              82         117.355         117.355     2.23370E-03     2.23370E-03    -1.58323E-03    -1.58323E-03
              83         117.346         117.346     768.415E-06     768.415E-06    -1.55582E-03    -1.55582E-03
              84         117.351         117.351     792.774E-06     792.774E-06    -3.04825E-03    -3.04825E-03
              85         117.358         117.358     817.132E-06     817.132E-06    -4.64111E-03    -4.64111E-03
              86         117.369         117.369     858.514E-06     858.514E-06    -6.30032E-03    -6.30032E-03
              87         117.383         117.383     911.896E-06     911.896E-06    -8.05463E-03    -8.05463E-03
              88         117.401         117.401     977.087E-06     977.087E-06    -9.92775E-03    -9.92775E-03
              89         117.422         117.422     1.05446E-03     1.05446E-03    -11.9439E-03    -11.9439E-03
              90         117.448         117.448     1.14341E-03     1.14341E-03    -14.1269E-03    -14.1269E-03
              91         117.478         117.478     1.24407E-03     1.24407E-03    -16.5002E-03    -16.5002E-03
              92         117.513         117.513     1.35578E-03     1.35578E-03    -19.0869E-03    -19.0869E-03
              93         117.553         117.553     1.47813E-03     1.47813E-03    -21.9088E-03    -21.9088E-03
              94         117.600         117.600     1.61007E-03     1.61007E-03    -24.9865E-03    -24.9865E-03
              95         117.652         117.652     1.75034E-03     1.75034E-03    -28.3382E-03    -28.3382E-03
              96         117.711         117.711     1.89707E-03     1.89707E-03    -31.9793E-03    -31.9793E-03
              97         117.778         117.778     2.04769E-03     2.04769E-03    -35.9206E-03    -35.9206E-03
              98         117.853         117.853     2.19885E-03     2.19885E-03    -40.1672E-03    -40.1672E-03
              99         117.937         117.937     2.34591E-03     2.34591E-03    -44.7161E-03    -44.7161E-03
             100         118.029         118.029     2.48314E-03     2.48314E-03    -49.5543E-03    -49.5543E-03
             101         118.132         118.132     2.60264E-03     2.60264E-03    -54.6553E-03    -54.6553E-03
             102         118.245         118.245     2.69515E-03     2.69515E-03    -59.9752E-03    -59.9752E-03
             103         118.368         118.368     2.74786E-03     2.74786E-03    -65.4486E-03    -65.4486E-03
             104         118.502         118.502     2.74659E-03     2.74659E-03    -70.9831E-03    -70.9831E-03
             105         118.648         118.648     2.67159E-03     2.67159E-03    -76.4526E-03    -76.4526E-03
             106         118.803         118.803     2.50255E-03     2.50255E-03    -81.6908E-03    -81.6908E-03
             107         118.969         118.969     2.21096E-03     2.21096E-03    -86.4833E-03    -86.4833E-03
             108         119.143         119.143     1.77024E-03     1.77024E-03    -90.5600E-03    -90.5600E-03
             109         119.324         119.324     1.14309E-03     1.14309E-03    -93.5880E-03    -93.5880E-03
             110         119.510         119.510     299.717E-06     299.717E-06    -95.1661E-03    -95.1661E-03
             111         119.697         119.697    -800.822E-06    -800.822E-06    -94.8239E-03    -94.8239E-03
             112         119.881         119.881    -2.18195E-03    -2.18195E-03    -92.0245E-03    -92.0245E-03
             113         120.057         120.057    -3.87207E-03    -3.87207E-03    -86.1812E-03    -86.1812E-03
             114         120.217         120.217    -5.86799E-03    -5.86799E-03    -76.6786E-03    -76.6786E-03
             115         120.354         120.354    -8.15207E-03    -8.15207E-03    -62.9245E-03    -62.9245E-03
             116         120.460         120.460    -10.6616E-03    -10.6616E-03    -44.4021E-03    -44.4021E-03
             117         120.524         120.524    -13.2830E-03    -13.2830E-03    -20.7726E-03    -20.7726E-03
             118         120.537         120.537    -15.8556E-03    -15.8556E-03     8.03452E-03     8.03452E-03
             119         120.488         120.488    -18.1270E-03    -18.1270E-03     41.6772E-03     41.6772E-03
             120         120.368         120.368    -19.8233E-03    -19.8233E-03     79.2919E-03     79.2919E-03
             121         120.172         120.172    -20.5772E-03    -20.5772E-03     119.379E-03     119.379E-03
             122         119.897         119.897    -20.0649E-03    -20.0649E-03     159.747E-03     159.747E-03
             123         119.545         119.545    -17.9854E-03    -17.9854E-03     197.589E-03     197.589E-03
             124         119.124         119.124    -14.1318E-03    -14.1318E-03     229.386E-03     229.386E-03
             125         118.704         118.704    -21.8953E-03    -21.8953E-03     464.017E-03     464.017E-03
             126         118.935         118.935    -63.0938E-03    -63.0938E-03     834.821E-03     834.821E-03
             127         119.204         119.204    -130.425E-03    -130.425E-03         1.11017         1.11017
             128         119.508         119.508    -228.370E-03    -228.370E-03         1.31270         1.31270
             129         119.848         119.848    -367.130E-03    -367.130E-03         1.45709         1.45709
             130         120.229         120.229    -562.184E-03    -562.184E-03         1.54825         1.54825
             131         120.658         120.658    -834.329E-03    -834.329E-03         1.58023         1.58023
             132         121.138         121.138        -1.20935        -1.20935         1.53384         1.53384
             133         121.664         121.664        -1.71637        -1.71637         1.37149         1.37149
             134         122.209         122.209        -2.38043        -2.38043         1.03269         1.03269
             135         122.702         122.702        -3.20778        -3.20778     430.654E-03     430.654E-03
             136         122.996         122.996        -4.15086        -4.15086    -527.411E-03    -527.411E-03
             137         121.142         121.142        -4.63668        -4.63668         2.82784         2.82784
             138         119.816         119.816        -3.92307        -3.92307         3.14604         3.14604
             139         118.755         118.755        -3.16517        -3.16517         3.18931         3.18931
             140         117.958         117.958        -2.46289        -2.46289         3.06498         3.06498
             141         117.384         117.384        -1.85271        -1.85271         2.85361         2.85361
             142         116.985         116.985        -1.34127        -1.34127         2.60844         2.60844
             143         116.719         116.719    -920.485E-03    -920.485E-03         2.36021         2.36021
             144         116.550         116.550    -578.482E-03    -578.482E-03         2.12514         2.12514
             145         116.452         116.452    -302.799E-03    -302.799E-03         1.91048         1.91048
             146         116.406         116.406    -82.4342E-03    -82.4342E-03         1.71842         1.71842
             147         116.395         116.395     92.0672E-03     92.0672E-03         1.54843         1.54843
             148         116.409         116.409     228.530E-03     228.530E-03         1.39865         1.39865
             149         116.441         116.441     333.455E-03     333.455E-03         1.26674         1.26674
             150         116.485         116.485     412.219E-03     412.219E-03         1.15024         1.15024
             151         116.535         116.535     469.307E-03     469.307E-03         1.04690         1.04690
             152         116.590         116.590     508.477E-03     508.477E-03     954.683E-03     954.683E-03
             153         116.647         116.647     532.900E-03     532.900E-03     871.870E-03     871.870E-03
             154         116.704         116.704     545.263E-03     545.263E-03     797.020E-03     797.020E-03
             155         116.759         116.759     547.852E-03     547.852E-03     728.952E-03     728.952E-03
             156         116.813         116.813     542.615E-03     542.615E-03     666.711E-03     666.711E-03
             157         116.865         116.865     531.211E-03     531.211E-03     609.530E-03     609.530E-03
             158         116.914         116.914     515.051E-03     515.051E-03     556.794E-03     556.794E-03
             159         116.959         116.959     495.336E-03     495.336E-03     508.011E-03     508.011E-03
             160         117.002         117.002     473.079E-03     473.079E-03     462.787E-03     462.787E-03
             161         117.041         117.041     449.137E-03     449.137E-03     420.797E-03     420.797E-03
             162         117.077         117.077     424.226E-03     424.226E-03     381.774E-03     381.774E-03
             163         117.109         117.109     398.943E-03     398.943E-03     345.489E-03     345.489E-03
             164         117.139         117.139     373.783E-03     373.783E-03     311.741E-03     311.741E-03
             165         117.166         117.166     349.151E-03     349.151E-03     280.350E-03     280.350E-03
             166         117.190         117.190     325.379E-03     325.379E-03     251.147E-03     251.147E-03
             167         117.212         117.212     302.733E-03     302.733E-03     223.973E-03     223.973E-03
             168         117.231         117.231     281.426E-03     281.426E-03     198.672E-03     198.672E-03
             169         117.248         117.248     261.626E-03     261.626E-03     175.092E-03     175.092E-03
             170         117.263         117.263     243.464E-03     243.464E-03     153.079E-03     153.079E-03
             171         117.276         117.276     227.041E-03     227.041E-03     132.481E-03     132.481E-03
             172         117.287         117.287     212.432E-03     212.432E-03     113.144E-03     113.144E-03
             173         117.296         117.296     199.694E-03     199.694E-03     94.9143E-03     94.9143E-03
             174         117.304         117.304     188.867E-03     188.867E-03     77.6358E-03     77.6358E-03
             175         117.310         117.310     179.981E-03     179.981E-03     61.1517E-03     61.1517E-03
             176         117.315         117.315     173.054E-03     173.054E-03     45.3045E-03     45.3045E-03
             177         117.319         117.319     168.101E-03     168.101E-03     29.9358E-03     29.9358E-03
             178         117.321         117.321     165.122E-03     165.122E-03     14.9270E-03     14.9270E-03
             179         117.306         117.306     180.759E-03     180.759E-03     6.56654E-03     6.56654E-03
             180         117.292         117.292     195.769E-03     195.769E-03     5.36450E-03     5.36450E-03
             181         117.281         117.281     207.514E-03     207.514E-03     3.97462E-03     3.97462E-03
             182         117.273         117.273     215.581E-03     215.581E-03     2.44549E-03     2.44549E-03
             183         117.269         117.269     219.686E-03     219.686E-03     830.252E-06     830.252E-06
             184         117.269         117.269     219.682E-03     219.682E-03    -814.864E-06    -814.864E-06
             185         117.273         117.273     215.572E-03     215.572E-03    -2.43232E-03    -2.43232E-03
             186         117.281         117.281     207.502E-03     207.502E-03    -3.96629E-03    -3.96629E-03
             187         117.292         117.292     195.751E-03     195.751E-03    -5.36148E-03    -5.36148E-03
             188         117.306         117.306     180.737E-03     180.737E-03    -6.56523E-03    -6.56523E-03
             189         97.0277         97.0277         1.36791         1.36791         6.47803         6.47803
             190         104.088         104.088        -1.86682        -1.86682         10.1644         10.1644
             191         111.871         111.871        -4.90609        -4.90609         10.3165         10.3165
             192         117.871         117.871        -6.50424        -6.50424         8.16811         8.16811
             193         121.414         121.414        -6.62125        -6.62125         5.32468         5.32468
             194         120.768         120.768        -6.61402        -6.61402        -5.88899        -5.88899
             195         115.650         115.650        -5.95587        -5.95587        -9.08556        -9.08556
             196         107.343         107.343        -3.16828        -3.16828        -10.3734        -10.3734
             197         98.5823         98.5823     647.035E-03     647.035E-03        -7.29803        -7.29803
             198         118.274         118.274    -26.8462E-03    -26.8462E-03    -385.949E-03    -385.949E-03
             199         118.530         118.530    -77.3867E-03    -77.3867E-03    -683.516E-03    -683.516E-03
             200         118.835         118.835    -159.311E-03    -159.311E-03    -891.803E-03    -891.803E-03
             201         119.183         119.183    -276.170E-03    -276.170E-03        -1.03511        -1.03511
             202         119.574         119.574    -437.259E-03    -437.259E-03        -1.12918        -1.12918
             203         120.011         120.011    -657.175E-03    -657.175E-03        -1.17965        -1.17965
             204         120.499         120.499    -955.901E-03    -955.901E-03        -1.18105        -1.18105
             205         121.040         121.040        -1.35844        -1.35844        -1.11438        -1.11438
             206         121.627         121.627        -1.89318        -1.89318    -942.031E-03    -942.031E-03
             207         122.231         122.231        -2.58454        -2.58454    -603.082E-03    -603.082E-03
             208         122.780         122.780        -3.43809        -3.43809    -10.1072E-03    -10.1072E-03
             209         123.125         123.125        -4.40636        -4.40636     931.818E-03     931.818E-03
             210         126.157         126.157        -5.25061        -5.25061     168.896E-03     168.896E-03
             211         127.740         127.740        -2.40314        -2.40314        -2.59198        -2.59198
             212         127.690         127.690         3.14733         3.14733        -4.54347        -4.54347
             213         126.308         126.308         9.46809         9.46809        -3.67839        -3.67839
             214         126.277         126.277         9.52405         9.52405         3.96934         3.96934
             215         127.624         127.624         3.26052         3.26052         4.84326         4.84326
             216         127.639         127.639        -2.23366        -2.23366         2.90835         2.90835
             217         126.020         126.020        -5.02853        -5.02853     170.663E-03     170.663E-03
             218         117.945         117.945     2.12728E-03     2.12728E-03     257.075E-03     257.075E-03
             219         117.266         117.266     13.6549E-03     13.6549E-03     235.591E-03     235.591E-03
             220         116.688         116.688     24.3462E-03     24.3462E-03     183.327E-03     183.327E-03
             221         116.289         116.289     31.9003E-03     31.9003E-03     105.815E-03     105.815E-03
             222         116.123         116.123     34.5304E-03     34.5304E-03     14.2102E-03     14.2102E-03
             223         116.210         116.210     31.5518E-03     31.5518E-03    -76.9072E-03    -76.9072E-03
             224         116.527         116.527     23.6492E-03     23.6492E-03    -152.956E-03    -152.956E-03
             225         117.018         117.018     12.6143E-03     12.6143E-03    -202.789E-03    -202.789E-03
             226         117.603         117.603     740.814E-06     740.814E-06    -220.867E-03    -220.867E-03
             227         122.976         122.976        -4.15972        -4.15972     540.890E-03     540.890E-03
             228         122.688         122.688        -3.21694        -3.21694    -420.964E-03    -420.964E-03
             229         122.199         122.199        -2.39021        -2.39021        -1.02444        -1.02444
             230         121.657         121.657        -1.72678        -1.72678        -1.36424        -1.36424
             231         121.134         121.134        -1.22000        -1.22000        -1.52773        -1.52773
             232         120.656         120.656    -844.505E-03    -844.505E-03        -1.57547        -1.57547
             233         120.230         120.230    -571.165E-03    -571.165E-03        -1.54480        -1.54480
             234         119.851         119.851    -374.377E-03    -374.377E-03        -1.45469        -1.45469
             235         119.514         119.514    -233.642E-03    -233.642E-03        -1.31101        -1.31101
             236         119.214         119.214    -133.748E-03    -133.748E-03        -1.10891        -1.10891
             237         118.949         118.949    -64.8211E-03    -64.8211E-03    -833.871E-03    -833.871E-03
             238         118.724         118.724    -22.5718E-03    -22.5718E-03    -463.628E-03    -463.628E-03
             239         119.131         119.131    -14.1117E-03    -14.1117E-03    -229.143E-03    -229.143E-03
             240         119.552         119.552    -17.9996E-03    -17.9996E-03    -197.279E-03    -197.279E-03
             241         119.903         119.903    -20.0652E-03    -20.0652E-03    -159.425E-03    -159.425E-03
             242         120.178         120.178    -20.5809E-03    -20.5809E-03    -119.053E-03    -119.053E-03
             243         120.373         120.373    -19.8149E-03    -19.8149E-03    -78.9723E-03    -78.9723E-03
             244         120.492         120.492    -18.1176E-03    -18.1176E-03    -41.3760E-03    -41.3760E-03
             245         120.540         120.540    -15.8408E-03    -15.8408E-03    -7.75794E-03    -7.75794E-03
             246         120.527         120.527    -13.2673E-03    -13.2673E-03     21.0181E-03     21.0181E-03
             247         120.462         120.462    -10.6453E-03    -10.6453E-03     44.6155E-03     44.6155E-03
             248         120.356         120.356    -8.13625E-03    -8.13625E-03     63.1054E-03     63.1054E-03
             249         120.219         120.219    -5.85410E-03    -5.85410E-03     76.8297E-03     76.8297E-03
             250         120.058         120.058    -3.85954E-03    -3.85954E-03     86.3056E-03     86.3056E-03
             251         119.882         119.882    -2.17194E-03    -2.17194E-03     92.1264E-03     92.1264E-03
             252         119.698         119.698    -792.193E-06    -792.193E-06     94.9070E-03     94.9070E-03
             253         119.511         119.511     306.243E-06     306.243E-06     95.2341E-03     95.2341E-03
             254         119.325         119.325     1.14863E-03     1.14863E-03     93.6438E-03     93.6438E-03
             255         119.144         119.144     1.77433E-03     1.77433E-03     90.6063E-03     90.6063E-03
             256         118.969         118.969     2.21447E-03     2.21447E-03     86.5219E-03     86.5219E-03
             257         118.804         118.804     2.50513E-03     2.50513E-03     81.7233E-03     81.7233E-03
             258         118.648         118.648     2.67388E-03     2.67388E-03     76.4802E-03     76.4802E-03
             259         118.503         118.503     2.74830E-03     2.74830E-03     71.0067E-03     71.0067E-03
             260         118.368         118.368     2.74942E-03     2.74942E-03     65.4689E-03     65.4689E-03
             261         118.245         118.245     2.69635E-03     2.69635E-03     59.9927E-03     59.9927E-03
             262         118.132         118.132     2.60376E-03     2.60376E-03     54.6705E-03     54.6705E-03
             263         118.030         118.030     2.48402E-03     2.48402E-03     49.5676E-03     49.5676E-03
             264         117.937         117.937     2.34674E-03     2.34674E-03     44.7276E-03     44.7276E-03
             265         117.853         117.853     2.19952E-03     2.19952E-03     40.1772E-03     40.1772E-03
             266         117.778         117.778     2.04832E-03     2.04832E-03     35.9293E-03     35.9293E-03
             267         117.711         117.711     1.89758E-03     1.89758E-03     31.9869E-03     31.9869E-03
             268         117.652         117.652     1.75082E-03     1.75082E-03     28.3448E-03     28.3448E-03
             269         117.600         117.600     1.61047E-03     1.61047E-03     24.9921E-03     24.9921E-03
             270         117.553         117.553     1.47850E-03     1.47850E-03     21.9137E-03     21.9137E-03
             271         117.513         117.513     1.35610E-03     1.35610E-03     19.0911E-03     19.0911E-03
             272         117.478         117.478     1.24436E-03     1.24436E-03     16.5038E-03     16.5038E-03
             273         117.448         117.448     1.14366E-03     1.14366E-03     14.1300E-03     14.1300E-03
             274         117.422         117.422     1.05470E-03     1.05470E-03     11.9465E-03     11.9465E-03
             275         117.401         117.401     977.298E-06     977.298E-06     9.92989E-03     9.92989E-03
             276         117.383         117.383     912.095E-06     912.095E-06     8.05636E-03     8.05636E-03
             277         117.369         117.369     858.695E-06     858.695E-06     6.30167E-03     6.30167E-03
             278         117.358         117.358     817.306E-06     817.306E-06     4.64211E-03     4.64211E-03
             279         117.351         117.351     792.939E-06     792.939E-06     3.04890E-03     3.04890E-03
             280         117.346         117.346     768.578E-06     768.578E-06     1.55614E-03     1.55614E-03
             281         117.355         117.355     2.23418E-03     2.23418E-03     1.58355E-03     1.58355E-03
             282         117.374         117.374     6.61039E-03     6.61039E-03     3.00016E-03     3.00016E-03
             283         117.387         117.387     13.7067E-03     13.7067E-03     4.31412E-03     4.31412E-03
             284         117.395         117.395     23.2956E-03     23.2956E-03     5.50162E-03     5.50162E-03
             285         117.398         117.398     35.0907E-03     35.0907E-03     6.52711E-03     6.52711E-03
             286         117.397         117.397     48.7525E-03     48.7525E-03     7.37256E-03     7.37256E-03
             287         117.392         117.392     63.9063E-03     63.9063E-03     8.02054E-03     8.02054E-03
             288         117.384         117.384     80.1509E-03     80.1509E-03     8.46207E-03     8.46207E-03
             289         117.374         117.374     97.0713E-03     97.0713E-03     8.69178E-03     8.69178E-03
             290         117.362         117.362     114.247E-03     114.247E-03     8.71003E-03     8.71003E-03
             291         117.349         117.349     131.263E-03     131.263E-03     8.52120E-03     8.52120E-03
             292         117.336         117.336     147.716E-03     147.716E-03     8.13302E-03     8.13302E-03
             293         110.897         110.897         32.1897         32.1897        -7.36719        -7.36719
             294         112.050         112.050         29.4360         29.4360        -7.33001        -7.33001
             295         113.170         113.170         26.6775         26.6775        -7.10066        -7.10066
             296         114.232         114.232         23.9708         23.9708        -6.75718        -6.75718
             297         115.210         115.210         21.3597         21.3597        -6.30781        -6.30781
             298         116.086         116.086         18.8824         18.8824        -5.77423        -5.77423
             299         116.851         116.851         16.5669         16.5669        -5.17678        -5.17678
             300         117.496         117.496         14.4344         14.4344        -4.54185        -4.54185
             301         118.027         118.027         12.4938         12.4938        -3.89249        -3.89249
             302         118.445         118.445         10.7481         10.7481        -3.24964        -3.24964
             303         118.765         118.765         9.19207         9.19207        -2.63093        -2.63093
             304         118.994         118.994         7.81664         7.81664        -2.04802        -2.04802
             305         119.146         119.146         6.60977         6.60977        -1.51043        -1.51043
             306         119.231         119.231         5.55716         5.55716        -1.02179        -1.02179
             307         119.262         119.262         4.64500         4.64500    -584.793E-03    -584.793E-03
             308         119.248         119.248         3.85840         3.85840    -198.044E-03    -198.044E-03
             309         119.196         119.196         3.18424         3.18424     140.054E-03     140.054E-03
             310         119.115         119.115         2.60904         2.60904     433.410E-03     433.410E-03
             311         119.011         119.011         2.12124         2.12124     685.723E-03     685.723E-03
             312         118.888         118.888         1.70928         1.70928     901.782E-03     901.782E-03
             313         118.751         118.751         1.36322         1.36322         1.08601         1.08601
             314         118.604         118.604         1.07329         1.07329         1.24321         1.24321
             315         118.450         118.450     830.927E-03     830.927E-03         1.37783         1.37783
             316         118.292         118.292     627.765E-03     627.765E-03         1.49437         1.49437
             317         118.132         118.132     456.254E-03     456.254E-03         1.59704         1.59704
             318         117.971         117.971     308.979E-03     308.979E-03         1.69000         1.69000
             319         117.814         117.814     179.001E-03     179.001E-03         1.77726         1.77726
             320         117.662         117.662     59.3747E-03     59.3747E-03         1.86282         1.86282
             321         117.518         117.518    -56.7088E-03    -56.7088E-03         1.95060         1.95060
             322         117.385         117.385    -176.290E-03    -176.290E-03         2.04459         2.04459
             323         117.269         117.269    -306.661E-03    -306.661E-03         2.14875         2.14875
             324         117.176         117.176    -455.699E-03    -455.699E-03         2.26698         2.26698
             325         117.112         117.112    -632.042E-03    -632.042E-03         2.40287         2.40287
             326         117.089         117.089    -845.385E-03    -845.385E-03         2.55934         2.55934
             327         117.123         117.123        -1.10678        -1.10678         2.73780         2.73780
             328         117.231         117.231        -1.42861        -1.42861         2.93681         2.93681
             329         117.442         117.442        -1.82449        -1.82449         3.14971         3.14971
             330         117.790         117.790        -2.30724        -2.30724         3.36079         3.36079
             331         118.317         118.317        -2.88577        -2.88577         3.53966         3.53966
             332         119.071         119.071        -3.55397        -3.55397         3.63336         3.63336
             333         120.091         120.091        -4.27577        -4.27577         3.56150         3.56150
             334         121.381         121.381        -4.95099        -4.95099         3.21677         3.21677
             335         118.594         118.594    -16.1067E-03    -16.1067E-03    -185.211E-03    -185.211E-03
             336         118.924         118.924    -20.1991E-03    -20.1991E-03    -149.217E-03    -149.217E-03
             337         119.176         119.176    -22.5330E-03    -22.5330E-03    -106.676E-03    -106.676E-03
             338         119.342         119.342    -23.2803E-03    -23.2803E-03    -61.1120E-03    -61.1120E-03
             339         119.418         119.418    -22.7877E-03    -22.7877E-03    -15.3289E-03    -15.3289E-03
             340         119.405         119.405    -21.3218E-03    -21.3218E-03     28.4853E-03     28.4853E-03
             341         119.309         119.309    -19.3142E-03    -19.3142E-03     68.8265E-03     68.8265E-03
             342         119.138         119.138    -16.9547E-03    -16.9547E-03     104.826E-03     104.826E-03
             343         118.901         118.901    -14.5922E-03    -14.5922E-03     136.124E-03     136.124E-03
             344         118.607         118.607    -12.2542E-03    -12.2542E-03     162.770E-03     162.770E-03
             345         118.265         118.265    -10.2124E-03    -10.2124E-03     185.065E-03     185.065E-03
             346         117.882         117.882    -8.30893E-03    -8.30893E-03     203.477E-03     203.477E-03
             347         117.467         117.467    -6.83040E-03    -6.83040E-03     218.534E-03     218.534E-03
             348         117.024         117.024    -5.40803E-03    -5.40803E-03     230.768E-03     230.768E-03
             349         116.560         116.560    -4.47377E-03    -4.47377E-03     240.661E-03     240.661E-03
             350         116.078         116.078    -3.37530E-03    -3.37530E-03     248.620E-03     248.620E-03
             351         115.582         115.582    -2.85779E-03    -2.85779E-03     254.957E-03     254.957E-03
             352         115.076         115.076    -1.82765E-03    -1.82765E-03     259.880E-03     259.880E-03
             353         114.560         114.560    -1.58739E-03    -1.58739E-03     263.490E-03     263.490E-03
             354         114.039         114.039    -309.357E-06    -309.357E-06     265.772E-03     265.772E-03
             355         113.515         113.515    -246.875E-06    -246.875E-06     266.609E-03     266.609E-03
             356         112.990         112.990     1.67515E-03     1.67515E-03     265.747E-03     265.747E-03
             357         112.469         112.469     1.58818E-03     1.58818E-03     262.838E-03     262.838E-03
             358         111.957         111.957     4.70327E-03     4.70327E-03     257.346E-03     257.346E-03
             359         111.458         111.458     4.39225E-03     4.39225E-03     248.653E-03     248.653E-03
             360         110.981         110.981     9.55179E-03     9.55179E-03     235.823E-03     235.823E-03
             361         110.533         110.533     8.78553E-03     8.78553E-03     217.885E-03     217.885E-03
             362         110.127         110.127     17.4439E-03     17.4439E-03     193.212E-03     193.212E-03
             363         109.778         109.778     15.7223E-03     15.7223E-03     160.344E-03     160.344E-03
             364         109.504         109.504     30.6020E-03     30.6020E-03     116.223E-03     116.223E-03
             365         109.330         109.330     26.8823E-03     26.8823E-03     58.7434E-03     58.7434E-03
             366         109.288         109.288     53.6459E-03     53.6459E-03    -18.5855E-03    -18.5855E-03
             367         109.421         109.421     45.5517E-03     45.5517E-03    -118.461E-03    -118.461E-03
             368         109.786         109.786     97.6549E-03     97.6549E-03    -256.831E-03    -256.831E-03
             369         110.466         110.466     78.8469E-03     78.8469E-03    -435.583E-03    -435.583E-03
             370         111.577         111.577     194.173E-03     194.173E-03    -700.749E-03    -700.749E-03
             371         113.296         113.296     144.511E-03     144.511E-03        -1.04576        -1.04576
             372         115.917         115.917     456.458E-03     456.458E-03        -1.63207        -1.63207
             373         119.902         119.902     299.773E-03     299.773E-03        -2.40851        -2.40851
             374         126.332         126.332         1.48088         1.48088        -4.15328        -4.15328
             375         136.978         136.978     863.840E-03     863.840E-03        -6.60808        -6.60808
             376         161.576         161.576         11.6224         11.6224        -18.3787        -18.3787
             377         157.064         157.064         30.3191         30.3191        -30.9297        -30.9297
             378         131.047         131.047         34.9277         34.9277        -28.8821        -28.8821
             379         123.961         123.961         34.2801         34.2801        -24.2683        -24.2683
             380         119.081         119.081         34.2227         34.2227        -21.8245        -21.8245
             381         116.484         116.484         33.9709         33.9709        -19.2902        -19.2902
             382         114.578         114.578         33.8409         33.8409        -17.3844        -17.3844
             383         113.352         113.352         33.7364         33.7364        -15.5433        -15.5433
             384         112.416         112.416         33.6640         33.6640        -13.9691        -13.9691
             385         111.758         111.758         33.6213         33.6213        -12.4657        -12.4657
             386         111.243         111.243         33.5876         33.5876        -11.1024        -11.1024
             387         110.863         110.863         33.5724         33.5724        -9.79670        -9.79670
             388         110.560         110.560         33.5588         33.5588        -8.57392        -8.57392
             389         123.076         123.076        -4.42683        -4.42683    -995.155E-03    -995.155E-03
             390         122.751         122.751        -3.47270        -3.47270    -49.3676E-03    -49.3676E-03
             391         122.220         122.220        -2.62673        -2.62673     554.605E-03     554.605E-03
             392         121.628         121.628        -1.93581        -1.93581     906.828E-03     906.828E-03
             393         121.047         121.047        -1.39659        -1.39659         1.09116         1.09116
             394         120.508         120.508    -987.287E-03    -987.287E-03         1.16707         1.16707
             395         120.021         120.021    -681.406E-03    -681.406E-03         1.17214         1.17214
             396         119.583         119.583    -454.876E-03    -454.876E-03         1.12592         1.12592
             397         119.191         119.191    -288.097E-03    -288.097E-03         1.03446         1.03446
             398         118.844         118.844    -166.552E-03    -166.552E-03     892.521E-03     892.521E-03
             399         118.540         118.540    -80.9797E-03    -80.9797E-03     684.617E-03     684.617E-03
             400         118.287         118.287    -28.0439E-03    -28.0439E-03     386.596E-03     386.596E-03
             401         117.656         117.656    -505.860E-06    -505.860E-06     222.861E-03     222.861E-03
             402         117.112         117.112     10.2466E-03     10.2466E-03     210.820E-03     210.820E-03
             403         116.633         116.633     20.8259E-03     20.8259E-03     171.807E-03     171.807E-03
             404         116.282         116.282     29.2198E-03     29.2198E-03     108.862E-03     108.862E-03
             405         116.112         116.112     34.4625E-03     34.4625E-03     28.7997E-03     28.7997E-03
             406         116.151         116.151     34.3271E-03     34.3271E-03    -57.4744E-03    -57.4744E-03
             407         116.398         116.398     29.5967E-03     29.5967E-03    -137.489E-03    -137.489E-03
             408         116.825         116.825     21.9260E-03     21.9260E-03    -201.828E-03    -201.828E-03
             409         117.385         117.385     11.6010E-03     11.6010E-03    -243.488E-03    -243.488E-03
             410         118.015         118.015     1.03761E-03     1.03761E-03    -258.933E-03    -258.933E-03
             411         126.007         126.007         10.5858         10.5858         3.32793         3.32793
             412         127.352         127.352         5.42664         5.42664         4.81771         4.81771
             413         128.042         128.042     6.55279E-03     6.55279E-03         3.91131         3.91131
             414         127.448         127.448        -3.78008        -3.78008         1.68568         1.68568
             415         125.836         125.836        -5.56586        -5.56586    -617.141E-03    -617.141E-03
             416         126.003         126.003        -5.04933        -5.04933    -151.516E-03    -151.516E-03
             417         127.632         127.632        -2.27295        -2.27295        -2.88864        -2.88864
             418         127.632         127.632         3.20012         3.20012        -4.83405        -4.83405
             419         126.300         126.300         9.45179         9.45179        -3.98670        -3.98670
             420         110.898         110.898         32.1890         32.1890         7.36511         7.36511
             421         112.050         112.050         29.4359         29.4359         7.32700         7.32700
             422         113.169         113.169         26.6781         26.6781         7.09660         7.09660
             423         114.231         114.231         23.9724         23.9724         6.75219         6.75219
             424         115.208         115.208         21.3624         21.3624         6.30206         6.30206
             425         116.084         116.084         18.8862         18.8862         5.76805         5.76805
             426         116.849         116.849         16.5718         16.5718         5.17042         5.17042
             427         117.494         117.494         14.4402         14.4402         4.53565         4.53565
             428         118.025         118.025         12.5004         12.5004         3.88669         3.88669
             429         118.444         118.444         10.7553         10.7553         3.24448         3.24448
             430         118.764         118.764         9.19969         9.19969         2.62657         2.62657
             431         118.993         118.993         7.82444         7.82444         2.04456         2.04456
             432         119.146         119.146         6.61755         6.61755         1.50794         1.50794
             433         119.232         119.232         5.56475         5.56475         1.02028         1.02028
             434         119.263         119.263         4.65229         4.65229     584.292E-03     584.292E-03
             435         119.249         119.249         3.86526         3.86526     198.495E-03     198.495E-03
             436         119.198         119.198         3.19062         3.19062    -138.669E-03    -138.669E-03
             437         119.118         119.118         2.61489         2.61489    -431.161E-03    -431.161E-03
             438         119.014         119.014         2.12656         2.12656    -682.646E-03    -682.646E-03
             439         118.891         118.891         1.71408         1.71408    -897.950E-03    -897.950E-03
             440         118.754         118.754         1.36755         1.36755        -1.08146        -1.08146
             441         118.607         118.607         1.07719         1.07719        -1.23802        -1.23802
             442         118.453         118.453     834.499E-03     834.499E-03        -1.37203        -1.37203
             443         118.294         118.294     631.088E-03     631.088E-03        -1.48803        -1.48803
             444         118.133         118.133     459.457E-03     459.457E-03        -1.59018        -1.59018
             445         117.972         117.972     312.195E-03     312.195E-03        -1.68270        -1.68270
             446         117.813         117.813     182.405E-03     182.405E-03        -1.76957        -1.76957
             447         117.660         117.660     63.1612E-03     63.1612E-03        -1.85481        -1.85481
             448         117.514         117.514    -52.2936E-03    -52.2936E-03        -1.94238        -1.94238
             449         117.379         117.379    -170.966E-03    -170.966E-03        -2.03630        -2.03630
             450         117.260         117.260    -300.081E-03    -300.081E-03        -2.14060        -2.14060
             451         117.162         117.162    -447.472E-03    -447.472E-03        -2.25929        -2.25929
             452         117.094         117.094    -621.707E-03    -621.707E-03        -2.39614        -2.39614
             453         117.065         117.065    -832.474E-03    -832.474E-03        -2.55433        -2.55433
             454         117.091         117.091        -1.09083        -1.09083        -2.73567        -2.73567
             455         117.191         117.191        -1.40937        -1.40937        -2.93932        -2.93932
             456         117.393         117.393        -1.80210        -1.80210        -3.15937        -3.15937
             457         117.730         117.730        -2.28289        -2.28289        -3.38111        -3.38111
             458         118.248         118.248        -2.86229        -2.86229        -3.57464        -3.57464
             459         118.998         118.998        -3.53621        -3.53621        -3.68641        -3.68641
             460         120.020         120.020        -4.26962        -4.26962        -3.63308        -3.63308
             461         121.320         121.320        -4.96078        -4.96078        -3.30356        -3.30356
             462         121.036         121.036        -6.91543        -6.91543        -6.18444        -6.18444
             463         115.962         115.962        -6.27974        -6.27974        -9.32032        -9.32032
             464         107.683         107.683        -3.50685        -3.50685        -10.5380        -10.5380
             465         98.9350         98.9350     301.635E-03     301.635E-03        -7.38220        -7.38220
             466         97.3863         97.3863         1.01898         1.01898         6.55568         6.55568
             467         104.441         104.441        -2.21267        -2.21267         10.3093         10.3093
             468         112.207         112.207        -5.24274        -5.24274         10.5212         10.5212
             469         118.178         118.178        -6.82495        -6.82495         8.42643         8.42643
             470         121.679         121.679        -6.92081        -6.92081         5.63103         5.63103
             471         110.114         110.114         33.5538         33.5538        -5.97082        -5.97082
             472         109.955         109.955         33.5545         33.5545        -4.59100        -4.59100
             473         109.845         109.845         33.5555         33.5555        -3.25455        -3.25455
             474         109.776         109.776         33.5573         33.5573        -1.94340        -1.94340
             475         109.743         109.743         33.5577         33.5577    -650.553E-03    -650.553E-03
             476         109.743         109.743         33.5572         33.5572     639.514E-03     639.514E-03
             477         109.777         109.777         33.5559         33.5559         1.93370         1.93370
             478         109.846         109.846         33.5536         33.5536         3.24685         3.24685
             479         109.956         109.956         33.5526         33.5526         4.58560         4.58560
             480         110.115         110.115         33.5523         33.5523         5.96757         5.96757
             481         110.560         110.560         33.5582         33.5582         8.57292         8.57292
             482         110.863         110.863         33.5721         33.5721         9.79602         9.79602
             483         111.243         111.243         33.5875         33.5875         11.1019         11.1019
             484         111.758         111.758         33.6212         33.6212         12.4653         12.4653
             485         112.416         112.416         33.6639         33.6639         13.9688         13.9688
             486         113.352         113.352         33.7363         33.7363         15.5431         15.5431
             487         114.578         114.578         33.8409         33.8409         17.3842         17.3842
             488         116.484         116.484         33.9708         33.9708         19.2900         19.2900
             489         119.081         119.081         34.2226         34.2226         21.8243         21.8243
             490         123.961         123.961         34.2801         34.2801         24.2682         24.2682
             491         131.047         131.047         34.9277         34.9277         28.8819         28.8819
             492         157.064         157.064         30.3191         30.3191         30.9296         30.9296
             493         161.576         161.576         11.6224         11.6224         18.3787         18.3787
             494         136.978         136.978     863.835E-03     863.835E-03         6.60803         6.60803
             495         126.332         126.332         1.48087         1.48087         4.15324         4.15324
             496         119.902         119.902     299.769E-03     299.769E-03         2.40849         2.40849
             497         115.917         115.917     456.453E-03     456.453E-03         1.63205         1.63205
             498         113.296         113.296     144.507E-03     144.507E-03         1.04575         1.04575
             499         111.577         111.577     194.169E-03     194.169E-03     700.748E-03     700.748E-03
             500         110.466         110.466     78.8438E-03     78.8438E-03     435.589E-03     435.589E-03
             501         109.787         109.787     97.6523E-03     97.6523E-03     256.843E-03     256.843E-03
             502         109.421         109.421     45.5497E-03     45.5497E-03     118.477E-03     118.477E-03
             503         109.288         109.288     53.6443E-03     53.6443E-03     18.6052E-03     18.6052E-03
             504         109.330         109.330     26.8812E-03     26.8812E-03    -58.7212E-03    -58.7212E-03
             505         109.504         109.504     30.6013E-03     30.6013E-03    -116.199E-03    -116.199E-03
             506         109.778         109.778     15.7219E-03     15.7219E-03    -160.318E-03    -160.318E-03
             507         110.127         110.127     17.4436E-03     17.4436E-03    -193.186E-03    -193.186E-03
             508         110.533         110.533     8.78549E-03     8.78549E-03    -217.859E-03    -217.859E-03
             509         110.980         110.980     9.55182E-03     9.55182E-03    -235.797E-03    -235.797E-03
             510         111.458         111.458     4.39232E-03     4.39232E-03    -248.627E-03    -248.627E-03
             511         111.957         111.957     4.70345E-03     4.70345E-03    -257.320E-03    -257.320E-03
             512         112.469         112.469     1.58818E-03     1.58818E-03    -262.812E-03    -262.812E-03
             513         112.990         112.990     1.67537E-03     1.67537E-03    -265.722E-03    -265.722E-03
             514         113.514         113.514    -247.034E-06    -247.034E-06    -266.583E-03    -266.583E-03
             515         114.038         114.038    -309.130E-06    -309.130E-06    -265.747E-03    -265.747E-03
             516         114.560         114.560    -1.58780E-03    -1.58780E-03    -263.464E-03    -263.464E-03
             517         115.075         115.075    -1.82744E-03    -1.82744E-03    -259.854E-03    -259.854E-03
             518         115.582         115.582    -2.85854E-03    -2.85854E-03    -254.931E-03    -254.931E-03
             519         116.078         116.078    -3.37510E-03    -3.37510E-03    -248.593E-03    -248.593E-03
             520         116.559         116.559    -4.47479E-03    -4.47479E-03    -240.633E-03    -240.633E-03
             521         117.023         117.023    -5.40762E-03    -5.40762E-03    -230.739E-03    -230.739E-03
             522         117.466         117.466    -6.83104E-03    -6.83104E-03    -218.505E-03    -218.505E-03
             523         117.881         117.881    -8.30727E-03    -8.30727E-03    -203.449E-03    -203.449E-03
             524         118.264         118.264    -10.2104E-03    -10.2104E-03    -185.040E-03    -185.040E-03
             525         118.606         118.606    -12.2485E-03    -12.2485E-03    -162.752E-03    -162.752E-03
             526         118.900         118.900    -14.5827E-03    -14.5827E-03    -136.122E-03    -136.122E-03
             527         119.137         119.137    -16.9406E-03    -16.9406E-03    -104.846E-03    -104.846E-03
             528         119.308         119.308    -19.2922E-03    -19.2922E-03    -68.8830E-03    -68.8830E-03
             529         119.404         119.404    -21.2984E-03    -21.2984E-03    -28.5863E-03    -28.5863E-03
             530         119.417         119.417    -22.7577E-03    -22.7577E-03     15.1751E-03     15.1751E-03
             531         119.342         119.342    -23.2619E-03    -23.2619E-03     60.9103E-03     60.9103E-03
             532         119.177         119.177    -22.5227E-03    -22.5227E-03     106.447E-03     106.447E-03
             533         118.925         118.925    -20.2135E-03    -20.2135E-03     148.993E-03     148.993E-03
             534         118.595         118.595    -16.1636E-03    -16.1636E-03     185.131E-03     185.131E-03
             535         1.86421         1.86421        -59.0572        -59.0572    -264.910E-03    -264.910E-03
             536         15.9843         15.9843        -22.0614        -22.0614    -728.861E-03    -728.861E-03
             537         38.6893         38.6893        -4.25695        -4.25695    -836.222E-03    -836.222E-03
             538         62.1631         62.1631         2.11483         2.11483    -732.047E-03    -732.047E-03
             539         81.6787         81.6787         3.17045         3.17045    -528.888E-03    -528.888E-03
             540         126.786         126.786        -9.22852        -9.22852        -4.61927        -4.61927
             541         131.461         131.461        -13.9049        -13.9049        -8.32880        -8.32880
             542         135.881         135.881        -18.2782        -18.2782        -14.3635        -14.3635
             543         134.866         134.866        -17.1541        -17.1541        -23.8400        -23.8400
             544         114.545         114.545         3.64411         3.64411        -38.3693        -38.3693
             545         57.3903         57.3903         3.44149         3.44149        -30.2215        -30.2215
             546         26.5817         26.5817        -22.6018        -22.6018        -13.7692        -13.7692
             547         8.53719         8.53719        -51.2094        -51.2094        -2.20727        -2.20727
             548     263.921E-03     263.921E-03        -73.9234        -73.9234         1.74908         1.74908
             549         130.817         130.817         19.1835         19.1835     126.640E-03     126.640E-03
             550         141.879         141.879         28.6242         28.6242     108.448E-03     108.448E-03
             551         162.780         162.780         37.4431         37.4431     94.8998E-03     94.8998E-03
             552         200.242         200.242         40.2885         40.2885     80.8576E-03     80.8576E-03
             553         261.884         261.884         29.4913         29.4913     53.7794E-03     53.7794E-03
             554         285.554         285.554         22.7650         22.7650        -32.8479        -32.8479
             555         247.622         247.622         29.7421         29.7421        -56.1387        -56.1387
             556         196.404         196.404         34.4561         34.4561        -65.0405        -65.0405
             557         143.506         143.506         31.7526         31.7526        -60.4417        -60.4417
             558         115.870         115.870         4.02755         4.02755         38.5992         38.5992
             559         135.776         135.776        -17.0695        -17.0695         23.5492         23.5492
             560         136.391         136.391        -18.2276        -18.2276         14.0152         14.0152
             561         131.718         131.718        -13.8568        -13.8568         8.06024         8.06024
             562         126.908         126.908        -9.18545        -9.18545         4.43916         4.43916
             563    -506.157E-03    -506.157E-03        -77.8091        -77.8091        -1.96646        -1.96646
             564         4.60783         4.60783        -60.7294        -60.7294    -333.056E-03    -333.056E-03
             565         15.6460         15.6460        -37.4165        -37.4165         6.74967         6.74967
             566         34.7393         34.7393        -13.2111        -13.2111         18.6955         18.6955
             567         62.8912         62.8912         7.41732         7.41732         33.0440         33.0440
             568         127.115         127.115        -9.41332        -9.41332         4.69761         4.69761
             569         131.916         131.916        -14.0432        -14.0432         8.23804         8.23804
             570         136.583         136.583        -18.3791        -18.3791         14.1329         14.1329
             571         135.975         135.975        -17.1822        -17.1822         23.6283         23.6283
             572         116.064         116.064         3.99580         3.99580         38.6799         38.6799
             573         143.700         143.700         31.7039         31.7039         60.5392         60.5392
             574         196.618         196.618         34.5060         34.5060         65.1466         65.1466
             575         247.812         247.812         29.7885         29.7885         56.2369         56.2369
             576         285.667         285.667         22.7912         22.7912         32.9270         32.9270
             577         113.294         113.294         3.18676         3.18676        -38.2287        -38.2287
             578         134.324         134.324        -17.6726        -17.6726        -24.1647        -24.1647
             579         135.633         135.633        -18.6574        -18.6574        -14.7844        -14.7844
             580         131.384         131.384        -14.1997        -14.1997        -8.73304        -8.73304
             581         126.825         126.825        -9.50118        -9.50118        -5.02187        -5.02187
             582         130.775         130.775         19.3772         19.3772    -394.523E-03    -394.523E-03
             583         141.880         141.880         28.8303         28.8303    -422.660E-03    -422.660E-03
             584         162.878         162.878         37.6028         37.6028    -307.565E-03    -307.565E-03
             585         200.489         200.489         40.3507         40.3507     70.9251E-03     70.9251E-03
             586         262.346         262.346         29.3933         29.3933     861.505E-03     861.505E-03
             587         291.202         291.202         21.5793         21.5793        -28.2400        -28.2400
             588         263.430         263.430         27.3098         27.3098        -50.5608        -50.5608
             589         223.586         223.586         33.0447         33.0447        -63.2108        -63.2108
             590         178.677         178.677         35.0381         35.0381        -65.5206        -65.5206
             591         135.077         135.077         31.0683         31.0683        -59.1928        -59.1928
             592         143.453         143.453         31.6416         31.6416         60.4223         60.4223
             593         196.309         196.309         34.4430         34.4430         65.0207         65.0207
             594         247.453         247.453         29.7180         29.7180         56.1385         56.1385
             595         285.302         285.302         22.7902         22.7902         32.8442         32.8442
             596         81.9423         81.9423         2.88595         2.88595    -525.819E-03    -525.819E-03
             597         62.3316         62.3316         1.88586         1.88586    -725.857E-03    -725.857E-03
             598         38.7780         38.7780        -4.46132        -4.46132    -827.284E-03    -827.284E-03
             599         16.0095         16.0095        -22.2843        -22.2843    -719.008E-03    -719.008E-03
             600         1.85679         1.85679        -59.3630        -59.3630    -257.025E-03    -257.025E-03
             601    -513.862E-03    -513.862E-03        -78.1474        -78.1474        -1.97708        -1.97708
             602         4.61228         4.61228        -60.9995        -60.9995    -346.216E-03    -346.216E-03
             603         15.6763         15.6763        -37.5986        -37.5986         6.75039         6.75039
             604         34.8074         34.8074        -13.3066        -13.3066         18.7257         18.7257
             605         63.0146         63.0146         7.39594         7.39594         33.1051         33.1051
             606         57.4797         57.4797         3.36279         3.36279        -30.2331        -30.2331
             607         26.6075         26.6075        -22.7738        -22.7738        -13.7564        -13.7564
             608         8.53601         8.53601        -51.4772        -51.4772        -2.17789        -2.17789
             609     251.856E-03     251.856E-03        -74.2646        -74.2646         1.77406         1.77406
             610         121.745         121.745        -4.06653        -4.06653        -1.45885        -1.45885
             611         120.664         120.664        -3.66303        -3.66303        -1.97800        -1.97800
             612         119.707         119.707        -3.12899        -3.12899        -2.26054        -2.26054
             613         118.915         118.915        -2.56215        -2.56215        -2.35926        -2.35926
             614         118.289         118.289        -2.02383        -2.02383        -2.33593        -2.33593
             615         117.812         117.812        -1.54253        -1.54253        -2.23971        -2.23971
             616         117.460         117.460        -1.12769        -1.12769        -2.10607        -2.10607
             617         117.207         117.207    -778.065E-03    -778.065E-03        -1.95738        -1.95738
             618         117.031         117.031    -488.311E-03    -488.311E-03        -1.80704        -1.80704
             619         116.915         116.915    -251.356E-03    -251.356E-03        -1.66236        -1.66236
             620         116.843         116.843    -60.1191E-03    -60.1191E-03        -1.52692        -1.52692
             621         116.804         116.804     92.0752E-03     92.0752E-03        -1.40202        -1.40202
             622         116.790         116.790     211.165E-03     211.165E-03        -1.28768        -1.28768
             623         116.793         116.793     302.387E-03     302.387E-03        -1.18328        -1.18328
             624         116.809         116.809     370.272E-03     370.272E-03        -1.08790        -1.08790
             625         116.834         116.834     418.741E-03     418.741E-03        -1.00056        -1.00056
             626         116.864         116.864     451.164E-03     451.164E-03    -920.304E-03    -920.304E-03
             627         116.898         116.898     470.433E-03     470.433E-03    -846.297E-03    -846.297E-03
             628         116.933         116.933     479.027E-03     479.027E-03    -777.812E-03    -777.812E-03
             629         116.969         116.969     479.060E-03     479.060E-03    -714.244E-03    -714.244E-03
             630         117.004         117.004     472.333E-03     472.333E-03    -655.096E-03    -655.096E-03
             631         117.039         117.039     460.373E-03     460.373E-03    -599.962E-03    -599.962E-03
             632         117.071         117.071     444.471E-03     444.471E-03    -548.510E-03    -548.510E-03
             633         117.102         117.102     425.710E-03     425.710E-03    -500.466E-03    -500.466E-03
             634         117.130         117.130     404.999E-03     404.999E-03    -455.599E-03    -455.599E-03
             635         117.156         117.156     383.092E-03     383.092E-03    -413.709E-03    -413.709E-03
             636         117.180         117.180     360.612E-03     360.612E-03    -374.618E-03    -374.618E-03
             637         117.202         117.202     338.072E-03     338.072E-03    -338.160E-03    -338.160E-03
             638         117.222         117.222     315.890E-03     315.890E-03    -304.178E-03    -304.178E-03
             639         117.240         117.240     294.401E-03     294.401E-03    -272.519E-03    -272.519E-03
             640         117.256         117.256     273.876E-03     273.876E-03    -243.030E-03    -243.030E-03
             641         117.270         117.270     254.528E-03     254.528E-03    -215.557E-03    -215.557E-03
             642         117.283         117.283     236.526E-03     236.526E-03    -189.944E-03    -189.944E-03
             643         117.293         117.293     219.997E-03     219.997E-03    -166.033E-03    -166.033E-03
             644         117.303         117.303     205.042E-03     205.042E-03    -143.663E-03    -143.663E-03
             645         117.311         117.311     191.732E-03     191.732E-03    -122.669E-03    -122.669E-03
             646         117.318         117.318     180.124E-03     180.124E-03    -102.884E-03    -102.884E-03
             647         117.323         117.323     170.254E-03     170.254E-03    -84.1390E-03    -84.1390E-03
             648         117.328         117.328     162.152E-03     162.152E-03    -66.2642E-03    -66.2642E-03
             649         117.331         117.331     155.835E-03     155.835E-03    -49.0868E-03    -49.0868E-03
             650         117.334         117.334     151.316E-03     151.316E-03    -32.4342E-03    -32.4342E-03
             651         117.335         117.335     148.599E-03     148.599E-03    -16.1759E-03    -16.1759E-03
             652         121.829         121.829        -3.40452        -3.40452    -466.097E-03    -466.097E-03
             653         120.990         120.990        -3.22639        -3.22639        -1.04866        -1.04866
             654         120.200         120.200        -2.88747        -2.88747        -1.44396        -1.44396
             655         119.497         119.497        -2.46731        -2.46731        -1.68121        -1.68121
             656         118.903         118.903        -2.02785        -2.02785        -1.79492        -1.79492
             657         118.419         118.419        -1.60742        -1.60742        -1.82170        -1.82170
             658         118.037         118.037        -1.22619        -1.22619        -1.79135        -1.79135
             659         117.743         117.743    -892.510E-03    -892.510E-03        -1.72647        -1.72647
             660         117.522         117.522    -607.622E-03    -607.622E-03        -1.64242        -1.64242
             661         117.360         117.360    -369.176E-03    -369.176E-03        -1.54935        -1.54935
             662         117.245         117.245    -172.994E-03    -172.994E-03        -1.45351        -1.45351
             663         117.167         117.167    -14.2919E-03    -14.2919E-03        -1.35863        -1.35863
             664         117.116         117.116     111.810E-03     111.810E-03        -1.26675        -1.26675
             665         117.087         117.087     209.926E-03     209.926E-03        -1.17888        -1.17888
             666         117.073         117.073     284.303E-03     284.303E-03        -1.09541        -1.09541
             667         117.072         117.072     338.738E-03     338.738E-03        -1.01640        -1.01640
             668         117.078         117.078     376.591E-03     376.591E-03    -941.730E-03    -941.730E-03
             669         117.091         117.091     400.793E-03     400.793E-03    -871.211E-03    -871.211E-03
             670         117.107         117.107     413.883E-03     413.883E-03    -804.630E-03    -804.630E-03
             671         117.125         117.125     418.044E-03     418.044E-03    -741.782E-03    -741.782E-03
             672         117.145         117.145     415.136E-03     415.136E-03    -682.487E-03    -682.487E-03
             673         117.165         117.165     406.740E-03     406.740E-03    -626.584E-03    -626.584E-03
             674         117.184         117.184     394.187E-03     394.187E-03    -573.932E-03    -573.932E-03
             675         117.203         117.203     378.591E-03     378.591E-03    -524.405E-03    -524.405E-03
             676         117.221         117.221     360.881E-03     360.881E-03    -477.883E-03    -477.883E-03
             677         117.237         117.237     341.825E-03     341.825E-03    -434.252E-03    -434.252E-03
             678         117.252         117.252     322.053E-03     322.053E-03    -393.396E-03    -393.396E-03
             679         117.266         117.266     302.081E-03     302.081E-03    -355.194E-03    -355.194E-03
             680         117.279         117.279     282.325E-03     282.325E-03    -319.522E-03    -319.522E-03
             681         117.290         117.290     263.119E-03     263.119E-03    -286.248E-03    -286.248E-03
             682         117.300         117.300     244.730E-03     244.730E-03    -255.231E-03    -255.231E-03
             683         117.309         117.309     227.365E-03     227.365E-03    -226.325E-03    -226.325E-03
             684         117.317         117.317     211.189E-03     211.189E-03    -199.375E-03    -199.375E-03
             685         117.323         117.323     196.325E-03     196.325E-03    -174.222E-03    -174.222E-03
             686         117.329         117.329     182.869E-03     182.869E-03    -150.698E-03    -150.698E-03
             687         117.334         117.334     170.890E-03     170.890E-03    -128.633E-03    -128.633E-03
             688         117.338         117.338     160.440E-03     160.440E-03    -107.852E-03    -107.852E-03
             689         117.342         117.342     151.555E-03     151.555E-03    -88.1775E-03    -88.1775E-03
             690         117.344         117.344     144.260E-03     144.260E-03    -69.4275E-03    -69.4275E-03
             691         117.347         117.347     138.572E-03     138.572E-03    -51.4196E-03    -51.4196E-03
             692         117.348         117.348     134.504E-03     134.504E-03    -33.9699E-03    -33.9699E-03
             693         117.349         117.349     132.057E-03     132.057E-03    -16.9408E-03    -16.9408E-03
             694         121.657         121.657        -2.73960        -2.73960     256.753E-03     256.753E-03
             695         121.046         121.046        -2.73189        -2.73189    -321.903E-03    -321.903E-03
             696         120.425         120.425        -2.54613        -2.54613    -762.438E-03    -762.438E-03
             697         119.841         119.841        -2.25705        -2.25705        -1.07656        -1.07656
             698         119.316         119.316        -1.91852        -1.91852        -1.28216        -1.28216
             699         118.865         118.865        -1.57054        -1.57054        -1.40122        -1.40122
             700         118.490         118.490        -1.23827        -1.23827        -1.45592        -1.45592
             701         118.186         118.186    -935.887E-03    -935.887E-03        -1.46487        -1.46487
             702         117.945         117.945    -669.911E-03    -669.911E-03        -1.44274        -1.44274
             703         117.758         117.758    -441.970E-03    -441.970E-03        -1.40022        -1.40022
             704         117.614         117.614    -250.857E-03    -250.857E-03        -1.34489        -1.34489
             705         117.507         117.507    -93.7724E-03    -93.7724E-03        -1.28194        -1.28194
             706         117.429         117.429     32.7983E-03     32.7983E-03        -1.21487        -1.21487
             707         117.373         117.373     132.623E-03     132.623E-03        -1.14600        -1.14600
             708         117.335         117.335     209.397E-03     209.397E-03        -1.07686        -1.07686
             709         117.310         117.310     266.603E-03     266.603E-03        -1.00846        -1.00846
             710         117.295         117.295     307.406E-03     307.406E-03    -941.464E-03    -941.464E-03
             711         117.288         117.288     334.639E-03     334.639E-03    -876.334E-03    -876.334E-03
             712         117.285         117.285     350.781E-03     350.781E-03    -813.376E-03    -813.376E-03
             713         117.287         117.287     357.988E-03     357.988E-03    -752.808E-03    -752.808E-03
             714         117.291         117.291     358.105E-03     358.105E-03    -694.782E-03    -694.782E-03
             715         117.296         117.296     352.702E-03     352.702E-03    -639.403E-03    -639.403E-03
             716         117.302         117.302     343.100E-03     343.100E-03    -586.737E-03    -586.737E-03
             717         117.309         117.309     330.405E-03     330.405E-03    -536.818E-03    -536.818E-03
             718         117.315         117.315     315.535E-03     315.535E-03    -489.652E-03    -489.652E-03
             719         117.321         117.321     299.245E-03     299.245E-03    -445.216E-03    -445.216E-03
             720         117.327         117.327     282.153E-03     282.153E-03    -403.467E-03    -403.467E-03
             721         117.333         117.333     264.761E-03     264.761E-03    -364.335E-03    -364.335E-03
             722         117.338         117.338     247.473E-03     247.473E-03    -327.733E-03    -327.733E-03
             723         117.342         117.342     230.609E-03     230.609E-03    -293.555E-03    -293.555E-03
             724         117.346         117.346     214.426E-03     214.426E-03    -261.677E-03    -261.677E-03
             725         117.349         117.349     199.121E-03     199.121E-03    -231.964E-03    -231.964E-03
             726         117.352         117.352     184.848E-03     184.848E-03    -204.265E-03    -204.265E-03
             727         117.354         117.354     171.726E-03     171.726E-03    -178.422E-03    -178.422E-03
             728         117.356         117.356     159.841E-03     159.841E-03    -154.268E-03    -154.268E-03
             729         117.358         117.358     149.258E-03     149.258E-03    -131.627E-03    -131.627E-03
             730         117.359         117.359     140.025E-03     140.025E-03    -110.321E-03    -110.321E-03
             731         117.360         117.360     132.175E-03     132.175E-03    -90.1650E-03    -90.1650E-03
             732         117.361         117.361     125.729E-03     125.729E-03    -70.9715E-03    -70.9715E-03
             733         117.361         117.361     120.704E-03     120.704E-03    -52.5504E-03    -52.5504E-03
             734         117.362         117.362     117.110E-03     117.110E-03    -34.7106E-03    -34.7106E-03
             735         117.362         117.362     114.948E-03     114.948E-03    -17.3103E-03    -17.3103E-03
             736         121.345         121.345        -2.13414        -2.13414     743.139E-03     743.139E-03
             737         120.930         120.930        -2.23421        -2.23421     217.534E-03     217.534E-03
             738         120.470         120.470        -2.16281        -2.16281    -222.888E-03    -222.888E-03
             739         120.008         120.008        -1.97920        -1.97920    -569.880E-03    -569.880E-03
             740         119.571         119.571        -1.73167        -1.73167    -828.809E-03    -828.809E-03
             741         119.177         119.177        -1.45626        -1.45626        -1.01065        -1.01065
             742         118.833         118.833        -1.17915        -1.17915        -1.12904        -1.12904
             743         118.542         118.542    -917.056E-03    -917.056E-03        -1.19767        -1.19767
             744         118.301         118.301    -679.655E-03    -679.655E-03        -1.22848        -1.22848
             745         118.105         118.105    -471.505E-03    -471.505E-03        -1.23130        -1.23130
             746         117.948         117.948    -293.765E-03    -293.765E-03        -1.21375        -1.21375
             747         117.823         117.823    -145.480E-03    -145.480E-03        -1.18166        -1.18166
             748         117.725         117.725    -24.4572E-03    -24.4572E-03        -1.13935        -1.13935
             749         117.649         117.649     72.1092E-03     72.1092E-03        -1.09005        -1.09005
             750         117.591         117.591     147.261E-03     147.261E-03        -1.03616        -1.03616
             751         117.546         117.546     204.013E-03     204.013E-03    -979.483E-03    -979.483E-03
             752         117.512         117.512     245.221E-03     245.221E-03    -921.371E-03    -921.371E-03
             753         117.486         117.486     273.489E-03     273.489E-03    -862.861E-03    -862.861E-03
             754         117.466         117.466     291.144E-03     291.144E-03    -804.752E-03    -804.752E-03
             755         117.451         117.451     300.223E-03     300.223E-03    -747.661E-03    -747.661E-03
             756         117.439         117.439     302.481E-03     302.481E-03    -692.062E-03    -692.062E-03
             757         117.430         117.430     299.418E-03     299.418E-03    -638.319E-03    -638.319E-03
             758         117.422         117.422     292.297E-03     292.297E-03    -586.704E-03    -586.704E-03
             759         117.416         117.416     282.172E-03     282.172E-03    -537.411E-03    -537.411E-03
             760         117.411         117.411     269.917E-03     269.917E-03    -490.568E-03    -490.568E-03
             761         117.407         117.407     256.251E-03     256.251E-03    -446.248E-03    -446.248E-03
             762         117.403         117.403     241.756E-03     241.756E-03    -404.479E-03    -404.479E-03
             763         117.400         117.400     226.906E-03     226.906E-03    -365.243E-03    -365.243E-03
             764         117.397         117.397     212.077E-03     212.077E-03    -328.492E-03    -328.492E-03
             765         117.394         117.394     197.571E-03     197.571E-03    -294.146E-03    -294.146E-03
             766         117.391         117.391     183.622E-03     183.622E-03    -262.102E-03    -262.102E-03
             767         117.389         117.389     170.414E-03     170.414E-03    -232.235E-03    -232.235E-03
             768         117.386         117.386     158.088E-03     158.088E-03    -204.403E-03    -204.403E-03
             769         117.384         117.384     146.748E-03     146.748E-03    -178.452E-03    -178.452E-03
             770         117.382         117.382     136.476E-03     136.476E-03    -154.215E-03    -154.215E-03
             771         117.380         117.380     127.329E-03     127.329E-03    -131.518E-03    -131.518E-03
             772         117.379         117.379     119.348E-03     119.348E-03    -110.180E-03    -110.180E-03
             773         117.377         117.377     112.563E-03     112.563E-03    -90.0127E-03    -90.0127E-03
             774         117.376         117.376     106.993E-03     106.993E-03    -70.8268E-03    -70.8268E-03
             775         117.375         117.375     102.650E-03     102.650E-03    -52.4284E-03    -52.4284E-03
             776         117.375         117.375     99.5443E-03     99.5443E-03    -34.6228E-03    -34.6228E-03
             777         117.374         117.374     97.6763E-03     97.6763E-03    -17.2670E-03    -17.2670E-03
             778         120.980         120.980        -1.61912        -1.61912         1.04430         1.04430
             779         120.720         120.720        -1.77175        -1.77175     591.810E-03     591.810E-03
             780         120.400         120.400        -1.77483        -1.77483     181.768E-03     181.768E-03
             781         120.055         120.055        -1.67080        -1.67080    -167.585E-03    -167.585E-03
             782         119.710         119.710        -1.49820        -1.49820    -450.450E-03    -450.450E-03
             783         119.384         119.384        -1.28880        -1.28880    -669.382E-03    -669.382E-03
             784         119.087         119.087        -1.06645        -1.06645    -830.938E-03    -830.938E-03
             785         118.825         118.825    -848.201E-03    -848.201E-03    -943.582E-03    -943.582E-03
             786         118.599         118.599    -644.920E-03    -644.920E-03        -1.01603        -1.01603
             787         118.407         118.407    -462.827E-03    -462.827E-03        -1.05627        -1.05627
             788         118.246         118.246    -304.687E-03    -304.687E-03        -1.07120        -1.07120
             789         118.113         118.113    -170.941E-03    -170.941E-03        -1.06653        -1.06653
             790         118.003         118.003    -60.5394E-03    -60.5394E-03        -1.04692        -1.04692
             791         117.912         117.912     28.4388E-03     28.4388E-03        -1.01609        -1.01609
             792         117.838         117.838     98.3460E-03     98.3460E-03    -977.039E-03    -977.039E-03
             793         117.776         117.776     151.682E-03     151.682E-03    -932.135E-03    -932.135E-03
             794         117.725         117.725     190.902E-03     190.902E-03    -883.281E-03    -883.281E-03
             795         117.682         117.682     218.307E-03     218.307E-03    -831.993E-03    -831.993E-03
             796         117.645         117.645     235.983E-03     235.983E-03    -779.484E-03    -779.484E-03
             797         117.614         117.614     245.778E-03     245.778E-03    -726.718E-03    -726.718E-03
             798         117.587         117.587     249.296E-03     249.296E-03    -674.456E-03    -674.456E-03
             799         117.564         117.564     247.908E-03     247.908E-03    -623.292E-03    -623.292E-03
             800         117.543         117.543     242.772E-03     242.772E-03    -573.681E-03    -573.681E-03
             801         117.525         117.525     234.856E-03     234.856E-03    -525.961E-03    -525.961E-03
             802         117.508         117.508     224.959E-03     224.959E-03    -480.373E-03    -480.373E-03
             803         117.493         117.493     213.734E-03     213.734E-03    -437.076E-03    -437.076E-03
             804         117.479         117.479     201.714E-03     201.714E-03    -396.161E-03    -396.161E-03
             805         117.467         117.467     189.325E-03     189.325E-03    -357.660E-03    -357.660E-03
             806         117.455         117.455     176.907E-03     176.907E-03    -321.560E-03    -321.560E-03
             807         117.445         117.445     164.731E-03     164.731E-03    -287.806E-03    -287.806E-03
             808         117.436         117.436     153.005E-03     153.005E-03    -256.314E-03    -256.314E-03
             809         117.427         117.427     141.891E-03     141.891E-03    -226.972E-03    -226.972E-03
             810         117.419         117.419     131.515E-03     131.515E-03    -199.647E-03    -199.647E-03
             811         117.413         117.413     121.967E-03     121.967E-03    -174.190E-03    -174.190E-03
             812         117.407         117.407     113.318E-03     113.318E-03    -150.440E-03    -150.440E-03
             813         117.401         117.401     105.616E-03     105.616E-03    -128.223E-03    -128.223E-03
             814         117.397         117.397     98.8974E-03     98.8974E-03    -107.361E-03    -107.361E-03
             815         117.393         117.393     93.1861E-03     93.1861E-03    -87.6680E-03    -87.6680E-03
             816         117.390         117.390     88.4983E-03     88.4983E-03    -68.9534E-03    -68.9534E-03
             817         117.387         117.387     84.8444E-03     84.8444E-03    -51.0248E-03    -51.0248E-03
             818         117.386         117.386     82.2309E-03     82.2309E-03    -33.6877E-03    -33.6877E-03
             819         117.385         117.385     80.6597E-03     80.6597E-03    -16.8015E-03    -16.8015E-03
             820         120.612         120.612        -1.19801        -1.19801         1.20766         1.20766
             821         120.470         120.470        -1.36366        -1.36366     830.636E-03     830.636E-03
             822         120.267         120.267        -1.40732        -1.40732     465.038E-03     465.038E-03
             823         120.028         120.028        -1.35750        -1.35750     133.560E-03     133.560E-03
             824         119.772         119.772        -1.24303        -1.24303    -151.995E-03    -151.995E-03
             825         119.518         119.518        -1.08947        -1.08947    -387.452E-03    -387.452E-03
             826         119.275         119.275    -917.573E-03    -917.573E-03    -573.922E-03    -573.922E-03
             827         119.051         119.051    -742.739E-03    -742.739E-03    -715.391E-03    -715.391E-03
             828         118.850         118.850    -575.716E-03    -575.716E-03    -817.330E-03    -817.330E-03
             829         118.672         118.672    -423.169E-03    -423.169E-03    -885.650E-03    -885.650E-03
             830         118.516         118.516    -288.689E-03    -288.689E-03    -926.048E-03    -926.048E-03
             831         118.381         118.381    -173.588E-03    -173.588E-03    -943.725E-03    -943.725E-03
             832         118.265         118.265    -77.6518E-03    -77.6518E-03    -943.228E-03    -943.228E-03
             833         118.164         118.164     305.995E-06     305.995E-06    -928.464E-03    -928.464E-03
             834         118.076         118.076     62.0159E-03     62.0159E-03    -902.720E-03    -902.720E-03
             835         118.000         118.000     109.455E-03     109.455E-03    -868.747E-03    -868.747E-03
             836         117.933         117.933     144.650E-03     144.650E-03    -828.821E-03    -828.821E-03
             837         117.875         117.875     169.546E-03     169.546E-03    -784.811E-03    -784.811E-03
             838         117.823         117.823     185.934E-03     185.934E-03    -738.245E-03    -738.245E-03
             839         117.776         117.776     195.416E-03     195.416E-03    -690.354E-03    -690.354E-03
             840         117.734         117.734     199.393E-03     199.393E-03    -642.126E-03    -642.126E-03
             841         117.696         117.696     199.064E-03     199.064E-03    -594.337E-03    -594.337E-03
             842         117.662         117.662     195.444E-03     195.444E-03    -547.589E-03    -547.589E-03
             843         117.631         117.631     189.380E-03     189.380E-03    -502.336E-03    -502.336E-03
             844         117.602         117.602     181.570E-03     181.570E-03    -458.907E-03    -458.907E-03
             845         117.576         117.576     172.586E-03     172.586E-03    -417.531E-03    -417.531E-03
             846         117.553         117.553     162.887E-03     162.887E-03    -378.350E-03    -378.350E-03
             847         117.531         117.531     152.844E-03     152.844E-03    -341.436E-03    -341.436E-03
             848         117.511         117.511     142.751E-03     142.751E-03    -306.803E-03    -306.803E-03
             849         117.494         117.494     132.836E-03     132.836E-03    -274.421E-03    -274.421E-03
             850         117.478         117.478     123.280E-03     123.280E-03    -244.220E-03    -244.220E-03
             851         117.463         117.463     114.219E-03     114.219E-03    -216.100E-03    -216.100E-03
             852         117.450         117.450     105.757E-03     105.757E-03    -189.938E-03    -189.938E-03
             853         117.439         117.439     97.9725E-03     97.9725E-03    -165.593E-03    -165.593E-03
             854         117.429         117.429     90.9214E-03     90.9214E-03    -142.910E-03    -142.910E-03
             855         117.420         117.420     84.6445E-03     84.6445E-03    -121.721E-03    -121.721E-03
             856         117.412         117.412     79.1705E-03     79.1705E-03    -101.852E-03    -101.852E-03
             857         117.406         117.406     74.5184E-03     74.5184E-03    -83.1223E-03    -83.1223E-03
             858         117.401         117.401     70.7010E-03     70.7010E-03    -65.3468E-03    -65.3468E-03
             859         117.397         117.397     67.7262E-03     67.7262E-03    -48.3373E-03    -48.3373E-03
             860         117.394         117.394     65.5986E-03     65.5986E-03    -31.9045E-03    -31.9045E-03
             861         117.393         117.393     64.3201E-03     64.3201E-03    -15.9137E-03    -15.9137E-03
             862         120.264         120.264    -861.807E-03    -861.807E-03         1.26832         1.26832
             863         120.216         120.216        -1.01481        -1.01481     960.179E-03     960.179E-03
             864         120.111         120.111        -1.07388        -1.07388     643.428E-03     643.428E-03
             865         119.964         119.964        -1.05703        -1.05703     340.991E-03     340.991E-03
             866         119.792         119.792    -984.655E-03    -984.655E-03     67.7337E-03     67.7337E-03
             867         119.608         119.608    -876.212E-03    -876.212E-03    -168.353E-03    -168.353E-03
             868         119.421         119.421    -748.299E-03    -748.299E-03    -364.268E-03    -364.268E-03
             869         119.240         119.240    -614.014E-03    -614.014E-03    -520.593E-03    -520.593E-03
             870         119.069         119.069    -482.802E-03    -482.802E-03    -640.045E-03    -640.045E-03
             871         118.910         118.910    -360.976E-03    -360.976E-03    -726.551E-03    -726.551E-03
             872         118.765         118.765    -252.204E-03    -252.204E-03    -784.525E-03    -784.525E-03
             873         118.633         118.633    -158.192E-03    -158.192E-03    -818.410E-03    -818.410E-03
             874         118.513         118.513    -79.2190E-03    -79.2190E-03    -832.411E-03    -832.411E-03
             875         118.405         118.405    -14.6379E-03    -14.6379E-03    -830.342E-03    -830.342E-03
             876         118.307         118.307     36.7640E-03     36.7640E-03    -815.573E-03    -815.573E-03
             877         118.218         118.218     76.4862E-03     76.4862E-03    -791.020E-03    -791.020E-03
             878         118.137         118.137     106.126E-03     106.126E-03    -759.164E-03    -759.164E-03
             879         118.063         118.063     127.253E-03     127.253E-03    -722.083E-03    -722.083E-03
             880         117.996         117.996     141.332E-03     141.332E-03    -681.500E-03    -681.500E-03
             881         117.934         117.934     149.684E-03     149.684E-03    -638.821E-03    -638.821E-03
             882         117.877         117.877     153.470E-03     153.470E-03    -595.177E-03    -595.177E-03
             883         117.825         117.825     153.685E-03     153.685E-03    -551.467E-03    -551.467E-03
             884         117.777         117.777     151.173E-03     151.173E-03    -508.386E-03    -508.386E-03
             885         117.733         117.733     146.638E-03     146.638E-03    -466.466E-03    -466.466E-03
             886         117.693         117.693     140.656E-03     140.656E-03    -426.093E-03    -426.093E-03
             887         117.656         117.656     133.701E-03     133.701E-03    -387.542E-03    -387.542E-03
             888         117.622         117.622     126.151E-03     126.151E-03    -350.987E-03    -350.987E-03
             889         117.592         117.592     118.309E-03     118.309E-03    -316.528E-03    -316.528E-03
             890         117.564         117.564     110.414E-03     110.414E-03    -284.200E-03    -284.200E-03
             891         117.539         117.539     102.654E-03     102.654E-03    -253.985E-03    -253.985E-03
             892         117.516         117.516     95.1718E-03     95.1718E-03    -225.828E-03    -225.828E-03
             893         117.495         117.495     88.0781E-03     88.0781E-03    -199.641E-03    -199.641E-03
             894         117.477         117.477     81.4554E-03     81.4554E-03    -175.309E-03    -175.309E-03
             895         117.461         117.461     75.3649E-03     75.3649E-03    -152.701E-03    -152.701E-03
             896         117.447         117.447     69.8509E-03     69.8509E-03    -131.669E-03    -131.669E-03
             897         117.435         117.435     64.9447E-03     64.9447E-03    -112.055E-03    -112.055E-03
             898         117.425         117.425     60.6680E-03     60.6680E-03    -93.6947E-03    -93.6947E-03
             899         117.416         117.416     57.0349E-03     57.0349E-03    -76.4150E-03    -76.4150E-03
             900         117.409         117.409     54.0547E-03     54.0547E-03    -60.0406E-03    -60.0406E-03
             901         117.404         117.404     51.7328E-03     51.7328E-03    -44.3928E-03    -44.3928E-03
             902         117.400         117.400     50.0725E-03     50.0725E-03    -29.2915E-03    -29.2915E-03
             903         117.398         117.398     49.0752E-03     49.0752E-03    -14.6130E-03    -14.6130E-03
             904         119.950         119.950    -596.883E-03    -596.883E-03         1.24827         1.24827
             905         119.980         119.980    -722.885E-03    -722.885E-03     999.591E-03     999.591E-03
             906         119.958         119.958    -780.466E-03    -780.466E-03     730.941E-03     730.941E-03
             907         119.894         119.894    -780.600E-03    -780.600E-03     463.527E-03     463.527E-03
             908         119.799         119.799    -736.967E-03    -736.967E-03     212.724E-03     212.724E-03
             909         119.681         119.681    -663.483E-03    -663.483E-03    -11.4990E-03    -11.4990E-03
             910         119.550         119.550    -572.629E-03    -572.629E-03    -203.820E-03    -203.820E-03
             911         119.412         119.412    -474.576E-03    -474.576E-03    -362.397E-03    -362.397E-03
             912         119.273         119.273    -377.009E-03    -377.009E-03    -487.930E-03    -487.930E-03
             913         119.135         119.135    -285.201E-03    -285.201E-03    -582.718E-03    -582.718E-03
             914         119.002         119.002    -202.427E-03    -202.427E-03    -649.999E-03    -649.999E-03
             915         118.874         118.874    -130.347E-03    -130.347E-03    -693.428E-03    -693.428E-03
             916         118.753         118.753    -69.4574E-03    -69.4574E-03    -716.720E-03    -716.720E-03
             917         118.639         118.639    -19.4467E-03    -19.4467E-03    -723.431E-03    -723.431E-03
             918         118.531         118.531     20.4956E-03     20.4956E-03    -716.817E-03    -716.817E-03
             919         118.429         118.429     51.4550E-03     51.4550E-03    -699.778E-03    -699.778E-03
             920         118.335         118.335     74.6266E-03     74.6266E-03    -674.827E-03    -674.827E-03
             921         118.246         118.246     91.2067E-03     91.2067E-03    -644.101E-03    -644.101E-03
             922         118.163         118.163     102.325E-03     102.325E-03    -609.389E-03    -609.389E-03
             923         118.086         118.086     109.004E-03     109.004E-03    -572.158E-03    -572.158E-03
             924         118.014         118.014     112.147E-03     112.147E-03    -533.595E-03    -533.595E-03
             925         117.948         117.948     112.530E-03     112.530E-03    -494.642E-03    -494.642E-03
             926         117.887         117.887     110.807E-03     110.807E-03    -456.033E-03    -456.033E-03
             927         117.830         117.830     107.525E-03     107.525E-03    -418.325E-03    -418.325E-03
             928         117.778         117.778     103.133E-03     103.133E-03    -381.928E-03    -381.928E-03
             929         117.730         117.730     97.9937E-03     97.9937E-03    -347.130E-03    -347.130E-03
             930         117.687         117.687     92.3994E-03     92.3994E-03    -314.122E-03    -314.122E-03
             931         117.647         117.647     86.5818E-03     86.5818E-03    -283.011E-03    -283.011E-03
             932         117.611         117.611     80.7233E-03     80.7233E-03    -253.842E-03    -253.842E-03
             933         117.578         117.578     74.9653E-03     74.9653E-03    -226.608E-03    -226.608E-03
             934         117.549         117.549     69.4163E-03     69.4163E-03    -201.262E-03    -201.262E-03
             935         117.523         117.523     64.1585E-03     64.1585E-03    -177.724E-03    -177.724E-03
             936         117.500         117.500     59.2533E-03     59.2533E-03    -155.891E-03    -155.891E-03
             937         117.479         117.479     54.7456E-03     54.7456E-03    -135.642E-03    -135.642E-03
             938         117.461         117.461     50.6674E-03     50.6674E-03    -116.841E-03    -116.841E-03
             939         117.446         117.446     47.0413E-03     47.0413E-03    -99.3428E-03    -99.3428E-03
             940         117.433         117.433     43.8825E-03     43.8825E-03    -82.9941E-03    -82.9941E-03
             941         117.422         117.422     41.2005E-03     41.2005E-03    -67.6371E-03    -67.6371E-03
             942         117.413         117.413     39.0013E-03     39.0013E-03    -53.1099E-03    -53.1099E-03
             943         117.407         117.407     37.2884E-03     37.2884E-03    -39.2486E-03    -39.2486E-03
             944         117.402         117.402     36.0635E-03     36.0635E-03    -25.8881E-03    -25.8881E-03
             945         117.399         117.399     35.3282E-03     35.3282E-03    -12.9191E-03    -12.9191E-03
             946         119.675         119.675    -390.141E-03    -390.141E-03         1.15778         1.15778
             947         119.776         119.776    -482.889E-03    -482.889E-03     959.877E-03     959.877E-03
             948         119.831         119.831    -529.262E-03    -529.262E-03     737.299E-03     737.299E-03
             949         119.844         119.844    -535.591E-03    -535.591E-03     508.537E-03     508.537E-03
             950         119.819         119.819    -510.570E-03    -510.570E-03     288.032E-03     288.032E-03
             951         119.764         119.764    -463.473E-03    -463.473E-03     86.0029E-03     86.0029E-03
             952         119.684         119.684    -402.923E-03    -402.923E-03    -91.1918E-03    -91.1918E-03
             953         119.588         119.588    -336.184E-03    -336.184E-03    -240.472E-03    -240.472E-03
             954         119.478         119.478    -268.847E-03    -268.847E-03    -361.223E-03    -361.223E-03
             955         119.361         119.361    -204.889E-03    -204.889E-03    -454.614E-03    -454.614E-03
             956         119.239         119.239    -146.827E-03    -146.827E-03    -522.936E-03    -522.936E-03
             957         119.115         119.115    -96.0254E-03    -96.0254E-03    -569.113E-03    -569.113E-03
             958         118.991         118.991    -52.9633E-03    -52.9633E-03    -596.322E-03    -596.322E-03
             959         118.869         118.869    -17.5158E-03    -17.5158E-03    -607.727E-03    -607.727E-03
             960         118.751         118.751     10.8370E-03     10.8370E-03    -606.314E-03    -606.314E-03
             961         118.636         118.636     32.8324E-03     32.8324E-03    -594.788E-03    -594.788E-03
             962         118.527         118.527     49.3043E-03     49.3043E-03    -575.527E-03    -575.527E-03
             963         118.422         118.422     61.0979E-03     61.0979E-03    -550.573E-03    -550.573E-03
             964         118.324         118.324     69.0160E-03     69.0160E-03    -521.638E-03    -521.638E-03
             965         118.231         118.231     73.7890E-03     73.7890E-03    -490.135E-03    -490.135E-03
             966         118.144         118.144     76.0605E-03     76.0605E-03    -457.206E-03    -457.206E-03
             967         118.063         118.063     76.3845E-03     76.3845E-03    -423.755E-03    -423.755E-03
             968         117.988         117.988     75.2281E-03     75.2281E-03    -390.487E-03    -390.487E-03
             969         117.919         117.919     72.9793E-03     72.9793E-03    -357.934E-03    -357.934E-03
             970         117.855         117.855     69.9555E-03     69.9555E-03    -326.488E-03    -326.488E-03
             971         117.796         117.796     66.4135E-03     66.4135E-03    -296.422E-03    -296.422E-03
             972         117.743         117.743     62.5584E-03     62.5584E-03    -267.919E-03    -267.919E-03
             973         117.694         117.694     58.5522E-03     58.5522E-03    -241.080E-03    -241.080E-03
             974         117.651         117.651     54.5218E-03     54.5218E-03    -215.951E-03    -215.951E-03
             975         117.611         117.611     50.5648E-03     50.5648E-03    -192.525E-03    -192.525E-03
             976         117.576         117.576     46.7558E-03     46.7558E-03    -170.763E-03    -170.763E-03
             977         117.544         117.544     43.1509E-03     43.1509E-03    -150.593E-03    -150.593E-03
             978         117.516         117.516     39.7914E-03     39.7914E-03    -131.923E-03    -131.923E-03
             979         117.492         117.492     36.7074E-03     36.7074E-03    -114.646E-03    -114.646E-03
             980         117.470         117.470     33.9199E-03     33.9199E-03    -98.6399E-03    -98.6399E-03
             981         117.452         117.452     31.4437E-03     31.4437E-03    -83.7769E-03    -83.7769E-03
             982         117.436         117.436     29.2882E-03     29.2882E-03    -69.9214E-03    -69.9214E-03
             983         117.423         117.423     27.4596E-03     27.4596E-03    -56.9343E-03    -56.9343E-03
             984         117.413         117.413     25.9610E-03     25.9610E-03    -44.6739E-03    -44.6739E-03
             985         117.405         117.405     24.7934E-03     24.7934E-03    -32.9958E-03    -32.9958E-03
             986         117.399         117.399     23.9585E-03     23.9585E-03    -21.7548E-03    -21.7548E-03
             987         117.396         117.396     23.4575E-03     23.4575E-03    -10.8631E-03    -10.8631E-03
             988         119.445         119.445    -231.303E-03    -231.303E-03     997.080E-03     997.080E-03
             989         119.620         119.620    -290.671E-03    -290.671E-03     844.186E-03     844.186E-03
             990         119.751         119.751    -321.802E-03    -321.802E-03     667.117E-03     667.117E-03
             991         119.837         119.837    -328.146E-03    -328.146E-03     481.083E-03     481.083E-03
             992         119.879         119.879    -314.735E-03    -314.735E-03     298.485E-03     298.485E-03
             993         119.881         119.881    -287.150E-03    -287.150E-03     128.585E-03     128.585E-03
             994         119.849         119.849    -250.705E-03    -250.705E-03    -22.4905E-03    -22.4905E-03
             995         119.788         119.788    -209.960E-03    -209.960E-03    -151.351E-03    -151.351E-03
             996         119.703         119.703    -168.501E-03    -168.501E-03    -256.845E-03    -256.845E-03
             997         119.601         119.601    -128.895E-03    -128.895E-03    -339.459E-03    -339.459E-03
             998         119.486         119.486    -92.8131E-03    -92.8131E-03    -400.807E-03    -400.807E-03
             999         119.362         119.362    -61.1688E-03    -61.1688E-03    -443.164E-03    -443.164E-03
            1000         119.232         119.232    -34.3169E-03    -34.3169E-03    -469.131E-03    -469.131E-03
            1001         119.100         119.100    -12.2056E-03    -12.2056E-03    -481.369E-03    -481.369E-03
            1002         118.968         118.968     5.47172E-03     5.47172E-03    -482.429E-03    -482.429E-03
            1003         118.839         118.839     19.1713E-03     19.1713E-03    -474.650E-03    -474.650E-03
            1004         118.712         118.712     29.4142E-03     29.4142E-03    -460.101E-03    -460.101E-03
            1005         118.591         118.591     36.7321E-03     36.7321E-03    -440.563E-03    -440.563E-03
            1006         118.476         118.476     41.6313E-03     41.6313E-03    -417.532E-03    -417.532E-03
            1007         118.366         118.366     44.5721E-03     44.5721E-03    -392.239E-03    -392.239E-03
            1008         118.264         118.264     45.9603E-03     45.9603E-03    -365.678E-03    -365.678E-03
            1009         118.168         118.168     46.1436E-03     46.1436E-03    -338.634E-03    -338.634E-03
            1010         118.079         118.079     45.4152E-03     45.4152E-03    -311.713E-03    -311.713E-03
            1011         117.997         117.997     44.0171E-03     44.0171E-03    -285.373E-03    -285.373E-03
            1012         117.921         117.921     42.1470E-03     42.1470E-03    -259.946E-03    -259.946E-03
            1013         117.852         117.852     39.9640E-03     39.9640E-03    -235.665E-03    -235.665E-03
            1014         117.790         117.790     37.5946E-03     37.5946E-03    -212.681E-03    -212.681E-03
            1015         117.733         117.733     35.1381E-03     35.1381E-03    -191.078E-03    -191.078E-03
            1016         117.682         117.682     32.6720E-03     32.6720E-03    -170.892E-03    -170.892E-03
            1017         117.636         117.636     30.2553E-03     30.2553E-03    -152.115E-03    -152.115E-03
            1018         117.594         117.594     27.9331E-03     27.9331E-03    -134.711E-03    -134.711E-03
            1019         117.558         117.558     25.7387E-03     25.7387E-03    -118.619E-03    -118.619E-03
            1020         117.526         117.526     23.6967E-03     23.6967E-03    -103.760E-03    -103.760E-03
            1021         117.497         117.497     21.8245E-03     21.8245E-03    -90.0451E-03    -90.0451E-03
            1022         117.473         117.473     20.1343E-03     20.1343E-03    -77.3719E-03    -77.3719E-03
            1023         117.452         117.452     18.6343E-03     18.6343E-03    -65.6337E-03    -65.6337E-03
            1024         117.434         117.434     17.3299E-03     17.3299E-03    -54.7187E-03    -54.7187E-03
            1025         117.419         117.419     16.2242E-03     16.2242E-03    -44.5122E-03    -44.5122E-03
            1026         117.408         117.408     15.3193E-03     15.3193E-03    -34.8978E-03    -34.8978E-03
            1027         117.398         117.398     14.6144E-03     14.6144E-03    -25.7594E-03    -25.7594E-03
            1028         117.392         117.392     14.1080E-03     14.1080E-03    -16.9775E-03    -16.9775E-03
            1029         117.388         117.388     13.8041E-03     13.8041E-03    -8.48672E-03    -8.48672E-03
            1030         119.268         119.268    -114.599E-03    -114.599E-03     757.231E-03     757.231E-03
            1031         119.528         119.528    -145.280E-03    -145.280E-03     648.398E-03     648.398E-03
            1032         119.740         119.740    -161.732E-03    -161.732E-03     520.129E-03     520.129E-03
            1033         119.899         119.899    -165.585E-03    -165.585E-03     383.751E-03     383.751E-03
            1034         120.005         120.005    -159.308E-03    -159.308E-03     248.651E-03     248.651E-03
            1035         120.059         120.059    -145.686E-03    -145.686E-03     122.003E-03     122.003E-03
            1036         120.067         120.067    -127.419E-03    -127.419E-03     8.70458E-03     8.70458E-03
            1037         120.034         120.034    -106.855E-03    -106.855E-03    -88.4295E-03    -88.4295E-03
            1038         119.966         119.966    -85.8449E-03    -85.8449E-03    -168.294E-03    -168.294E-03
            1039         119.871         119.871    -65.7337E-03    -65.7337E-03    -231.098E-03    -231.098E-03
            1040         119.755         119.755    -47.3911E-03    -47.3911E-03    -277.946E-03    -277.946E-03
            1041         119.624         119.624    -31.3058E-03    -31.3058E-03    -310.502E-03    -310.502E-03
            1042         119.482         119.482    -17.6640E-03    -17.6640E-03    -330.700E-03    -330.700E-03
            1043         119.335         119.335    -6.44585E-03    -6.44585E-03    -340.548E-03    -340.548E-03
            1044         119.185         119.185     2.50657E-03     2.50657E-03    -341.981E-03    -341.981E-03
            1045         119.037         119.037     9.42748E-03     9.42748E-03    -336.775E-03    -336.775E-03
            1046         118.891         118.891     14.5861E-03     14.5861E-03    -326.503E-03    -326.503E-03
            1047         118.751         118.751     18.2569E-03     18.2569E-03    -312.515E-03    -312.515E-03
            1048         118.616         118.616     20.7005E-03     20.7005E-03    -295.942E-03    -295.942E-03
            1049         118.490         118.490     22.1538E-03     22.1538E-03    -277.710E-03    -277.710E-03
            1050         118.370         118.370     22.8247E-03     22.8247E-03    -258.565E-03    -258.565E-03
            1051         118.259         118.259     22.8912E-03     22.8912E-03    -239.089E-03    -239.089E-03
            1052         118.157         118.157     22.5022E-03     22.5022E-03    -219.731E-03    -219.731E-03
            1053         118.062         118.062     21.7808E-03     21.7808E-03    -200.826E-03    -200.826E-03
            1054         117.975         117.975     20.8268E-03     20.8268E-03    -182.615E-03    -182.615E-03
            1055         117.896         117.896     19.7201E-03     19.7201E-03    -165.264E-03    -165.264E-03
            1056         117.825         117.825     18.5242E-03     18.5242E-03    -148.879E-03    -148.879E-03
            1057         117.760         117.760     17.2885E-03     17.2885E-03    -133.518E-03    -133.518E-03
            1058         117.702         117.702     16.0512E-03     16.0512E-03    -119.199E-03    -119.199E-03
            1059         117.650         117.650     14.8417E-03     14.8417E-03    -105.916E-03    -105.916E-03
            1060         117.604         117.604     13.6817E-03     13.6817E-03    -93.6364E-03    -93.6364E-03
            1061         117.563         117.563     12.5874E-03     12.5874E-03    -82.3134E-03    -82.3134E-03
            1062         117.527         117.527     11.5708E-03     11.5708E-03    -71.8874E-03    -71.8874E-03
            1063         117.496         117.496     10.6399E-03     10.6399E-03    -62.2901E-03    -62.2901E-03
            1064         117.468         117.468     9.80058E-03     9.80058E-03    -53.4469E-03    -53.4469E-03
            1065         117.445         117.445     9.05648E-03     9.05648E-03    -45.2787E-03    -45.2787E-03
            1066         117.426         117.426     8.41006E-03     8.41006E-03    -37.7039E-03    -37.7039E-03
            1067         117.409         117.409     7.86257E-03     7.86257E-03    -30.6390E-03    -30.6390E-03
            1068         117.396         117.396     7.41488E-03     7.41488E-03    -23.9994E-03    -23.9994E-03
            1069         117.386         117.386     7.06838E-03     7.06838E-03    -17.7006E-03    -17.7006E-03
            1070         117.379         117.379     6.81791E-03     6.81791E-03    -11.6619E-03    -11.6619E-03
            1071         117.375         117.375     6.66212E-03     6.66212E-03    -5.84860E-03    -5.84860E-03
            1072         119.159         119.159    -40.2563E-03    -40.2563E-03     422.623E-03     422.623E-03
            1073         119.523         119.523    -51.2178E-03    -51.2178E-03     363.554E-03     363.554E-03
            1074         119.826         119.826    -57.1339E-03    -57.1339E-03     293.430E-03     293.430E-03
            1075         120.062         120.062    -58.5853E-03    -58.5853E-03     218.588E-03     218.588E-03
            1076         120.228         120.228    -56.4216E-03    -56.4216E-03     144.257E-03     144.257E-03
            1077         120.327         120.327    -51.6238E-03    -51.6238E-03     74.4589E-03     74.4589E-03
            1078         120.364         120.364    -45.1607E-03    -45.1607E-03     11.9610E-03     11.9610E-03
            1079         120.347         120.347    -37.8664E-03    -37.8664E-03    -41.6274E-03    -41.6274E-03
            1080         120.285         120.285    -30.4112E-03    -30.4112E-03    -85.6735E-03    -85.6735E-03
            1081         120.185         120.185    -23.2737E-03    -23.2737E-03    -120.275E-03    -120.275E-03
            1082         120.057         120.057    -16.7701E-03    -16.7701E-03    -146.052E-03    -146.052E-03
            1083         119.908         119.908    -11.0725E-03    -11.0725E-03    -163.929E-03    -163.929E-03
            1084         119.746         119.746    -6.24877E-03    -6.24877E-03    -174.996E-03    -174.996E-03
            1085         119.575         119.575    -2.28970E-03    -2.28970E-03    -180.373E-03    -180.373E-03
            1086         119.402         119.402     862.237E-06     862.237E-06    -181.144E-03    -181.144E-03
            1087         119.229         119.229     3.29187E-03     3.29187E-03    -178.297E-03    -178.297E-03
            1088         119.061         119.061     5.09672E-03     5.09672E-03    -172.706E-03    -172.706E-03
            1089         118.898         118.898     6.37516E-03     6.37516E-03    -165.117E-03    -165.117E-03
            1090         118.744         118.744     7.22099E-03     7.22099E-03    -156.151E-03    -156.151E-03
            1091         118.598         118.598     7.71862E-03     7.71862E-03    -146.316E-03    -146.316E-03
            1092         118.461         118.461     7.94228E-03     7.94228E-03    -136.017E-03    -136.017E-03
            1093         118.335         118.335     7.95499E-03     7.95499E-03    -125.568E-03    -125.568E-03
            1094         118.218         118.218     7.80958E-03     7.80958E-03    -115.210E-03    -115.210E-03
            1095         118.111         118.111     7.54931E-03     7.54931E-03    -105.121E-03    -105.121E-03
            1096         118.014         118.014     7.20926E-03     7.20926E-03    -95.4277E-03    -95.4277E-03
            1097         117.926         117.926     6.81739E-03     6.81739E-03    -86.2154E-03    -86.2154E-03
            1098         117.846         117.846     6.39574E-03     6.39574E-03    -77.5377E-03    -77.5377E-03
            1099         117.775         117.775     5.96149E-03     5.96149E-03    -69.4220E-03    -69.4220E-03
            1100         117.710         117.710     5.52783E-03     5.52783E-03    -61.8763E-03    -61.8763E-03
            1101         117.653         117.653     5.10479E-03     5.10479E-03    -54.8930E-03    -54.8930E-03
            1102         117.603         117.603     4.69982E-03     4.69982E-03    -48.4534E-03    -48.4534E-03
            1103         117.558         117.558     4.31843E-03     4.31843E-03    -42.5301E-03    -42.5301E-03
            1104         117.519         117.519     3.96452E-03     3.96452E-03    -37.0896E-03    -37.0896E-03
            1105         117.485         117.485     3.64091E-03     3.64091E-03    -32.0941E-03    -32.0941E-03
            1106         117.456         117.456     3.34937E-03     3.34937E-03    -27.5024E-03    -27.5024E-03
            1107         117.431         117.431     3.09124E-03     3.09124E-03    -23.2718E-03    -23.2718E-03
            1108         117.410         117.410     2.86701E-03     2.86701E-03    -19.3580E-03    -19.3580E-03
            1109         117.393         117.393     2.67753E-03     2.67753E-03    -15.7159E-03    -15.7159E-03
            1110         117.379         117.379     2.52231E-03     2.52231E-03    -12.3003E-03    -12.3003E-03
            1111         117.369         117.369     2.40323E-03     2.40323E-03    -9.06473E-03    -9.06473E-03
            1112         117.361         117.361     2.32054E-03     2.32054E-03    -5.96581E-03    -5.96581E-03
            1113         117.357         117.357     2.26059E-03     2.26059E-03    -3.01450E-03    -3.01450E-03
            1114         119.646         119.646        -4.91858        -4.91858         4.61541         4.61541
            1115         118.186         118.186        -3.83538        -3.83538         4.50124         4.50124
            1116         117.180         117.180        -2.87922        -2.87922         4.15586         4.15586
            1117         116.525         116.525        -2.09169        -2.09169         3.72250         3.72250
            1118         116.124         116.124        -1.46482        -1.46482         3.28157         3.28157
            1119         115.898         115.898    -971.254E-03    -971.254E-03         2.87157         2.87157
            1120         115.788         115.788    -584.261E-03    -584.261E-03         2.50741         2.50741
            1121         115.756         115.756    -280.794E-03    -280.794E-03         2.19178         2.19178
            1122         115.774         115.774    -43.1098E-03    -43.1098E-03         1.92174         1.92174
            1123         115.825         115.825     142.539E-03     142.539E-03         1.69210         1.69210
            1124         115.896         115.896     286.519E-03     286.519E-03         1.49708         1.49708
            1125         115.978         115.978     396.839E-03     396.839E-03         1.33115         1.33115
            1126         116.067         116.067     479.696E-03     479.696E-03         1.18937         1.18937
            1127         116.158         116.158     540.016E-03     540.016E-03         1.06749         1.06749
            1128         116.249         116.249     581.757E-03     581.757E-03     961.931E-03     961.931E-03
            1129         116.338         116.338     608.174E-03     608.174E-03     869.774E-03     869.774E-03
            1130         116.424         116.424     621.976E-03     621.976E-03     788.624E-03     788.624E-03
            1131         116.506         116.506     625.448E-03     625.448E-03     716.561E-03     716.561E-03
            1132         116.584         116.584     620.536E-03     620.536E-03     652.047E-03     652.047E-03
            1133         116.657         116.657     608.906E-03     608.906E-03     593.865E-03     593.865E-03
            1134         116.725         116.725     591.989E-03     591.989E-03     541.048E-03     541.048E-03
            1135         116.789         116.789     571.015E-03     571.015E-03     492.833E-03     492.833E-03
            1136         116.848         116.848     547.041E-03     547.041E-03     448.619E-03     448.619E-03
            1137         116.902         116.902     520.971E-03     520.971E-03     407.925E-03     407.925E-03
            1138         116.951         116.951     493.578E-03     493.578E-03     370.368E-03     370.368E-03
            1139         116.997         116.997     465.515E-03     465.515E-03     335.632E-03     335.632E-03
            1140         117.038         117.038     437.335E-03     437.335E-03     303.460E-03     303.460E-03
            1141         117.076         117.076     409.500E-03     409.500E-03     273.631E-03     273.631E-03
            1142         117.110         117.110     382.393E-03     382.393E-03     245.952E-03     245.952E-03
            1143         117.140         117.140     356.330E-03     356.330E-03     220.250E-03     220.250E-03
            1144         117.168         117.168     331.569E-03     331.569E-03     196.367E-03     196.367E-03
            1145         117.192         117.192     308.317E-03     308.317E-03     174.153E-03     174.153E-03
            1146         117.213         117.213     286.739E-03     286.739E-03     153.464E-03     153.464E-03
            1147         117.232         117.232     266.966E-03     266.966E-03     134.159E-03     134.159E-03
            1148         117.248         117.248     249.097E-03     249.097E-03     116.100E-03     116.100E-03
            1149         117.263         117.263     233.211E-03     233.211E-03     99.1490E-03     99.1490E-03
            1150         117.274         117.274     219.364E-03     219.364E-03     83.1699E-03     83.1699E-03
            1151         117.284         117.284     207.599E-03     207.599E-03     68.0250E-03     68.0250E-03
            1152         117.292         117.292     197.945E-03     197.945E-03     53.5771E-03     53.5771E-03
            1153         117.298         117.298     190.426E-03     190.426E-03     39.6885E-03     39.6885E-03
            1154         117.303         117.303     185.054E-03     185.054E-03     26.2216E-03     26.2216E-03
            1155         117.305         117.305     181.833E-03     181.833E-03     13.0715E-03     13.0715E-03
            1156         116.754         116.754        -4.51030        -4.51030         6.49616         6.49616
            1157         115.558         115.558        -3.16893        -3.16893         5.69216         5.69216
            1158         114.928         114.928        -2.15571        -2.15571         4.85666         4.85666
            1159         114.650         114.650        -1.40997        -1.40997         4.09584         4.09584
            1160         114.581         114.581    -860.931E-03    -860.931E-03         3.44481         3.44481
            1161         114.632         114.632    -453.431E-03    -453.431E-03         2.90311         2.90311
            1162         114.749         114.749    -147.145E-03    -147.145E-03         2.45809         2.45809
            1163         114.899         114.899     85.2164E-03     85.2164E-03         2.09417         2.09417
            1164         115.063         115.063     262.654E-03     262.654E-03         1.79663         1.79663
            1165         115.230         115.230     398.162E-03     398.162E-03         1.55269         1.55269
            1166         115.395         115.395     500.976E-03     500.976E-03         1.35177         1.35177
            1167         115.553         115.553     577.707E-03     577.707E-03         1.18525         1.18525
            1168         115.704         115.704     633.290E-03     633.290E-03         1.04620         1.04620
            1169         115.846         115.846     671.489E-03     671.489E-03     929.117E-03     929.117E-03
            1170         115.978         115.978     695.292E-03     695.292E-03     829.615E-03     829.615E-03
            1171         116.102         116.102     707.128E-03     707.128E-03     744.228E-03     744.228E-03
            1172         116.217         116.217     709.029E-03     709.029E-03     670.225E-03     670.225E-03
            1173         116.324         116.324     702.729E-03     702.729E-03     605.453E-03     605.453E-03
            1174         116.423         116.423     689.727E-03     689.727E-03     548.226E-03     548.226E-03
            1175         116.514         116.514     671.331E-03     671.331E-03     497.220E-03     497.220E-03
            1176         116.598         116.598     648.690E-03     648.690E-03     451.400E-03     451.400E-03
            1177         116.676         116.676     622.812E-03     622.812E-03     409.955E-03     409.955E-03
            1178         116.747         116.747     594.579E-03     594.579E-03     372.248E-03     372.248E-03
            1179         116.812         116.812     564.763E-03     564.763E-03     337.778E-03     337.778E-03
            1180         116.871         116.871     534.034E-03     534.034E-03     306.146E-03     306.146E-03
            1181         116.925         116.925     502.971E-03     502.971E-03     277.032E-03     277.032E-03
            1182         116.974         116.974     472.067E-03     472.067E-03     250.173E-03     250.173E-03
            1183         117.019         117.019     441.745E-03     441.745E-03     225.353E-03     225.353E-03
            1184         117.059         117.059     412.358E-03     412.358E-03     202.383E-03     202.383E-03
            1185         117.095         117.095     384.201E-03     384.201E-03     181.102E-03     181.102E-03
            1186         117.127         117.127     357.518E-03     357.518E-03     161.362E-03     161.362E-03
            1187         117.156         117.156     332.507E-03     332.507E-03     143.028E-03     143.028E-03
            1188         117.182         117.182     309.327E-03     309.327E-03     125.974E-03     125.974E-03
            1189         117.204         117.204     288.107E-03     288.107E-03     110.076E-03     110.076E-03
            1190         117.223         117.223     268.943E-03     268.943E-03     95.2169E-03     95.2169E-03
            1191         117.240         117.240     251.914E-03     251.914E-03     81.2803E-03     81.2803E-03
            1192         117.254         117.254     237.076E-03     237.076E-03     68.1515E-03     68.1515E-03
            1193         117.266         117.266     224.474E-03     224.474E-03     55.7168E-03     55.7168E-03
            1194         117.276         117.276     214.137E-03     214.137E-03     43.8628E-03     43.8628E-03
            1195         117.283         117.283     206.089E-03     206.089E-03     32.4766E-03     32.4766E-03
            1196         117.288         117.288     200.345E-03     200.345E-03     21.4457E-03     21.4457E-03
            1197         117.291         117.291     196.909E-03     196.909E-03     10.6848E-03     10.6848E-03
            1198         112.324         112.324        -3.09733        -3.09733         7.68066         7.68066
            1199         112.063         112.063        -1.85264        -1.85264         6.15046         6.15046
            1200         112.219         112.219        -1.03820        -1.03820         4.91028         4.91028
            1201         112.556         112.556    -497.412E-03    -497.412E-03         3.94009         3.94009
            1202         112.954         112.954    -127.551E-03    -127.551E-03         3.18868         3.18868
            1203         113.356         113.356     133.703E-03     133.703E-03         2.60628         2.60628
            1204         113.738         113.738     323.064E-03     323.064E-03         2.15225         2.15225
            1205         114.089         114.089     463.226E-03     463.226E-03         1.79579         1.79579
            1206         114.407         114.407     568.080E-03     568.080E-03         1.51360         1.51360
            1207         114.694         114.694     646.558E-03     646.558E-03         1.28833         1.28833
            1208         114.952         114.952     704.466E-03     704.466E-03         1.10687         1.10687
            1209         115.183         115.183     745.793E-03     745.793E-03     959.344E-03     959.344E-03
            1210         115.392         115.392     773.376E-03     773.376E-03     838.238E-03     838.238E-03
            1211         115.581         115.581     789.374E-03     789.374E-03     737.812E-03     737.812E-03
            1212         115.751         115.751     795.503E-03     795.503E-03     653.650E-03     653.650E-03
            1213         115.906         115.906     793.207E-03     793.207E-03     582.356E-03     582.356E-03
            1214         116.047         116.047     783.745E-03     783.745E-03     521.301E-03     521.301E-03
            1215         116.175         116.175     768.245E-03     768.245E-03     468.453E-03     468.453E-03
            1216         116.292         116.292     747.731E-03     747.731E-03     422.235E-03     422.235E-03
            1217         116.399         116.399     723.140E-03     723.140E-03     381.425E-03     381.425E-03
            1218         116.496         116.496     695.332E-03     695.332E-03     345.072E-03     345.072E-03
            1219         116.585         116.585     665.088E-03     665.088E-03     312.439E-03     312.439E-03
            1220         116.666         116.666     633.119E-03     633.119E-03     282.948E-03     282.948E-03
            1221         116.740         116.740     600.062E-03     600.062E-03     256.148E-03     256.148E-03
            1222         116.807         116.807     566.486E-03     566.486E-03     231.681E-03     231.681E-03
            1223         116.868         116.868     532.892E-03     532.892E-03     209.263E-03     209.263E-03
            1224         116.924         116.924     499.719E-03     499.719E-03     188.663E-03     188.663E-03
            1225         116.974         116.974     467.344E-03     467.344E-03     169.690E-03     169.690E-03
            1226         117.019         117.019     436.091E-03     436.091E-03     152.185E-03     152.185E-03
            1227         117.059         117.059     406.234E-03     406.234E-03     136.009E-03     136.009E-03
            1228         117.096         117.096     378.000E-03     378.000E-03     121.039E-03     121.039E-03
            1229         117.128         117.128     351.576E-03     351.576E-03     107.164E-03     107.164E-03
            1230         117.157         117.157     327.116E-03     327.116E-03     94.2824E-03     94.2824E-03
            1231         117.182         117.182     304.741E-03     304.741E-03     82.2960E-03     82.2960E-03
            1232         117.203         117.203     284.547E-03     284.547E-03     71.1119E-03     71.1119E-03
            1233         117.222         117.222     266.610E-03     266.610E-03     60.6398E-03     60.6398E-03
            1234         117.238         117.238     250.987E-03     250.987E-03     50.7915E-03     50.7915E-03
            1235         117.251         117.251     237.719E-03     237.719E-03     41.4801E-03     41.4801E-03
            1236         117.262         117.262     226.839E-03     226.839E-03     32.6199E-03     32.6199E-03
            1237         117.270         117.270     218.370E-03     218.370E-03     24.1260E-03     24.1260E-03
            1238         117.276         117.276     212.326E-03     212.326E-03     15.9145E-03     15.9145E-03
            1239         117.279         117.279     208.713E-03     208.713E-03     7.92173E-03     7.92173E-03
            1240         107.000         107.000    -862.357E-03    -862.357E-03         7.18457         7.18457
            1241         108.308         108.308    -159.816E-03    -159.816E-03         5.33987         5.33987
            1242         109.535         109.535     223.420E-03     223.420E-03         4.04376         4.04376
            1243         110.599         110.599     446.060E-03     446.060E-03         3.12143         3.12143
            1244         111.499         111.499     585.182E-03     585.182E-03         2.45213         2.45213
            1245         112.254         112.254     677.926E-03     677.926E-03         1.95706         1.95706
            1246         112.889         112.889     743.384E-03     743.384E-03         1.58488         1.58488
            1247         113.424         113.424     791.310E-03     791.310E-03         1.30074         1.30074
            1248         113.880         113.880     826.876E-03     826.876E-03         1.08095         1.08095
            1249         114.270         114.270     852.767E-03     852.767E-03     908.750E-03     908.750E-03
            1250         114.606         114.606     870.450E-03     870.450E-03     772.270E-03     772.270E-03
            1251         114.899         114.899     880.767E-03     880.767E-03     662.843E-03     662.843E-03
            1252         115.155         115.155     884.292E-03     884.292E-03     574.123E-03     574.123E-03
            1253         115.381         115.381     881.506E-03     881.506E-03     501.366E-03     501.366E-03
            1254         115.582         115.582     872.884E-03     872.884E-03     441.019E-03     441.019E-03
            1255         115.761         115.761     858.932E-03     858.932E-03     390.385E-03     390.385E-03
            1256         115.922         115.922     840.197E-03     840.197E-03     347.412E-03     347.412E-03
            1257         116.066         116.066     817.263E-03     817.263E-03     310.528E-03     310.528E-03
            1258         116.197         116.197     790.737E-03     790.737E-03     278.528E-03     278.528E-03
            1259         116.315         116.315     761.236E-03     761.236E-03     250.483E-03     250.483E-03
            1260         116.423         116.423     729.371E-03     729.371E-03     225.676E-03     225.676E-03
            1261         116.520         116.520     695.734E-03     695.734E-03     203.553E-03     203.553E-03
            1262         116.609         116.609     660.889E-03     660.889E-03     183.683E-03     183.683E-03
            1263         116.689         116.689     625.362E-03     625.362E-03     165.727E-03     165.727E-03
            1264         116.762         116.762     589.637E-03     589.637E-03     149.421E-03     149.421E-03
            1265         116.828         116.828     554.151E-03     554.151E-03     134.554E-03     134.554E-03
            1266         116.888         116.888     519.294E-03     519.294E-03     120.955E-03     120.955E-03
            1267         116.942         116.942     485.409E-03     485.409E-03     108.484E-03     108.484E-03
            1268         116.991         116.991     452.793E-03     452.793E-03     97.0259E-03     97.0259E-03
            1269         117.034         117.034     421.700E-03     421.700E-03     86.4790E-03     86.4790E-03
            1270         117.073         117.073     392.344E-03     392.344E-03     76.7562E-03     76.7562E-03
            1271         117.108         117.108     364.904E-03     364.904E-03     67.7790E-03     67.7790E-03
            1272         117.139         117.139     339.525E-03     339.525E-03     59.4753E-03     59.4753E-03
            1273         117.166         117.166     316.325E-03     316.325E-03     51.7782E-03     51.7782E-03
            1274         117.190         117.190     295.397E-03     295.397E-03     44.6240E-03     44.6240E-03
            1275         117.210         117.210     276.813E-03     276.813E-03     37.9522E-03     37.9522E-03
            1276         117.227         117.227     260.629E-03     260.629E-03     31.7040E-03     31.7040E-03
            1277         117.241         117.241     246.887E-03     246.887E-03     25.8223E-03     25.8223E-03
            1278         117.253         117.253     235.617E-03     235.617E-03     20.2517E-03     20.2517E-03
            1279         117.262         117.262     226.842E-03     226.842E-03     14.9379E-03     14.9379E-03
            1280         117.268         117.268     220.578E-03     220.578E-03     9.82783E-03     9.82783E-03
            1281         117.271         117.271     216.828E-03     216.828E-03     4.88137E-03     4.88137E-03
            1282         102.427         102.427         1.32082         1.32082         4.39937         4.39937
            1283         105.363         105.363         1.29410         1.29410         3.08342         3.08342
            1284         107.552         107.552         1.22176         1.22176         2.24527         2.24527
            1285         109.214         109.214         1.15233         1.15233         1.68315         1.68315
            1286         110.501         110.501         1.09699         1.09699         1.29128         1.29128
            1287         111.518         111.518         1.05647         1.05647         1.01040         1.01040
            1288         112.333         112.333         1.02827         1.02827     804.146E-03     804.146E-03
            1289         112.998         112.998         1.00901         1.00901     649.853E-03     649.853E-03
            1290         113.546         113.546     995.513E-03     995.513E-03     532.410E-03     532.410E-03
            1291         114.005         114.005     985.042E-03     985.042E-03     441.730E-03     441.730E-03
            1292         114.393         114.393     975.439E-03     975.439E-03     370.733E-03     370.733E-03
            1293         114.725         114.725     965.061E-03     965.061E-03     314.452E-03     314.452E-03
            1294         115.012         115.012     952.750E-03     952.750E-03     269.277E-03     269.277E-03
            1295         115.262         115.262     937.744E-03     937.744E-03     232.581E-03     232.581E-03
            1296         115.481         115.481     919.625E-03     919.625E-03     202.413E-03     202.413E-03
            1297         115.676         115.676     898.235E-03     898.235E-03     177.318E-03     177.318E-03
            1298         115.849         115.849     873.632E-03     873.632E-03     156.196E-03     156.196E-03
            1299         116.003         116.003     846.030E-03     846.030E-03     138.219E-03     138.219E-03
            1300         116.142         116.142     815.757E-03     815.757E-03     122.752E-03     122.752E-03
            1301         116.268         116.268     783.216E-03     783.216E-03     109.312E-03     109.312E-03
            1302         116.381         116.381     748.856E-03     748.856E-03     97.5277E-03     97.5277E-03
            1303         116.484         116.484     713.147E-03     713.147E-03     87.1115E-03     87.1115E-03
            1304         116.576         116.576     676.558E-03     676.558E-03     77.8417E-03     77.8417E-03
            1305         116.661         116.661     639.544E-03     639.544E-03     69.5446E-03     69.5446E-03
            1306         116.737         116.737     602.533E-03     602.533E-03     62.0834E-03     62.0834E-03
            1307         116.806         116.806     565.923E-03     565.923E-03     55.3490E-03     55.3490E-03
            1308         116.868         116.868     530.072E-03     530.072E-03     49.2534E-03     49.2534E-03
            1309         116.925         116.925     495.302E-03     495.302E-03     43.7238E-03     43.7238E-03
            1310         116.975         116.975     461.891E-03     461.891E-03     38.6996E-03     38.6996E-03
            1311         117.021         117.021     430.082E-03     430.082E-03     34.1289E-03     34.1289E-03
            1312         117.061         117.061     400.081E-03     400.081E-03     29.9664E-03     29.9664E-03
            1313         117.098         117.098     372.058E-03     372.058E-03     26.1718E-03     26.1718E-03
            1314         117.130         117.130     346.154E-03     346.154E-03     22.7090E-03     22.7090E-03
            1315         117.158         117.158     322.483E-03     322.483E-03     19.5445E-03     19.5445E-03
            1316         117.182         117.182     301.136E-03     301.136E-03     16.6477E-03     16.6477E-03
            1317         117.203         117.203     282.184E-03     282.184E-03     13.9898E-03     13.9898E-03
            1318         117.221         117.221     265.681E-03     265.681E-03     11.5440E-03     11.5440E-03
            1319         117.236         117.236     251.666E-03     251.666E-03     9.28492E-03     9.28492E-03
            1320         117.248         117.248     240.171E-03     240.171E-03     7.18889E-03     7.18889E-03
            1321         117.257         117.257     231.215E-03     231.215E-03     5.23373E-03     5.23373E-03
            1322         117.263         117.263     224.814E-03     224.814E-03     3.39892E-03     3.39892E-03
            1323         117.267         117.267     220.970E-03     220.970E-03     1.66969E-03     1.66969E-03
            1324         100.832         100.832         2.12394         2.12394    -299.533E-03    -299.533E-03
            1325         104.421         104.421         1.77718         1.77718    -261.488E-03    -261.488E-03
            1326         106.950         106.950         1.53346         1.53346    -222.212E-03    -222.212E-03
            1327         108.811         108.811         1.36268         1.36268    -189.599E-03    -189.599E-03
            1328         110.222         110.222         1.24327         1.24327    -162.891E-03    -162.891E-03
            1329         111.318         111.318         1.16090         1.16090    -141.256E-03    -141.256E-03
            1330         112.188         112.188         1.10421         1.10421    -123.534E-03    -123.534E-03
            1331         112.889         112.889         1.06523         1.06523    -108.997E-03    -108.997E-03
            1332         113.464         113.464         1.03769         1.03769    -96.9542E-03    -96.9542E-03
            1333         113.942         113.942         1.01712         1.01712    -86.9354E-03    -86.9354E-03
            1334         114.344         114.344         1.00010         1.00010    -78.5331E-03    -78.5331E-03
            1335         114.686         114.686     984.245E-03     984.245E-03    -71.4464E-03    -71.4464E-03
            1336         114.981         114.981     967.827E-03     967.827E-03    -65.4203E-03    -65.4203E-03
            1337         115.236         115.236     949.727E-03     949.727E-03    -60.2556E-03    -60.2556E-03
            1338         115.461         115.461     929.247E-03     929.247E-03    -55.7854E-03    -55.7854E-03
            1339         115.659         115.659     906.047E-03     906.047E-03    -51.8755E-03    -51.8755E-03
            1340         115.835         115.835     880.041E-03     880.041E-03    -48.4146E-03    -48.4146E-03
            1341         115.992         115.992     851.341E-03     851.341E-03    -45.3128E-03    -45.3128E-03
            1342         116.133         116.133     820.200E-03     820.200E-03    -42.4967E-03    -42.4967E-03
            1343         116.260         116.260     786.966E-03     786.966E-03    -39.9077E-03    -39.9077E-03
            1344         116.374         116.374     752.046E-03     752.046E-03    -37.4991E-03    -37.4991E-03
            1345         116.478         116.478     715.877E-03     715.877E-03    -35.2344E-03    -35.2344E-03
            1346         116.572         116.572     678.905E-03     678.905E-03    -33.0854E-03    -33.0854E-03
            1347         116.657         116.657     641.569E-03     641.569E-03    -31.0308E-03    -31.0308E-03
            1348         116.733         116.733     604.285E-03     604.285E-03    -29.0548E-03    -29.0548E-03
            1349         116.803         116.803     567.439E-03     567.439E-03    -27.1459E-03    -27.1459E-03
            1350         116.866         116.866     531.384E-03     531.384E-03    -25.2958E-03    -25.2958E-03
            1351         116.923         116.923     496.435E-03     496.435E-03    -23.4988E-03    -23.4988E-03
            1352         116.974         116.974     462.868E-03     462.868E-03    -21.7505E-03    -21.7505E-03
            1353         117.019         117.019     430.922E-03     430.922E-03    -20.0476E-03    -20.0476E-03
            1354         117.060         117.060     400.798E-03     400.798E-03    -18.3874E-03    -18.3874E-03
            1355         117.097         117.097     372.668E-03     372.668E-03    -16.7670E-03    -16.7670E-03
            1356         117.129         117.129     346.670E-03     346.670E-03    -15.1832E-03    -15.1832E-03
            1357         117.157         117.157     322.916E-03     322.916E-03    -13.6322E-03    -13.6322E-03
            1358         117.182         117.182     301.496E-03     301.496E-03    -12.1093E-03    -12.1093E-03
            1359         117.203         117.203     282.479E-03     282.479E-03    -10.6090E-03    -10.6090E-03
            1360         117.221         117.221     265.918E-03     265.918E-03    -9.12426E-03    -9.12426E-03
            1361         117.236         117.236     251.853E-03     251.853E-03    -7.64702E-03    -7.64702E-03
            1362         117.248         117.248     240.311E-03     240.311E-03    -6.16773E-03    -6.16773E-03
            1363         117.257         117.257     231.313E-03     231.313E-03    -4.67536E-03    -4.67536E-03
            1364         117.263         117.263     224.871E-03     224.871E-03    -3.15722E-03    -3.15722E-03
            1365         117.267         117.267     220.987E-03     220.987E-03    -1.60244E-03    -1.60244E-03
            1366         103.526         103.526     793.814E-03     793.814E-03        -5.05679        -5.05679
            1367         106.141         106.141     911.015E-03     911.015E-03        -3.66451        -3.66451
            1368         108.113         108.113     939.835E-03     939.835E-03        -2.74822        -2.74822
            1369         109.629         109.629     940.877E-03     940.877E-03        -2.11543        -2.11543
            1370         110.816         110.816     935.484E-03     935.484E-03        -1.66382        -1.66382
            1371         111.762         111.762     930.992E-03     930.992E-03        -1.33292        -1.33292
            1372         112.526         112.526     929.367E-03     929.367E-03        -1.08536        -1.08536
            1373         113.152         113.152     929.991E-03     929.991E-03    -896.798E-03    -896.798E-03
            1374         113.672         113.672     931.633E-03     931.633E-03    -750.957E-03    -750.957E-03
            1375         114.109         114.109     932.819E-03     932.819E-03    -636.589E-03    -636.589E-03
            1376         114.480         114.480     932.297E-03     932.297E-03    -545.775E-03    -545.775E-03
            1377         114.799         114.799     929.050E-03     929.050E-03    -472.791E-03    -472.791E-03
            1378         115.075         115.075     922.382E-03     922.382E-03    -413.451E-03    -413.451E-03
            1379         115.316         115.316     911.869E-03     911.869E-03    -364.638E-03    -364.638E-03
            1380         115.529         115.529     897.343E-03     897.343E-03    -324.010E-03    -324.010E-03
            1381         115.717         115.717     878.843E-03     878.843E-03    -289.786E-03    -289.786E-03
            1382         115.885         115.885     856.575E-03     856.575E-03    -260.611E-03    -260.611E-03
            1383         116.036         116.036     830.870E-03     830.870E-03    -235.439E-03    -235.439E-03
            1384         116.172         116.172     802.149E-03     802.149E-03    -213.469E-03    -213.469E-03
            1385         116.294         116.294     770.888E-03     770.888E-03    -194.079E-03    -194.079E-03
            1386         116.405         116.405     737.594E-03     737.594E-03    -176.792E-03    -176.792E-03
            1387         116.505         116.505     702.783E-03     702.783E-03    -161.236E-03    -161.236E-03
            1388         116.596         116.596     666.959E-03     666.959E-03    -147.124E-03    -147.124E-03
            1389         116.678         116.678     630.607E-03     630.607E-03    -134.234E-03    -134.234E-03
            1390         116.753         116.753     594.177E-03     594.177E-03    -122.390E-03    -122.390E-03
            1391         116.821         116.821     558.084E-03     558.084E-03    -111.457E-03    -111.457E-03
            1392         116.882         116.882     522.699E-03     522.699E-03    -101.325E-03    -101.325E-03
            1393         116.937         116.937     488.352E-03     488.352E-03    -91.9061E-03    -91.9061E-03
            1394         116.986         116.986     455.331E-03     455.331E-03    -83.1286E-03    -83.1286E-03
            1395         117.031         117.031     423.880E-03     423.880E-03    -74.9306E-03    -74.9306E-03
            1396         117.071         117.071     394.209E-03     394.209E-03    -67.2582E-03    -67.2582E-03
            1397         117.106         117.106     366.491E-03     366.491E-03    -60.0629E-03    -60.0629E-03
            1398         117.137         117.137     340.866E-03     340.866E-03    -53.2995E-03    -53.2995E-03
            1399         117.164         117.164     317.450E-03     317.450E-03    -46.9250E-03    -46.9250E-03
            1400         117.188         117.188     296.330E-03     296.330E-03    -40.8971E-03    -40.8971E-03
            1401         117.209         117.209     277.578E-03     277.578E-03    -35.1739E-03    -35.1739E-03
            1402         117.226         117.226     261.245E-03     261.245E-03    -29.7132E-03    -29.7132E-03
            1403         117.241         117.241     247.371E-03     247.371E-03    -24.4722E-03    -24.4722E-03
            1404         117.252         117.252     235.981E-03     235.981E-03    -19.4070E-03    -19.4070E-03
            1405         117.261         117.261     227.096E-03     227.096E-03    -14.4727E-03    -14.4727E-03
            1406         117.268         117.268     220.727E-03     220.727E-03    -9.62317E-03    -9.62317E-03
            1407         117.271         117.271     216.872E-03     216.872E-03    -4.82305E-03    -4.82305E-03
            1408         109.256         109.256        -1.82053        -1.82053        -7.47990        -7.47990
            1409         109.943         109.943    -897.484E-03    -897.484E-03        -5.73682        -5.73682
            1410         110.744         110.744    -343.398E-03    -343.398E-03        -4.45973        -4.45973
            1411         111.509         111.509     8.54507E-03     8.54507E-03        -3.52013        -3.52013
            1412         112.196         112.196     244.306E-03     244.306E-03        -2.81900        -2.81900
            1413         112.798         112.798     409.855E-03     409.855E-03        -2.28873        -2.28873
            1414         113.319         113.319     530.337E-03     530.337E-03        -1.88232        -1.88232
            1415         113.771         113.771     620.374E-03     620.374E-03        -1.56704        -1.56704
            1416         114.162         114.162     688.378E-03     688.378E-03        -1.31962        -1.31962
            1417         114.502         114.502     739.511E-03     739.511E-03        -1.12336        -1.12336
            1418         114.800         114.800     776.952E-03     776.952E-03    -966.039E-03    -966.039E-03
            1419         115.062         115.062     802.847E-03     802.847E-03    -838.606E-03    -838.606E-03
            1420         115.294         115.294     818.712E-03     818.712E-03    -734.290E-03    -734.290E-03
            1421         115.501         115.501     825.752E-03     825.752E-03    -647.971E-03    -647.971E-03
            1422         115.686         115.686     824.986E-03     824.986E-03    -575.746E-03    -575.746E-03
            1423         115.852         115.852     817.346E-03     817.346E-03    -514.625E-03    -514.625E-03
            1424         116.002         116.002     803.707E-03     803.707E-03    -462.305E-03    -462.305E-03
            1425         116.138         116.138     784.912E-03     784.912E-03    -417.011E-03    -417.011E-03
            1426         116.260         116.260     761.772E-03     761.772E-03    -377.368E-03    -377.368E-03
            1427         116.372         116.372     735.065E-03     735.065E-03    -342.314E-03    -342.314E-03
            1428         116.474         116.474     705.528E-03     705.528E-03    -311.022E-03    -311.022E-03
            1429         116.566         116.566     673.856E-03     673.856E-03    -282.855E-03    -282.855E-03
            1430         116.650         116.650     640.691E-03     640.691E-03    -257.315E-03    -257.315E-03
            1431         116.727         116.727     606.620E-03     606.620E-03    -234.014E-03    -234.014E-03
            1432         116.796         116.796     572.174E-03     572.174E-03    -212.648E-03    -212.648E-03
            1433         116.859         116.859     537.827E-03     537.827E-03    -192.977E-03    -192.977E-03
            1434         116.916         116.916     503.996E-03     503.996E-03    -174.806E-03    -174.806E-03
            1435         116.967         116.967     471.045E-03     471.045E-03    -157.978E-03    -157.978E-03
            1436         117.013         117.013     439.285E-03     439.285E-03    -142.361E-03    -142.361E-03
            1437         117.055         117.055     408.979E-03     408.979E-03    -127.841E-03    -127.841E-03
            1438         117.092         117.092     380.348E-03     380.348E-03    -114.318E-03    -114.318E-03
            1439         117.125         117.125     353.574E-03     353.574E-03    -101.702E-03    -101.702E-03
            1440         117.154         117.154     328.804E-03     328.804E-03    -89.9087E-03    -89.9087E-03
            1441         117.180         117.180     306.156E-03     306.156E-03    -78.8569E-03    -78.8569E-03
            1442         117.202         117.202     285.722E-03     285.722E-03    -68.4685E-03    -68.4685E-03
            1443         117.221         117.221     267.573E-03     267.573E-03    -58.6665E-03    -58.6665E-03
            1444         117.237         117.237     251.761E-03     251.761E-03    -49.3745E-03    -49.3745E-03
            1445         117.251         117.251     238.326E-03     238.326E-03    -40.5156E-03    -40.5156E-03
            1446         117.262         117.262     227.295E-03     227.295E-03    -32.0127E-03    -32.0127E-03
            1447         117.270         117.270     218.686E-03     218.686E-03    -23.7880E-03    -23.7880E-03
            1448         117.276         117.276     212.510E-03     212.510E-03    -15.7631E-03    -15.7631E-03
            1449         117.279         117.279     208.767E-03     208.767E-03    -7.87853E-03    -7.87853E-03
            1450         115.104         115.104        -4.00380        -4.00380        -7.01544        -7.01544
            1451         114.255         114.255        -2.68200        -2.68200        -5.90836        -5.90836
            1452         113.933         113.933        -1.74328        -1.74328        -4.90170        -4.90170
            1453         113.899         113.899        -1.08000        -1.08000        -4.05475        -4.05475
            1454         114.014         114.014    -602.678E-03    -602.678E-03        -3.36479        -3.36479
            1455         114.200         114.200    -252.724E-03    -252.724E-03        -2.80882        -2.80882
            1456         114.417         114.417     8.64236E-03     8.64236E-03        -2.36205        -2.36205
            1457         114.641         114.641     206.441E-03     206.441E-03        -2.00246        -2.00246
            1458         114.860         114.860     357.374E-03     357.374E-03        -1.71189        -1.71189
            1459         115.070         115.070     472.585E-03     472.585E-03        -1.47581        -1.47581
            1460         115.267         115.267     559.828E-03     559.828E-03        -1.28272        -1.28272
            1461         115.450         115.450     624.588E-03     624.588E-03        -1.12359        -1.12359
            1462         115.620         115.620     670.938E-03     670.938E-03    -991.329E-03    -991.329E-03
            1463         115.777         115.777     701.987E-03     701.987E-03    -880.384E-03    -880.384E-03
            1464         115.921         115.921     720.227E-03     720.227E-03    -786.395E-03    -786.395E-03
            1465         116.055         116.055     727.707E-03     727.707E-03    -705.947E-03    -705.947E-03
            1466         116.178         116.178     726.175E-03     726.175E-03    -636.363E-03    -636.363E-03
            1467         116.291         116.291     717.143E-03     717.143E-03    -575.551E-03    -575.551E-03
            1468         116.395         116.395     701.947E-03     701.947E-03    -521.872E-03    -521.872E-03
            1469         116.490         116.490     681.768E-03     681.768E-03    -474.050E-03    -474.050E-03
            1470         116.578         116.578     657.660E-03     657.660E-03    -431.088E-03    -431.088E-03
            1471         116.659         116.659     630.559E-03     630.559E-03    -392.208E-03    -392.208E-03
            1472         116.732         116.732     601.294E-03     601.294E-03    -356.802E-03    -356.802E-03
            1473         116.800         116.800     570.597E-03     570.597E-03    -324.393E-03    -324.393E-03
            1474         116.861         116.861     539.107E-03     539.107E-03    -294.604E-03    -294.604E-03
            1475         116.917         116.917     507.381E-03     507.381E-03    -267.134E-03    -267.134E-03
            1476         116.967         116.967     475.896E-03     475.896E-03    -241.737E-03    -241.737E-03
            1477         117.013         117.013     445.061E-03     445.061E-03    -218.212E-03    -218.212E-03
            1478         117.054         117.054     415.221E-03     415.221E-03    -196.387E-03    -196.387E-03
            1479         117.091         117.091     386.663E-03     386.663E-03    -176.112E-03    -176.112E-03
            1480         117.124         117.124     359.625E-03     359.625E-03    -157.253E-03    -157.253E-03
            1481         117.154         117.154     334.299E-03     334.299E-03    -139.686E-03    -139.686E-03
            1482         117.179         117.179     310.841E-03     310.841E-03    -123.294E-03    -123.294E-03
            1483         117.202         117.202     289.375E-03     289.375E-03    -107.966E-03    -107.966E-03
            1484         117.222         117.222     269.995E-03     269.995E-03    -93.5919E-03    -93.5919E-03
            1485         117.239         117.239     252.774E-03     252.774E-03    -80.0636E-03    -80.0636E-03
            1486         117.254         117.254     237.767E-03     237.767E-03    -67.2738E-03    -67.2738E-03
            1487         117.265         117.265     225.013E-03     225.013E-03    -55.1149E-03    -55.1149E-03
            1488         117.275         117.275     214.540E-03     214.540E-03    -43.4793E-03    -43.4793E-03
            1489         117.282         117.282     206.366E-03     206.366E-03    -32.2588E-03    -32.2588E-03
            1490         117.288         117.288     200.503E-03     200.503E-03    -21.3452E-03    -21.3452E-03
            1491         117.291         117.291     196.951E-03     196.951E-03    -10.6566E-03    -10.6566E-03
            1492         119.108         119.108        -4.84751        -4.84751        -4.99697        -4.99697
            1493         117.689         117.689        -3.70678        -3.70678        -4.74567        -4.74567
            1494         116.754         116.754        -2.73632        -2.73632        -4.29738        -4.29738
            1495         116.178         116.178        -1.95824        -1.95824        -3.79439        -3.79439
            1496         115.846         115.846        -1.34988        -1.34988        -3.31026        -3.31026
            1497         115.677         115.677    -876.191E-03    -876.191E-03        -2.87482        -2.87482
            1498         115.614         115.614    -507.156E-03    -507.156E-03        -2.49629        -2.49629
            1499         115.618         115.618    -218.898E-03    -218.898E-03        -2.17304        -2.17304
            1500         115.664         115.664     6.39797E-03     6.39797E-03        -1.89944        -1.89944
            1501         115.736         115.736     182.126E-03     182.126E-03        -1.66862        -1.66862
            1502         115.824         115.824     318.258E-03     318.258E-03        -1.47381        -1.47381
            1503         115.920         115.920     422.401E-03     422.401E-03        -1.30886        -1.30886
            1504         116.019         116.019     500.410E-03     500.410E-03        -1.16846        -1.16846
            1505         116.119         116.119     556.924E-03     556.924E-03        -1.04816        -1.04816
            1506         116.216         116.216     595.673E-03     595.673E-03    -944.245E-03    -944.245E-03
            1507         116.311         116.311     619.727E-03     619.727E-03    -853.716E-03    -853.716E-03
            1508         116.401         116.401     631.652E-03     631.652E-03    -774.138E-03    -774.138E-03
            1509         116.487         116.487     633.622E-03     633.622E-03    -703.565E-03    -703.565E-03
            1510         116.568         116.568     627.496E-03     627.496E-03    -640.449E-03    -640.449E-03
            1511         116.643         116.643     614.873E-03     614.873E-03    -583.564E-03    -583.564E-03
            1512         116.714         116.714     597.134E-03     597.134E-03    -531.943E-03    -531.943E-03
            1513         116.779         116.779     575.472E-03     575.472E-03    -484.827E-03    -484.827E-03
            1514         116.839         116.839     550.913E-03     550.913E-03    -441.614E-03    -441.614E-03
            1515         116.895         116.895     524.342E-03     524.342E-03    -401.829E-03    -401.829E-03
            1516         116.946         116.946     496.513E-03     496.513E-03    -365.092E-03    -365.092E-03
            1517         116.992         116.992     468.070E-03     468.070E-03    -331.095E-03    -331.095E-03
            1518         117.034         117.034     439.554E-03     439.554E-03    -299.584E-03    -299.584E-03
            1519         117.072         117.072     411.423E-03     411.423E-03    -270.343E-03    -270.343E-03
            1520         117.107         117.107     384.053E-03     384.053E-03    -243.185E-03    -243.185E-03
            1521         117.138         117.138     357.757E-03     357.757E-03    -217.943E-03    -217.943E-03
            1522         117.166         117.166     332.788E-03     332.788E-03    -194.463E-03    -194.463E-03
            1523         117.190         117.190     309.352E-03     309.352E-03    -172.600E-03    -172.600E-03
            1524         117.212         117.212     287.612E-03     287.612E-03    -152.215E-03    -152.215E-03
            1525         117.231         117.231     267.695E-03     267.695E-03    -133.171E-03    -133.171E-03
            1526         117.248         117.248     249.700E-03     249.700E-03    -115.334E-03    -115.334E-03
            1527         117.262         117.262     233.701E-03     233.701E-03    -98.5709E-03    -98.5709E-03
            1528         117.274         117.274     219.754E-03     219.754E-03    -82.7475E-03    -82.7475E-03
            1529         117.284         117.284     207.900E-03     207.900E-03    -67.7297E-03    -67.7297E-03
            1530         117.292         117.292     198.167E-03     198.167E-03    -53.3829E-03    -53.3829E-03
            1531         117.298         117.298     190.573E-03     190.573E-03    -39.5723E-03    -39.5723E-03
            1532         117.303         117.303     185.132E-03     185.132E-03    -26.1627E-03    -26.1627E-03
            1533         117.305         117.305     181.844E-03     181.844E-03    -13.0532E-03    -13.0532E-03
            1534         117.800         117.800     1.73284E-03     1.73284E-03    -404.116E-03    -404.116E-03
            1535         118.195         118.195     3.03877E-03     3.03877E-03    -720.052E-03    -720.052E-03
            1536         118.592         118.592    -319.038E-06    -319.038E-06    -951.934E-03    -951.934E-03
            1537         119.000         119.000    -16.7550E-03    -16.7550E-03        -1.13011        -1.13011
            1538         119.433         119.433    -58.4699E-03    -58.4699E-03        -1.27635        -1.27635
            1539         119.905         119.905    -142.369E-03    -142.369E-03        -1.40324        -1.40324
            1540         120.436         120.436    -291.938E-03    -291.938E-03        -1.51421        -1.51421
            1541         121.046         121.046    -540.112E-03    -540.112E-03        -1.60110        -1.60110
            1542         121.756         121.756    -932.704E-03    -932.704E-03        -1.63843        -1.63843
            1543         122.580         122.580        -1.53099        -1.53099        -1.57160        -1.57160
            1544         123.502         123.502        -2.40588        -2.40588        -1.29899        -1.29899
            1545         124.424         124.424        -3.60927        -3.60927    -650.741E-03    -650.741E-03
            1546         117.302         117.302     35.4217E-03     35.4217E-03    -371.388E-03    -371.388E-03
            1547         117.835         117.835     98.1780E-03     98.1780E-03    -664.217E-03    -664.217E-03
            1548         118.316         118.316     189.055E-03     189.055E-03    -886.247E-03    -886.247E-03
            1549         118.769         118.769     296.116E-03     296.116E-03        -1.06980        -1.06980
            1550         119.221         119.221     407.522E-03     407.522E-03        -1.23980        -1.23980
            1551         119.695         119.695     509.738E-03     509.738E-03        -1.41461        -1.41461
            1552         120.221         120.221     584.667E-03     584.667E-03        -1.60741        -1.60741
            1553         120.833         120.833     605.250E-03     605.250E-03        -1.82597        -1.82597
            1554         121.574         121.574     528.260E-03     528.260E-03        -2.06938        -2.06938
            1555         122.503         122.503     282.422E-03     282.422E-03        -2.31907        -2.31907
            1556         123.683         123.683    -249.412E-03    -249.412E-03        -2.51451        -2.51451
            1557         125.168         125.168        -1.24510        -1.24510        -2.50250        -2.50250
            1558         116.882         116.882     66.7800E-03     66.7800E-03    -279.986E-03    -279.986E-03
            1559         117.530         117.530     186.999E-03     186.999E-03    -501.177E-03    -501.177E-03
            1560         118.072         118.072     366.872E-03     366.872E-03    -671.799E-03    -671.799E-03
            1561         118.550         118.550     592.873E-03     592.873E-03    -819.440E-03    -819.440E-03
            1562         118.996         118.996     856.557E-03     856.557E-03    -966.490E-03    -966.490E-03
            1563         119.442         119.442         1.15267         1.15267        -1.13173        -1.13173
            1564         119.920         119.920         1.47702         1.47702        -1.33283        -1.33283
            1565         120.468         120.468         1.82354         1.82354        -1.58816        -1.58816
            1566         121.134         121.134         2.17941         2.17941        -1.91823        -1.91823
            1567         121.991         121.991         2.51502         2.51502        -2.34552        -2.34552
            1568         123.155         123.155         2.76051         2.76051        -2.88850        -2.88850
            1569         124.807         124.807         2.74901         2.74901        -3.53422        -3.53422
            1570         116.613         116.613     89.2462E-03     89.2462E-03    -140.030E-03    -140.030E-03
            1571         117.334         117.334     250.739E-03     250.739E-03    -248.994E-03    -248.994E-03
            1572         117.913         117.913     494.962E-03     494.962E-03    -332.286E-03    -332.286E-03
            1573         118.399         118.399     808.062E-03     808.062E-03    -406.170E-03    -406.170E-03
            1574         118.832         118.832         1.18550         1.18550    -484.196E-03    -484.196E-03
            1575         119.243         119.243         1.63060         1.63060    -578.530E-03    -578.530E-03
            1576         119.665         119.665         2.15395         2.15395    -701.844E-03    -701.844E-03
            1577         120.130         120.130         2.77378         2.77378    -869.438E-03    -869.438E-03
            1578         120.682         120.682         3.51723         3.51723        -1.10201        -1.10201
            1579         121.383         121.383         4.42242         4.42242        -1.43001        -1.43001
            1580         122.336         122.336         5.54007         5.54007        -1.90281        -1.90281
            1581         123.731         123.731         6.92525         6.92525        -2.60611        -2.60611
            1582         116.543         116.543     97.7165E-03     97.7165E-03     27.8421E-03     27.8421E-03
            1583         117.288         117.288     274.802E-03     274.802E-03     54.5881E-03     54.5881E-03
            1584         117.877         117.877     543.415E-03     543.415E-03     79.7926E-03     79.7926E-03
            1585         118.363         118.363     889.682E-03     889.682E-03     102.630E-03     102.630E-03
            1586         118.786         118.786         1.31071         1.31071     122.519E-03     122.519E-03
            1587         119.180         119.180         1.81341         1.81341     139.010E-03     139.010E-03
            1588         119.574         119.574         2.41465         2.41465     151.769E-03     151.769E-03
            1589         119.999         119.999         3.14334         3.14334     160.587E-03     160.587E-03
            1590         120.494         120.494         4.04514         4.04514     165.350E-03     165.350E-03
            1591         121.112         121.112         5.19149         5.19149     166.060E-03     166.060E-03
            1592         121.939         121.939         6.69902         6.69902     162.864E-03     162.864E-03
            1593         123.129         123.129         8.77795         8.77795     155.820E-03     155.820E-03
            1594         116.690         116.690     90.2594E-03     90.2594E-03     196.644E-03     196.644E-03
            1595         117.408         117.408     253.668E-03     253.668E-03     359.922E-03     359.922E-03
            1596         117.981         117.981     500.891E-03     500.891E-03     494.322E-03     494.322E-03
            1597         118.460         118.460     817.895E-03     817.895E-03     614.451E-03     614.451E-03
            1598         118.883         118.883         1.19997         1.19997     732.708E-03     732.708E-03
            1599         119.285         119.285         1.65027         1.65027     860.358E-03     860.358E-03
            1600         119.695         119.695         2.17922         2.17922         1.00943         1.00943
            1601         120.149         120.149         2.80492         2.80492         1.19479         1.19479
            1602         120.690         120.690         3.55437         3.55437         1.43695         1.43695
            1603         121.380         121.380         4.46561         4.46561         1.76636         1.76636
            1604         122.322         122.322         5.58913         5.58913         2.23252         2.23252
            1605         123.706         123.706         6.98003         6.98003         2.92179         2.92179
            1606         117.040         117.040     68.8031E-03     68.8031E-03     339.388E-03     339.388E-03
            1607         117.680         117.680     192.846E-03     192.846E-03     617.359E-03     617.359E-03
            1608         118.210         118.210     378.707E-03     378.707E-03     841.175E-03     841.175E-03
            1609         118.672         118.672     612.498E-03     612.498E-03         1.03677         1.03677
            1610         119.100         119.100     885.422E-03     885.422E-03         1.22540         1.22540
            1611         119.526         119.526         1.19189         1.19189         1.42496         1.42496
            1612         119.982         119.982         1.52738         1.52738         1.65249         1.65249
            1613         120.506         120.506         1.88557         1.88557         1.92599         1.92599
            1614         121.149         121.149         2.25334         2.25334         2.26581         2.26581
            1615         121.984         121.984         2.60089         2.60089         2.69445         2.69445
            1616         123.125         123.125         2.85826         2.85826         3.23052         3.23052
            1617         124.757         124.757         2.85803         2.85803         3.86137         3.86137
            1618         117.545         117.545     38.4480E-03     38.4480E-03     435.427E-03     435.427E-03
            1619         118.066         118.066     106.926E-03     106.926E-03     789.135E-03     789.135E-03
            1620         118.528         118.528     206.757E-03     206.757E-03         1.06783         1.06783
            1621         118.957         118.957     325.455E-03     325.455E-03         1.30216         1.30216
            1622         119.379         119.379     450.649E-03     450.649E-03         1.51596         1.51596
            1623         119.822         119.822     568.289E-03     568.289E-03         1.72672         1.72672
            1624         120.314         120.314     659.800E-03     659.800E-03         1.94706         1.94706
            1625         120.891         120.891     697.676E-03     697.676E-03         2.18441         2.18441
            1626         121.597         121.597     638.292E-03     638.292E-03         2.43773         2.43773
            1627         122.491         122.491     410.067E-03     410.067E-03         2.68863         2.68863
            1628         123.638         123.638    -104.407E-03    -104.407E-03         2.87687         2.87687
            1629         125.091         125.091        -1.08289        -1.08289         2.84924         2.84924
            1630         118.136         118.136     5.75816E-03     5.75816E-03     474.637E-03     474.637E-03
            1631         118.512         118.512     14.6689E-03     14.6689E-03     857.169E-03     857.169E-03
            1632         118.882         118.882     23.2005E-03     23.2005E-03         1.15053         1.15053
            1633         119.257         119.257     22.2013E-03     22.2013E-03         1.38341         1.38341
            1634         119.650         119.650    -1.25845E-03    -1.25845E-03         1.57649         1.57649
            1635         120.079         120.079    -64.7770E-03    -64.7770E-03         1.74156         1.74156
            1636         120.563         120.563    -192.497E-03    -192.497E-03         1.88152         1.88152
            1637         121.125         121.125    -417.962E-03    -417.962E-03         1.98794         1.98794
            1638         121.787         121.787    -787.534E-03    -787.534E-03         2.03533         2.03533
            1639         122.564         122.564        -1.36299        -1.36299         1.96932         1.96932
            1640         123.441         123.441        -2.21551        -2.21551         1.68890         1.68890
            1641         124.319         124.319        -3.39693        -3.39693         1.02484         1.02484
            1642         117.335         117.335     148.627E-03     148.627E-03     16.1756E-03     16.1756E-03
            1643         117.334         117.334     151.347E-03     151.347E-03     32.4376E-03     32.4376E-03
            1644         117.331         117.331     155.868E-03     155.868E-03     49.0949E-03     49.0949E-03
            1645         117.328         117.328     162.185E-03     162.185E-03     66.2762E-03     66.2762E-03
            1646         117.323         117.323     170.289E-03     170.289E-03     84.1546E-03     84.1546E-03
            1647         117.318         117.318     180.160E-03     180.160E-03     102.902E-03     102.902E-03
            1648         117.311         117.311     191.771E-03     191.771E-03     122.691E-03     122.691E-03
            1649         117.303         117.303     205.083E-03     205.083E-03     143.688E-03     143.688E-03
            1650         117.293         117.293     220.042E-03     220.042E-03     166.062E-03     166.062E-03
            1651         117.282         117.282     236.575E-03     236.575E-03     189.977E-03     189.977E-03
            1652         117.270         117.270     254.583E-03     254.583E-03     215.594E-03     215.594E-03
            1653         117.256         117.256     273.936E-03     273.936E-03     243.071E-03     243.071E-03
            1654         117.240         117.240     294.468E-03     294.468E-03     272.566E-03     272.566E-03
            1655         117.222         117.222     315.964E-03     315.964E-03     304.231E-03     304.231E-03
            1656         117.202         117.202     338.155E-03     338.155E-03     338.219E-03     338.219E-03
            1657         117.180         117.180     360.704E-03     360.704E-03     374.684E-03     374.684E-03
            1658         117.156         117.156     383.193E-03     383.193E-03     413.784E-03     413.784E-03
            1659         117.130         117.130     405.110E-03     405.110E-03     455.683E-03     455.683E-03
            1660         117.101         117.101     425.830E-03     425.830E-03     500.559E-03     500.559E-03
            1661         117.071         117.071     444.600E-03     444.600E-03     548.613E-03     548.613E-03
            1662         117.038         117.038     460.510E-03     460.510E-03     600.074E-03     600.074E-03
            1663         117.004         117.004     472.475E-03     472.475E-03     655.217E-03     655.217E-03
            1664         116.969         116.969     479.204E-03     479.204E-03     714.372E-03     714.372E-03
            1665         116.933         116.933     479.166E-03     479.166E-03     777.943E-03     777.943E-03
            1666         116.898         116.898     470.561E-03     470.561E-03     846.424E-03     846.424E-03
            1667         116.864         116.864     451.268E-03     451.268E-03     920.417E-03     920.417E-03
            1668         116.834         116.834     418.808E-03     418.808E-03         1.00064         1.00064
            1669         116.809         116.809     370.283E-03     370.283E-03         1.08792         1.08792
            1670         116.793         116.793     302.321E-03     302.321E-03         1.18321         1.18321
            1671         116.790         116.790     210.997E-03     210.997E-03         1.28745         1.28745
            1672         116.804         116.804     91.7832E-03     91.7832E-03         1.40154         1.40154
            1673         116.843         116.843    -60.5495E-03    -60.5495E-03         1.52607         1.52607
            1674         116.915         116.915    -251.910E-03    -251.910E-03         1.66096         1.66096
            1675         117.031         117.031    -488.927E-03    -488.927E-03         1.80484         1.80484
            1676         117.206         117.206    -778.575E-03    -778.575E-03         1.95408         1.95408
            1677         117.458         117.458        -1.12776        -1.12776         2.10136         2.10136
            1678         117.809         117.809        -1.54160        -1.54160         2.23335         2.23335
            1679         118.282         118.282        -2.02103        -2.02103         2.32812         2.32812
            1680         118.902         118.902        -2.55677        -2.55677         2.35125         2.35125
            1681         119.688         119.688        -3.12137        -3.12137         2.25489         2.25489
            1682         120.639         120.639        -3.65612        -3.65612         1.97844         1.97844
            1683         121.721         121.721        -4.06656        -4.06656         1.46642         1.46642
            1684         117.349         117.349     132.082E-03     132.082E-03     16.9431E-03     16.9431E-03
            1685         117.348         117.348     134.531E-03     134.531E-03     33.9749E-03     33.9749E-03
            1686         117.347         117.347     138.601E-03     138.601E-03     51.4283E-03     51.4283E-03
            1687         117.344         117.344     144.290E-03     144.290E-03     69.4400E-03     69.4400E-03
            1688         117.342         117.342     151.586E-03     151.586E-03     88.1936E-03     88.1936E-03
            1689         117.338         117.338     160.473E-03     160.473E-03     107.872E-03     107.872E-03
            1690         117.334         117.334     170.925E-03     170.925E-03     128.656E-03     128.656E-03
            1691         117.329         117.329     182.907E-03     182.907E-03     150.725E-03     150.725E-03
            1692         117.323         117.323     196.366E-03     196.366E-03     174.252E-03     174.252E-03
            1693         117.317         117.317     211.234E-03     211.234E-03     199.410E-03     199.410E-03
            1694         117.309         117.309     227.415E-03     227.415E-03     226.364E-03     226.364E-03
            1695         117.300         117.300     244.785E-03     244.785E-03     255.275E-03     255.275E-03
            1696         117.290         117.290     263.181E-03     263.181E-03     286.297E-03     286.297E-03
            1697         117.279         117.279     282.394E-03     282.394E-03     319.577E-03     319.577E-03
            1698         117.266         117.266     302.157E-03     302.157E-03     355.255E-03     355.255E-03
            1699         117.252         117.252     322.138E-03     322.138E-03     393.463E-03     393.463E-03
            1700         117.237         117.237     341.918E-03     341.918E-03     434.327E-03     434.327E-03
            1701         117.221         117.221     360.983E-03     360.983E-03     477.966E-03     477.966E-03
            1702         117.203         117.203     378.703E-03     378.703E-03     524.495E-03     524.495E-03
            1703         117.184         117.184     394.308E-03     394.308E-03     574.030E-03     574.030E-03
            1704         117.165         117.165     406.869E-03     406.869E-03     626.689E-03     626.689E-03
            1705         117.145         117.145     415.272E-03     415.272E-03     682.597E-03     682.597E-03
            1706         117.125         117.125     418.184E-03     418.184E-03     741.894E-03     741.894E-03
            1707         117.107         117.107     414.025E-03     414.025E-03     804.739E-03     804.739E-03
            1708         117.091         117.091     400.931E-03     400.931E-03     871.310E-03     871.310E-03
            1709         117.078         117.078     376.721E-03     376.721E-03     941.805E-03     941.805E-03
            1710         117.072         117.072     338.852E-03     338.852E-03         1.01643         1.01643
            1711         117.073         117.073     284.393E-03     284.393E-03         1.09537         1.09537
            1712         117.086         117.086     209.985E-03     209.985E-03         1.17873         1.17873
            1713         117.116         117.116     111.834E-03     111.834E-03         1.26645         1.26645
            1714         117.166         117.166    -14.2978E-03    -14.2978E-03         1.35810         1.35810
            1715         117.245         117.245    -173.007E-03    -173.007E-03         1.45265         1.45265
            1716         117.360         117.360    -369.147E-03    -369.147E-03         1.54804         1.54804
            1717         117.521         117.521    -607.445E-03    -607.445E-03         1.64052         1.64052
            1718         117.741         117.741    -892.015E-03    -892.015E-03         1.72387         1.72387
            1719         118.034         118.034        -1.22511        -1.22511         1.78800         1.78800
            1720         118.414         118.414        -1.60541        -1.60541         1.81776         1.81776
            1721         118.895         118.895        -2.02468        -2.02468         1.79099         1.79099
            1722         119.486         119.486        -2.46318        -2.46318         1.67836         1.67836
            1723         120.186         120.186        -2.88354        -2.88354         1.44368         1.44368
            1724         120.974         120.974        -3.22508        -3.22508         1.05155         1.05155
            1725         121.816         121.816        -3.40733        -3.40733     470.396E-03     470.396E-03
            1726         117.362         117.362     114.971E-03     114.971E-03     17.3132E-03     17.3132E-03
            1727         117.362         117.362     117.134E-03     117.134E-03     34.7166E-03     34.7166E-03
            1728         117.361         117.361     120.729E-03     120.729E-03     52.5599E-03     52.5599E-03
            1729         117.361         117.361     125.755E-03     125.755E-03     70.9846E-03     70.9846E-03
            1730         117.360         117.360     132.202E-03     132.202E-03     90.1820E-03     90.1820E-03
            1731         117.359         117.359     140.054E-03     140.054E-03     110.342E-03     110.342E-03
            1732         117.358         117.358     149.289E-03     149.289E-03     131.652E-03     131.652E-03
            1733         117.356         117.356     159.874E-03     159.874E-03     154.296E-03     154.296E-03
            1734         117.354         117.354     171.763E-03     171.763E-03     178.455E-03     178.455E-03
            1735         117.352         117.352     184.889E-03     184.889E-03     204.303E-03     204.303E-03
            1736         117.349         117.349     199.166E-03     199.166E-03     232.006E-03     232.006E-03
            1737         117.346         117.346     214.475E-03     214.475E-03     261.726E-03     261.726E-03
            1738         117.342         117.342     230.665E-03     230.665E-03     293.609E-03     293.609E-03
            1739         117.337         117.337     247.535E-03     247.535E-03     327.794E-03     327.794E-03
            1740         117.333         117.333     264.830E-03     264.830E-03     364.403E-03     364.403E-03
            1741         117.327         117.327     282.230E-03     282.230E-03     403.543E-03     403.543E-03
            1742         117.321         117.321     299.330E-03     299.330E-03     445.301E-03     445.301E-03
            1743         117.315         117.315     315.629E-03     315.629E-03     489.745E-03     489.745E-03
            1744         117.309         117.309     330.509E-03     330.509E-03     536.921E-03     536.921E-03
            1745         117.302         117.302     343.213E-03     343.213E-03     586.849E-03     586.849E-03
            1746         117.296         117.296     352.824E-03     352.824E-03     639.523E-03     639.523E-03
            1747         117.291         117.291     358.236E-03     358.236E-03     694.909E-03     694.909E-03
            1748         117.287         117.287     358.128E-03     358.128E-03     752.939E-03     752.939E-03
            1749         117.285         117.285     350.928E-03     350.928E-03     813.506E-03     813.506E-03
            1750         117.288         117.288     334.792E-03     334.792E-03     876.455E-03     876.455E-03
            1751         117.295         117.295     307.565E-03     307.565E-03     941.566E-03     941.566E-03
            1752         117.310         117.310     266.765E-03     266.765E-03         1.00852         1.00852
            1753         117.335         117.335     209.565E-03     209.565E-03         1.07687         1.07687
            1754         117.373         117.373     132.800E-03     132.800E-03         1.14592         1.14592
            1755         117.429         117.429     32.9945E-03     32.9945E-03         1.21466         1.21466
            1756         117.507         117.507    -93.5355E-03    -93.5355E-03         1.28155         1.28155
            1757         117.614         117.614    -250.544E-03    -250.544E-03         1.34426         1.34426
            1758         117.756         117.756    -441.518E-03    -441.518E-03         1.39928         1.39928
            1759         117.943         117.943    -669.229E-03    -669.229E-03         1.44146         1.44146
            1760         118.184         118.184    -934.847E-03    -934.847E-03         1.46325         1.46325
            1761         118.486         118.486        -1.23673        -1.23673         1.45405         1.45405
            1762         118.860         118.860        -1.56844        -1.56844         1.39938         1.39938
            1763         119.309         119.309        -1.91596        -1.91596         1.28082         1.28082
            1764         119.831         119.831        -2.25452        -2.25452         1.07635         1.07635
            1765         120.415         120.415        -2.54465        -2.54465     763.698E-03     763.698E-03
            1766         121.035         121.035        -2.73230        -2.73230     324.170E-03     324.170E-03
            1767         121.648         121.648        -2.74190        -2.74190    -254.524E-03    -254.524E-03
            1768         117.374         117.374     97.6961E-03     97.6961E-03     17.2702E-03     17.2702E-03
            1769         117.375         117.375     99.5646E-03     99.5646E-03     34.6292E-03     34.6292E-03
            1770         117.375         117.375     102.672E-03     102.672E-03     52.4384E-03     52.4384E-03
            1771         117.376         117.376     107.015E-03     107.015E-03     70.8404E-03     70.8404E-03
            1772         117.377         117.377     112.587E-03     112.587E-03     90.0301E-03     90.0301E-03
            1773         117.379         117.379     119.374E-03     119.374E-03     110.201E-03     110.201E-03
            1774         117.380         117.380     127.356E-03     127.356E-03     131.544E-03     131.544E-03
            1775         117.382         117.382     136.506E-03     136.506E-03     154.245E-03     154.245E-03
            1776         117.384         117.384     146.781E-03     146.781E-03     178.486E-03     178.486E-03
            1777         117.386         117.386     158.123E-03     158.123E-03     204.443E-03     204.443E-03
            1778         117.389         117.389     170.454E-03     170.454E-03     232.280E-03     232.280E-03
            1779         117.391         117.391     183.666E-03     183.666E-03     262.153E-03     262.153E-03
            1780         117.394         117.394     197.620E-03     197.620E-03     294.204E-03     294.204E-03
            1781         117.397         117.397     212.132E-03     212.132E-03     328.557E-03     328.557E-03
            1782         117.400         117.400     226.967E-03     226.967E-03     365.316E-03     365.316E-03
            1783         117.403         117.403     241.824E-03     241.824E-03     404.561E-03     404.561E-03
            1784         117.407         117.407     256.326E-03     256.326E-03     446.340E-03     446.340E-03
            1785         117.411         117.411     270.002E-03     270.002E-03     490.669E-03     490.669E-03
            1786         117.416         117.416     282.265E-03     282.265E-03     537.523E-03     537.523E-03
            1787         117.422         117.422     292.400E-03     292.400E-03     586.827E-03     586.827E-03
            1788         117.430         117.430     299.531E-03     299.531E-03     638.452E-03     638.452E-03
            1789         117.439         117.439     302.605E-03     302.605E-03     692.204E-03     692.204E-03
            1790         117.450         117.450     300.358E-03     300.358E-03     747.810E-03     747.810E-03
            1791         117.466         117.466     291.293E-03     291.293E-03     804.905E-03     804.905E-03
            1792         117.485         117.485     273.652E-03     273.652E-03     863.011E-03     863.011E-03
            1793         117.511         117.511     245.400E-03     245.400E-03     921.510E-03     921.510E-03
            1794         117.546         117.546     204.213E-03     204.213E-03     979.599E-03     979.599E-03
            1795         117.590         117.590     147.488E-03     147.488E-03         1.03624         1.03624
            1796         117.649         117.649     72.3753E-03     72.3753E-03         1.09007         1.09007
            1797         117.725         117.725    -24.1349E-03    -24.1349E-03         1.13928         1.13928
            1798         117.822         117.822    -145.076E-03    -145.076E-03         1.18148         1.18148
            1799         117.947         117.947    -293.240E-03    -293.240E-03         1.21344         1.21344
            1800         118.104         118.104    -470.809E-03    -470.809E-03         1.23083         1.23083
            1801         118.299         118.299    -678.726E-03    -678.726E-03         1.22787         1.22787
            1802         118.540         118.540    -915.834E-03    -915.834E-03         1.19697         1.19697
            1803         118.830         118.830        -1.17761        -1.17761         1.12840         1.12840
            1804         119.172         119.172        -1.45447        -1.45447         1.01028         1.01028
            1805         119.565         119.565        -1.72985        -1.72985     829.006E-03     829.006E-03
            1806         120.001         120.001        -1.97781        -1.97781     570.829E-03     570.829E-03
            1807         120.463         120.463        -2.16232        -2.16232     224.503E-03     224.503E-03
            1808         120.923         120.923        -2.23489        -2.23489    -215.659E-03    -215.659E-03
            1809         121.338         121.338        -2.13572        -2.13572    -741.539E-03    -741.539E-03
            1810         117.385         117.385     80.6763E-03     80.6763E-03     16.8048E-03     16.8048E-03
            1811         117.386         117.386     82.2479E-03     82.2479E-03     33.6942E-03     33.6942E-03
            1812         117.387         117.387     84.8620E-03     84.8620E-03     51.0348E-03     51.0348E-03
            1813         117.390         117.390     88.5168E-03     88.5168E-03     68.9670E-03     68.9670E-03
            1814         117.393         117.393     93.2057E-03     93.2057E-03     87.6854E-03     87.6854E-03
            1815         117.397         117.397     98.9185E-03     98.9185E-03     107.383E-03     107.383E-03
            1816         117.401         117.401     105.639E-03     105.639E-03     128.249E-03     128.249E-03
            1817         117.407         117.407     113.342E-03     113.342E-03     150.470E-03     150.470E-03
            1818         117.413         117.413     121.994E-03     121.994E-03     174.225E-03     174.225E-03
            1819         117.419         117.419     131.545E-03     131.545E-03     199.687E-03     199.687E-03
            1820         117.427         117.427     141.925E-03     141.925E-03     227.018E-03     227.018E-03
            1821         117.436         117.436     153.042E-03     153.042E-03     256.367E-03     256.367E-03
            1822         117.445         117.445     164.772E-03     164.772E-03     287.866E-03     287.866E-03
            1823         117.455         117.455     176.954E-03     176.954E-03     321.627E-03     321.627E-03
            1824         117.467         117.467     189.377E-03     189.377E-03     357.736E-03     357.736E-03
            1825         117.479         117.479     201.772E-03     201.772E-03     396.246E-03     396.246E-03
            1826         117.493         117.493     213.800E-03     213.800E-03     437.171E-03     437.171E-03
            1827         117.508         117.508     225.032E-03     225.032E-03     480.479E-03     480.479E-03
            1828         117.525         117.525     234.938E-03     234.938E-03     526.079E-03     526.079E-03
            1829         117.543         117.543     242.864E-03     242.864E-03     573.811E-03     573.811E-03
            1830         117.564         117.564     248.010E-03     248.010E-03     623.435E-03     623.435E-03
            1831         117.587         117.587     249.410E-03     249.410E-03     674.611E-03     674.611E-03
            1832         117.614         117.614     245.906E-03     245.906E-03     726.884E-03     726.884E-03
            1833         117.645         117.645     236.127E-03     236.127E-03     779.659E-03     779.659E-03
            1834         117.682         117.682     218.470E-03     218.470E-03     832.173E-03     832.173E-03
            1835         117.725         117.725     191.090E-03     191.090E-03     883.462E-03     883.462E-03
            1836         117.776         117.776     151.902E-03     151.902E-03     932.310E-03     932.310E-03
            1837         117.838         117.838     98.6077E-03     98.6077E-03     977.198E-03     977.198E-03
            1838         117.912         117.912     28.7564E-03     28.7564E-03         1.01623         1.01623
            1839         118.003         118.003    -60.1474E-03    -60.1474E-03         1.04701         1.04701
            1840         118.112         118.112    -170.449E-03    -170.449E-03         1.06658         1.06658
            1841         118.246         118.246    -304.066E-03    -304.066E-03         1.07120         1.07120
            1842         118.406         118.406    -462.042E-03    -462.042E-03         1.05624         1.05624
            1843         118.597         118.597    -643.944E-03    -643.944E-03         1.01601         1.01601
            1844         118.823         118.823    -847.024E-03    -847.024E-03     943.642E-03     943.642E-03
            1845         119.084         119.084        -1.06511        -1.06511     831.190E-03     831.190E-03
            1846         119.380         119.380        -1.28741        -1.28741     669.965E-03     669.965E-03
            1847         119.706         119.706        -1.49698        -1.49698     451.473E-03     451.473E-03
            1848         120.050         120.050        -1.67001        -1.67001     169.052E-03     169.052E-03
            1849         120.395         120.395        -1.77470        -1.77470    -180.008E-03    -180.008E-03
            1850         120.714         120.714        -1.77232        -1.77232    -590.054E-03    -590.054E-03
            1851         120.975         120.975        -1.62021        -1.62021        -1.04279        -1.04279
            1852         117.393         117.393     64.3334E-03     64.3334E-03     15.9169E-03     15.9169E-03
            1853         117.394         117.394     65.6123E-03     65.6123E-03     31.9109E-03     31.9109E-03
            1854         117.397         117.397     67.7404E-03     67.7404E-03     48.3471E-03     48.3471E-03
            1855         117.401         117.401     70.7159E-03     70.7159E-03     65.3600E-03     65.3600E-03
            1856         117.406         117.406     74.5343E-03     74.5343E-03     83.1392E-03     83.1392E-03
            1857         117.412         117.412     79.1875E-03     79.1875E-03     101.873E-03     101.873E-03
            1858         117.420         117.420     84.6630E-03     84.6630E-03     121.746E-03     121.746E-03
            1859         117.429         117.429     90.9415E-03     90.9415E-03     142.939E-03     142.939E-03
            1860         117.439         117.439     97.9947E-03     97.9947E-03     165.627E-03     165.627E-03
            1861         117.450         117.450     105.782E-03     105.782E-03     189.977E-03     189.977E-03
            1862         117.463         117.463     114.246E-03     114.246E-03     216.145E-03     216.145E-03
            1863         117.478         117.478     123.310E-03     123.310E-03     244.271E-03     244.271E-03
            1864         117.494         117.494     132.871E-03     132.871E-03     274.480E-03     274.480E-03
            1865         117.512         117.512     142.789E-03     142.789E-03     306.870E-03     306.870E-03
            1866         117.531         117.531     152.888E-03     152.888E-03     341.511E-03     341.511E-03
            1867         117.553         117.553     162.936E-03     162.936E-03     378.435E-03     378.435E-03
            1868         117.576         117.576     172.640E-03     172.640E-03     417.627E-03     417.627E-03
            1869         117.602         117.602     181.632E-03     181.632E-03     459.015E-03     459.015E-03
            1870         117.631         117.631     189.449E-03     189.449E-03     502.456E-03     502.456E-03
            1871         117.662         117.662     195.522E-03     195.522E-03     547.723E-03     547.723E-03
            1872         117.696         117.696     199.152E-03     199.152E-03     594.485E-03     594.485E-03
            1873         117.734         117.734     199.494E-03     199.494E-03     642.289E-03     642.289E-03
            1874         117.776         117.776     195.531E-03     195.531E-03     690.532E-03     690.532E-03
            1875         117.823         117.823     186.067E-03     186.067E-03     738.437E-03     738.437E-03
            1876         117.875         117.875     169.701E-03     169.701E-03     785.018E-03     785.018E-03
            1877         117.933         117.933     144.834E-03     144.834E-03     829.040E-03     829.040E-03
            1878         118.000         118.000     109.676E-03     109.676E-03     868.977E-03     868.977E-03
            1879         118.076         118.076     62.2840E-03     62.2840E-03     902.958E-03     902.958E-03
            1880         118.163         118.163     635.449E-06     635.449E-06     928.710E-03     928.710E-03
            1881         118.264         118.264    -77.2434E-03    -77.2434E-03     943.483E-03     943.483E-03
            1882         118.381         118.381    -173.082E-03    -173.082E-03     943.993E-03     943.993E-03
            1883         118.515         118.515    -288.064E-03    -288.064E-03     926.344E-03     926.344E-03
            1884         118.671         118.671    -422.410E-03    -422.410E-03     886.000E-03     886.000E-03
            1885         118.848         118.848    -574.817E-03    -574.817E-03     817.778E-03     817.778E-03
            1886         119.049         119.049    -741.723E-03    -741.723E-03     715.998E-03     715.998E-03
            1887         119.273         119.273    -916.497E-03    -916.497E-03     574.764E-03     574.764E-03
            1888         119.515         119.515        -1.08845        -1.08845     388.593E-03     388.593E-03
            1889         119.769         119.769        -1.24221        -1.24221     153.457E-03     153.457E-03
            1890         120.024         120.024        -1.35702        -1.35702    -131.831E-03    -131.831E-03
            1891         120.264         120.264        -1.40728        -1.40728    -463.188E-03    -463.188E-03
            1892         120.467         120.467        -1.36406        -1.36406    -828.855E-03    -828.855E-03
            1893         120.608         120.608        -1.19875        -1.19875        -1.20610        -1.20610
            1894         117.398         117.398     49.0855E-03     49.0855E-03     14.6160E-03     14.6160E-03
            1895         117.400         117.400     50.0830E-03     50.0830E-03     29.2975E-03     29.2975E-03
            1896         117.404         117.404     51.7437E-03     51.7437E-03     44.4019E-03     44.4019E-03
            1897         117.409         117.409     54.0662E-03     54.0662E-03     60.0530E-03     60.0530E-03
            1898         117.416         117.416     57.0471E-03     57.0471E-03     76.4308E-03     76.4308E-03
            1899         117.425         117.425     60.6811E-03     60.6811E-03     93.7141E-03     93.7141E-03
            1900         117.435         117.435     64.9590E-03     64.9590E-03     112.079E-03     112.079E-03
            1901         117.447         117.447     69.8665E-03     69.8665E-03     131.696E-03     131.696E-03
            1902         117.461         117.461     75.3821E-03     75.3821E-03     152.733E-03     152.733E-03
            1903         117.477         117.477     81.4745E-03     81.4745E-03     175.346E-03     175.346E-03
            1904         117.496         117.496     88.0994E-03     88.0994E-03     199.683E-03     199.683E-03
            1905         117.516         117.516     95.1957E-03     95.1957E-03     225.877E-03     225.877E-03
            1906         117.539         117.539     102.681E-03     102.681E-03     254.041E-03     254.041E-03
            1907         117.564         117.564     110.445E-03     110.445E-03     284.263E-03     284.263E-03
            1908         117.592         117.592     118.343E-03     118.343E-03     316.601E-03     316.601E-03
            1909         117.623         117.623     126.189E-03     126.189E-03     351.069E-03     351.069E-03
            1910         117.656         117.656     133.745E-03     133.745E-03     387.634E-03     387.634E-03
            1911         117.693         117.693     140.706E-03     140.706E-03     426.198E-03     426.198E-03
            1912         117.733         117.733     146.694E-03     146.694E-03     466.583E-03     466.583E-03
            1913         117.777         117.777     151.237E-03     151.237E-03     508.518E-03     508.518E-03
            1914         117.825         117.825     153.758E-03     153.758E-03     551.614E-03     551.614E-03
            1915         117.877         117.877     153.554E-03     153.554E-03     595.342E-03     595.342E-03
            1916         117.934         117.934     149.782E-03     149.782E-03     639.004E-03     639.004E-03
            1917         117.996         117.996     141.447E-03     141.447E-03     681.703E-03     681.703E-03
            1918         118.063         118.063     127.390E-03     127.390E-03     722.307E-03     722.307E-03
            1919         118.137         118.137     106.292E-03     106.292E-03     759.411E-03     759.411E-03
            1920         118.218         118.218     76.6884E-03     76.6884E-03     791.293E-03     791.293E-03
            1921         118.307         118.307     37.0124E-03     37.0124E-03     815.875E-03     815.875E-03
            1922         118.405         118.405    -14.3308E-03    -14.3308E-03     830.678E-03     830.678E-03
            1923         118.513         118.513    -78.8400E-03    -78.8400E-03     832.792E-03     832.792E-03
            1924         118.632         118.632    -157.727E-03    -157.727E-03     818.848E-03     818.848E-03
            1925         118.764         118.764    -251.643E-03    -251.643E-03     785.041E-03     785.041E-03
            1926         118.909         118.909    -360.313E-03    -360.313E-03     727.173E-03     727.173E-03
            1927         119.068         119.068    -482.049E-03    -482.049E-03     640.812E-03     640.812E-03
            1928         119.239         119.239    -613.200E-03    -613.200E-03     521.550E-03     521.550E-03
            1929         119.420         119.420    -747.485E-03    -747.485E-03     365.454E-03     365.454E-03
            1930         119.606         119.606    -875.478E-03    -875.478E-03     169.790E-03     169.790E-03
            1931         119.790         119.790    -984.099E-03    -984.099E-03    -66.0589E-03    -66.0589E-03
            1932         119.962         119.962        -1.05672        -1.05672    -339.145E-03    -339.145E-03
            1933         120.109         120.109        -1.07386        -1.07386    -641.521E-03    -641.521E-03
            1934         120.214         120.214        -1.01504        -1.01504    -958.354E-03    -958.354E-03
            1935         120.262         120.262    -862.290E-03    -862.290E-03        -1.26670        -1.26670
            1936         117.399         117.399     35.3357E-03     35.3357E-03     12.9217E-03     12.9217E-03
            1937         117.402         117.402     36.0711E-03     36.0711E-03     25.8935E-03     25.8935E-03
            1938         117.407         117.407     37.2963E-03     37.2963E-03     39.2568E-03     39.2568E-03
            1939         117.413         117.413     39.0096E-03     39.0096E-03     53.1210E-03     53.1210E-03
            1940         117.422         117.422     41.2094E-03     41.2094E-03     67.6512E-03     67.6512E-03
            1941         117.433         117.433     43.8920E-03     43.8920E-03     83.0115E-03     83.0115E-03
            1942         117.446         117.446     47.0517E-03     47.0517E-03     99.3638E-03     99.3638E-03
            1943         117.461         117.461     50.6788E-03     50.6788E-03     116.866E-03     116.866E-03
            1944         117.479         117.479     54.7582E-03     54.7582E-03     135.671E-03     135.671E-03
            1945         117.500         117.500     59.2674E-03     59.2674E-03     155.925E-03     155.925E-03
            1946         117.523         117.523     64.1742E-03     64.1742E-03     177.763E-03     177.763E-03
            1947         117.549         117.549     69.4339E-03     69.4339E-03     201.306E-03     201.306E-03
            1948         117.578         117.578     74.9852E-03     74.9852E-03     226.659E-03     226.659E-03
            1949         117.611         117.611     80.7458E-03     80.7458E-03     253.900E-03     253.900E-03
            1950         117.647         117.647     86.6073E-03     86.6073E-03     283.077E-03     283.077E-03
            1951         117.687         117.687     92.4282E-03     92.4282E-03     314.197E-03     314.197E-03
            1952         117.730         117.730     98.0264E-03     98.0264E-03     347.216E-03     347.216E-03
            1953         117.778         117.778     103.170E-03     103.170E-03     382.025E-03     382.025E-03
            1954         117.830         117.830     107.568E-03     107.568E-03     418.435E-03     418.435E-03
            1955         117.887         117.887     110.856E-03     110.856E-03     456.157E-03     456.157E-03
            1956         117.948         117.948     112.586E-03     112.586E-03     494.782E-03     494.782E-03
            1957         118.015         118.015     112.213E-03     112.213E-03     533.753E-03     533.753E-03
            1958         118.086         118.086     109.082E-03     109.082E-03     572.336E-03     572.336E-03
            1959         118.163         118.163     102.418E-03     102.418E-03     609.590E-03     609.590E-03
            1960         118.246         118.246     91.3189E-03     91.3189E-03     644.329E-03     644.329E-03
            1961         118.335         118.335     74.7637E-03     74.7637E-03     675.085E-03     675.085E-03
            1962         118.430         118.430     51.6238E-03     51.6238E-03     700.073E-03     700.073E-03
            1963         118.531         118.531     20.7047E-03     20.7047E-03     717.156E-03     717.156E-03
            1964         118.639         118.639    -19.1883E-03    -19.1883E-03     723.823E-03     723.823E-03
            1965         118.753         118.753    -69.1395E-03    -69.1395E-03     717.178E-03     717.178E-03
            1966         118.874         118.874    -129.961E-03    -129.961E-03     693.970E-03     693.970E-03
            1967         119.002         119.002    -201.968E-03    -201.968E-03     650.648E-03     650.648E-03
            1968         119.135         119.135    -284.673E-03    -284.673E-03     583.499E-03     583.499E-03
            1969         119.272         119.272    -376.426E-03    -376.426E-03     488.873E-03     488.873E-03
            1970         119.412         119.412    -473.969E-03    -473.969E-03     363.529E-03     363.529E-03
            1971         119.549         119.549    -572.043E-03    -572.043E-03     205.159E-03     205.159E-03
            1972         119.681         119.681    -662.978E-03    -662.978E-03     13.0442E-03     13.0442E-03
            1973         119.798         119.798    -736.596E-03    -736.596E-03    -210.999E-03    -210.999E-03
            1974         119.894         119.894    -780.404E-03    -780.404E-03    -461.676E-03    -461.676E-03
            1975         119.958         119.958    -780.432E-03    -780.432E-03    -729.045E-03    -729.045E-03
            1976         119.979         119.979    -722.982E-03    -722.982E-03    -997.750E-03    -997.750E-03
            1977         119.950         119.950    -597.082E-03    -597.082E-03        -1.24666        -1.24666
            1978         117.396         117.396     23.4625E-03     23.4625E-03     10.8654E-03     10.8654E-03
            1979         117.399         117.399     23.9636E-03     23.9636E-03     21.7594E-03     21.7594E-03
            1980         117.405         117.405     24.7987E-03     24.7987E-03     33.0027E-03     33.0027E-03
            1981         117.413         117.413     25.9665E-03     25.9665E-03     44.6833E-03     44.6833E-03
            1982         117.423         117.423     27.4656E-03     27.4656E-03     56.9463E-03     56.9463E-03
            1983         117.436         117.436     29.2946E-03     29.2946E-03     69.9363E-03     69.9363E-03
            1984         117.452         117.452     31.4507E-03     31.4507E-03     83.7948E-03     83.7948E-03
            1985         117.470         117.470     33.9276E-03     33.9276E-03     98.6611E-03     98.6611E-03
            1986         117.492         117.492     36.7159E-03     36.7159E-03     114.671E-03     114.671E-03
            1987         117.516         117.516     39.8009E-03     39.8009E-03     131.952E-03     131.952E-03
            1988         117.544         117.544     43.1616E-03     43.1616E-03     150.626E-03     150.626E-03
            1989         117.576         117.576     46.7678E-03     46.7678E-03     170.801E-03     170.801E-03
            1990         117.611         117.611     50.5783E-03     50.5783E-03     192.569E-03     192.569E-03
            1991         117.651         117.651     54.5371E-03     54.5371E-03     216.001E-03     216.001E-03
            1992         117.695         117.695     58.5696E-03     58.5696E-03     241.138E-03     241.138E-03
            1993         117.743         117.743     62.5781E-03     62.5781E-03     267.984E-03     267.984E-03
            1994         117.796         117.796     66.4360E-03     66.4360E-03     296.497E-03     296.497E-03
            1995         117.855         117.855     69.9812E-03     69.9812E-03     326.573E-03     326.573E-03
            1996         117.919         117.919     73.0089E-03     73.0089E-03     358.031E-03     358.031E-03
            1997         117.988         117.988     75.2623E-03     75.2623E-03     390.597E-03     390.597E-03
            1998         118.063         118.063     76.4244E-03     76.4244E-03     423.881E-03     423.881E-03
            1999         118.144         118.144     76.1075E-03     76.1075E-03     457.349E-03     457.349E-03
            2000         118.231         118.231     73.8451E-03     73.8451E-03     490.299E-03     490.299E-03
            2001         118.324         118.324     69.0837E-03     69.0837E-03     521.825E-03     521.825E-03
            2002         118.423         118.423     61.1807E-03     61.1807E-03     550.788E-03     550.788E-03
            2003         118.527         118.527     49.4063E-03     49.4063E-03     575.777E-03     575.777E-03
            2004         118.637         118.637     32.9589E-03     32.9589E-03     595.078E-03     595.078E-03
            2005         118.751         118.751     10.9942E-03     10.9942E-03     606.655E-03     606.655E-03
            2006         118.869         118.869    -17.3211E-03    -17.3211E-03     608.130E-03     608.130E-03
            2007         118.991         118.991    -52.7250E-03    -52.7250E-03     596.802E-03     596.802E-03
            2008         119.115         119.115    -95.7384E-03    -95.7384E-03     569.688E-03     569.688E-03
            2009         119.239         119.239    -146.491E-03    -146.491E-03     523.626E-03     523.626E-03
            2010         119.361         119.361    -204.508E-03    -204.508E-03     455.441E-03     455.441E-03
            2011         119.479         119.479    -268.436E-03    -268.436E-03     362.207E-03     362.207E-03
            2012         119.588         119.588    -335.765E-03    -335.765E-03     241.628E-03     241.628E-03
            2013         119.685         119.685    -402.532E-03    -402.532E-03     92.5253E-03     92.5253E-03
            2014         119.764         119.764    -463.145E-03    -463.145E-03    -84.5034E-03    -84.5034E-03
            2015         119.820         119.820    -510.340E-03    -510.340E-03    -286.394E-03    -286.394E-03
            2016         119.845         119.845    -535.473E-03    -535.473E-03    -506.804E-03    -506.804E-03
            2017         119.832         119.832    -529.243E-03    -529.243E-03    -735.515E-03    -735.515E-03
            2018         119.778         119.778    -482.897E-03    -482.897E-03    -958.112E-03    -958.112E-03
            2019         119.677         119.677    -390.097E-03    -390.097E-03        -1.15619        -1.15619
            2020         117.388         117.388     13.8070E-03     13.8070E-03     8.48851E-03     8.48851E-03
            2021         117.392         117.392     14.1110E-03     14.1110E-03     16.9811E-03     16.9811E-03
            2022         117.399         117.399     14.6175E-03     14.6175E-03     25.7649E-03     25.7649E-03
            2023         117.408         117.408     15.3226E-03     15.3226E-03     34.9052E-03     34.9052E-03
            2024         117.419         117.419     16.2277E-03     16.2277E-03     44.5217E-03     44.5217E-03
            2025         117.434         117.434     17.3337E-03     17.3337E-03     54.7304E-03     54.7304E-03
            2026         117.452         117.452     18.6385E-03     18.6385E-03     65.6478E-03     65.6478E-03
            2027         117.473         117.473     20.1388E-03     20.1388E-03     77.3887E-03     77.3887E-03
            2028         117.498         117.498     21.8295E-03     21.8295E-03     90.0647E-03     90.0647E-03
            2029         117.526         117.526     23.7023E-03     23.7023E-03     103.783E-03     103.783E-03
            2030         117.558         117.558     25.7451E-03     25.7451E-03     118.645E-03     118.645E-03
            2031         117.595         117.595     27.9403E-03     27.9403E-03     134.741E-03     134.741E-03
            2032         117.636         117.636     30.2634E-03     30.2634E-03     152.150E-03     152.150E-03
            2033         117.682         117.682     32.6812E-03     32.6812E-03     170.932E-03     170.932E-03
            2034         117.733         117.733     35.1486E-03     35.1486E-03     191.125E-03     191.125E-03
            2035         117.790         117.790     37.6065E-03     37.6065E-03     212.734E-03     212.734E-03
            2036         117.853         117.853     39.9776E-03     39.9776E-03     235.725E-03     235.725E-03
            2037         117.922         117.922     42.1627E-03     42.1627E-03     260.015E-03     260.015E-03
            2038         117.997         117.997     44.0352E-03     44.0352E-03     285.451E-03     285.451E-03
            2039         118.079         118.079     45.4362E-03     45.4362E-03     311.803E-03     311.803E-03
            2040         118.168         118.168     46.1683E-03     46.1683E-03     338.737E-03     338.737E-03
            2041         118.264         118.264     45.9896E-03     45.9896E-03     365.797E-03     365.797E-03
            2042         118.367         118.367     44.6075E-03     44.6075E-03     392.376E-03     392.376E-03
            2043         118.476         118.476     41.6743E-03     41.6743E-03     417.690E-03     417.690E-03
            2044         118.592         118.592     36.7851E-03     36.7851E-03     440.748E-03     440.748E-03
            2045         118.713         118.713     29.4800E-03     29.4800E-03     460.318E-03     460.318E-03
            2046         118.839         118.839     19.2533E-03     19.2533E-03     474.906E-03     474.906E-03
            2047         118.969         118.969     5.57410E-03     5.57410E-03     482.734E-03     482.734E-03
            2048         119.101         119.101    -12.0789E-03    -12.0789E-03     481.735E-03     481.735E-03
            2049         119.233         119.233    -34.1619E-03    -34.1619E-03     469.572E-03     469.572E-03
            2050         119.362         119.362    -60.9835E-03    -60.9835E-03     443.696E-03     443.696E-03
            2051         119.487         119.487    -92.5974E-03    -92.5974E-03     401.446E-03     401.446E-03
            2052         119.602         119.602    -128.654E-03    -128.654E-03     340.223E-03     340.223E-03
            2053         119.704         119.704    -168.244E-03    -168.244E-03     257.747E-03     257.747E-03
            2054         119.789         119.789    -209.704E-03    -209.704E-03     152.397E-03     152.397E-03
            2055         119.850         119.850    -250.470E-03    -250.470E-03     23.6798E-03     23.6798E-03
            2056         119.882         119.882    -286.959E-03    -286.959E-03    -127.266E-03    -127.266E-03
            2057         119.880         119.880    -314.607E-03    -314.607E-03    -297.065E-03    -297.065E-03
            2058         119.839         119.839    -328.090E-03    -328.090E-03    -479.594E-03    -479.594E-03
            2059         119.754         119.754    -321.804E-03    -321.804E-03    -665.593E-03    -665.593E-03
            2060         119.623         119.623    -290.666E-03    -290.666E-03    -842.636E-03    -842.636E-03
            2061         119.448         119.448    -231.124E-03    -231.124E-03    -995.595E-03    -995.595E-03
            2062         117.375         117.375     6.66354E-03     6.66354E-03     5.84983E-03     5.84983E-03
            2063         117.380         117.380     6.81936E-03     6.81936E-03     11.6644E-03     11.6644E-03
            2064         117.387         117.387     7.06989E-03     7.06989E-03     17.7044E-03     17.7044E-03
            2065         117.396         117.396     7.41647E-03     7.41647E-03     24.0045E-03     24.0045E-03
            2066         117.409         117.409     7.86428E-03     7.86428E-03     30.6456E-03     30.6456E-03
            2067         117.426         117.426     8.41190E-03     8.41190E-03     37.7120E-03     37.7120E-03
            2068         117.445         117.445     9.05849E-03     9.05849E-03     45.2885E-03     45.2885E-03
            2069         117.469         117.469     9.80280E-03     9.80280E-03     53.4585E-03     53.4585E-03
            2070         117.496         117.496     10.6424E-03     10.6424E-03     62.3038E-03     62.3038E-03
            2071         117.527         117.527     11.5735E-03     11.5735E-03     71.9034E-03     71.9034E-03
            2072         117.563         117.563     12.5906E-03     12.5906E-03     82.3319E-03     82.3319E-03
            2073         117.604         117.604     13.6852E-03     13.6852E-03     93.6577E-03     93.6577E-03
            2074         117.650         117.650     14.8456E-03     14.8456E-03     105.941E-03     105.941E-03
            2075         117.702         117.702     16.0557E-03     16.0557E-03     119.228E-03     119.228E-03
            2076         117.760         117.760     17.2936E-03     17.2936E-03     133.550E-03     133.550E-03
            2077         117.825         117.825     18.5301E-03     18.5301E-03     148.916E-03     148.916E-03
            2078         117.897         117.897     19.7269E-03     19.7269E-03     165.307E-03     165.307E-03
            2079         117.976         117.976     20.8345E-03     20.8345E-03     182.664E-03     182.664E-03
            2080         118.062         118.062     21.7898E-03     21.7898E-03     200.882E-03     200.882E-03
            2081         118.157         118.157     22.5127E-03     22.5127E-03     219.795E-03     219.795E-03
            2082         118.260         118.260     22.9036E-03     22.9036E-03     239.163E-03     239.163E-03
            2083         118.371         118.371     22.8395E-03     22.8395E-03     258.650E-03     258.650E-03
            2084         118.490         118.490     22.1718E-03     22.1718E-03     277.810E-03     277.810E-03
            2085         118.617         118.617     20.7225E-03     20.7225E-03     296.058E-03     296.058E-03
            2086         118.751         118.751     18.2842E-03     18.2842E-03     312.652E-03     312.652E-03
            2087         118.892         118.892     14.6202E-03     14.6202E-03     326.665E-03     326.665E-03
            2088         119.037         119.037     9.47019E-03     9.47019E-03     336.969E-03     336.969E-03
            2089         119.186         119.186     2.55995E-03     2.55995E-03     342.214E-03     342.214E-03
            2090         119.336         119.336    -6.37957E-03    -6.37957E-03     340.830E-03     340.830E-03
            2091         119.483         119.483    -17.5831E-03    -17.5831E-03     331.042E-03     331.042E-03
            2092         119.625         119.625    -31.2091E-03    -31.2091E-03     310.916E-03     310.916E-03
            2093         119.757         119.757    -47.2794E-03    -47.2794E-03     278.446E-03     278.446E-03
            2094         119.873         119.873    -65.6094E-03    -65.6094E-03     231.695E-03     231.695E-03
            2095         119.968         119.968    -85.7142E-03    -85.7142E-03     168.997E-03     168.997E-03
            2096         120.035         120.035    -106.726E-03    -106.726E-03     89.2403E-03     89.2403E-03
            2097         120.069         120.069    -127.303E-03    -127.303E-03    -7.78968E-03    -7.78968E-03
            2098         120.062         120.062    -145.593E-03    -145.593E-03    -120.998E-03    -120.998E-03
            2099         120.008         120.008    -159.250E-03    -159.250E-03    -247.578E-03    -247.578E-03
            2100         119.903         119.903    -165.565E-03    -165.565E-03    -382.638E-03    -382.638E-03
            2101         119.744         119.744    -161.747E-03    -161.747E-03    -519.001E-03    -519.001E-03
            2102         119.532         119.532    -145.295E-03    -145.295E-03    -647.260E-03    -647.260E-03
            2103         119.273         119.273    -114.450E-03    -114.450E-03    -756.091E-03    -756.091E-03
            2104         117.357         117.357     2.26107E-03     2.26107E-03     3.01513E-03     3.01513E-03
            2105         117.361         117.361     2.32103E-03     2.32103E-03     5.96709E-03     5.96709E-03
            2106         117.369         117.369     2.40374E-03     2.40374E-03     9.06666E-03     9.06666E-03
            2107         117.379         117.379     2.52285E-03     2.52285E-03     12.3030E-03     12.3030E-03
            2108         117.393         117.393     2.67811E-03     2.67811E-03     15.7193E-03     15.7193E-03
            2109         117.410         117.410     2.86763E-03     2.86763E-03     19.3622E-03     19.3622E-03
            2110         117.431         117.431     3.09192E-03     3.09192E-03     23.2769E-03     23.2769E-03
            2111         117.456         117.456     3.35013E-03     3.35013E-03     27.5084E-03     27.5084E-03
            2112         117.485         117.485     3.64175E-03     3.64175E-03     32.1011E-03     32.1011E-03
            2113         117.519         117.519     3.96547E-03     3.96547E-03     37.0979E-03     37.0979E-03
            2114         117.558         117.558     4.31949E-03     4.31949E-03     42.5397E-03     42.5397E-03
            2115         117.603         117.603     4.70102E-03     4.70102E-03     48.4644E-03     48.4644E-03
            2116         117.654         117.654     5.10615E-03     5.10615E-03     54.9057E-03     54.9057E-03
            2117         117.711         117.711     5.52939E-03     5.52939E-03     61.8909E-03     61.8909E-03
            2118         117.775         117.775     5.96326E-03     5.96326E-03     69.4389E-03     69.4389E-03
            2119         117.846         117.846     6.39776E-03     6.39776E-03     77.5570E-03     77.5570E-03
            2120         117.926         117.926     6.81971E-03     6.81971E-03     86.2376E-03     86.2376E-03
            2121         118.014         118.014     7.21194E-03     7.21194E-03     95.4532E-03     95.4532E-03
            2122         118.112         118.112     7.55243E-03     7.55243E-03     105.151E-03     105.151E-03
            2123         118.219         118.219     7.81323E-03     7.81323E-03     115.244E-03     115.244E-03
            2124         118.335         118.335     7.95932E-03     7.95932E-03     125.607E-03     125.607E-03
            2125         118.462         118.462     7.94747E-03     7.94747E-03     136.062E-03     136.062E-03
            2126         118.598         118.598     7.72493E-03     7.72493E-03     146.369E-03     146.369E-03
            2127         118.744         118.744     7.22875E-03     7.22875E-03     156.213E-03     156.213E-03
            2128         118.899         118.899     6.38482E-03     6.38482E-03     165.190E-03     165.190E-03
            2129         119.061         119.061     5.10885E-03     5.10885E-03     172.794E-03     172.794E-03
            2130         119.230         119.230     3.30713E-03     3.30713E-03     178.403E-03     178.403E-03
            2131         119.403         119.403     881.395E-06     881.395E-06     181.272E-03     181.272E-03
            2132         119.576         119.576    -2.26591E-03    -2.26591E-03     180.529E-03     180.529E-03
            2133         119.747         119.747    -6.21966E-03    -6.21966E-03     175.186E-03     175.186E-03
            2134         119.910         119.910    -11.0379E-03    -11.0379E-03     164.161E-03     164.161E-03
            2135         120.059         120.059    -16.7299E-03    -16.7299E-03     146.331E-03     146.331E-03
            2136         120.187         120.187    -23.2294E-03    -23.2294E-03     120.610E-03     120.610E-03
            2137         120.287         120.287    -30.3645E-03    -30.3645E-03     86.0673E-03     86.0673E-03
            2138         120.350         120.350    -37.8210E-03    -37.8210E-03     42.0816E-03     42.0816E-03
            2139         120.367         120.367    -45.1197E-03    -45.1197E-03    -11.4506E-03    -11.4506E-03
            2140         120.331         120.331    -51.5928E-03    -51.5928E-03    -73.9000E-03    -73.9000E-03
            2141         120.232         120.232    -56.4021E-03    -56.4021E-03    -143.665E-03    -143.665E-03
            2142         120.066         120.066    -58.5836E-03    -58.5836E-03    -217.978E-03    -217.978E-03
            2143         119.831         119.831    -57.1420E-03    -57.1420E-03    -292.821E-03    -292.821E-03
            2144         119.528         119.528    -51.2364E-03    -51.2364E-03    -362.957E-03    -362.957E-03
            2145         119.165         119.165    -40.2002E-03    -40.2002E-03    -422.061E-03    -422.061E-03
            2146         111.166         111.166         32.1266         32.1266        -8.62472        -8.62472
            2147         112.364         112.364         29.2363         29.2363        -8.57239        -8.57239
            2148         113.529         113.529         26.3361         26.3361        -8.28817        -8.28817
            2149         114.618         114.618         23.4978         23.4978        -7.85681        -7.85681
            2150         115.607         115.607         20.7751         20.7751        -7.29953        -7.29953
            2151         116.475         116.475         18.2119         18.2119        -6.63890        -6.63890
            2152         117.210         117.210         15.8423         15.8423        -5.90881        -5.90881
            2153         117.813         117.813         13.6841         13.6841        -5.14075        -5.14075
            2154         118.286         118.286         11.7458         11.7458        -4.36504        -4.36504
            2155         118.644         118.644         10.0236         10.0236        -3.60779        -3.60779
            2156         118.898         118.898         8.50773         8.50773        -2.88721        -2.88721
            2157         119.065         119.065         7.18369         7.18369        -2.21804        -2.21804
            2158         119.159         119.159         6.03401         6.03401        -1.60699        -1.60699
            2159         119.195         119.195         5.04176         5.04176        -1.05875        -1.05875
            2160         119.184         119.184         4.18890         4.18890    -572.698E-03    -572.698E-03
            2161         119.136         119.136         3.45978         3.45978    -147.307E-03    -147.307E-03
            2162         119.061         119.061         2.83867         2.83867     221.650E-03     221.650E-03
            2163         118.964         118.964         2.31230         2.31230     538.620E-03     538.620E-03
            2164         118.852         118.852         1.86775         1.86775     809.103E-03     809.103E-03
            2165         118.729         118.729         1.49404         1.49404         1.03844         1.03844
            2166         118.599         118.599         1.18066         1.18066         1.23217         1.23217
            2167         118.464         118.464     918.474E-03     918.474E-03         1.39552         1.39552
            2168         118.328         118.328     698.748E-03     698.748E-03         1.53353         1.53353
            2169         118.193         118.193     513.654E-03     513.654E-03         1.65091         1.65091
            2170         118.061         118.061     355.652E-03     355.652E-03         1.75208         1.75208
            2171         117.933         117.933     217.718E-03     217.718E-03         1.84116         1.84116
            2172         117.814         117.814     92.9520E-03     92.9520E-03         1.92200         1.92200
            2173         117.704         117.704    -25.3429E-03    -25.3429E-03         1.99819         1.99819
            2174         117.607         117.607    -143.927E-03    -143.927E-03         2.07310         2.07310
            2175         117.529         117.529    -269.646E-03    -269.646E-03         2.14977         2.14977
            2176         117.472         117.472    -409.606E-03    -409.606E-03         2.23093         2.23093
            2177         117.446         117.446    -571.257E-03    -571.257E-03         2.31871         2.31871
            2178         117.457         117.457    -762.447E-03    -762.447E-03         2.41436         2.41436
            2179         117.517         117.517    -991.470E-03    -991.470E-03         2.51763         2.51763
            2180         117.640         117.640        -1.26673        -1.26673         2.62583         2.62583
            2181         117.845         117.845        -1.59636        -1.59636         2.73241         2.73241
            2182         118.152         118.152        -1.98647        -1.98647         2.82468         2.82468
            2183         118.585         118.585        -2.43888        -2.43888         2.88123         2.88123
            2184         119.169         119.169        -2.94496        -2.94496         2.86804         2.86804
            2185         119.922         119.922        -3.47777        -3.47777         2.73760         2.73760
            2186         120.842         120.842        -3.97885        -3.97885         2.42955         2.42955
            2187         121.895         121.895        -4.35365        -4.35365         1.88885         1.88885
            2188         111.492         111.492         32.0588         32.0588        -9.85976        -9.85976
            2189         112.751         112.751         29.0012         29.0012        -9.79220        -9.79220
            2190         113.959         113.959         25.9336         25.9336        -9.43954        -9.43954
            2191         115.078         115.078         22.9409         22.9409        -8.91093        -8.91093
            2192         116.072         116.072         20.0900         20.0900        -8.22542        -8.22542
            2193         116.917         116.917         17.4362         17.4362        -7.42480        -7.42480
            2194         117.610         117.610         15.0122         15.0122        -6.54858        -6.54858
            2195         118.149         118.149         12.8382         12.8382        -5.64028        -5.64028
            2196         118.550         118.550         10.9137         10.9137        -4.73772        -4.73772
            2197         118.827         118.827         9.22960         9.22960        -3.86849        -3.86849
            2198         119.004         119.004         7.76839         7.76839        -3.05556        -3.05556
            2199         119.098         119.098         6.50815         6.50815        -2.30957        -2.30957
            2200         119.129         119.129         5.42773         5.42773        -1.63875        -1.63875
            2201         119.110         119.110         4.50428         4.50428        -1.04309        -1.04309
            2202         119.055         119.055         3.71886         3.71886    -521.653E-03    -521.653E-03
            2203         118.975         118.975         3.05225         3.05225    -69.4552E-03    -69.4552E-03
            2204         118.876         118.876         2.48908         2.48908     318.593E-03     318.593E-03
            2205         118.766         118.766         2.01433         2.01433     649.104E-03     649.104E-03
            2206         118.649         118.649         1.61581         1.61581     928.381E-03     928.381E-03
            2207         118.529         118.529         1.28190         1.28190         1.16299         1.16299
            2208         118.408         118.408         1.00288         1.00288         1.35903         1.35903
            2209         118.289         118.289     769.492E-03     769.492E-03         1.52233         1.52233
            2210         118.174         118.174     573.720E-03     573.720E-03         1.65819         1.65819
            2211         118.064         118.064     407.878E-03     407.878E-03         1.77152         1.77152
            2212         117.962         117.962     264.983E-03     264.983E-03         1.86672         1.86672
            2213         117.868         117.868     138.241E-03     138.241E-03         1.94775         1.94775
            2214         117.786         117.786     21.1964E-03     21.1964E-03         2.01815         2.01815
            2215         117.717         117.717    -92.5790E-03    -92.5790E-03         2.08100         2.08100
            2216         117.665         117.665    -209.435E-03    -209.435E-03         2.13894         2.13894
            2217         117.634         117.634    -335.810E-03    -335.810E-03         2.19409         2.19409
            2218         117.629         117.629    -478.212E-03    -478.212E-03         2.24791         2.24791
            2219         117.657         117.657    -643.226E-03    -643.226E-03         2.30098         2.30098
            2220         117.726         117.726    -837.408E-03    -837.408E-03         2.35260         2.35260
            2221         117.846         117.846        -1.06696        -1.06696         2.40016         2.40016
            2222         118.028         118.028        -1.33725        -1.33725         2.43839         2.43839
            2223         118.287         118.287        -1.65160        -1.65160         2.45800         2.45800
            2224         118.636         118.636        -2.00959        -2.00959         2.44450         2.44450
            2225         119.089         119.089        -2.40370        -2.40370         2.37625         2.37625
            2226         119.655         119.655        -2.81479        -2.81479         2.22436         2.22436
            2227         120.332         120.332        -3.20591        -3.20591         1.95300         1.95300
            2228         121.101         121.101        -3.51669        -3.51669         1.52718         1.52718
            2229         121.923         121.923        -3.66697        -3.66697     915.905E-03     915.905E-03
            2230         111.919         111.919         31.9759         31.9759        -11.1630        -11.1630
            2231         113.240         113.240         28.7135         28.7135        -11.0678        -11.0678
            2232         114.505         114.505         25.4348         25.4348        -10.6352        -10.6352
            2233         115.649         115.649         22.2529         22.2529        -9.97589        -9.97589
            2234         116.634         116.634         19.2544         19.2544        -9.13729        -9.13729
            2235         117.443         117.443         16.4991         16.4991        -8.16460        -8.16460
            2236         118.062         118.062         14.0288         14.0288        -7.11993        -7.11993
            2237         118.514         118.514         11.8510         11.8510        -6.05729        -6.05729
            2238         118.812         118.812         9.96046         9.96046        -5.01904        -5.01904
            2239         118.990         118.990         8.33559         8.33559        -4.04087        -4.04087
            2240         119.069         119.069         6.94826         6.94826        -3.13932        -3.13932
            2241         119.078         119.078         5.77103         5.77103        -2.32803        -2.32803
            2242         119.035         119.035         4.77375         4.77375        -1.60754        -1.60754
            2243         118.958         118.958         3.93272         3.93272    -977.729E-03    -977.729E-03
            2244         118.858         118.858         3.22360         3.22360    -432.308E-03    -432.308E-03
            2245         118.745         118.745         2.62808         2.62808     34.7744E-03     34.7744E-03
            2246         118.626         118.626         2.12816         2.12816     431.722E-03     431.722E-03
            2247         118.506         118.506         1.71010         1.71010     766.155E-03     766.155E-03
            2248         118.388         118.388         1.36073         1.36073         1.04602         1.04602
            2249         118.275         118.275         1.06962         1.06962         1.27855         1.27855
            2250         118.168         118.168     826.872E-03     826.872E-03         1.47061         1.47061
            2251         118.069         118.069     624.254E-03     624.254E-03         1.62834         1.62834
            2252         117.979         117.979     453.940E-03     453.940E-03         1.75732         1.75732
            2253         117.899         117.899     309.046E-03     309.046E-03         1.86244         1.86244
            2254         117.829         117.829     182.939E-03     182.939E-03         1.94799         1.94799
            2255         117.772         117.772     69.4734E-03     69.4734E-03         2.01768         2.01768
            2256         117.728         117.728    -37.3985E-03    -37.3985E-03         2.07460         2.07460
            2257         117.700         117.700    -143.520E-03    -143.520E-03         2.12128         2.12128
            2258         117.691         117.691    -254.725E-03    -254.725E-03         2.15962         2.15962
            2259         117.704         117.704    -376.766E-03    -376.766E-03         2.19081         2.19081
            2260         117.745         117.745    -515.328E-03    -515.328E-03         2.21520         2.21520
            2261         117.819         117.819    -675.870E-03    -675.870E-03         2.23208         2.23208
            2262         117.933         117.933    -863.366E-03    -863.366E-03         2.23930         2.23930
            2263         118.094         118.094        -1.08185        -1.08185         2.23283         2.23283
            2264         118.312         118.312        -1.33357        -1.33357         2.20608         2.20608
            2265         118.595         118.595        -1.61782        -1.61782         2.14925         2.14925
            2266         118.952         118.952        -1.92888        -1.92888         2.04848         2.04848
            2267         119.386         119.386        -2.25340        -2.25340         1.88591         1.88591
            2268         119.897         119.897        -2.56712        -2.56712         1.63994         1.63994
            2269         120.470         120.470        -2.83094        -2.83094         1.28871         1.28871
            2270         121.080         121.080        -2.99122        -2.99122     813.952E-03     813.952E-03
            2271         121.685         121.685        -2.97302        -2.97302     203.858E-03     203.858E-03
            2272         112.463         112.463         31.8820         31.8820        -12.5438        -12.5438
            2273         113.877         113.877         28.3526         28.3526        -12.4185        -12.4185
            2274         115.195         115.195         24.8108         24.8108        -11.8668        -11.8668
            2275         116.358         116.358         21.4004         21.4004        -11.0490        -11.0490
            2276         117.319         117.319         18.2278         18.2278        -10.0076        -10.0076
            2277         118.048         118.048         15.3753         15.3753        -8.82948        -8.82948
            2278         118.566         118.566         12.8690         12.8690        -7.59018        -7.59018
            2279         118.884         118.884         10.7148         10.7148        -6.35640        -6.35640
            2280         119.052         119.052         8.88648         8.88648        -5.18437        -5.18437
            2281         119.099         119.099         7.34735         7.34735        -4.09988        -4.09988
            2282         119.066         119.066         6.06037         6.06037        -3.12537        -3.12537
            2283         118.976         118.976         4.98406         4.98406        -2.26154        -2.26154
            2284         118.855         118.855         4.08781         4.08781        -1.50927        -1.50927
            2285         118.716         118.716         3.33961         3.33961    -859.988E-03    -859.988E-03
            2286         118.572         118.572         2.71715         2.71715    -306.070E-03    -306.070E-03
            2287         118.431         118.431         2.19820         2.19820     163.052E-03     163.052E-03
            2288         118.296         118.296         1.76697         1.76697     556.888E-03     556.888E-03
            2289         118.172         118.172         1.40827         1.40827     885.241E-03     885.241E-03
            2290         118.059         118.059         1.11074         1.11074         1.15689         1.15689
            2291         117.960         117.960     863.674E-03     863.674E-03         1.38002         1.38002
            2292         117.874         117.874     658.595E-03     658.595E-03         1.56189         1.56189
            2293         117.800         117.800     487.505E-03     487.505E-03         1.70891         1.70891
            2294         117.740         117.740     343.659E-03     343.659E-03         1.82671         1.82671
            2295         117.694         117.694     220.618E-03     220.618E-03         1.92009         1.92009
            2296         117.661         117.661     112.603E-03     112.603E-03         1.99311         1.99311
            2297         117.642         117.642     13.9860E-03     13.9860E-03         2.04910         2.04910
            2298         117.638         117.638    -80.5463E-03    -80.5463E-03         2.09071         2.09071
            2299         117.651         117.651    -176.248E-03    -176.248E-03         2.11984         2.11984
            2300         117.684         117.684    -278.204E-03    -278.204E-03         2.13770         2.13770
            2301         117.738         117.738    -391.393E-03    -391.393E-03         2.14464         2.14464
            2302         117.819         117.819    -520.518E-03    -520.518E-03         2.14014         2.14014
            2303         117.930         117.930    -669.832E-03    -669.832E-03         2.12252         2.12252
            2304         118.077         118.077    -842.755E-03    -842.755E-03         2.08879         2.08879
            2305         118.265         118.265        -1.04130        -1.04130         2.03424         2.03424
            2306         118.500         118.500        -1.26521        -1.26521         1.95223         1.95223
            2307         118.787         118.787        -1.51074        -1.51074         1.83375         1.83375
            2308         119.128         119.128        -1.76893        -1.76893         1.66757         1.66757
            2309         119.520         119.520        -2.02375        -2.02375         1.44057         1.44057
            2310         119.957         119.957        -2.24970        -2.24970         1.13946         1.13946
            2311         120.421         120.421        -2.41114        -2.41114     753.357E-03     753.357E-03
            2312         120.884         120.884        -2.45996        -2.45996     276.944E-03     276.944E-03
            2313         121.302         121.302        -2.33694        -2.33694    -281.563E-03    -281.563E-03
            2314         113.201         113.201         31.7609         31.7609        -14.0305        -14.0305
            2315         114.697         114.697         27.8971         27.8971        -13.8407        -13.8407
            2316         116.084         116.084         24.0188         24.0188        -13.1465        -13.1465
            2317         117.250         117.250         20.3252         20.3252        -12.0954        -12.0954
            2318         118.134         118.134         16.9705         16.9705        -10.8041        -10.8041
            2319         118.748         118.748         14.0229         14.0229        -9.37197        -9.37197
            2320         119.090         119.090         11.5182         11.5182        -7.90768        -7.90768
            2321         119.237         119.237         9.42580         9.42580        -6.50174        -6.50174
            2322         119.226         119.226         7.69817         7.69817        -5.19592        -5.19592
            2323         119.119         119.119         6.28284         6.28284        -4.02779        -4.02779
            2324         118.953         118.953         5.12005         5.12005        -2.99709        -2.99709
            2325         118.758         118.758         4.16904         4.16904        -2.10584        -2.10584
            2326         118.556         118.556         3.38611         3.38611        -1.34130        -1.34130
            2327         118.360         118.360         2.74357         2.74357    -693.162E-03    -693.162E-03
            2328         118.178         118.178         2.21321         2.21321    -147.255E-03    -147.255E-03
            2329         118.015         118.015         1.77665         1.77665     308.732E-03     308.732E-03
            2330         117.873         117.873         1.41598         1.41598     687.135E-03     687.135E-03
            2331         117.753         117.753         1.11880         1.11880     998.824E-03     998.824E-03
            2332         117.655         117.655     873.352E-03     873.352E-03         1.25366         1.25366
            2333         117.577         117.577     670.888E-03     670.888E-03         1.46029         1.46029
            2334         117.519         117.519     503.210E-03     503.210E-03         1.62624         1.62624
            2335         117.478         117.478     363.739E-03     363.739E-03         1.75800         1.75800
            2336         117.455         117.455     246.260E-03     246.260E-03         1.86105         1.86105
            2337         117.447         117.447     145.408E-03     145.408E-03         1.93999         1.93999
            2338         117.455         117.455     56.0098E-03     56.0098E-03         1.99853         1.99853
            2339         117.478         117.478    -26.6840E-03    -26.6840E-03         2.03959         2.03959
            2340         117.517         117.517    -107.337E-03    -107.337E-03         2.06529         2.06529
            2341         117.572         117.572    -190.391E-03    -190.391E-03         2.07697         2.07697
            2342         117.645         117.645    -280.189E-03    -280.189E-03         2.07517         2.07517
            2343         117.738         117.738    -380.818E-03    -380.818E-03         2.05961         2.05961
            2344         117.854         117.854    -496.017E-03    -496.017E-03         2.02904         2.02904
            2345         117.995         117.995    -628.882E-03    -628.882E-03         1.98125         1.98125
            2346         118.166         118.166    -781.481E-03    -781.481E-03         1.91281         1.91281
            2347         118.369         118.369    -954.244E-03    -954.244E-03         1.81909         1.81909
            2348         118.608         118.608        -1.14517        -1.14517         1.69405         1.69405
            2349         118.884         118.884        -1.34869        -1.34869         1.53046         1.53046
            2350         119.194         119.194        -1.55455        -1.55455         1.32020         1.32020
            2351         119.535         119.535        -1.74624        -1.74624         1.05526         1.05526
            2352         119.895         119.895        -1.90031        -1.90031     729.350E-03     729.350E-03
            2353         120.255         120.255        -1.98531        -1.98531     340.097E-03     340.097E-03
            2354         120.590         120.590        -1.96283        -1.96283    -106.624E-03    -106.624E-03
            2355         120.865         120.865        -1.79043        -1.79043    -592.504E-03    -592.504E-03
            2356         114.165         114.165         31.6199         31.6199        -15.6307        -15.6307
            2357         115.806         115.806         27.2972         27.2972        -15.3722        -15.3722
            2358         117.238         117.238         22.9838         22.9838        -14.4316        -14.4316
            2359         118.354         118.354         18.9660         18.9660        -13.0883        -13.0883
            2360         119.118         119.118         15.4063         15.4063        -11.4552        -11.4552
            2361         119.499         119.499         12.4151         12.4151        -9.71522        -9.71522
            2362         119.612         119.612         9.96293         9.96293        -8.01681        -8.01681
            2363         119.505         119.505         7.99150         7.99150        -6.43252        -6.43252
            2364         119.280         119.280         6.42196         6.42196        -5.02835        -5.02835
            2365         118.991         118.991         5.16301         5.16301        -3.79987        -3.79987
            2366         118.683         118.683         4.15883         4.15883        -2.74996        -2.74996
            2367         118.382         118.382         3.34746         3.34746        -1.85826        -1.85826
            2368         118.105         118.105         2.69405         2.69405        -1.10962        -1.10962
            2369         117.861         117.861         2.16201         2.16201    -484.333E-03    -484.333E-03
            2370         117.652         117.652         1.72984         1.72984     34.1656E-03     34.1656E-03
            2371         117.480         117.480         1.37614         1.37614     461.662E-03     461.662E-03
            2372         117.344         117.344         1.08733         1.08733     811.872E-03     811.872E-03
            2373         117.241         117.241     850.427E-03     850.427E-03         1.09673         1.09673
            2374         117.168         117.168     656.433E-03     656.433E-03         1.32666         1.32666
            2375         117.122         117.122     496.933E-03     496.933E-03         1.51042         1.51042
            2376         117.101         117.101     365.568E-03     365.568E-03         1.65559         1.65559
            2377         117.102         117.102     256.376E-03     256.376E-03         1.76840         1.76840
            2378         117.122         117.122     164.455E-03     164.455E-03         1.85411         1.85411
            2379         117.159         117.159     85.1272E-03     85.1272E-03         1.91690         1.91690
            2380         117.213         117.213     14.2393E-03     14.2393E-03         1.96010         1.96010
            2381         117.282         117.282    -52.2560E-03    -52.2560E-03         1.98612         1.98612
            2382         117.366         117.366    -118.146E-03    -118.146E-03         1.99659         1.99659
            2383         117.464         117.464    -187.137E-03    -187.137E-03         1.99230         1.99230
            2384         117.578         117.578    -262.721E-03    -262.721E-03         1.97325         1.97325
            2385         117.708         117.708    -348.159E-03    -348.159E-03         1.93861         1.93861
            2386         117.855         117.855    -446.263E-03    -446.263E-03         1.88672         1.88672
            2387         118.023         118.023    -559.162E-03    -559.162E-03         1.81502         1.81502
            2388         118.211         118.211    -687.870E-03    -687.870E-03         1.72012         1.72012
            2389         118.422         118.422    -831.772E-03    -831.772E-03         1.59777         1.59777
            2390         118.656         118.656    -987.877E-03    -987.877E-03         1.44304         1.44304
            2391         118.912         118.912        -1.15005        -1.15005         1.25067         1.25067
            2392         119.186         119.186        -1.30801        -1.30801         1.01568         1.01568
            2393         119.472         119.472        -1.44673        -1.44673     734.468E-03     734.468E-03
            2394         119.757         119.757        -1.54575        -1.54575     406.163E-03     406.163E-03
            2395         120.025         120.025        -1.57974        -1.57974     35.1079E-03     35.1079E-03
            2396         120.256         120.256        -1.51996        -1.51996    -366.785E-03    -366.785E-03
            2397         120.424         120.424        -1.33794        -1.33794    -776.723E-03    -776.723E-03
            2398         115.553         115.553         31.4105         31.4105        -17.4108        -17.4108
            2399         117.288         117.288         26.4827         26.4827        -16.9680        -16.9680
            2400         118.751         118.751         21.6127         21.6127        -15.7257        -15.7257
            2401         119.763         119.763         17.1854         17.1854        -13.9153        -13.9153
            2402         120.220         120.220         13.4861         13.4861        -11.8483        -11.8483
            2403         120.289         120.289         10.5138         10.5138        -9.76762        -9.76762
            2404         120.025         120.025         8.21269         8.21269        -7.81380        -7.81380
            2405         119.609         119.609         6.45428         6.45428        -6.11180        -6.11180
            2406         119.128         119.128         5.08815         5.08815        -4.64407        -4.64407
            2407         118.645         118.645         4.03591         4.03591        -3.41243        -3.41243
            2408         118.198         118.198         3.20619         3.20619        -2.38235        -2.38235
            2409         117.802         117.802         2.55501         2.55501        -1.52963        -1.52963
            2410         117.466         117.466         2.03412         2.03412    -826.128E-03    -826.128E-03
            2411         117.191         117.191         1.61850         1.61850    -248.671E-03    -248.671E-03
            2412         116.975         116.975         1.28255         1.28255     223.128E-03     223.128E-03
            2413         116.812         116.812         1.01150         1.01150     606.854E-03     606.854E-03
            2414         116.697         116.697     791.083E-03     791.083E-03     916.924E-03     916.924E-03
            2415         116.626         116.626     612.154E-03     612.154E-03         1.16590         1.16590
            2416         116.592         116.592     466.152E-03     466.152E-03         1.36390         1.36390
            2417         116.591         116.591     347.016E-03     347.016E-03         1.51971         1.51971
            2418         116.618         116.618     249.114E-03     249.114E-03         1.64036         1.64036
            2419         116.669         116.669     168.057E-03     168.057E-03         1.73178         1.73178
            2420         116.741         116.741     99.7083E-03     99.7083E-03         1.79866         1.79866
            2421         116.831         116.831     40.5429E-03     40.5429E-03         1.84477         1.84477
            2422         116.937         116.937    -12.8448E-03    -12.8448E-03         1.87287         1.87287
            2423         117.057         117.057    -63.5664E-03    -63.5664E-03         1.88492         1.88492
            2424         117.189         117.189    -114.671E-03    -114.671E-03         1.88203         1.88203
            2425         117.333         117.333    -169.025E-03    -169.025E-03         1.86452         1.86452
            2426         117.489         117.489    -229.366E-03    -229.366E-03         1.83195         1.83195
            2427         117.656         117.656    -298.144E-03    -298.144E-03         1.78310         1.78310
            2428         117.834         117.834    -377.405E-03    -377.405E-03         1.71604         1.71604
            2429         118.025         118.025    -468.496E-03    -468.496E-03         1.62815         1.62815
            2430         118.227         118.227    -571.750E-03    -571.750E-03         1.51623         1.51623
            2431         118.442         118.442    -685.984E-03    -685.984E-03         1.37665         1.37665
            2432         118.667         118.667    -807.985E-03    -807.985E-03         1.20567         1.20567
            2433         118.899         118.899    -931.833E-03    -931.833E-03     999.879E-03     999.879E-03
            2434         119.135         119.135        -1.04842        -1.04842     756.980E-03     756.980E-03
            2435         119.367         119.367        -1.14492        -1.14492     476.694E-03     476.694E-03
            2436         119.584         119.584        -1.20494        -1.20494     162.233E-03     162.233E-03
            2437         119.773         119.773        -1.20917        -1.20917    -178.267E-03    -178.267E-03
            2438         119.919         119.919        -1.13728        -1.13728    -529.830E-03    -529.830E-03
            2439         120.006         120.006    -971.295E-03    -971.295E-03    -869.449E-03    -869.449E-03
            2440         117.436         117.436         31.1377         31.1377        -19.3467        -19.3467
            2441         119.394         119.394         25.3168         25.3168        -18.7128        -18.7128
            2442         120.805         120.805         19.6730         19.6730        -16.8483        -16.8483
            2443         121.429         121.429         14.8905         14.8905        -14.4260        -14.4260
            2444         121.463         121.463         11.1052         11.1052        -11.8187        -11.8187
            2445         120.933         120.933         8.33331         8.33331        -9.33745        -9.33745
            2446         120.198         120.198         6.34336         6.34336        -7.24401        -7.24401
            2447         119.412         119.412         4.86087         4.86087        -5.48180        -5.48180
            2448         118.662         118.662         3.77412         3.77412        -4.04347        -4.04347
            2449         117.998         117.998         2.94334         2.94334        -2.86807        -2.86807
            2450         117.432         117.432         2.31361         2.31361        -1.91402        -1.91402
            2451         116.970         116.970         1.82112         1.82112        -1.14058        -1.14058
            2452         116.604         116.604         1.43727         1.43727    -514.289E-03    -514.289E-03
            2453         116.327         116.327         1.13188         1.13188    -8.93578E-03    -8.93578E-03
            2454         116.127         116.127     889.265E-03     889.265E-03     398.244E-03     398.244E-03
            2455         115.997         115.997     694.112E-03     694.112E-03     724.395E-03     724.395E-03
            2456         115.926         115.926     537.335E-03     537.335E-03     984.578E-03     984.578E-03
            2457         115.905         115.905     410.470E-03     410.470E-03         1.19024         1.19024
            2458         115.927         115.927     307.888E-03     307.888E-03         1.35138         1.35138
            2459         115.984         115.984     224.428E-03     224.428E-03         1.47570         1.47570
            2460         116.072         116.072     156.280E-03     156.280E-03         1.56979         1.56979
            2461         116.184         116.184     99.9120E-03     99.9120E-03         1.63873         1.63873
            2462         116.317         116.317     52.4485E-03     52.4485E-03         1.68669         1.68669
            2463         116.467         116.467     11.1468E-03     11.1468E-03         1.71675         1.71675
            2464         116.631         116.631    -26.4231E-03    -26.4231E-03         1.73120         1.73120
            2465         116.807         116.807    -62.6379E-03    -62.6379E-03         1.73143         1.73143
            2466         116.992         116.992    -99.7130E-03    -99.7130E-03         1.71814         1.71814
            2467         117.186         117.186    -139.805E-03    -139.805E-03         1.69123         1.69123
            2468         117.386         117.386    -184.895E-03    -184.895E-03         1.64993         1.64993
            2469         117.591         117.591    -236.765E-03    -236.765E-03         1.59279         1.59279
            2470         117.801         117.801    -296.801E-03    -296.801E-03         1.51777         1.51777
            2471         118.015         118.015    -365.824E-03    -365.824E-03         1.42231         1.42231
            2472         118.232         118.232    -443.764E-03    -443.764E-03         1.30353         1.30353
            2473         118.448         118.448    -529.338E-03    -529.338E-03         1.15845         1.15845
            2474         118.663         118.663    -619.588E-03    -619.588E-03     984.366E-03     984.366E-03
            2475         118.873         118.873    -709.519E-03    -709.519E-03     779.402E-03     779.402E-03
            2476         119.072         119.072    -791.672E-03    -791.672E-03     543.183E-03     543.183E-03
            2477         119.253         119.253    -856.068E-03    -856.068E-03     277.787E-03     277.787E-03
            2478         119.409         119.409    -890.356E-03    -890.356E-03    -11.2997E-03    -11.2997E-03
            2479         119.529         119.529    -880.717E-03    -880.717E-03    -313.987E-03    -313.987E-03
            2480         119.604         119.604    -813.519E-03    -813.519E-03    -614.822E-03    -614.822E-03
            2481         119.625         119.625    -677.810E-03    -677.810E-03    -892.531E-03    -892.531E-03
            2482         120.458         120.458         30.6180         30.6180        -21.6502        -21.6502
            2483         122.415         122.415         23.4814         23.4814        -20.3237        -20.3237
            2484         123.438         123.438         16.9765         16.9765        -17.6638        -17.6638
            2485         123.513         123.513         11.7859         11.7859        -14.2866        -14.2866
            2486         122.491         122.491         8.29090         8.29090        -10.9761        -10.9761
            2487         121.190         121.190         6.02940         6.02940        -8.34514        -8.34514
            2488         119.905         119.905         4.43229         4.43229        -6.22082        -6.22082
            2489         118.740         118.740         3.34264         3.34264        -4.55614        -4.55614
            2490         117.761         117.761         2.54098         2.54098        -3.24234        -3.24234
            2491         116.957         116.957         1.96092         1.96092        -2.20363        -2.20363
            2492         116.325         116.325         1.51987         1.51987        -1.38195        -1.38195
            2493         115.841         115.841         1.18622         1.18622    -728.018E-03    -728.018E-03
            2494         115.489         115.489     926.071E-03     926.071E-03    -209.126E-03    -209.126E-03
            2495         115.247         115.247     723.282E-03     723.282E-03     204.107E-03     204.107E-03
            2496         115.099         115.099     562.413E-03     562.413E-03     531.332E-03     531.332E-03
            2497         115.030         115.030     434.741E-03     434.741E-03     790.277E-03     790.277E-03
            2498         115.026         115.026     332.433E-03     332.433E-03     993.349E-03     993.349E-03
            2499         115.077         115.077     250.456E-03     250.456E-03         1.15159         1.15159
            2500         115.172         115.172     184.374E-03     184.374E-03         1.27306         1.27306
            2501         115.304         115.304     131.026E-03     131.026E-03         1.36479         1.36479
            2502         115.465         115.465     87.5773E-03     87.5773E-03         1.43203         1.43203
            2503         115.650         115.650     51.8104E-03     51.8104E-03         1.47918         1.47918
            2504         115.854         115.854     21.6581E-03     21.6581E-03         1.50949         1.50949
            2505         116.072         116.072    -4.64956E-03    -4.64956E-03         1.52546         1.52546
            2506         116.302         116.302    -28.8287E-03    -28.8287E-03         1.52875         1.52875
            2507         116.540         116.540    -52.4528E-03    -52.4528E-03         1.52034         1.52034
            2508         116.784         116.784    -77.0723E-03    -77.0723E-03         1.50048         1.50048
            2509         117.031         117.031    -104.135E-03    -104.135E-03         1.46883         1.46883
            2510         117.279         117.279    -135.008E-03    -135.008E-03         1.42437         1.42437
            2511         117.526         117.526    -170.869E-03    -170.869E-03         1.36559         1.36559
            2512         117.771         117.771    -212.626E-03    -212.626E-03         1.29044         1.29044
            2513         118.010         118.010    -260.726E-03    -260.726E-03         1.19658         1.19658
            2514         118.242         118.242    -314.977E-03    -314.977E-03         1.08145         1.08145
            2515         118.464         118.464    -374.253E-03    -374.253E-03     942.661E-03     942.661E-03
            2516         118.671         118.671    -436.248E-03    -436.248E-03     778.329E-03     778.329E-03
            2517         118.859         118.859    -497.161E-03    -497.161E-03     587.605E-03     587.605E-03
            2518         119.025         119.025    -551.549E-03    -551.549E-03     371.337E-03     371.337E-03
            2519         119.160         119.160    -592.260E-03    -592.260E-03     132.777E-03     132.777E-03
            2520         119.260         119.260    -610.760E-03    -610.760E-03    -121.598E-03    -121.598E-03
            2521         119.318         119.318    -597.828E-03    -597.828E-03    -381.492E-03    -381.492E-03
            2522         119.328         119.328    -544.803E-03    -544.803E-03    -632.406E-03    -632.406E-03
            2523         119.288         119.288    -445.362E-03    -445.362E-03    -855.810E-03    -855.810E-03
            2524         124.871         124.871         29.7179         29.7179        -23.9748        -23.9748
            2525         126.891         126.891         20.5616         20.5616        -21.9375        -21.9375
            2526         127.249         127.249         12.6736         12.6736        -17.3766        -17.3766
            2527         125.201         125.201         7.94165         7.94165        -12.6133        -12.6133
            2528         122.793         122.793         5.41479         5.41479        -9.21825        -9.21825
            2529         120.662         120.662         3.73968         3.73968        -6.67755        -6.67755
            2530         118.850         118.850         2.71225         2.71225        -4.79611        -4.79611
            2531         117.418         117.418         1.99095         1.99095        -3.38789        -3.38789
            2532         116.293         116.293         1.49958         1.49958        -2.31059        -2.31059
            2533         115.446         115.446         1.13928         1.13928        -1.48699        -1.48699
            2534         114.822         114.822     876.117E-03     876.117E-03    -844.944E-03    -844.944E-03
            2535         114.386         114.386     676.404E-03     676.404E-03    -346.598E-03    -346.598E-03
            2536         114.102         114.102     523.942E-03     523.942E-03     44.8984E-03     44.8984E-03
            2537         113.943         113.943     405.271E-03     405.271E-03     350.412E-03     350.412E-03
            2538         113.885         113.885     312.267E-03     312.267E-03     589.916E-03     589.916E-03
            2539         113.910         113.910     238.689E-03     238.689E-03     775.863E-03     775.863E-03
            2540         114.001         114.001     180.224E-03     180.224E-03     919.791E-03     919.791E-03
            2541         114.146         114.146     133.554E-03     133.554E-03         1.02952         1.02952
            2542         114.334         114.334     96.2033E-03     96.2033E-03         1.11204         1.11204
            2543         114.556         114.556     66.1652E-03     66.1652E-03         1.17238         1.17238
            2544         114.804         114.804     41.8539E-03     41.8539E-03         1.21484         1.21484
            2545         115.073         115.073     21.8808E-03     21.8808E-03         1.24256         1.24256
            2546         115.358         115.358     5.07792E-03     5.07792E-03         1.25808         1.25808
            2547         115.653         115.653    -9.65679E-03    -9.65679E-03         1.26310         1.26310
            2548         115.956         115.956    -23.3137E-03    -23.3137E-03         1.25880         1.25880
            2549         116.263         116.263    -36.8713E-03    -36.8713E-03         1.24570         1.24570
            2550         116.571         116.571    -51.2442E-03    -51.2442E-03         1.22380         1.22380
            2551         116.877         116.877    -67.3310E-03    -67.3310E-03         1.19257         1.19257
            2552         117.179         117.179    -85.9465E-03    -85.9465E-03         1.15097         1.15097
            2553         117.473         117.473    -107.812E-03    -107.812E-03         1.09751         1.09751
            2554         117.757         117.757    -133.448E-03    -133.448E-03         1.03036         1.03036
            2555         118.027         118.027    -163.102E-03    -163.102E-03     947.408E-03     947.408E-03
            2556         118.279         118.279    -196.577E-03    -196.577E-03     846.539E-03     846.539E-03
            2557         118.510         118.510    -233.103E-03    -233.103E-03     725.836E-03     725.836E-03
            2558         118.714         118.714    -271.125E-03    -271.125E-03     583.974E-03     583.974E-03
            2559         118.887         118.887    -308.180E-03    -308.180E-03     420.682E-03     420.682E-03
            2560         119.023         119.023    -340.762E-03    -340.762E-03     237.268E-03     237.268E-03
            2561         119.117         119.117    -364.380E-03    -364.380E-03     37.2297E-03     37.2297E-03
            2562         119.165         119.165    -373.762E-03    -373.762E-03    -173.236E-03    -173.236E-03
            2563         119.162         119.162    -363.359E-03    -363.359E-03    -384.819E-03    -384.819E-03
            2564         119.108         119.108    -328.155E-03    -328.155E-03    -585.091E-03    -585.091E-03
            2565         119.004         119.004    -264.702E-03    -264.702E-03    -758.821E-03    -758.821E-03
            2566         133.754         133.754         27.4188         27.4188        -27.3999        -27.3999
            2567         134.636         134.636         14.2067         14.2067        -21.2710        -21.2710
            2568         130.010         130.010         6.98930         6.98930        -13.8205        -13.8205
            2569         125.242         125.242         4.36056         4.36056        -9.35922        -9.35922
            2570         121.643         121.643         2.73698         2.73698        -6.48214        -6.48214
            2571         118.844         118.844         1.88165         1.88165        -4.49286        -4.49286
            2572         116.789         116.789         1.31994         1.31994        -3.12258        -3.12258
            2573         115.266         115.266     961.383E-03     961.383E-03        -2.11137        -2.11137
            2574         114.174         114.174     713.597E-03     713.597E-03        -1.37455        -1.37455
            2575         113.407         113.407     537.523E-03     537.523E-03    -812.499E-03    -812.499E-03
            2576         112.898         112.898     410.063E-03     410.063E-03    -388.693E-03    -388.693E-03
            2577         112.590         112.590     313.881E-03     313.881E-03    -60.4269E-03    -60.4269E-03
            2578         112.441         112.441     241.521E-03     241.521E-03     191.125E-03     191.125E-03
            2579         112.417         112.417     185.100E-03     185.100E-03     386.414E-03     386.414E-03
            2580         112.492         112.492     141.459E-03     141.459E-03     536.206E-03     536.206E-03
            2581         112.646         112.646     106.875E-03     106.875E-03     651.321E-03     651.321E-03
            2582         112.860         112.860     79.6705E-03     79.6705E-03     738.326E-03     738.326E-03
            2583         113.123         113.123     57.9734E-03     57.9734E-03     803.420E-03     803.420E-03
            2584         113.423         113.423     40.7390E-03     40.7390E-03     850.753E-03     850.753E-03
            2585         113.750         113.750     26.9277E-03     26.9277E-03     884.048E-03     884.048E-03
            2586         114.100         114.100     15.8073E-03     15.8073E-03     905.919E-03     905.919E-03
            2587         114.464         114.464     6.70686E-03     6.70686E-03     918.576E-03     918.576E-03
            2588         114.838         114.838    -948.467E-06    -948.467E-06     923.535E-03     923.535E-03
            2589         115.219         115.219    -7.67677E-03    -7.67677E-03     921.937E-03     921.937E-03
            2590         115.602         115.602    -13.9811E-03    -13.9811E-03     914.406E-03     914.406E-03
            2591         115.985         115.985    -20.3253E-03    -20.3253E-03     901.203E-03     901.203E-03
            2592         116.363         116.363    -27.1793E-03    -27.1793E-03     882.151E-03     882.151E-03
            2593         116.735         116.735    -34.9768E-03    -34.9768E-03     856.719E-03     856.719E-03
            2594         117.096         117.096    -44.1376E-03    -44.1376E-03     823.994E-03     823.994E-03
            2595         117.444         117.444    -55.0114E-03    -55.0114E-03     782.756E-03     782.756E-03
            2596         117.774         117.774    -67.8658E-03    -67.8658E-03     731.516E-03     731.516E-03
            2597         118.082         118.082    -82.8057E-03    -82.8057E-03     668.633E-03     668.633E-03
            2598         118.363         118.363    -99.7258E-03    -99.7258E-03     592.460E-03     592.460E-03
            2599         118.611         118.611    -118.200E-03    -118.200E-03     501.561E-03     501.561E-03
            2600         118.820         118.820    -137.419E-03    -137.419E-03     395.002E-03     395.002E-03
            2601         118.984         118.984    -156.081E-03    -156.081E-03     272.700E-03     272.700E-03
            2602         119.098         119.098    -172.377E-03    -172.377E-03     135.848E-03     135.848E-03
            2603         119.155         119.155    -183.987E-03    -183.987E-03    -12.6840E-03    -12.6840E-03
            2604         119.152         119.152    -188.233E-03    -188.233E-03    -167.964E-03    -167.964E-03
            2605         119.088         119.088    -182.343E-03    -182.343E-03    -322.802E-03    -322.802E-03
            2606         118.963         118.963    -163.854E-03    -163.854E-03    -467.802E-03    -467.802E-03
            2607         118.782         118.782    -131.137E-03    -131.137E-03    -591.633E-03    -591.633E-03
            2608         150.903         150.903         18.6253         18.6253        -24.1027        -24.1027
            2609         138.310         138.310         5.25021         5.25021        -13.1251        -13.1251
            2610         128.369         128.369         2.77526         2.77526        -7.53403        -7.53403
            2611         122.358         122.358         1.54435         1.54435        -4.93720        -4.93720
            2612         118.222         118.222     956.943E-03     956.943E-03        -3.22237        -3.22237
            2613         115.441         115.441     649.214E-03     649.214E-03        -2.19973        -2.19973
            2614         113.519         113.519     441.591E-03     441.591E-03        -1.46109        -1.46109
            2615         112.219         112.219     325.222E-03     325.222E-03    -961.078E-03    -961.078E-03
            2616         111.363         111.363     234.505E-03     234.505E-03    -584.957E-03    -584.957E-03
            2617         110.837         110.837     178.958E-03     178.958E-03    -312.468E-03    -312.468E-03
            2618         110.559         110.559     133.440E-03     133.440E-03    -103.485E-03    -103.485E-03
            2619         110.469         110.469     103.033E-03     103.033E-03     53.0903E-03     53.0903E-03
            2620         110.524         110.524     77.8892E-03     77.8892E-03     173.812E-03     173.812E-03
            2621         110.689         110.689     59.8732E-03     59.8732E-03     265.208E-03     265.208E-03
            2622         110.940         110.940     45.0626E-03     45.0626E-03     335.131E-03     335.131E-03
            2623         111.256         111.256     33.9271E-03     33.9271E-03     387.581E-03     387.581E-03
            2624         111.622         111.622     24.8675E-03     24.8675E-03     426.738E-03     426.738E-03
            2625         112.024         112.024     17.8554E-03     17.8554E-03     455.127E-03     455.127E-03
            2626         112.454         112.454     12.2052E-03     12.2052E-03     475.161E-03     475.161E-03
            2627         112.902         112.902     7.74643E-03     7.74643E-03     488.443E-03     488.443E-03
            2628         113.364         113.364     4.14894E-03     4.14894E-03     496.407E-03     496.407E-03
            2629         113.833         113.833     1.21956E-03     1.21956E-03     500.026E-03     500.026E-03
            2630         114.306         114.306    -1.23952E-03    -1.23952E-03     500.092E-03     500.092E-03
            2631         114.780         114.780    -3.41476E-03    -3.41476E-03     497.089E-03     497.089E-03
            2632         115.250         115.250    -5.46180E-03    -5.46180E-03     491.316E-03     491.316E-03
            2633         115.714         115.714    -7.55848E-03    -7.55848E-03     482.821E-03     482.821E-03
            2634         116.170         116.170    -9.85084E-03    -9.85084E-03     471.465E-03     471.465E-03
            2635         116.614         116.614    -12.5056E-03    -12.5056E-03     456.887E-03     456.887E-03
            2636         117.043         117.043    -15.6573E-03    -15.6573E-03     438.541E-03     438.541E-03
            2637         117.452         117.452    -19.4400E-03    -19.4400E-03     415.699E-03     415.699E-03
            2638         117.837         117.837    -23.9389E-03    -23.9389E-03     387.498E-03     387.498E-03
            2639         118.193         118.193    -29.1987E-03    -29.1987E-03     352.985E-03     352.985E-03
            2640         118.513         118.513    -35.1727E-03    -35.1727E-03     311.209E-03     311.209E-03
            2641         118.790         118.790    -41.7149E-03    -41.7149E-03     261.348E-03     261.348E-03
            2642         119.015         119.015    -48.5242E-03    -48.5242E-03     202.859E-03     202.859E-03
            2643         119.182         119.182    -55.1412E-03    -55.1412E-03     135.699E-03     135.699E-03
            2644         119.281         119.281    -60.9050E-03    -60.9050E-03     60.5348E-03     60.5348E-03
            2645         119.308         119.308    -64.9946E-03    -64.9946E-03    -21.0014E-03    -21.0014E-03
            2646         119.256         119.256    -66.4445E-03    -66.4445E-03    -106.135E-03    -106.135E-03
            2647         119.125         119.125    -64.2817E-03    -64.2817E-03    -190.840E-03    -190.840E-03
            2648         118.918         118.918    -57.6545E-03    -57.6545E-03    -269.891E-03    -269.891E-03
            2649         118.642         118.642    -45.9848E-03    -45.9848E-03    -336.949E-03    -336.949E-03
            2650         124.260         124.260        -3.90012        -3.90012     333.003E-03     333.003E-03
            2651         123.449         123.449        -2.70241        -2.70241         1.07422         1.07422
            2652         122.584         122.584        -1.79418        -1.79418         1.42793         1.42793
            2653         121.785         121.785        -1.14778        -1.14778         1.55460         1.55460
            2654         121.082         121.082    -706.738E-03    -706.738E-03         1.55697         1.55697
            2655         120.471         120.471    -416.063E-03    -416.063E-03         1.49488         1.49488
            2656         119.938         119.938    -231.476E-03    -231.476E-03         1.39867         1.39867
            2657         119.463         119.463    -119.635E-03    -119.635E-03         1.27999         1.27999
            2658         119.029         119.029    -56.1280E-03    -56.1280E-03         1.13769         1.13769
            2659         118.623         118.623    -23.1693E-03    -23.1693E-03     960.516E-03     960.516E-03
            2660         118.232         118.232    -7.96931E-03    -7.96931E-03     727.452E-03     727.452E-03
            2661         117.847         117.847    -1.99493E-03    -1.99493E-03     408.274E-03     408.274E-03
            2662         125.102         125.102        -2.30196        -2.30196         1.95000         1.95000
            2663         123.764         123.764        -1.11240        -1.11240         2.22070         2.22070
            2664         122.624         122.624    -377.173E-03    -377.173E-03         2.18779         2.18779
            2665         121.692         121.692     41.4544E-03     41.4544E-03         2.03108         2.03108
            2666         120.934         120.934     253.337E-03     253.337E-03         1.83724         1.83724
            2667         120.304         120.304     334.897E-03     334.897E-03         1.64330         1.64330
            2668         119.763         119.763     336.657E-03     336.657E-03         1.46086         1.46086
            2669         119.279         119.279     291.853E-03     291.853E-03         1.28812         1.28812
            2670         118.824         118.824     223.190E-03     223.190E-03         1.11508         1.11508
            2671         118.372         118.372     147.403E-03     147.403E-03     924.915E-03     924.915E-03
            2672         117.901         117.901     78.2685E-03     78.2685E-03     693.122E-03     693.122E-03
            2673         117.385         117.385     28.6115E-03     28.6115E-03     387.019E-03     387.019E-03
            2674         125.192         125.192     597.453E-03     597.453E-03         3.30378         3.30378
            2675         123.526         123.526         1.26898         1.26898         2.94264         2.94264
            2676         122.290         122.290         1.49338         1.49338         2.51337         2.51337
            2677         121.359         121.359         1.47879         1.47879         2.11913         2.11913
            2678         120.635         120.635         1.34219         1.34219         1.78800         1.78800
            2679         120.044         120.044         1.14784         1.14784         1.51761         1.51761
            2680         119.536         119.536     930.837E-03     930.837E-03         1.29618         1.29618
            2681         119.071         119.071     711.451E-03     711.451E-03         1.10877         1.10877
            2682         118.615         118.615     502.914E-03     502.914E-03     938.671E-03     938.671E-03
            2683         118.138         118.138     316.102E-03     316.102E-03     766.675E-03     766.675E-03
            2684         117.604         117.604     162.883E-03     162.883E-03     569.074E-03     569.074E-03
            2685         116.976         116.976     58.5669E-03     58.5669E-03     316.172E-03     316.172E-03
            2686         124.482         124.482         4.37581         4.37581         3.59742         3.59742
            2687         122.850         122.850         3.97747         3.97747         2.78367         2.78367
            2688         121.729         121.729         3.43070         3.43070         2.15864         2.15864
            2689         120.917         120.917         2.87049         2.87049         1.69451         1.69451
            2690         120.291         120.291         2.34579         2.34579         1.35123         1.35123
            2691         119.776         119.776         1.86964         1.86964         1.09536         1.09536
            2692         119.321         119.321         1.44349         1.44349     901.016E-03     901.016E-03
            2693         118.890         118.890         1.06559         1.06559     747.850E-03     747.850E-03
            2694         118.446         118.446     735.118E-03     735.118E-03     618.504E-03     618.504E-03
            2695         117.958         117.958     454.533E-03     454.533E-03     496.550E-03     496.550E-03
            2696         117.385         117.385     231.760E-03     231.760E-03     364.297E-03     364.297E-03
            2697         116.677         116.677     82.7259E-03     82.7259E-03     201.054E-03     201.054E-03
            2698         123.486         123.486         7.73944         7.73944         2.27258         2.27258
            2699         122.141         122.141         6.13926         6.13926         1.55960         1.55960
            2700         121.231         121.231         4.86485         4.86485         1.09706         1.09706
            2701         120.564         120.564         3.84735         3.84735     788.055E-03     788.055E-03
            2702         120.038         120.038         3.02128         3.02128     576.222E-03     576.222E-03
            2703         119.593         119.593         2.33917         2.33917     428.654E-03     428.654E-03
            2704         119.186         119.186         1.76751         1.76751     324.409E-03     324.409E-03
            2705         118.784         118.784         1.28394         1.28394     249.171E-03     249.171E-03
            2706         118.356         118.356     875.283E-03     875.283E-03     192.529E-03     192.529E-03
            2707         117.867         117.867     536.756E-03     536.756E-03     146.074E-03     146.074E-03
            2708         117.277         117.277     272.476E-03     272.476E-03     102.401E-03     102.401E-03
            2709         116.531         116.531     97.2318E-03     97.2318E-03     54.5828E-03     54.5828E-03
            2710         123.091         123.091         8.89170         8.89170    -394.125E-03    -394.125E-03
            2711         121.913         121.913         6.77633         6.77633    -424.460E-03    -424.460E-03
            2712         121.095         121.095         5.24189         5.24189    -424.062E-03    -424.062E-03
            2713         120.483         120.483         4.07763         4.07763    -412.574E-03    -412.574E-03
            2714         119.993         119.993         3.16365         3.16365    -394.973E-03    -394.973E-03
            2715         119.572         119.572         2.42659         2.42659    -373.417E-03    -373.417E-03
            2716         119.182         119.182         1.81965         1.81965    -348.296E-03    -348.296E-03
            2717         118.792         118.792         1.31319         1.31319    -318.988E-03    -318.988E-03
            2718         118.372         118.372     889.897E-03     889.897E-03    -283.925E-03    -283.925E-03
            2719         117.890         117.890     542.577E-03     542.577E-03    -240.191E-03    -240.191E-03
            2720         117.305         117.305     273.882E-03     273.882E-03    -182.821E-03    -182.821E-03
            2721         116.566         116.566     97.2388E-03     97.2388E-03    -103.711E-03    -103.711E-03
            2722         123.745         123.745         6.85966         6.85966        -2.98883        -2.98883
            2723         122.370         122.370         5.44404         5.44404        -2.34244        -2.34244
            2724         121.429         121.429         4.32854         4.32854        -1.89805        -1.89805
            2725         120.736         120.736         3.43287         3.43287        -1.57800        -1.57800
            2726         120.192         120.192         2.70059         2.70059        -1.33903        -1.33903
            2727         119.735         119.735         2.09173         2.09173        -1.15338        -1.15338
            2728         119.322         119.322         1.57874         1.57874        -1.00181        -1.00181
            2729         118.921         118.921         1.14358         1.14358    -869.504E-03    -869.504E-03
            2730         118.500         118.500     775.954E-03     775.954E-03    -743.454E-03    -743.454E-03
            2731         118.029         118.029     472.666E-03     472.666E-03    -610.191E-03    -610.191E-03
            2732         117.471         117.471     237.935E-03     237.935E-03    -453.312E-03    -453.312E-03
            2733         116.782         116.782     84.1638E-03     84.1638E-03    -252.068E-03    -252.068E-03
            2734         124.779         124.779         2.74720         2.74720        -3.86047        -3.86047
            2735         123.162         123.162         2.70647         2.70647        -3.24521        -3.24521
            2736         122.029         122.029         2.44260         2.44260        -2.72918        -2.72918
            2737         121.196         121.196         2.10560         2.10560        -2.31688        -2.31688
            2738         120.553         120.553         1.75485         1.75485        -1.98843        -1.98843
            2739         120.027         120.027         1.41596         1.41596        -1.72243        -1.72243
            2740         119.570         119.570         1.10025         1.10025        -1.49918        -1.49918
            2741         119.145         119.145     813.342E-03     813.342E-03        -1.30096        -1.30096
            2742         118.722         118.722     559.452E-03     559.452E-03        -1.11039        -1.11039
            2743         118.270         118.270     343.771E-03     343.771E-03    -908.410E-03    -908.410E-03
            2744         117.759         117.759     174.096E-03     174.096E-03    -671.709E-03    -671.709E-03
            2745         117.155         117.155     61.9288E-03     61.9288E-03    -371.615E-03    -371.615E-03
            2746         125.088         125.088        -1.14824        -1.14824        -2.82348        -2.82348
            2747         123.642         123.642    -195.841E-03    -195.841E-03        -2.85025        -2.85025
            2748         122.505         122.505     306.197E-03     306.197E-03        -2.67089        -2.67089
            2749         121.619         121.619     533.722E-03     533.722E-03        -2.43214        -2.43214
            2750         120.917         120.917     600.298E-03     600.298E-03        -2.19034        -2.19034
            2751         120.342         120.342     573.856E-03     573.856E-03        -1.96230        -1.96230
            2752         119.852         119.852     496.004E-03     496.004E-03        -1.74884        -1.74884
            2753         119.413         119.413     393.078E-03     393.078E-03        -1.54244        -1.54244
            2754         118.996         118.996     282.888E-03     282.888E-03        -1.33036        -1.33036
            2755         118.578         118.578     178.742E-03     178.742E-03        -1.09470        -1.09470
            2756         118.134         118.134     91.8600E-03     91.8600E-03    -811.164E-03    -811.164E-03
            2757         117.644         117.644     32.8346E-03     32.8346E-03    -448.711E-03    -448.711E-03
            2758         124.303         124.303        -3.42309        -3.42309        -1.00257        -1.00257
            2759         123.427         123.427        -2.25030        -2.25030        -1.66511        -1.66511
            2760         122.556         122.556        -1.40504        -1.40504        -1.94748        -1.94748
            2761         121.785         121.785    -833.164E-03    -833.164E-03        -2.01803        -2.01803
            2762         121.129         121.129    -463.332E-03    -463.332E-03        -1.97631        -1.97631
            2763         120.571         120.571    -234.388E-03    -234.388E-03        -1.87546        -1.87546
            2764         120.091         120.091    -101.071E-03    -101.071E-03        -1.74014        -1.74014
            2765         119.666         119.666    -30.6568E-03    -30.6568E-03        -1.57850        -1.57850
            2766         119.277         119.277     313.042E-06     313.042E-06        -1.38746        -1.38746
            2767         118.911         118.911     8.75950E-03     8.75950E-03        -1.15523        -1.15523
            2768         118.553         118.553     6.85873E-03     6.85873E-03    -861.242E-03    -861.242E-03
            2769         118.195         118.195     2.81308E-03     2.81308E-03    -477.298E-03    -477.298E-03
            2770         110.671         110.671         32.2461         32.2461         6.00289         6.00289
            2771         111.776         111.776         29.6161         29.6161         5.97203         5.97203
            2772         112.858         112.858         26.9828         26.9828         5.79287         5.79287
            2773         113.889         113.889         24.3956         24.3956         5.52448         5.52448
            2774         114.852         114.852         21.8893         21.8893         5.17642         5.17642
            2775         115.729         115.729         19.4949         19.4949         4.76015         4.76015
            2776         116.510         116.510         17.2385         17.2385         4.29276         4.29276
            2777         117.188         117.188         15.1385         15.1385         3.79136         3.79136
            2778         117.762         117.762         13.2070         13.2070         3.27400         3.27400
            2779         118.233         118.233         11.4490         11.4490         2.75683         2.75683
            2780         118.608         118.608         9.86424         9.86424         2.25340         2.25340
            2781         118.893         118.893         8.44776         8.44776         1.77477         1.77477
            2782         119.099         119.099         7.19151         7.19151         1.32826         1.32826
            2783         119.233         119.233         6.08542         6.08542     919.145E-03     919.145E-03
            2784         119.306         119.306         5.11792         5.11792     549.465E-03     549.465E-03
            2785         119.326         119.326         4.27724         4.27724     219.978E-03     219.978E-03
            2786         119.301         119.301         3.55117         3.55117    -70.6908E-03    -70.6908E-03
            2787         119.239         119.239         2.92812         2.92812    -324.534E-03    -324.534E-03
            2788         119.145         119.145         2.39668         2.39668    -544.710E-03    -544.710E-03
            2789         119.025         119.025         1.94625         1.94625    -734.546E-03    -734.546E-03
            2790         118.884         118.884         1.56668         1.56668    -897.895E-03    -897.895E-03
            2791         118.727         118.727         1.24863         1.24863        -1.03856        -1.03856
            2792         118.555         118.555     983.235E-03     983.235E-03        -1.16051        -1.16051
            2793         118.373         118.373     762.300E-03     762.300E-03        -1.26762        -1.26762
            2794         118.183         118.183     578.066E-03     578.066E-03        -1.36384        -1.36384
            2795         117.986         117.986     423.269E-03     423.269E-03        -1.45305        -1.45305
            2796         117.786         117.786     290.943E-03     290.943E-03        -1.53926        -1.53926
            2797         117.583         117.583     174.407E-03     174.407E-03        -1.62657        -1.62657
            2798         117.380         117.380     67.0696E-03     67.0696E-03        -1.71936        -1.71936
            2799         117.179         117.179    -37.6703E-03    -37.6703E-03        -1.82232        -1.82232
            2800         116.983         116.983    -146.666E-03    -146.666E-03        -1.94062        -1.94062
            2801         116.794         116.794    -267.275E-03    -267.275E-03        -2.08001        -2.08001
            2802         116.618         116.618    -407.740E-03    -407.740E-03        -2.24688        -2.24688
            2803         116.463         116.463    -577.726E-03    -577.726E-03        -2.44831        -2.44831
            2804         116.339         116.339    -788.990E-03    -788.990E-03        -2.69187        -2.69187
            2805         116.262         116.262        -1.05645        -1.05645        -2.98506        -2.98506
            2806         116.258         116.258        -1.39923        -1.39923        -3.33409        -3.33409
            2807         116.363         116.363        -1.84231        -1.84231        -3.74101        -3.74101
            2808         116.636         116.636        -2.41661        -2.41661        -4.19792        -4.19792
            2809         117.158         117.158        -3.15796        -3.15796        -4.67520        -4.67520
            2810         118.042         118.042        -4.08978        -4.08978        -5.09933        -5.09933
            2811         119.415         119.415        -5.19067        -5.19067        -5.32810        -5.32810
            2812         110.492         110.492         32.2934         32.2934         4.61196         4.61196
            2813         111.561         111.561         29.7616         29.7616         4.58669         4.58669
            2814         112.609         112.609         27.2292         27.2292         4.45101         4.45101
            2815         113.615         113.615         24.7376         24.7376         4.25153         4.25153
            2816         114.563         114.563         22.3162         22.3162         3.99303         3.99303
            2817         115.437         115.437         19.9915         19.9915         3.68483         3.68483
            2818         116.227         116.227         17.7858         17.7858         3.33702         3.33702
            2819         116.927         116.927         15.7173         15.7173         2.96239         2.96239
            2820         117.531         117.531         13.7979         13.7979         2.57308         2.57308
            2821         118.041         118.041         12.0350         12.0350         2.18094         2.18094
            2822         118.458         118.458         10.4311         10.4311         1.79632         1.79632
            2823         118.787         118.787         8.98451         8.98451         1.42743         1.42743
            2824         119.036         119.036         7.69050         7.69050         1.08085         1.08085
            2825         119.210         119.210         6.54180         6.54180     760.595E-03     760.595E-03
            2826         119.319         119.319         5.52969         5.52969     469.394E-03     469.394E-03
            2827         119.368         119.368         4.64417         4.64417     207.884E-03     207.884E-03
            2828         119.367         119.367         3.87493         3.87493    -24.0871E-03    -24.0871E-03
            2829         119.321         119.321         3.21127         3.21127    -228.038E-03    -228.038E-03
            2830         119.238         119.238         2.64284         2.64284    -405.861E-03    -405.861E-03
            2831         119.122         119.122         2.15937         2.15937    -560.199E-03    -560.199E-03
            2832         118.979         118.979         1.75119         1.75119    -693.799E-03    -693.799E-03
            2833         118.813         118.813         1.40901         1.40901    -809.767E-03    -809.767E-03
            2834         118.627         118.627         1.12417         1.12417    -911.197E-03    -911.197E-03
            2835         118.424         118.424     888.468E-03     888.468E-03        -1.00136        -1.00136
            2836         118.208         118.208     694.286E-03     694.286E-03        -1.08352        -1.08352
            2837         117.979         117.979     534.458E-03     534.458E-03        -1.16112        -1.16112
            2838         117.739         117.739     402.296E-03     402.296E-03        -1.23770        -1.23770
            2839         117.489         117.489     291.462E-03     291.462E-03        -1.31713        -1.31713
            2840         117.230         117.230     195.933E-03     195.933E-03        -1.40362        -1.40362
            2841         116.961         116.961     109.847E-03     109.847E-03        -1.50195        -1.50195
            2842         116.684         116.684     27.3643E-03     27.3643E-03        -1.61767        -1.61767
            2843         116.397         116.397    -57.5808E-03    -57.5808E-03        -1.75738        -1.75738
            2844         116.101         116.101    -151.634E-03    -151.634E-03        -1.92904        -1.92904
            2845         115.797         115.797    -262.529E-03    -262.529E-03        -2.14246        -2.14246
            2846         115.489         115.489    -399.956E-03    -399.956E-03        -2.40976        -2.40976
            2847         115.181         115.181    -576.733E-03    -576.733E-03        -2.74605        -2.74605
            2848         114.886         114.886    -810.991E-03    -810.991E-03        -3.16991        -3.16991
            2849         114.626         114.626        -1.12898        -1.12898        -3.70376        -3.70376
            2850         114.443         114.443        -1.57051        -1.57051        -4.37266        -4.37266
            2851         114.412         114.412        -2.19513        -2.19513        -5.19985        -5.19985
            2852         114.674         114.674        -3.09312        -3.09312        -6.18823        -6.18823
            2853         115.468         115.468        -4.37278        -4.37278        -7.27839        -7.27839
            2854         110.369         110.369         32.3285         32.3285         3.26214         3.26214
            2855         111.411         111.411         29.8661         29.8661         3.24016         3.24016
            2856         112.436         112.436         27.4042         27.4042         3.14268         3.14268
            2857         113.423         113.423         24.9802         24.9802         3.00174         3.00174
            2858         114.358         114.358         22.6194         22.6194         2.82167         2.82167
            2859         115.228         115.228         20.3450         20.3450         2.60726         2.60726
            2860         116.022         116.022         18.1777         18.1777         2.36615         2.36615
            2861         116.734         116.734         16.1338         16.1338         2.10585         2.10585
            2862         117.358         117.358         14.2262         14.2262         1.83490         1.83490
            2863         117.892         117.892         12.4628         12.4628         1.56105         1.56105
            2864         118.337         118.337         10.8479         10.8479         1.29135         1.29135
            2865         118.697         118.697         9.38201         9.38201         1.03179         1.03179
            2866         118.975         118.975         8.06252         8.06252     786.738E-03     786.738E-03
            2867         119.178         119.178         6.88440         6.88440     559.625E-03     559.625E-03
            2868         119.312         119.312         5.84061         5.84061     352.181E-03     352.181E-03
            2869         119.384         119.384         4.92294         4.92294     165.455E-03     165.455E-03
            2870         119.401         119.401         4.12218         4.12218    -804.654E-06    -804.654E-06
            2871         119.368         119.368         3.42878         3.42878    -147.237E-03    -147.237E-03
            2872         119.293         119.293         2.83290         2.83290    -275.307E-03    -275.307E-03
            2873         119.181         119.181         2.32495         2.32495    -386.637E-03    -386.637E-03
            2874         119.037         119.037         1.89546         1.89546    -483.302E-03    -483.302E-03
            2875         118.865         118.865         1.53544         1.53544    -567.407E-03    -567.407E-03
            2876         118.668         118.668         1.23632         1.23632    -641.291E-03    -641.291E-03
            2877         118.451         118.451     990.090E-03     990.090E-03    -707.296E-03    -707.296E-03
            2878         118.214         118.214     789.239E-03     789.239E-03    -767.924E-03    -767.924E-03
            2879         117.959         117.959     626.850E-03     626.850E-03    -825.747E-03    -825.747E-03
            2880         117.688         117.688     496.525E-03     496.525E-03    -883.553E-03    -883.553E-03
            2881         117.400         117.400     392.409E-03     392.409E-03    -944.362E-03    -944.362E-03
            2882         117.094         117.094     309.125E-03     309.125E-03        -1.01161        -1.01161
            2883         116.768         116.768     241.750E-03     241.750E-03        -1.08926        -1.08926
            2884         116.421         116.421     185.720E-03     185.720E-03        -1.18208        -1.18208
            2885         116.047         116.047     136.715E-03     136.715E-03        -1.29594        -1.29594
            2886         115.642         115.642     90.4858E-03     90.4858E-03        -1.43825        -1.43825
            2887         115.200         115.200     42.5096E-03     42.5096E-03        -1.61861        -1.61861
            2888         114.712         114.712    -12.4570E-03    -12.4570E-03        -1.84971        -1.84971
            2889         114.169         114.169    -81.3490E-03    -81.3490E-03        -2.14864        -2.14864
            2890         113.561         113.561    -174.107E-03    -174.107E-03        -2.53899        -2.53899
            2891         112.878         112.878    -306.654E-03    -306.654E-03        -3.05378        -3.05378
            2892         112.115         112.115    -505.266E-03    -505.266E-03        -3.74025        -3.74025
            2893         111.278         111.278    -816.888E-03    -816.888E-03        -4.66621        -4.66621
            2894         110.410         110.410        -1.32837        -1.32837        -5.93089        -5.93089
            2895         109.659         109.659        -2.20742        -2.20742        -7.66280        -7.66280
            2896         110.291         110.291         32.3521         32.3521         1.94014         1.94014
            2897         111.317         111.317         29.9337         29.9337         1.92075         1.92075
            2898         112.327         112.327         27.5164         27.5164         1.85715         1.85715
            2899         113.302         113.302         25.1350         25.1350         1.76952         1.76952
            2900         114.228         114.228         22.8126         22.8126         1.65951         1.65951
            2901         115.095         115.095         20.5706         20.5706         1.53087         1.53087
            2902         115.891         115.891         18.4279         18.4279         1.38714         1.38714
            2903         116.609         116.609         16.4006         16.4006         1.23328         1.23328
            2904         117.244         117.244         14.5011         14.5011         1.07369         1.07369
            2905         117.792         117.792         12.7383         12.7383     913.026E-03     913.026E-03
            2906         118.255         118.255         11.1172         11.1172     755.255E-03     755.255E-03
            2907         118.633         118.633         9.63975         9.63975     603.685E-03     603.685E-03
            2908         118.930         118.930         8.30455         8.30455     461.047E-03     461.047E-03
            2909         119.151         119.151         7.10789         7.10789     329.022E-03     329.022E-03
            2910         119.302         119.302         6.04406         6.04406     208.897E-03     208.897E-03
            2911         119.388         119.388         5.10576         5.10576     100.973E-03     100.973E-03
            2912         119.416         119.416         4.28476         4.28476     5.34065E-03     5.34065E-03
            2913         119.392         119.392         3.57207         3.57207    -78.6269E-03    -78.6269E-03
            2914         119.323         119.323         2.95845         2.95845    -151.625E-03    -151.625E-03
            2915         119.213         119.213         2.43457         2.43457    -214.790E-03    -214.790E-03
            2916         119.068         119.068         1.99129         1.99129    -269.239E-03    -269.239E-03
            2917         118.892         118.892         1.61973         1.61973    -316.332E-03    -316.332E-03
            2918         118.689         118.689         1.31149         1.31149    -357.385E-03    -357.385E-03
            2919         118.462         118.462         1.05863         1.05863    -393.848E-03    -393.848E-03
            2920         118.211         118.211     853.807E-03     853.807E-03    -427.154E-03    -427.154E-03
            2921         117.940         117.940     690.261E-03     690.261E-03    -458.853E-03    -458.853E-03
            2922         117.648         117.648     561.863E-03     561.863E-03    -490.557E-03    -490.557E-03
            2923         117.334         117.334     463.119E-03     463.119E-03    -524.061E-03    -524.061E-03
            2924         116.996         116.996     389.197E-03     389.197E-03    -561.367E-03    -561.367E-03
            2925         116.631         116.631     335.926E-03     335.926E-03    -604.833E-03    -604.833E-03
            2926         116.235         116.235     299.812E-03     299.812E-03    -657.292E-03    -657.292E-03
            2927         115.800         115.800     278.050E-03     278.050E-03    -722.292E-03    -722.292E-03
            2928         115.317         115.317     268.504E-03     268.504E-03    -804.377E-03    -804.377E-03
            2929         114.773         114.773     269.722E-03     269.722E-03    -909.579E-03    -909.579E-03
            2930         114.151         114.151     280.815E-03     280.815E-03        -1.04607        -1.04607
            2931         113.428         113.428     301.410E-03     301.410E-03        -1.22533        -1.22533
            2932         112.573         112.573     331.158E-03     331.158E-03        -1.46378        -1.46378
            2933         111.541         111.541     369.322E-03     369.322E-03        -1.78594        -1.78594
            2934         110.273         110.273     412.783E-03     412.783E-03        -2.22929        -2.22929
            2935         108.680         108.680     453.207E-03     453.207E-03        -2.85443        -2.85443
            2936         106.635         106.635     468.396E-03     468.396E-03        -3.76382        -3.76382
            2937         103.952         103.952     396.854E-03     396.854E-03        -5.15016        -5.15016
            2938         110.253         110.253         32.3636         32.3636     635.869E-03     635.869E-03
            2939         111.271         111.271         29.9660         29.9660     619.431E-03     619.431E-03
            2940         112.274         112.274         27.5697         27.5697     589.553E-03     589.553E-03
            2941         113.243         113.243         25.2084         25.2084     552.519E-03     552.519E-03
            2942         114.166         114.166         22.9039         22.9039     509.887E-03     509.887E-03
            2943         115.031         115.031         20.6767         20.6767     462.408E-03     462.408E-03
            2944         115.828         115.828         18.5452         18.5452     412.019E-03     412.019E-03
            2945         116.549         116.549         16.5252         16.5252     359.896E-03     359.896E-03
            2946         117.189         117.189         14.6293         14.6293     307.809E-03     307.809E-03
            2947         117.745         117.745         12.8663         12.8663     256.971E-03     256.971E-03
            2948         118.215         118.215         11.2421         11.2421     208.574E-03     208.574E-03
            2949         118.602         118.602         9.75884         9.75884     163.550E-03     163.550E-03
            2950         118.908         118.908         8.41601         8.41601     122.418E-03     122.418E-03
            2951         119.137         119.137         7.21050         7.21050     85.6845E-03     85.6845E-03
            2952         119.295         119.295         6.13711         6.13711     53.3311E-03     53.3311E-03
            2953         119.387         119.387         5.18910         5.18910     25.4609E-03     25.4609E-03
            2954         119.420         119.420         4.35858         4.35858     1.73146E-03     1.73146E-03
            2955         119.401         119.401         3.63691         3.63691    -18.0350E-03    -18.0350E-03
            2956         119.334         119.334         3.01504         3.01504    -34.3197E-03    -34.3197E-03
            2957         119.225         119.225         2.48383         2.48383    -47.4460E-03    -47.4460E-03
            2958         119.080         119.080         2.03421         2.03421    -57.9115E-03    -57.9115E-03
            2959         118.902         118.902         1.65740         1.65740    -66.0832E-03    -66.0832E-03
            2960         118.696         118.696         1.34502         1.34502    -72.4134E-03    -72.4134E-03
            2961         118.464         118.464         1.08918         1.08918    -77.2550E-03    -77.2550E-03
            2962         118.208         118.208     882.580E-03     882.580E-03    -80.9959E-03    -80.9959E-03
            2963         117.929         117.929     718.522E-03     718.522E-03    -83.9535E-03    -83.9535E-03
            2964         117.628         117.628     590.980E-03     590.980E-03    -86.4582E-03    -86.4582E-03
            2965         117.303         117.303     494.603E-03     494.603E-03    -88.7950E-03    -88.7950E-03
            2966         116.952         116.952     424.789E-03     424.789E-03    -91.2580E-03    -91.2580E-03
            2967         116.570         116.570     377.678E-03     377.678E-03    -94.1183E-03    -94.1183E-03
            2968         116.153         116.153     350.252E-03     350.252E-03    -97.6655E-03    -97.6655E-03
            2969         115.692         115.692     340.343E-03     340.343E-03    -102.188E-03    -102.188E-03
            2970         115.176         115.176     346.797E-03     346.797E-03    -108.016E-03    -108.016E-03
            2971         114.589         114.589     369.496E-03     369.496E-03    -115.501E-03    -115.501E-03
            2972         113.910         113.910     409.672E-03     409.672E-03    -125.093E-03    -125.093E-03
            2973         113.110         113.110     469.921E-03     469.921E-03    -137.281E-03    -137.281E-03
            2974         112.148         112.148     554.900E-03     554.900E-03    -152.774E-03    -152.774E-03
            2975         110.963         110.963     671.219E-03     671.219E-03    -172.294E-03    -172.294E-03
            2976         109.469         109.469     829.048E-03     829.048E-03    -197.000E-03    -197.000E-03
            2977         107.530         107.530         1.04174         1.04174    -227.696E-03    -227.696E-03
            2978         104.927         104.927         1.32999         1.32999    -265.110E-03    -265.110E-03
            2979         101.266         101.266         1.72318         1.72318    -301.270E-03    -301.270E-03
            2980         110.253         110.253         32.3636         32.3636    -660.720E-03    -660.720E-03
            2981         111.272         111.272         29.9650         29.9650    -671.076E-03    -671.076E-03
            2982         112.275         112.275         27.5677         27.5677    -665.868E-03    -665.868E-03
            2983         113.245         113.245         25.2051         25.2051    -650.503E-03    -650.503E-03
            2984         114.169         114.169         22.8990         22.8990    -625.719E-03    -625.719E-03
            2985         115.034         115.034         20.6700         20.6700    -591.579E-03    -591.579E-03
            2986         115.832         115.832         18.5368         18.5368    -549.570E-03    -549.570E-03
            2987         116.553         116.553         16.5151         16.5151    -500.658E-03    -500.658E-03
            2988         117.193         117.193         14.6176         14.6176    -446.685E-03    -446.685E-03
            2989         117.749         117.749         12.8534         12.8534    -389.157E-03    -389.157E-03
            2990         118.219         118.219         11.2282         11.2282    -329.765E-03    -329.765E-03
            2991         118.605         118.605         9.74433         9.74433    -270.069E-03    -270.069E-03
            2992         118.910         118.910         8.40126         8.40126    -211.285E-03    -211.285E-03
            2993         119.138         119.138         7.19583         7.19583    -154.641E-03    -154.641E-03
            2994         119.295         119.295         6.12280         6.12280    -100.797E-03    -100.797E-03
            2995         119.387         119.387         5.17539         5.17539    -50.4793E-03    -50.4793E-03
            2996         119.419         119.419         4.34563         4.34563    -3.86318E-03    -3.86318E-03
            2997         119.398         119.398         3.62482         3.62482     38.8037E-03     38.8037E-03
            2998         119.331         119.331         3.00388         3.00388     77.7016E-03     77.7016E-03
            2999         119.222         119.222         2.47358         2.47358     112.956E-03     112.956E-03
            3000         119.076         119.076         2.02482         2.02482     144.985E-03     144.985E-03
            3001         118.899         118.899         1.64876         1.64876     174.179E-03     174.179E-03
            3002         118.693         118.693         1.33697         1.33697     201.125E-03     201.125E-03
            3003         118.462         118.462         1.08152         1.08152     226.420E-03     226.420E-03
            3004         118.208         118.208     875.053E-03     875.053E-03     250.813E-03     250.813E-03
            3005         117.931         117.931     710.806E-03     710.806E-03     275.117E-03     275.117E-03
            3006         117.633         117.633     582.665E-03     582.665E-03     300.319E-03     300.319E-03
            3007         117.311         117.311     485.188E-03     485.188E-03     327.557E-03     327.557E-03
            3008         116.965         116.965     413.620E-03     413.620E-03     358.239E-03     358.239E-03
            3009         116.590         116.590     363.927E-03     363.927E-03     394.089E-03     394.089E-03
            3010         116.181         116.181     332.812E-03     332.812E-03     437.319E-03     437.319E-03
            3011         115.731         115.731     317.757E-03     317.757E-03     490.780E-03     490.780E-03
            3012         115.229         115.229     317.043E-03     317.043E-03     558.293E-03     558.293E-03
            3013         114.662         114.662     329.807E-03     329.807E-03     645.013E-03     645.013E-03
            3014         114.010         114.010     356.032E-03     356.032E-03     758.191E-03     758.191E-03
            3015         113.247         113.247     396.579E-03     396.579E-03     908.067E-03     908.067E-03
            3016         112.339         112.339     453.019E-03     453.019E-03         1.10990         1.10990
            3017         111.235         111.235     527.350E-03     527.350E-03         1.38648         1.38648
            3018         109.865         109.865     620.910E-03     620.910E-03         1.77432         1.77432
            3019         108.126         108.126     731.944E-03     731.944E-03         2.33280         2.33280
            3020         105.864         105.864     848.384E-03     848.384E-03         3.16792         3.16792
            3021         102.859         102.859     920.730E-03     920.730E-03         4.48177         4.48177
            3022         110.291         110.291         32.3526         32.3526        -1.96134        -1.96134
            3023         111.318         111.318         29.9319         29.9319        -1.96444        -1.96444
            3024         112.330         112.330         27.5117         27.5117        -1.92168        -1.92168
            3025         113.307         113.307         25.1268         25.1268        -1.85230        -1.85230
            3026         114.235         114.235         22.8002         22.8002        -1.75719        -1.75719
            3027         115.103         115.103         20.5536         20.5536        -1.63956        -1.63956
            3028         115.901         115.901         18.4062         18.4062        -1.50255        -1.50255
            3029         116.620         116.620         16.3744         16.3744        -1.35100        -1.35100
            3030         117.255         117.255         14.4708         14.4708        -1.18939        -1.18939
            3031         117.803         117.803         12.7047         12.7047        -1.02268        -1.02268
            3032         118.265         118.265         11.0812         11.0812    -855.282E-03    -855.282E-03
            3033         118.641         118.641         9.60220         9.60220    -691.082E-03    -691.082E-03
            3034         118.937         118.937         8.26638         8.26638    -533.422E-03    -533.422E-03
            3035         119.155         119.155         7.06995         7.06995    -384.592E-03    -384.592E-03
            3036         119.303         119.303         6.00707         6.00707    -246.462E-03    -246.462E-03
            3037         119.386         119.386         5.07032         5.07032    -119.837E-03    -119.837E-03
            3038         119.412         119.412         4.25130         4.25130    -5.24429E-03    -5.24429E-03
            3039         119.386         119.386         3.54086         3.54086     97.6109E-03     97.6109E-03
            3040         119.315         119.315         2.92964         2.92964     189.175E-03     189.175E-03
            3041         119.204         119.204         2.40813         2.40813     270.435E-03     270.435E-03
            3042         119.059         119.059         1.96707         1.96707     342.443E-03     342.443E-03
            3043         118.884         118.884         1.59745         1.59745     406.582E-03     406.582E-03
            3044         118.682         118.682         1.29077         1.29077     464.270E-03     464.270E-03
            3045         118.457         118.457         1.03894         1.03894     517.146E-03     517.146E-03
            3046         118.211         118.211     834.504E-03     834.504E-03     566.917E-03     566.917E-03
            3047         117.945         117.945     670.520E-03     670.520E-03     615.506E-03     615.506E-03
            3048         117.659         117.659     540.671E-03     540.671E-03     665.011E-03     665.011E-03
            3049         117.355         117.355     439.202E-03     439.202E-03     717.850E-03     717.850E-03
            3050         117.029         117.029     360.943E-03     360.943E-03     776.824E-03     776.824E-03
            3051         116.680         116.680     301.262E-03     301.262E-03     845.322E-03     845.322E-03
            3052         116.305         116.305     256.034E-03     256.034E-03     927.499E-03     927.499E-03
            3053         115.897         115.897     221.559E-03     221.559E-03         1.02864         1.02864
            3054         115.450         115.450     194.441E-03     194.441E-03         1.15557         1.15557
            3055         114.954         114.954     171.379E-03     171.379E-03         1.31736         1.31736
            3056         114.398         114.398     148.776E-03     148.776E-03         1.52625         1.52625
            3057         113.768         113.768     122.109E-03     122.109E-03         1.79931         1.79931
            3058         113.044         113.044     84.6227E-03     84.6227E-03         2.16052         2.16052
            3059         112.205         112.205     25.2215E-03     25.2215E-03         2.64498         2.64498
            3060         111.226         111.226    -76.3630E-03    -76.3630E-03         3.30424         3.30424
            3061         110.088         110.088    -258.260E-03    -258.260E-03         4.21731         4.21731
            3062         108.791         108.791    -598.525E-03    -598.525E-03         5.50514         5.50514
            3063         107.419         107.419        -1.25687        -1.25687         7.34260         7.34260
            3064         110.369         110.369         32.3294         32.3294        -3.27850        -3.27850
            3065         111.413         111.413         29.8644         29.8644        -3.27342        -3.27342
            3066         112.440         112.440         27.3987         27.3987        -3.19160        -3.19160
            3067         113.430         113.430         24.9700         24.9700        -3.06428        -3.06428
            3068         114.368         114.368         22.6037         22.6037        -2.89519        -2.89519
            3069         115.240         115.240         20.3234         20.3234        -2.68866        -2.68866
            3070         116.036         116.036         18.1499         18.1499        -2.45207        -2.45207
            3071         116.749         116.749         16.1002         16.1002        -2.19286        -2.19286
            3072         117.372         117.372         14.1874         14.1874        -1.91971        -1.91971
            3073         117.906         117.906         12.4198         12.4198        -1.64067        -1.64067
            3074         118.350         118.350         10.8019         10.8019        -1.36321        -1.36321
            3075         118.707         118.707         9.33417         9.33417        -1.09378        -1.09378
            3076         118.983         118.983         8.01402         8.01402    -837.248E-03    -837.248E-03
            3077         119.182         119.182         6.83630         6.83630    -597.521E-03    -597.521E-03
            3078         119.313         119.313         5.79385         5.79385    -376.751E-03    -376.751E-03
            3079         119.381         119.381         4.87825         4.87825    -176.364E-03    -176.364E-03
            3080         119.395         119.395         4.08007         4.08007     3.59975E-03     3.59975E-03
            3081         119.360         119.360         3.38960         3.38960     163.543E-03     163.543E-03
            3082         119.282         119.282         2.79680         2.79680     304.776E-03     304.776E-03
            3083         119.169         119.169         2.29190         2.29190     428.818E-03     428.818E-03
            3084         119.024         119.024         1.86526         1.86526     537.711E-03     537.711E-03
            3085         118.853         118.853         1.50776         1.50776     633.573E-03     633.573E-03
            3086         118.658         118.658         1.21067         1.21067     718.811E-03     718.811E-03
            3087         118.444         118.444     965.833E-03     965.833E-03     795.880E-03     795.880E-03
            3088         118.212         118.212     765.586E-03     765.586E-03     867.446E-03     867.446E-03
            3089         117.964         117.964     602.825E-03     602.825E-03     936.290E-03     936.290E-03
            3090         117.701         117.701     470.922E-03     470.922E-03         1.00547         1.00547
            3091         117.424         117.424     363.734E-03     363.734E-03         1.07833         1.07833
            3092         117.133         117.133     275.507E-03     275.507E-03         1.15872         1.15872
            3093         116.827         116.827     200.810E-03     200.810E-03         1.25108         1.25108
            3094         116.503         116.503     134.393E-03     134.393E-03         1.36078         1.36078
            3095         116.162         116.162     71.0001E-03     71.0001E-03         1.49438         1.49438
            3096         115.798         115.798     5.07322E-03     5.07322E-03         1.66013         1.66013
            3097         115.412         115.412    -69.7423E-03    -69.7423E-03         1.86851         1.86851
            3098         114.998         114.998    -161.298E-03    -161.298E-03         2.13318         2.13318
            3099         114.558         114.558    -280.299E-03    -280.299E-03         2.47194         2.47194
            3100         114.092         114.092    -442.145E-03    -442.145E-03         2.90849         2.90849
            3101         113.612         113.612    -670.841E-03    -670.841E-03         3.47396         3.47396
            3102         113.140         113.140        -1.00419        -1.00419         4.20927         4.20927
            3103         112.734         112.734        -1.50551        -1.50551         5.16441         5.16441
            3104         112.514         112.514        -2.27835        -2.27835         6.39068         6.39068
            3105         112.716         112.716        -3.48013        -3.48013         7.90790         7.90790
            3106         110.492         110.492         32.2944         32.2944        -4.62333        -4.62333
            3107         111.563         111.563         29.7601         29.7601        -4.60946        -4.60946
            3108         112.613         112.613         27.2240         27.2240        -4.48411        -4.48411
            3109         113.622         113.622         24.7279         24.7279        -4.29360        -4.29360
            3110         114.572         114.572         22.3012         22.3012        -4.04218        -4.04218
            3111         115.448         115.448         19.9707         19.9707        -3.73883        -3.73883
            3112         116.240         116.240         17.7593         17.7593        -3.39349        -3.39349
            3113         116.940         116.940         15.6853         15.6853        -3.01895        -3.01895
            3114         117.545         117.545         13.7612         13.7612        -2.62751        -2.62751
            3115         118.053         118.053         11.9946         11.9946        -2.23130        -2.23130
            3116         118.469         118.469         10.3881         10.3881        -1.84101        -1.84101
            3117         118.796         118.796         8.93999         8.93999        -1.46521        -1.46521
            3118         119.041         119.041         7.64561         7.64561        -1.11084        -1.11084
            3119         119.213         119.213         6.49753         6.49753    -782.215E-03    -782.215E-03
            3120         119.317         119.317         5.48686         5.48686    -482.369E-03    -482.369E-03
            3121         119.364         119.364         4.60342         4.60342    -212.146E-03    -212.146E-03
            3122         119.360         119.360         3.83672         3.83672     28.4162E-03     28.4162E-03
            3123         119.311         119.311         3.17588         3.17588     240.721E-03     240.721E-03
            3124         119.226         119.226         2.61037         2.61037     426.567E-03     426.567E-03
            3125         119.109         119.109         2.12977         2.12977     588.555E-03     588.555E-03
            3126         118.966         118.966         1.72429         1.72429     729.413E-03     729.413E-03
            3127         118.800         118.800         1.38450         1.38450     852.261E-03     852.261E-03
            3128         118.616         118.616         1.10161         1.10161     960.225E-03     960.225E-03
            3129         118.416         118.416     867.305E-03     867.305E-03         1.05663         1.05663
            3130         118.204         118.204     673.845E-03     673.845E-03         1.14481         1.14481
            3131         117.981         117.981     513.912E-03     513.912E-03         1.22829         1.22829
            3132         117.748         117.748     380.642E-03     380.642E-03         1.31073         1.31073
            3133         117.508         117.508     267.477E-03     267.477E-03         1.39607         1.39607
            3134         117.262         117.262     168.111E-03     168.111E-03         1.48864         1.48864
            3135         117.009         117.009     76.3121E-03     76.3121E-03         1.59333         1.59333
            3136         116.752         116.752    -14.2459E-03    -14.2459E-03         1.71575         1.71575
            3137         116.491         116.491    -110.269E-03    -110.269E-03         1.86252         1.86252
            3138         116.229         116.229    -219.253E-03    -219.253E-03         2.04148         2.04148
            3139         115.969         115.969    -350.043E-03    -350.043E-03         2.26206         2.26206
            3140         115.718         115.718    -513.804E-03    -513.804E-03         2.53553         2.53553
            3141         115.487         115.487    -725.187E-03    -725.187E-03         2.87525         2.87525
            3142         115.294         115.294        -1.00462        -1.00462         3.29641         3.29641
            3143         115.171         115.171        -1.38060        -1.38060         3.81500         3.81500
            3144         115.174         115.174        -1.89448        -1.89448         4.44398         4.44398
            3145         115.390         115.390        -2.60227        -2.60227         5.18403         5.18403
            3146         115.964         115.964        -3.57541        -3.57541         6.00008         6.00008
            3147         117.107         117.107        -4.87504        -4.87504         6.78565         6.78565
            3148         110.670         110.670         32.2467         32.2467        -6.00902        -6.00902
            3149         111.777         111.777         29.6149         29.6149        -5.98365        -5.98365
            3150         112.860         112.860         26.9792         26.9792        -5.80949        -5.80949
            3151         113.893         113.893         24.3891         24.3891        -5.54544        -5.54544
            3152         114.857         114.857         21.8794         21.8794        -5.20075        -5.20075
            3153         115.736         115.736         19.4814         19.4814        -4.78665        -4.78665
            3154         116.517         116.517         17.2214         17.2214        -4.32020        -4.32020
            3155         117.196         117.196         15.1181         15.1181        -3.81849        -3.81849
            3156         117.770         117.770         13.1839         13.1839        -3.29974        -3.29974
            3157         118.240         118.240         11.4237         11.4237        -2.78024        -2.78024
            3158         118.614         118.614         9.83743         9.83743        -2.27375        -2.27375
            3159         118.898         118.898         8.42023         8.42023        -1.79154        -1.79154
            3160         119.101         119.101         7.16393         7.16393        -1.34110        -1.34110
            3161         119.233         119.233         6.05839         6.05839    -927.883E-03    -927.883E-03
            3162         119.304         119.304         5.09191         5.09191    -554.039E-03    -554.039E-03
            3163         119.322         119.322         4.25263         4.25263    -220.447E-03    -220.447E-03
            3164         119.295         119.295         3.52822         3.52822     74.2121E-03     74.2121E-03
            3165         119.231         119.231         2.90698         2.90698     331.869E-03     331.869E-03
            3166         119.136         119.136         2.37738         2.37738     555.660E-03     555.660E-03
            3167         119.016         119.016         1.92876         1.92876     748.892E-03     748.892E-03
            3168         118.875         118.875         1.55088         1.55088     915.420E-03     915.420E-03
            3169         118.717         118.717         1.23432         1.23432         1.05904         1.05904
            3170         118.547         118.547     970.153E-03     970.153E-03         1.18376         1.18376
            3171         118.367         118.367     750.129E-03     750.129E-03         1.29346         1.29346
            3172         118.179         118.179     566.410E-03     566.410E-03         1.39209         1.39209
            3173         117.986         117.986     411.659E-03     411.659E-03         1.48356         1.48356
            3174         117.790         117.790     278.815E-03     278.815E-03         1.57190         1.57190
            3175         117.593         117.593     161.085E-03     161.085E-03         1.66119         1.66119
            3176         117.397         117.397     51.7381E-03     51.7381E-03         1.75581         1.75581
            3177         117.205         117.205    -56.0065E-03    -56.0065E-03         1.86038         1.86038
            3178         117.019         117.019    -169.224E-03    -169.224E-03         1.97999         1.97999
            3179         116.845         116.845    -295.554E-03    -295.554E-03         2.12016         2.12016
            3180         116.687         116.687    -443.567E-03    -443.567E-03         2.28697         2.28697
            3181         116.555         116.555    -623.331E-03    -623.331E-03         2.48689         2.48689
            3182         116.460         116.460    -846.984E-03    -846.984E-03         2.72650         2.72650
            3183         116.421         116.421        -1.12980        -1.12980         3.01167         3.01167
            3184         116.464         116.464        -1.49082        -1.49082         3.34591         3.34591
            3185         116.629         116.629        -1.95418        -1.95418         3.72695         3.72695
            3186         116.972         116.972        -2.54753        -2.54753         4.14023         4.14023
            3187         117.574         117.574        -3.29893        -3.29893         4.54748         4.54748
            3188         118.531         118.531        -4.21680        -4.21680         4.86839         4.86839
            3189         119.946         119.946        -5.25975        -5.25975         4.95947         4.95947
            3190         121.915         121.915        -4.34458        -4.34458        -1.87757        -1.87757
            3191         120.863         120.863        -3.98060        -3.98060        -2.42717        -2.42717
            3192         119.938         119.938        -3.48155        -3.48155        -2.74216        -2.74216
            3193         119.179         119.179        -2.94725        -2.94725        -2.87532        -2.87532
            3194         118.590         118.590        -2.43909        -2.43909        -2.88848        -2.88848
            3195         118.153         118.153        -1.98520        -1.98520        -2.83060        -2.83060
            3196         117.845         117.845        -1.59439        -1.59439        -2.73677        -2.73677
            3197         117.640         117.640        -1.26460        -1.26460        -2.62885        -2.62885
            3198         117.516         117.516    -989.461E-03    -989.461E-03        -2.51962        -2.51962
            3199         117.456         117.456    -760.705E-03    -760.705E-03        -2.41560        -2.41560
            3200         117.445         117.445    -569.812E-03    -569.812E-03        -2.31944        -2.31944
            3201         117.472         117.472    -408.452E-03    -408.452E-03        -2.23132        -2.23132
            3202         117.528         117.528    -268.745E-03    -268.745E-03        -2.14994        -2.14994
            3203         117.607         117.607    -143.239E-03    -143.239E-03        -2.07312        -2.07312
            3204         117.704         117.704    -24.8222E-03    -24.8222E-03        -1.99813        -1.99813
            3205         117.814         117.814     93.3408E-03     93.3408E-03        -1.92188        -1.92188
            3206         117.934         117.934     218.009E-03     218.009E-03        -1.84101        -1.84101
            3207         118.061         118.061     355.870E-03     355.870E-03        -1.75191        -1.75191
            3208         118.193         118.193     513.822E-03     513.822E-03        -1.65073        -1.65073
            3209         118.328         118.328     698.881E-03     698.881E-03        -1.53334        -1.53334
            3210         118.464         118.464     918.586E-03     918.586E-03        -1.39532        -1.39532
            3211         118.599         118.599         1.18076         1.18076        -1.23197        -1.23197
            3212         118.729         118.729         1.49413         1.49413        -1.03823        -1.03823
            3213         118.852         118.852         1.86783         1.86783    -808.877E-03    -808.877E-03
            3214         118.964         118.964         2.31238         2.31238    -538.385E-03    -538.385E-03
            3215         119.061         119.061         2.83874         2.83874    -221.400E-03    -221.400E-03
            3216         119.136         119.136         3.45984         3.45984     147.570E-03     147.570E-03
            3217         119.184         119.184         4.18895         4.18895     572.977E-03     572.977E-03
            3218         119.195         119.195         5.04180         5.04180         1.05904         1.05904
            3219         119.159         119.159         6.03402         6.03402         1.60730         1.60730
            3220         119.065         119.065         7.18366         7.18366         2.21836         2.21836
            3221         118.897         118.897         8.50766         8.50766         2.88754         2.88754
            3222         118.644         118.644         10.0235         10.0235         3.60813         3.60813
            3223         118.286         118.286         11.7456         11.7456         4.36537         4.36537
            3224         117.813         117.813         13.6838         13.6838         5.14108         5.14108
            3225         117.210         117.210         15.8419         15.8419         5.90913         5.90913
            3226         116.475         116.475         18.2114         18.2114         6.63919         6.63919
            3227         115.607         115.607         20.7745         20.7745         7.29977         7.29977
            3228         114.618         114.618         23.4970         23.4970         7.85696         7.85696
            3229         113.529         113.529         26.3352         26.3352         8.28816         8.28816
            3230         112.365         112.365         29.2353         29.2353         8.57211         8.57211
            3231         111.167         111.167         32.1258         32.1258         8.62400         8.62400
            3232         121.928         121.928        -3.65335        -3.65335    -911.458E-03    -911.458E-03
            3233         121.111         121.111        -3.51185        -3.51185        -1.52337        -1.52337
            3234         120.343         120.343        -3.20564        -3.20564        -1.95283        -1.95283
            3235         119.664         119.664        -2.81564        -2.81564        -2.22695        -2.22695
            3236         119.095         119.095        -2.40417        -2.40417        -2.38004        -2.38004
            3237         118.639         118.639        -2.00931        -2.00931        -2.44837        -2.44837
            3238         118.288         118.288        -1.65073        -1.65073        -2.46134        -2.46134
            3239         118.029         118.029        -1.33607        -1.33607        -2.44101        -2.44101
            3240         117.846         117.846        -1.06571        -1.06571        -2.40211        -2.40211
            3241         117.726         117.726    -836.216E-03    -836.216E-03        -2.35399        -2.35399
            3242         117.657         117.657    -642.175E-03    -642.175E-03        -2.30195        -2.30195
            3243         117.629         117.629    -477.327E-03    -477.327E-03        -2.24856        -2.24856
            3244         117.634         117.634    -335.091E-03    -335.091E-03        -2.19450        -2.19450
            3245         117.665         117.665    -208.865E-03    -208.865E-03        -2.13919        -2.13919
            3246         117.717         117.717    -92.1371E-03    -92.1371E-03        -2.08114        -2.08114
            3247         117.786         117.786     21.5358E-03     21.5358E-03        -2.01821        -2.01821
            3248         117.868         117.868     138.499E-03     138.499E-03        -1.94777        -1.94777
            3249         117.962         117.962     265.180E-03     265.180E-03        -1.86670        -1.86670
            3250         118.064         118.064     408.030E-03     408.030E-03        -1.77148        -1.77148
            3251         118.174         118.174     573.842E-03     573.842E-03        -1.65813        -1.65813
            3252         118.289         118.289     769.593E-03     769.593E-03        -1.52225        -1.52225
            3253         118.408         118.408         1.00296         1.00296        -1.35895        -1.35895
            3254         118.529         118.529         1.28198         1.28198        -1.16290        -1.16290
            3255         118.649         118.649         1.61588         1.61588    -928.270E-03    -928.270E-03
            3256         118.766         118.766         2.01439         2.01439    -648.978E-03    -648.978E-03
            3257         118.876         118.876         2.48914         2.48914    -318.452E-03    -318.452E-03
            3258         118.975         118.975         3.05230         3.05230     69.6124E-03     69.6124E-03
            3259         119.055         119.055         3.71889         3.71889     521.826E-03     521.826E-03
            3260         119.110         119.110         4.50430         4.50430         1.04328         1.04328
            3261         119.128         119.128         5.42772         5.42772         1.63896         1.63896
            3262         119.098         119.098         6.50811         6.50811         2.30979         2.30979
            3263         119.004         119.004         7.76830         7.76830         3.05580         3.05580
            3264         118.827         118.827         9.22946         9.22946         3.86874         3.86874
            3265         118.550         118.550         10.9135         10.9135         4.73797         4.73797
            3266         118.149         118.149         12.8379         12.8379         5.64053         5.64053
            3267         117.610         117.610         15.0118         15.0118         6.54881         6.54881
            3268         116.917         116.917         17.4357         17.4357         7.42500         7.42500
            3269         116.072         116.072         20.0894         20.0894         8.22556         8.22556
            3270         115.078         115.078         22.9403         22.9403         8.91098         8.91098
            3271         113.960         113.960         25.9328         25.9328         9.43944         9.43944
            3272         112.751         112.751         29.0005         29.0005         9.79186         9.79186
            3273         111.492         111.492         32.0583         32.0583         9.85918         9.85918
            3274         121.685         121.685        -2.96242        -2.96242    -205.922E-03    -205.922E-03
            3275         121.085         121.085        -2.98482        -2.98482    -812.890E-03    -812.890E-03
            3276         120.476         120.476        -2.82821        -2.82821        -1.28801        -1.28801
            3277         119.903         119.903        -2.56634        -2.56634        -1.64056        -1.64056
            3278         119.391         119.391        -2.25325        -2.25325        -1.88759        -1.88759
            3279         118.956         118.956        -1.92868        -1.92868        -2.05065        -2.05065
            3280         118.598         118.598        -1.61738        -1.61738        -2.15143        -2.15143
            3281         118.313         118.313        -1.33293        -1.33293        -2.20800        -2.20800
            3282         118.095         118.095        -1.08109        -1.08109        -2.23439        -2.23439
            3283         117.933         117.933    -862.595E-03    -862.595E-03        -2.24050        -2.24050
            3284         117.819         117.819    -675.148E-03    -675.148E-03        -2.23296        -2.23296
            3285         117.745         117.745    -514.693E-03    -514.693E-03        -2.21583        -2.21583
            3286         117.704         117.704    -376.229E-03    -376.229E-03        -2.19123        -2.19123
            3287         117.691         117.691    -254.286E-03    -254.286E-03        -2.15989        -2.15989
            3288         117.700         117.700    -143.168E-03    -143.168E-03        -2.12145        -2.12145
            3289         117.728         117.728    -37.1232E-03    -37.1232E-03        -2.07468        -2.07468
            3290         117.772         117.772     69.6878E-03     69.6878E-03        -2.01770        -2.01770
            3291         117.829         117.829     183.105E-03     183.105E-03        -1.94797        -1.94797
            3292         117.899         117.899     309.177E-03     309.177E-03        -1.86239        -1.86239
            3293         117.979         117.979     454.044E-03     454.044E-03        -1.75725        -1.75725
            3294         118.069         118.069     624.341E-03     624.341E-03        -1.62826        -1.62826
            3295         118.168         118.168     826.946E-03     826.946E-03        -1.47050        -1.47050
            3296         118.275         118.275         1.06968         1.06968        -1.27843        -1.27843
            3297         118.388         118.388         1.36079         1.36079        -1.04589        -1.04589
            3298         118.506         118.506         1.71015         1.71015    -766.010E-03    -766.010E-03
            3299         118.626         118.626         2.12821         2.12821    -431.564E-03    -431.564E-03
            3300         118.745         118.745         2.62811         2.62811    -34.6026E-03    -34.6026E-03
            3301         118.858         118.858         3.22362         3.22362     432.493E-03     432.493E-03
            3302         118.958         118.958         3.93272         3.93272     977.927E-03     977.927E-03
            3303         119.035         119.035         4.77372         4.77372         1.60775         1.60775
            3304         119.078         119.078         5.77097         5.77097         2.32825         2.32825
            3305         119.069         119.069         6.94816         6.94816         3.13954         3.13954
            3306         118.990         118.990         8.33544         8.33544         4.04110         4.04110
            3307         118.812         118.812         9.96026         9.96026         5.01926         5.01926
            3308         118.514         118.514         11.8508         11.8508         6.05750         6.05750
            3309         118.062         118.062         14.0284         14.0284         7.12012         7.12012
            3310         117.443         117.443         16.4987         16.4987         8.16475         8.16475
            3311         116.634         116.634         19.2539         19.2539         9.13736         9.13736
            3312         115.649         115.649         22.2523         22.2523         9.97587         9.97587
            3313         114.505         114.505         25.4343         25.4343         10.6351         10.6351
            3314         113.240         113.240         28.7130         28.7130         11.0675         11.0675
            3315         111.919         111.919         31.9756         31.9756         11.1625         11.1625
            3316         121.303         121.303        -2.33127        -2.33127     276.490E-03     276.490E-03
            3317         120.885         120.885        -2.45490        -2.45490    -278.320E-03    -278.320E-03
            3318         120.424         120.424        -2.40791        -2.40791    -753.509E-03    -753.509E-03
            3319         119.961         119.961        -2.24802        -2.24802        -1.13968        -1.13968
            3320         119.524         119.524        -2.02295        -2.02295        -1.44128        -1.44128
            3321         119.130         119.130        -1.76848        -1.76848        -1.66868        -1.66868
            3322         118.789         118.789        -1.51036        -1.51036        -1.83504        -1.83504
            3323         118.502         118.502        -1.26479        -1.26479        -1.95350        -1.95350
            3324         118.266         118.266        -1.04083        -1.04083        -2.03537        -2.03537
            3325         118.078         118.078    -842.263E-03    -842.263E-03        -2.08971        -2.08971
            3326         117.930         117.930    -669.356E-03    -669.356E-03        -2.12324        -2.12324
            3327         117.819         117.819    -520.084E-03    -520.084E-03        -2.14067        -2.14067
            3328         117.739         117.739    -391.014E-03    -391.014E-03        -2.14502        -2.14502
            3329         117.684         117.684    -277.885E-03    -277.885E-03        -2.13794        -2.13794
            3330         117.651         117.651    -175.987E-03    -175.987E-03        -2.11999        -2.11999
            3331         117.638         117.638    -80.3366E-03    -80.3366E-03        -2.09077        -2.09077
            3332         117.642         117.642     14.1520E-03     14.1520E-03        -2.04911        -2.04911
            3333         117.661         117.661     112.734E-03     112.734E-03        -1.99308        -1.99308
            3334         117.694         117.694     220.722E-03     220.722E-03        -1.92002        -1.92002
            3335         117.740         117.740     343.743E-03     343.743E-03        -1.82662        -1.82662
            3336         117.800         117.800     487.575E-03     487.575E-03        -1.70881        -1.70881
            3337         117.873         117.873     658.654E-03     658.654E-03        -1.56176        -1.56176
            3338         117.960         117.960     863.726E-03     863.726E-03        -1.37989        -1.37989
            3339         118.059         118.059         1.11078         1.11078        -1.15674        -1.15674
            3340         118.172         118.172         1.40831         1.40831    -885.081E-03    -885.081E-03
            3341         118.296         118.296         1.76701         1.76701    -556.717E-03    -556.717E-03
            3342         118.430         118.430         2.19822         2.19822    -162.869E-03    -162.869E-03
            3343         118.572         118.572         2.71716         2.71716     306.263E-03     306.263E-03
            3344         118.716         118.716         3.33960         3.33960     860.190E-03     860.190E-03
            3345         118.855         118.855         4.08778         4.08778         1.50948         1.50948
            3346         118.976         118.976         4.98400         4.98400         2.26175         2.26175
            3347         119.065         119.065         6.06028         6.06028         3.12559         3.12559
            3348         119.099         119.099         7.34722         7.34722         4.10009         4.10009
            3349         119.052         119.052         8.88629         8.88629         5.18457         5.18457
            3350         118.884         118.884         10.7146         10.7146         6.35658         6.35658
            3351         118.566         118.566         12.8687         12.8687         7.59033         7.59033
            3352         118.048         118.048         15.3749         15.3749         8.82957         8.82957
            3353         117.319         117.319         18.2274         18.2274         10.0076         10.0076
            3354         116.359         116.359         21.4000         21.4000         11.0490         11.0490
            3355         115.195         115.195         24.8103         24.8103         11.8666         11.8666
            3356         113.877         113.877         28.3523         28.3523         12.4182         12.4182
            3357         112.463         112.463         31.8818         31.8818         12.5434         12.5434
            3358         120.867         120.867        -1.78891        -1.78891     587.118E-03     587.118E-03
            3359         120.591         120.591        -1.95991        -1.95991     104.075E-03     104.075E-03
            3360         120.257         120.257        -1.98271        -1.98271    -341.095E-03    -341.095E-03
            3361         119.897         119.897        -1.89849        -1.89849    -729.784E-03    -729.784E-03
            3362         119.537         119.537        -1.74511        -1.74511        -1.05568        -1.05568
            3363         119.197         119.197        -1.55386        -1.55386        -1.32079        -1.32079
            3364         118.886         118.886        -1.34823        -1.34823        -1.53119        -1.53119
            3365         118.610         118.610        -1.14479        -1.14479        -1.69483        -1.69483
            3366         118.370         118.370    -953.902E-03    -953.902E-03        -1.81983        -1.81983
            3367         118.167         118.167    -781.152E-03    -781.152E-03        -1.91346        -1.91346
            3368         117.996         117.996    -628.570E-03    -628.570E-03        -1.98177        -1.98177
            3369         117.854         117.854    -495.731E-03    -495.731E-03        -2.02944        -2.02944
            3370         117.738         117.738    -380.564E-03    -380.564E-03        -2.05989        -2.05989
            3371         117.645         117.645    -279.972E-03    -279.972E-03        -2.07536        -2.07536
            3372         117.572         117.572    -190.210E-03    -190.210E-03        -2.07708        -2.07708
            3373         117.517         117.517    -107.188E-03    -107.188E-03        -2.06533        -2.06533
            3374         117.478         117.478    -26.5639E-03    -26.5639E-03        -2.03958        -2.03958
            3375         117.455         117.455     56.1061E-03     56.1061E-03        -1.99848        -1.99848
            3376         117.447         117.447     145.485E-03     145.485E-03        -1.93991        -1.93991
            3377         117.455         117.455     246.324E-03     246.324E-03        -1.86095        -1.86095
            3378         117.478         117.478     363.792E-03     363.792E-03        -1.75788        -1.75788
            3379         117.519         117.519     503.255E-03     503.255E-03        -1.62611        -1.62611
            3380         117.577         117.577     670.928E-03     670.928E-03        -1.46015        -1.46015
            3381         117.655         117.655     873.387E-03     873.387E-03        -1.25350        -1.25350
            3382         117.753         117.753         1.11883         1.11883    -998.654E-03    -998.654E-03
            3383         117.873         117.873         1.41601         1.41601    -686.955E-03    -686.955E-03
            3384         118.014         118.014         1.77666         1.77666    -308.545E-03    -308.545E-03
            3385         118.177         118.177         2.21321         2.21321     147.450E-03     147.450E-03
            3386         118.359         118.359         2.74356         2.74356     693.362E-03     693.362E-03
            3387         118.556         118.556         3.38608         3.38608         1.34151         1.34151
            3388         118.758         118.758         4.16898         4.16898         2.10604         2.10604
            3389         118.953         118.953         5.11996         5.11996         2.99729         2.99729
            3390         119.119         119.119         6.28272         6.28272         4.02798         4.02798
            3391         119.226         119.226         7.69800         7.69800         5.19609         5.19609
            3392         119.237         119.237         9.42558         9.42558         6.50189         6.50189
            3393         119.090         119.090         11.5179         11.5179         7.90778         7.90778
            3394         118.748         118.748         14.0225         14.0225         9.37202         9.37202
            3395         118.134         118.134         16.9702         16.9702         10.8041         10.8041
            3396         117.250         117.250         20.3249         20.3249         12.0953         12.0953
            3397         116.084         116.084         24.0185         24.0185         13.1463         13.1463
            3398         114.697         114.697         27.8969         27.8969         13.8404         13.8404
            3399         113.201         113.201         31.7607         31.7607         14.0302         14.0302
            3400         120.426         120.426        -1.33893        -1.33893     772.442E-03     772.442E-03
            3401         120.257         120.257        -1.51891        -1.51891     364.125E-03     364.125E-03
            3402         120.026         120.026        -1.57809        -1.57809    -36.5059E-03    -36.5059E-03
            3403         119.758         119.758        -1.54423        -1.54423    -406.868E-03    -406.868E-03
            3404         119.473         119.473        -1.44557        -1.44557    -734.901E-03    -734.901E-03
            3405         119.188         119.188        -1.30721        -1.30721        -1.01608        -1.01608
            3406         118.913         118.913        -1.14951        -1.14951        -1.25110        -1.25110
            3407         118.657         118.657    -987.497E-03    -987.497E-03        -1.44351        -1.44351
            3408         118.423         118.423    -831.480E-03    -831.480E-03        -1.59823        -1.59823
            3409         118.212         118.212    -687.629E-03    -687.629E-03        -1.72054        -1.72054
            3410         118.023         118.023    -558.953E-03    -558.953E-03        -1.81537        -1.81537
            3411         117.856         117.856    -446.079E-03    -446.079E-03        -1.88698        -1.88698
            3412         117.708         117.708    -347.998E-03    -347.998E-03        -1.93880        -1.93880
            3413         117.578         117.578    -262.582E-03    -262.582E-03        -1.97337        -1.97337
            3414         117.464         117.464    -187.020E-03    -187.020E-03        -1.99235        -1.99235
            3415         117.366         117.366    -118.048E-03    -118.048E-03        -1.99659        -1.99659
            3416         117.282         117.282    -52.1760E-03    -52.1760E-03        -1.98608        -1.98608
            3417         117.213         117.213     14.3047E-03     14.3047E-03        -1.96003        -1.96003
            3418         117.159         117.159     85.1808E-03     85.1808E-03        -1.91681        -1.91681
            3419         117.122         117.122     164.500E-03     164.500E-03        -1.85399        -1.85399
            3420         117.101         117.101     256.414E-03     256.414E-03        -1.76827        -1.76827
            3421         117.101         117.101     365.600E-03     365.600E-03        -1.65544        -1.65544
            3422         117.122         117.122     496.962E-03     496.962E-03        -1.51027        -1.51027
            3423         117.168         117.168     656.458E-03     656.458E-03        -1.32650        -1.32650
            3424         117.241         117.241     850.448E-03     850.448E-03        -1.09656        -1.09656
            3425         117.344         117.344         1.08735         1.08735    -811.691E-03    -811.691E-03
            3426         117.480         117.480         1.37615         1.37615    -461.475E-03    -461.475E-03
            3427         117.652         117.652         1.72984         1.72984    -33.9738E-03    -33.9738E-03
            3428         117.860         117.860         2.16200         2.16200     484.527E-03     484.527E-03
            3429         118.105         118.105         2.69402         2.69402         1.10981         1.10981
            3430         118.382         118.382         3.34740         3.34740         1.85845         1.85845
            3431         118.683         118.683         4.15875         4.15875         2.75014         2.75014
            3432         118.991         118.991         5.16289         5.16289         3.80004         3.80004
            3433         119.280         119.280         6.42181         6.42181         5.02849         5.02849
            3434         119.505         119.505         7.99132         7.99132         6.43263         6.43263
            3435         119.612         119.612         9.96271         9.96271         8.01689         8.01689
            3436         119.499         119.499         12.4149         12.4149         9.71524         9.71524
            3437         119.118         119.118         15.4060         15.4060         11.4552         11.4552
            3438         118.354         118.354         18.9657         18.9657         13.0882         13.0882
            3439         117.238         117.238         22.9836         22.9836         14.4314         14.4314
            3440         115.806         115.806         27.2971         27.2971         15.3719         15.3719
            3441         114.165         114.165         31.6199         31.6199         15.6304         15.6304
            3442         120.008         120.008    -973.423E-03    -973.423E-03     866.619E-03     866.619E-03
            3443         119.920         119.920        -1.13742        -1.13742     527.665E-03     527.665E-03
            3444         119.774         119.774        -1.20835        -1.20835     176.857E-03     176.857E-03
            3445         119.585         119.585        -1.20385        -1.20385    -163.073E-03    -163.073E-03
            3446         119.368         119.368        -1.14393        -1.14393    -477.210E-03    -477.210E-03
            3447         119.136         119.136        -1.04765        -1.04765    -757.344E-03    -757.344E-03
            3448         118.900         118.900    -931.284E-03    -931.284E-03        -1.00019        -1.00019
            3449         118.667         118.667    -807.605E-03    -807.605E-03        -1.20596        -1.20596
            3450         118.442         118.442    -685.720E-03    -685.720E-03        -1.37693        -1.37693
            3451         118.228         118.228    -571.558E-03    -571.558E-03        -1.51647        -1.51647
            3452         118.025         118.025    -468.350E-03    -468.350E-03        -1.62835        -1.62835
            3453         117.834         117.834    -377.287E-03    -377.287E-03        -1.71618        -1.71618
            3454         117.656         117.656    -298.047E-03    -298.047E-03        -1.78319        -1.78319
            3455         117.489         117.489    -229.284E-03    -229.284E-03        -1.83199        -1.83199
            3456         117.333         117.333    -168.956E-03    -168.956E-03        -1.86453        -1.86453
            3457         117.189         117.189    -114.613E-03    -114.613E-03        -1.88200        -1.88200
            3458         117.057         117.057    -63.5181E-03    -63.5181E-03        -1.88486        -1.88486
            3459         116.937         116.937    -12.8046E-03    -12.8046E-03        -1.87278        -1.87278
            3460         116.831         116.831     40.5766E-03     40.5766E-03        -1.84466        -1.84466
            3461         116.741         116.741     99.7369E-03     99.7369E-03        -1.79853        -1.79853
            3462         116.669         116.669     168.081E-03     168.081E-03        -1.73164        -1.73164
            3463         116.618         116.618     249.135E-03     249.135E-03        -1.64021        -1.64021
            3464         116.591         116.591     347.035E-03     347.035E-03        -1.51956        -1.51956
            3465         116.592         116.592     466.168E-03     466.168E-03        -1.36374        -1.36374
            3466         116.626         116.626     612.168E-03     612.168E-03        -1.16572        -1.16572
            3467         116.697         116.697     791.092E-03     791.092E-03    -916.747E-03    -916.747E-03
            3468         116.812         116.812         1.01150         1.01150    -606.673E-03    -606.673E-03
            3469         116.974         116.974         1.28254         1.28254    -222.945E-03    -222.945E-03
            3470         117.191         117.191         1.61849         1.61849     248.854E-03     248.854E-03
            3471         117.466         117.466         2.03409         2.03409     826.308E-03     826.308E-03
            3472         117.802         117.802         2.55496         2.55496         1.52980         1.52980
            3473         118.198         118.198         3.20612         3.20612         2.38251         2.38251
            3474         118.645         118.645         4.03581         4.03581         3.41257         3.41257
            3475         119.128         119.128         5.08803         5.08803         4.64419         4.64419
            3476         119.609         119.609         6.45413         6.45413         6.11189         6.11189
            3477         120.025         120.025         8.21252         8.21252         7.81385         7.81385
            3478         120.289         120.289         10.5136         10.5136         9.76761         9.76761
            3479         120.220         120.220         13.4859         13.4859         11.8482         11.8482
            3480         119.763         119.763         17.1852         17.1852         13.9152         13.9152
            3481         118.751         118.751         21.6125         21.6125         15.7255         15.7255
            3482         117.288         117.288         26.4826         26.4826         16.9678         16.9678
            3483         115.553         115.553         31.4104         31.4104         17.4106         17.4106
            3484         119.627         119.627    -680.172E-03    -680.172E-03     891.001E-03     891.001E-03
            3485         119.605         119.605    -814.203E-03    -814.203E-03     613.307E-03     613.307E-03
            3486         119.530         119.530    -880.427E-03    -880.427E-03     312.789E-03     312.789E-03
            3487         119.409         119.409    -889.652E-03    -889.652E-03     10.4464E-03     10.4464E-03
            3488         119.253         119.253    -855.300E-03    -855.300E-03    -278.358E-03    -278.358E-03
            3489         119.072         119.072    -791.017E-03    -791.017E-03    -543.567E-03    -543.567E-03
            3490         118.873         118.873    -709.022E-03    -709.022E-03    -779.672E-03    -779.672E-03
            3491         118.664         118.664    -619.241E-03    -619.241E-03    -984.570E-03    -984.570E-03
            3492         118.449         118.449    -529.104E-03    -529.104E-03        -1.15861        -1.15861
            3493         118.232         118.232    -443.610E-03    -443.610E-03        -1.30366        -1.30366
            3494         118.015         118.015    -365.719E-03    -365.719E-03        -1.42240        -1.42240
            3495         117.802         117.802    -296.727E-03    -296.727E-03        -1.51782        -1.51782
            3496         117.591         117.591    -236.710E-03    -236.710E-03        -1.59281        -1.59281
            3497         117.386         117.386    -184.852E-03    -184.852E-03        -1.64991        -1.64991
            3498         117.186         117.186    -139.769E-03    -139.769E-03        -1.69118        -1.69118
            3499         116.992         116.992    -99.6832E-03    -99.6832E-03        -1.71807        -1.71807
            3500         116.807         116.807    -62.6127E-03    -62.6127E-03        -1.73135        -1.73135
            3501         116.631         116.631    -26.4015E-03    -26.4015E-03        -1.73109        -1.73109
            3502         116.467         116.467     11.1654E-03     11.1654E-03        -1.71664        -1.71664
            3503         116.317         116.317     52.4648E-03     52.4648E-03        -1.68657        -1.68657
            3504         116.184         116.184     99.9265E-03     99.9265E-03        -1.63859        -1.63859
            3505         116.071         116.071     156.293E-03     156.293E-03        -1.56965        -1.56965
            3506         115.984         115.984     224.439E-03     224.439E-03        -1.47555        -1.47555
            3507         115.926         115.926     307.898E-03     307.898E-03        -1.35123        -1.35123
            3508         115.905         115.905     410.478E-03     410.478E-03        -1.19008        -1.19008
            3509         115.926         115.926     537.340E-03     537.340E-03    -984.411E-03    -984.411E-03
            3510         115.997         115.997     694.113E-03     694.113E-03    -724.226E-03    -724.226E-03
            3511         116.127         116.127     889.259E-03     889.259E-03    -398.075E-03    -398.075E-03
            3512         116.326         116.326         1.13187         1.13187     9.10330E-03     9.10330E-03
            3513         116.604         116.604         1.43724         1.43724     514.452E-03     514.452E-03
            3514         116.970         116.970         1.82108         1.82108         1.14074         1.14074
            3515         117.432         117.432         2.31355         2.31355         1.91416         1.91416
            3516         117.998         117.998         2.94327         2.94327         2.86819         2.86819
            3517         118.662         118.662         3.77403         3.77403         4.04357         4.04357
            3518         119.412         119.412         4.86076         4.86076         5.48186         5.48186
            3519         120.198         120.198         6.34323         6.34323         7.24404         7.24404
            3520         120.933         120.933         8.33316         8.33316         9.33744         9.33744
            3521         121.463         121.463         11.1050         11.1050         11.8186         11.8186
            3522         121.429         121.429         14.8904         14.8904         14.4259         14.4259
            3523         120.805         120.805         19.6729         19.6729         16.8482         16.8482
            3524         119.394         119.394         25.3167         25.3167         18.7126         18.7126
            3525         117.436         117.436         31.1376         31.1376         19.3465         19.3465
            3526         119.289         119.289    -447.425E-03    -447.425E-03     855.233E-03     855.233E-03
            3527         119.329         119.329    -545.561E-03    -545.561E-03     631.453E-03     631.453E-03
            3528         119.318         119.318    -597.780E-03    -597.780E-03     380.536E-03     380.536E-03
            3529         119.260         119.260    -610.323E-03    -610.323E-03     120.805E-03     120.805E-03
            3530         119.160         119.160    -591.716E-03    -591.716E-03    -133.364E-03    -133.364E-03
            3531         119.025         119.025    -551.047E-03    -551.047E-03    -371.736E-03    -371.736E-03
            3532         118.860         118.860    -496.767E-03    -496.767E-03    -587.863E-03    -587.863E-03
            3533         118.671         118.671    -435.966E-03    -435.966E-03    -778.488E-03    -778.488E-03
            3534         118.464         118.464    -374.066E-03    -374.066E-03    -942.753E-03    -942.753E-03
            3535         118.242         118.242    -314.859E-03    -314.859E-03        -1.08149        -1.08149
            3536         118.010         118.010    -260.654E-03    -260.654E-03        -1.19659        -1.19659
            3537         117.771         117.771    -212.581E-03    -212.581E-03        -1.29043        -1.29043
            3538         117.526         117.526    -170.841E-03    -170.841E-03        -1.36555        -1.36555
            3539         117.279         117.279    -134.989E-03    -134.989E-03        -1.42431        -1.42431
            3540         117.030         117.030    -104.120E-03    -104.120E-03        -1.46875        -1.46875
            3541         116.783         116.783    -77.0601E-03    -77.0601E-03        -1.50040        -1.50040
            3542         116.540         116.540    -52.4423E-03    -52.4423E-03        -1.52024        -1.52024
            3543         116.302         116.302    -28.8193E-03    -28.8193E-03        -1.52864        -1.52864
            3544         116.072         116.072    -4.64103E-03    -4.64103E-03        -1.52535        -1.52535
            3545         115.853         115.853     21.6661E-03     21.6661E-03        -1.50936        -1.50936
            3546         115.649         115.649     51.8179E-03     51.8179E-03        -1.47905        -1.47905
            3547         115.465         115.465     87.5844E-03     87.5844E-03        -1.43189        -1.43189
            3548         115.303         115.303     131.032E-03     131.032E-03        -1.36465        -1.36465
            3549         115.172         115.172     184.380E-03     184.380E-03        -1.27292        -1.27292
            3550         115.077         115.077     250.461E-03     250.461E-03        -1.15144        -1.15144
            3551         115.026         115.026     332.435E-03     332.435E-03    -993.199E-03    -993.199E-03
            3552         115.030         115.030     434.741E-03     434.741E-03    -790.126E-03    -790.126E-03
            3553         115.099         115.099     562.408E-03     562.408E-03    -531.182E-03    -531.182E-03
            3554         115.247         115.247     723.271E-03     723.271E-03    -203.960E-03    -203.960E-03
            3555         115.489         115.489     926.052E-03     926.052E-03     209.267E-03     209.267E-03
            3556         115.841         115.841         1.18619         1.18619     728.151E-03     728.151E-03
            3557         116.325         116.325         1.51983         1.51983         1.38207         1.38207
            3558         116.957         116.957         1.96087         1.96087         2.20373         2.20373
            3559         117.761         117.761         2.54091         2.54091         3.24242         3.24242
            3560         118.740         118.740         3.34257         3.34257         4.55618         4.55618
            3561         119.905         119.905         4.43220         4.43220         6.22084         6.22084
            3562         121.190         121.190         6.02930         6.02930         8.34511         8.34511
            3563         122.492         122.492         8.29079         8.29079         10.9760         10.9760
            3564         123.513         123.513         11.7858         11.7858         14.2865         14.2865
            3565         123.438         123.438         16.9764         16.9764         17.6636         17.6636
            3566         122.415         122.415         23.4814         23.4814         20.3235         20.3235
            3567         120.458         120.458         30.6180         30.6180         21.6500         21.6500
            3568         119.004         119.004    -266.174E-03    -266.174E-03     758.788E-03     758.788E-03
            3569         119.108         119.108    -328.702E-03    -328.702E-03     584.480E-03     584.480E-03
            3570         119.162         119.162    -363.362E-03    -363.362E-03     384.047E-03     384.047E-03
            3571         119.165         119.165    -373.499E-03    -373.499E-03     172.526E-03     172.526E-03
            3572         119.117         119.117    -364.027E-03    -364.027E-03    -37.7817E-03    -37.7817E-03
            3573         119.023         119.023    -340.426E-03    -340.426E-03    -237.651E-03    -237.651E-03
            3574         118.887         118.887    -307.908E-03    -307.908E-03    -420.918E-03    -420.918E-03
            3575         118.714         118.714    -270.929E-03    -270.929E-03    -584.100E-03    -584.100E-03
            3576         118.510         118.510    -232.973E-03    -232.973E-03    -725.885E-03    -725.885E-03
            3577         118.279         118.279    -196.499E-03    -196.499E-03    -846.537E-03    -846.537E-03
            3578         118.027         118.027    -163.057E-03    -163.057E-03    -947.374E-03    -947.374E-03
            3579         117.757         117.757    -133.425E-03    -133.425E-03        -1.03030        -1.03030
            3580         117.473         117.473    -107.799E-03    -107.799E-03        -1.09744        -1.09744
            3581         117.178         117.178    -85.9402E-03    -85.9402E-03        -1.15089        -1.15089
            3582         116.877         116.877    -67.3272E-03    -67.3272E-03        -1.19248        -1.19248
            3583         116.570         116.570    -51.2414E-03    -51.2414E-03        -1.22371        -1.22371
            3584         116.262         116.262    -36.8686E-03    -36.8686E-03        -1.24560        -1.24560
            3585         115.956         115.956    -23.3110E-03    -23.3110E-03        -1.25869        -1.25869
            3586         115.653         115.653    -9.65396E-03    -9.65396E-03        -1.26299        -1.26299
            3587         115.357         115.357     5.08092E-03     5.08092E-03        -1.25797        -1.25797
            3588         115.073         115.073     21.8840E-03     21.8840E-03        -1.24245        -1.24245
            3589         114.804         114.804     41.8571E-03     41.8571E-03        -1.21472        -1.21472
            3590         114.555         114.555     66.1683E-03     66.1683E-03        -1.17226        -1.17226
            3591         114.334         114.334     96.2061E-03     96.2061E-03        -1.11192        -1.11192
            3592         114.146         114.146     133.556E-03     133.556E-03        -1.02939        -1.02939
            3593         114.001         114.001     180.225E-03     180.225E-03    -919.666E-03    -919.666E-03
            3594         113.910         113.910     238.688E-03     238.688E-03    -775.738E-03    -775.738E-03
            3595         113.885         113.885     312.264E-03     312.264E-03    -589.793E-03    -589.793E-03
            3596         113.943         113.943     405.264E-03     405.264E-03    -350.291E-03    -350.291E-03
            3597         114.102         114.102     523.930E-03     523.930E-03    -44.7829E-03    -44.7829E-03
            3598         114.386         114.386     676.387E-03     676.387E-03     346.705E-03     346.705E-03
            3599         114.822         114.822     876.093E-03     876.093E-03     845.039E-03     845.039E-03
            3600         115.446         115.446         1.13925         1.13925         1.48707         1.48707
            3601         116.293         116.293         1.49954         1.49954         2.31065         2.31065
            3602         117.418         117.418         1.99090         1.99090         3.38792         3.38792
            3603         118.851         118.851         2.71220         2.71220         4.79611         4.79611
            3604         120.662         120.662         3.73962         3.73962         6.67752         6.67752
            3605         122.794         122.794         5.41473         5.41473         9.21819         9.21819
            3606         125.201         125.201         7.94159         7.94159         12.6132         12.6132
            3607         127.250         127.250         12.6735         12.6735         17.3764         17.3764
            3608         126.891         126.891         20.5615         20.5615         21.9373         21.9373
            3609         124.871         124.871         29.7179         29.7179         23.9747         23.9747
            3610         118.782         118.782    -131.919E-03    -131.919E-03     591.716E-03     591.716E-03
            3611         118.963         118.963    -164.107E-03    -164.107E-03     467.322E-03     467.322E-03
            3612         119.088         119.088    -182.335E-03    -182.335E-03     322.177E-03     322.177E-03
            3613         119.152         119.152    -188.091E-03    -188.091E-03     167.383E-03     167.383E-03
            3614         119.155         119.155    -183.797E-03    -183.797E-03     12.2263E-03     12.2263E-03
            3615         119.097         119.097    -172.193E-03    -172.193E-03    -136.162E-03    -136.162E-03
            3616         118.984         118.984    -155.932E-03    -155.932E-03    -272.887E-03    -272.887E-03
            3617         118.820         118.820    -137.311E-03    -137.311E-03    -395.089E-03    -395.089E-03
            3618         118.610         118.610    -118.130E-03    -118.130E-03    -501.580E-03    -501.580E-03
            3619         118.362         118.362    -99.6838E-03    -99.6838E-03    -592.434E-03    -592.434E-03
            3620         118.082         118.082    -82.7836E-03    -82.7836E-03    -668.581E-03    -668.581E-03
            3621         117.774         117.774    -67.8553E-03    -67.8553E-03    -731.449E-03    -731.449E-03
            3622         117.444         117.444    -55.0075E-03    -55.0075E-03    -782.682E-03    -782.682E-03
            3623         117.096         117.096    -44.1367E-03    -44.1367E-03    -823.916E-03    -823.916E-03
            3624         116.734         116.734    -34.9771E-03    -34.9771E-03    -856.639E-03    -856.639E-03
            3625         116.363         116.363    -27.1798E-03    -27.1798E-03    -882.070E-03    -882.070E-03
            3626         115.984         115.984    -20.3256E-03    -20.3256E-03    -901.121E-03    -901.121E-03
            3627         115.602         115.602    -13.9811E-03    -13.9811E-03    -914.323E-03    -914.323E-03
            3628         115.219         115.219    -7.67633E-03    -7.67633E-03    -921.853E-03    -921.853E-03
            3629         114.838         114.838    -947.741E-06    -947.741E-06    -923.450E-03    -923.450E-03
            3630         114.463         114.463     6.70785E-03     6.70785E-03    -918.490E-03    -918.490E-03
            3631         114.099         114.099     15.8085E-03     15.8085E-03    -905.832E-03    -905.832E-03
            3632         113.750         113.750     26.9289E-03     26.9289E-03    -883.960E-03    -883.960E-03
            3633         113.422         113.422     40.7402E-03     40.7402E-03    -850.663E-03    -850.663E-03
            3634         113.123         113.123     57.9743E-03     57.9743E-03    -803.329E-03    -803.329E-03
            3635         112.860         112.860     79.6709E-03     79.6709E-03    -738.234E-03    -738.234E-03
            3636         112.645         112.645     106.875E-03     106.875E-03    -651.230E-03    -651.230E-03
            3637         112.492         112.492     141.457E-03     141.457E-03    -536.116E-03    -536.116E-03
            3638         112.417         112.417     185.096E-03     185.096E-03    -386.326E-03    -386.326E-03
            3639         112.441         112.441     241.515E-03     241.515E-03    -191.041E-03    -191.041E-03
            3640         112.590         112.590     313.872E-03     313.872E-03     60.5045E-03     60.5045E-03
            3641         112.899         112.899     410.050E-03     410.050E-03     388.762E-03     388.762E-03
            3642         113.407         113.407     537.507E-03     537.507E-03     812.556E-03     812.556E-03
            3643         114.174         114.174     713.577E-03     713.577E-03         1.37459         1.37459
            3644         115.266         115.266     961.358E-03     961.358E-03         2.11139         2.11139
            3645         116.789         116.789         1.31992         1.31992         3.12258         3.12258
            3646         118.844         118.844         1.88161         1.88161         4.49284         4.49284
            3647         121.643         121.643         2.73694         2.73694         6.48209         6.48209
            3648         125.242         125.242         4.36052         4.36052         9.35914         9.35914
            3649         130.010         130.010         6.98927         6.98927         13.8204         13.8204
            3650         134.636         134.636         14.2067         14.2067         21.2709         21.2709
            3651         133.754         133.754         27.4187         27.4187         27.3997         27.3997
            3652         118.642         118.642    -46.2327E-03    -46.2327E-03     336.922E-03     336.922E-03
            3653         118.918         118.918    -57.7168E-03    -57.7168E-03     269.552E-03     269.552E-03
            3654         119.125         119.125    -64.2711E-03    -64.2711E-03     190.451E-03     190.451E-03
            3655         119.256         119.256    -66.3884E-03    -66.3884E-03     105.783E-03     105.783E-03
            3656         119.307         119.307    -64.9218E-03    -64.9218E-03     20.7296E-03     20.7296E-03
            3657         119.281         119.281    -60.8361E-03    -60.8361E-03    -60.7187E-03    -60.7187E-03
            3658         119.181         119.181    -55.0846E-03    -55.0846E-03    -135.803E-03    -135.803E-03
            3659         119.014         119.014    -48.4840E-03    -48.4840E-03    -202.903E-03    -202.903E-03
            3660         118.789         118.789    -41.6886E-03    -41.6886E-03    -261.349E-03    -261.349E-03
            3661         118.512         118.512    -35.1577E-03    -35.1577E-03    -311.185E-03    -311.185E-03
            3662         118.192         118.192    -29.1910E-03    -29.1910E-03    -352.945E-03    -352.945E-03
            3663         117.837         117.837    -23.9357E-03    -23.9357E-03    -387.451E-03    -387.451E-03
            3664         117.451         117.451    -19.4392E-03    -19.4392E-03    -415.650E-03    -415.650E-03
            3665         117.042         117.042    -15.6576E-03    -15.6576E-03    -438.491E-03    -438.491E-03
            3666         116.613         116.613    -12.5064E-03    -12.5064E-03    -456.837E-03    -456.837E-03
            3667         116.169         116.169    -9.85148E-03    -9.85148E-03    -471.417E-03    -471.417E-03
            3668         115.714         115.714    -7.55902E-03    -7.55902E-03    -482.773E-03    -482.773E-03
            3669         115.249         115.249    -5.46208E-03    -5.46208E-03    -491.269E-03    -491.269E-03
            3670         114.779         114.779    -3.41488E-03    -3.41488E-03    -497.042E-03    -497.042E-03
            3671         114.306         114.306    -1.23945E-03    -1.23945E-03    -500.045E-03    -500.045E-03
            3672         113.833         113.833     1.21975E-03     1.21975E-03    -499.978E-03    -499.978E-03
            3673         113.364         113.364     4.14923E-03     4.14923E-03    -496.359E-03    -496.359E-03
            3674         112.902         112.902     7.74678E-03     7.74678E-03    -488.395E-03    -488.395E-03
            3675         112.453         112.453     12.2056E-03     12.2056E-03    -475.112E-03    -475.112E-03
            3676         112.024         112.024     17.8557E-03     17.8557E-03    -455.078E-03    -455.078E-03
            3677         111.621         111.621     24.8676E-03     24.8676E-03    -426.689E-03    -426.689E-03
            3678         111.256         111.256     33.9270E-03     33.9270E-03    -387.531E-03    -387.531E-03
            3679         110.940         110.940     45.0620E-03     45.0620E-03    -335.082E-03    -335.082E-03
            3680         110.689         110.689     59.8719E-03     59.8719E-03    -265.161E-03    -265.161E-03
            3681         110.523         110.523     77.8870E-03     77.8870E-03    -173.767E-03    -173.767E-03
            3682         110.469         110.469     103.030E-03     103.030E-03    -53.0484E-03    -53.0484E-03
            3683         110.559         110.559     133.435E-03     133.435E-03     103.522E-03     103.522E-03
            3684         110.837         110.837     178.952E-03     178.952E-03     312.498E-03     312.498E-03
            3685         111.363         111.363     234.498E-03     234.498E-03     584.979E-03     584.979E-03
            3686         112.220         112.220     325.213E-03     325.213E-03     961.089E-03     961.089E-03
            3687         113.519         113.519     441.580E-03     441.580E-03         1.46109         1.46109
            3688         115.442         115.442     649.202E-03     649.202E-03         2.19972         2.19972
            3689         118.222         118.222     956.930E-03     956.930E-03         3.22234         3.22234
            3690         122.359         122.359         1.54433         1.54433         4.93716         4.93716
            3691         128.369         128.369         2.77525         2.77525         7.53397         7.53397
            3692         138.310         138.310         5.25019         5.25019         13.1250         13.1250
            3693         150.903         150.903         18.6253         18.6253         24.1026         24.1026
            3694         6.82435         6.82435        -53.1810        -53.1810        -6.35987        -6.35987
            3695         24.8386         24.8386        -21.8284        -21.8284        -16.9804        -16.9804
            3696         48.3866         48.3866        -6.86913        -6.86913        -18.5668        -18.5668
            3697         70.5478         70.5478        -1.18119        -1.18119        -15.3879        -15.3879
            3698         87.8742         87.8742     374.908E-03     374.908E-03        -10.9131        -10.9131
            3699         21.8009         21.8009        -39.4908        -39.4908        -14.7018        -14.7018
            3700         48.2564         48.2564        -21.8565        -21.8565        -29.7374        -29.7374
            3701         71.8676         71.8676        -12.8760        -12.8760        -29.6619        -29.6619
            3702         89.4567         89.4567        -8.00780        -8.00780        -23.1049        -23.1049
            3703         101.172         101.172        -5.06943        -5.06943        -15.7129        -15.7129
            3704         46.8477         46.8477        -22.9311        -22.9311        -24.5120        -24.5120
            3705         79.7894         79.7894        -22.0656        -22.0656        -34.9327        -34.9327
            3706         99.1952         99.1952        -18.4371        -18.4371        -30.3969        -30.3969
            3707         109.235         109.235        -13.5367        -13.5367        -21.7794        -21.7794
            3708         114.073         114.073        -9.10402        -9.10402        -13.9828        -13.9828
            3709         79.9302         79.9302        -8.25228        -8.25228        -32.8250        -32.8250
            3710         110.896         110.896        -21.3193        -21.3193        -31.6704        -31.6704
            3711         121.381         121.381        -20.3434        -20.3434        -23.4157        -23.4157
            3712         123.247         123.247        -15.1621        -15.1621        -15.2888        -15.2888
            3713         122.317         122.317        -10.0520        -10.0520        -9.19294        -9.19294
            3714         131.858         131.858         14.9376         14.9376         5.40862         5.40862
            3715         142.640         142.640         23.0433         23.0433         6.40938         6.40938
            3716         162.019         162.019         31.4585         31.4585         4.76981         4.76981
            3717         195.876         195.876         35.9681         35.9681        -2.97862        -2.97862
            3718         251.423         251.423         29.6473         29.6473        -20.8703        -20.8703
            3719         133.413         133.413         5.55653         5.55653         6.51596         6.51596
            3720         143.495         143.495         10.1414         10.1414         7.83469         7.83469
            3721         159.409         159.409         16.6971         16.6971         5.57383         5.57383
            3722         184.458         184.458         24.1578         24.1578        -6.18150        -6.18150
            3723         223.704         223.704         28.7952         28.7952        -35.7605        -35.7605
            3724         133.029         133.029        -2.90473        -2.90473         3.56138         3.56138
            3725         141.978         141.978        -2.56485        -2.56485         3.95568         3.95568
            3726         154.216         154.216     201.323E-03     201.323E-03         1.32520         1.32520
            3727         169.298         169.298         8.26113         8.26113        -10.3740        -10.3740
            3728         186.923         186.923         24.2512         24.2512        -42.2940        -42.2940
            3729         130.308         130.308        -7.46587        -7.46587    -651.295E-03    -651.295E-03
            3730         137.452         137.452        -10.4178        -10.4178        -2.13783        -2.13783
            3731         146.133         146.133        -11.9755        -11.9755        -6.04635        -6.04635
            3732         152.843         152.843        -6.98413        -6.98413        -16.2635        -16.2635
            3733         149.258         149.258         14.9241         14.9241        -42.0392        -42.0392
            3734         85.4649         85.4649        -6.01644        -6.01644         34.0662         34.0662
            3735         115.647         115.647        -21.1314        -21.1314         30.8169         30.8169
            3736         124.554         124.554        -20.4614        -20.4614         22.0605         22.0605
            3737         125.138         125.138        -15.2357        -15.2357         14.1106         14.1106
            3738         123.375         123.375        -10.0603        -10.0603         8.35128         8.35128
            3739         56.6944         56.6944        -17.6449        -17.6449         27.6475         27.6475
            3740         90.4897         90.4897        -22.1018        -22.1018         35.1104         35.1104
            3741         107.597         107.597        -19.7572        -19.7572         29.0643         29.0643
            3742         114.907         114.907        -14.7291        -14.7291         20.1769         20.1769
            3743         117.584         117.584        -9.90444        -9.90444         12.6556         12.6556
            3744         32.6849         32.6849        -31.4637        -31.4637         19.4706         19.4706
            3745         63.1945         63.1945        -22.0795        -22.0795         33.7090         33.7090
            3746         85.5820         85.5820        -16.0483        -16.0483         31.7103         31.7103
            3747         99.8184         99.8184        -11.3120        -11.3120         23.7878         23.7878
            3748         108.141         108.141        -7.56848        -7.56848         15.7487         15.7487
            3749         15.3125         15.3125        -45.2310        -45.2310         11.5346         11.5346
            3750         38.7053         38.7053        -21.9736        -21.9736         26.4073         26.4073
            3751         62.6416         62.6416        -10.7124        -10.7124         27.4916         27.4916
            3752         82.2633         82.2633        -5.61215        -5.61215         22.0610         22.0610
            3753         96.2343         96.2343        -3.21390        -3.21390         15.3052         15.3052
            3754         5.12263         5.12263        -55.6401        -55.6401         5.09899         5.09899
            3755         21.7970         21.7970        -22.0975        -22.0975         14.4662         14.4662
            3756         44.9949         44.9949        -6.05987        -6.05987         16.0811         16.0811
            3757         67.5749         67.5749    -68.8743E-03    -68.8743E-03         13.4997         13.4997
            3758         85.6583         85.6583         1.34034         1.34034         9.67563         9.67563
            3759         130.453         130.453        -7.67109        -7.67109     928.629E-03     928.629E-03
            3760         137.585         137.585        -10.5939        -10.5939         2.34744         2.34744
            3761         146.254         146.254        -12.1195        -12.1195         6.20223         6.20223
            3762         152.980         152.980        -7.09685        -7.09685         16.3831         16.3831
            3763         149.434         149.434         14.8497         14.8497         42.1414         42.1414
            3764         133.138         133.138        -3.06056        -3.06056        -3.29849        -3.29849
            3765         142.078         142.078        -2.69029        -2.69029        -3.75481        -3.75481
            3766         154.311         154.311     113.799E-03     113.799E-03        -1.17511        -1.17511
            3767         169.407         169.407         8.21588         8.21588         10.4818         10.4818
            3768         187.091         187.091         24.2648         24.2648         42.3907         42.3907
            3769         133.482         133.482         5.45668         5.45668        -6.26225        -6.26225
            3770         143.557         143.557         10.0706         10.0706        -7.63259        -7.63259
            3771         159.466         159.466         16.6634         16.6634        -5.41592        -5.41592
            3772         184.528         184.528         24.1699         24.1699         6.30573         6.30573
            3773         223.841         223.841         28.8372         28.8372         35.8652         35.8652
            3774         131.891         131.891         14.8910         14.8910        -5.15615        -5.15615
            3775         142.668         142.668         23.0154         23.0154        -6.19839        -6.19839
            3776         162.043         162.043         31.4565         31.4565        -4.59148        -4.59148
            3777         195.910         195.910         35.9911         35.9911         3.12904         3.12904
            3778         251.502         251.502         29.6769         29.6769         20.9779         20.9779
            3779         143.280         143.280         13.3245         13.3245        -41.7903        -41.7903
            3780         150.223         150.223        -9.31698        -9.31698        -17.3607        -17.3607
            3781         144.804         144.804        -13.7548        -13.7548        -7.44654        -7.44654
            3782         136.723         136.723        -11.5659        -11.5659        -3.35484        -3.35484
            3783         129.923         129.923        -8.19851        -8.19851        -1.61297        -1.61297
            3784         174.323         174.323         22.0025         22.0025        -43.2202        -43.2202
            3785         164.057         164.057         2.91535         2.91535        -12.1752        -12.1752
            3786         152.064         152.064        -4.75354        -4.75354    -930.250E-03    -930.250E-03
            3787         141.027         141.027        -6.14123        -6.14123         1.88228         1.88228
            3788         132.576         132.576        -5.22146        -5.22146         1.92853         1.92853
            3789         206.374         206.374         27.3824         27.3824        -40.5516        -40.5516
            3790         177.396         177.396         16.6222         16.6222        -8.21303        -8.21303
            3791         157.371         157.371         8.21826         8.21826         4.05201         4.05201
            3792         143.355         143.355         3.19628         3.19628         6.40987         6.40987
            3793         133.766         133.766     688.323E-03     688.323E-03         5.27839         5.27839
            3794         235.204         235.204         29.4613         29.4613        -32.2101        -32.2101
            3795         189.219         189.219         28.9943         28.9943        -5.25569        -5.25569
            3796         160.715         160.715         22.3894         22.3894         5.86193         5.86193
            3797         143.501         143.501         14.8877         14.8877         8.07362         8.07362
            3798         133.139         133.139         8.85605         8.85605         6.67692         6.67692
            3799         255.608         255.608         29.5111         29.5111        -18.0204        -18.0204
            3800         197.692         197.692         37.4312         37.4312        -2.67175        -2.67175
            3801         162.465         162.465         33.5530         33.5530         4.09098         4.09098
            3802         142.476         142.476         25.0257         25.0257         5.56775         5.56775
            3803         131.554         131.554         16.4538         16.4538         4.67986         4.67986
            3804         130.286         130.286        -7.48978        -7.48978     675.039E-03     675.039E-03
            3805         137.420         137.420        -10.4524        -10.4524         2.17366         2.17366
            3806         146.087         146.087        -12.0169        -12.0169         6.09340         6.09340
            3807         152.792         152.792        -7.03856        -7.03856         16.3123         16.3123
            3808         149.208         149.208         14.8351         14.8351         42.0522         42.0522
            3809         133.018         133.018        -2.94068        -2.94068        -3.53821        -3.53821
            3810         141.958         141.958        -2.60915        -2.60915        -3.91995        -3.91995
            3811         154.181         154.181     154.486E-03     154.486E-03        -1.27777        -1.27777
            3812         169.237         169.237         8.21178         8.21178         10.4135         10.4135
            3813         186.836         186.836         24.2189         24.2189         42.2975         42.2975
            3814         133.413         133.413         5.51042         5.51042        -6.49481        -6.49481
            3815         143.485         143.485         10.0934         10.0934        -7.79715        -7.79715
            3816         159.380         159.380         16.6517         16.6517        -5.52790        -5.52790
            3817         184.390         184.390         24.1238         24.1238         6.22737         6.22737
            3818         223.571         223.571         28.7719         28.7719         35.7829         35.7829
            3819         131.873         131.873         14.8863         14.8863        -5.39706        -5.39706
            3820         142.648         142.648         22.9876         22.9876        -6.37987        -6.37987
            3821         161.997         161.997         31.4195         31.4195        -4.72163        -4.72163
            3822         195.808         195.808         35.9647         35.9647         3.02764         3.02764
            3823         251.251         251.251         29.6662         29.6662         20.8895         20.8895
            3824         85.6216         85.6216        -6.09275        -6.09275         34.1360         34.1360
            3825         115.842         115.842        -21.2813        -21.2813         30.9055         30.9055
            3826         124.758         124.758        -20.6427        -20.6427         22.1788         22.1788
            3827         125.356         125.356        -15.4483        -15.4483         14.2771         14.2771
            3828         123.615         123.615        -10.3152        -10.3152         8.58881         8.58881
            3829         56.8064         56.8064        -17.7733        -17.7733         27.7043         27.7043
            3830         90.6622         90.6622        -22.2772        -22.2772         35.2042         35.2042
            3831         107.798         107.798        -19.9577        -19.9577         29.1802         29.1802
            3832         115.134         115.134        -14.9579        -14.9579         20.3247         20.3247
            3833         117.848         117.848        -10.1766        -10.1766         12.8578         12.8578
            3834         32.7525         32.7525        -31.6498        -31.6498         19.5105         19.5105
            3835         63.3258         63.3258        -22.2750        -22.2750         33.8005         33.8005
            3836         85.7602         85.7602        -16.2589        -16.2589         31.8204         31.8204
            3837         100.041         100.041        -11.5501        -11.5501         23.9162         23.9162
            3838         108.418         108.418        -7.85256        -7.85256         15.9131         15.9131
            3839         15.3422         15.3422        -45.4741        -45.4741         11.5596         11.5596
            3840         38.7890         38.7890        -22.1835        -22.1835         26.4834         26.4834
            3841         62.7838         62.7838        -10.9240        -10.9240         27.5841         27.5841
            3842         82.4675         82.4675        -5.85082        -5.85082         22.1624         22.1624
            3843         96.5119         96.5119        -3.50261        -3.50261         15.4261         15.4261
            3844         5.12664         5.12664        -55.9273        -55.9273         5.11328         5.11328
            3845         21.8407         21.8407        -22.3169        -22.3169         14.5142         14.5142
            3846         45.1017         45.1017        -6.26757        -6.26757         16.1395         16.1395
            3847         67.7565         67.7565    -302.373E-03    -302.373E-03         13.5608         13.5608
            3848         85.9286         85.9286         1.05291         1.05291         9.74359         9.74359
            3849         122.552         122.552        -10.3056        -10.3056        -9.42324        -9.42324
            3850         123.449         123.449        -15.3691        -15.3691        -15.4520        -15.4520
            3851         121.552         121.552        -20.5142        -20.5142        -23.5303        -23.5303
            3852         111.043         111.043        -21.4658        -21.4658        -31.7390        -31.7390
            3853         80.0445         80.0445        -8.36051        -8.36051        -32.8530        -32.8530
            3854         114.332         114.332        -9.37634        -9.37634        -14.1674        -14.1674
            3855         109.442         109.442        -13.7613        -13.7613        -21.9154        -21.9154
            3856         99.3592         99.3592        -18.6338        -18.6338        -30.4994        -30.4994
            3857         79.9153         79.9153        -22.2516        -22.2516        -35.0059        -35.0059
            3858         46.9137         46.9137        -23.1088        -23.1088        -24.5351        -24.5351
            3859         101.439         101.439        -5.35079        -5.35079        -15.8451        -15.8451
            3860         89.6511         89.6511        -8.23909        -8.23909        -23.2067        -23.2067
            3861         72.0021         72.0021        -13.0820        -13.0820        -29.7457        -29.7457
            3862         48.3346         48.3346        -22.0639        -22.0639        -29.7991        -29.7991
            3863         21.8251         21.8251        -39.7322        -39.7322        -14.7105        -14.7105
            3864         88.1382         88.1382     91.4258E-03     91.4258E-03        -10.9811        -10.9811
            3865         70.7231         70.7231        -1.41097        -1.41097        -15.4414        -15.4414
            3866         48.4870         48.4870        -7.07428        -7.07428        -18.6114        -18.6114
            3867         24.8764         24.8764        -22.0476        -22.0476        -17.0112        -17.0112
            3868         6.82355         6.82355        -53.4704        -53.4704        -6.35805        -6.35805


  Minimum               -1.92705        -1.92705        -83.7357        -83.7357        -65.5206        -65.5206
         At Node              28              28              28              28             590             590

  Maximum                300.281         300.281         40.3507         40.3507         65.1466         65.1466
         At Node              27              27             585             585             574             574

           Total     455.572E+03     455.572E+03     7.29906E+03     7.29906E+03         220.274         220.274


